Li1 Co1 H90 C51 N3 Cl6 O45
1.0
  13.5519193096000006    0.0000000000000000    0.0000000000000000
   0.0000000000000000   12.7694498552999995    0.0000000000000000
   0.0000000000000000    0.0000000000000000   14.5699112582999994
Li Co H C N Cl O
1 1 90 51 3 6 45
direct
  -0.0367916037433016    0.3125763813500035    0.4215351432289101 Li
   0.1939491443797255    0.2895667761336873    0.4913343329405609 Co
   1.0738414849098992    0.0691986293546740    0.0944034321634218 H
   1.0696900434266146    0.2219170332090571    0.1750456529134398 H
   0.3131034843008699    0.1289537486939224    0.2722988190363836 H
   0.3679495900826154    0.1405047553286193    0.1491621733702705 H
   0.4060298050108750    0.2218786603734572    0.2436898596123826 H
   0.5353767971198281    0.1668817726486100    0.1512239566898420 H
   0.4856912149806976    0.0510709885695916    0.0957644562388913 H
   0.5947713361228616    0.0411308579110013    0.1805288709360951 H
   0.5161648320798972    0.1658590191120056    0.3545491484141499 H
   0.5610646714383681    0.0257143754289237    0.3522258672767499 H
   0.6372501899920847    0.3125920437318810    0.2804128011948305 H
   0.9326386075695322    0.2685854493705144    0.1894589184630408 H
   1.0870779863900202    0.6220595654168362    0.1467983978201359 H
   0.2800601942863858    0.4182124522289795    0.1123568702703963 H
   0.2654423386546992    0.5529438235484669    0.1340831522214735 H
   1.0390242764229984    0.4262284193348383    0.0411608292231955 H
   0.6027510176373019    0.5818816403054379    0.2508113854858426 H
   0.5330590442405183    0.4521071379753946    0.1929592829536582 H
   0.9002144180535330    0.5994078456264220    0.2418408435461624 H
   0.7429097624325484    0.3832306389902050    0.2464194575690856 H
   0.9299555927751448    0.5262363299708599    0.1473502199868920 H
   0.8148368435884625    0.5956300791175557    0.1447235739269719 H
   0.2624280054767365    0.9354144902838005    1.0616289526326717 H
   1.0843211813097586    0.7643264618443268    0.1280556618378261 H
   0.3369643111411638   -0.0362366098495579    0.2859804397728478 H
   0.3548267256427408   -0.0342059820391329    0.1759262348039225 H
   0.4419478833937050   -0.1985638849858212    0.2180678778870418 H
   0.5403687099592204   -0.1092342730662792    0.2135434851964242 H
   0.3559033259136459    0.7954139405139922    0.9862427693864081 H
   0.5306210131952334   -0.2116819129273675    0.3424955403388121 H
   1.0504551296077766    0.7068799775938299    0.2378998449373143 H
   0.8300501868271544    0.8036225948560188    0.1079505290880897 H
   0.9439322108225844    0.7761225847554074    0.2990333675929579 H
   0.8668316927240274    0.9600608144063214    0.2416925928147950 H
   0.9445173677895672    0.8586335787245558    0.1307104480828669 H
   0.8146176864394161    0.7570598997722351    0.2723413724870539 H
   0.4359677784249136    0.0661922351532773    0.3899810732109406 H
   0.5914168297270187    1.0587549644504535    0.5233494901869220 H
   0.7844057296939265    1.1980123342001718    0.6605503258379444 H
   0.7298252689413283    0.2289416114811406    0.4924380459086711 H
   0.3515327272813147    0.5623052291966817    0.6944462083347348 H
   0.3801069824221115    0.5083146495074674    0.5832883590322971 H
   0.4372146128853306    0.3705315014519739    0.4117931484093369 H
   0.5348890433301994    0.5043215252477847    0.6164313199906156 H
   0.4669086356142689    0.6861179241769428    0.5475229387245278 H
   0.7912497787087621    0.5598548495519382    0.3303698659357263 H
   0.7534138096267462    0.5215008088101811    0.4407795981215417 H
   0.3006484219481572    0.5891090464228357    0.4558687771908211 H
   0.2298872273090560    0.5988158075914505    0.6348782408561693 H
   0.1648410903109145    0.6949131347202840    0.5652449409675344 H
   0.2469394244717338    0.7200966785412050    0.4350492955466074 H
   0.6098149617040427    0.9484659531023673    0.5936659102280100 H
   0.3770062408193901    0.7000699739534690    0.4263937864110827 H
   0.2562997222348810    0.8587377335640415    0.5209250416522834 H
   0.3398140919816269    0.8520820043851745    0.6220977923895444 H
   0.3932190734802484    0.8552254444279997    0.5213020514983022 H
   0.7908808272793909    0.8234911093867914    0.6175418277839134 H
   0.7031198265805826    0.6770940428581894    0.5345502447493105 H
   0.8076946818186950    0.9827469914368662    0.3872583387140231 H
   1.1949645496581682    0.3014294641677475   -0.0603010104402319 H
   0.2109039383650493    1.0256814957587141    0.8823697963003261 H
   0.4442843568685412    1.0684170878307173    0.7667630523649117 H
   0.4730177333817971    0.2107043340229154   -0.0719551651560521 H
   0.6290469239114455    1.2789649211725034    0.6719628867693143 H
   0.7107371977913802    0.9620836110258075    0.8854137407152062 H
   0.9140973224379122    0.1701254519354516   -0.0387765142068491 H
   0.7527814268768039    0.2440636411839201   -0.0849703439473419 H
   0.9194758963752856    0.3066473866902550   -0.0626167417718678 H
   0.1428774117204474    0.5531536994656262   -0.1431855235021806 H
   0.6986865062052584    0.6598622903165033    0.7944962343202797 H
   0.4148429478042647    0.4853838260719952   -0.1164708789789843 H
   0.5706788077849226    0.4710388071341612    0.7476572393599477 H
   0.4744639491946462    0.4684375204400275   -0.0083089298729281 H
   0.4296571593866628    0.7302983709771506    0.6614810109848615 H
   1.0008997873232142    0.6191283506484517    0.0047659610184957 H
   0.9077425030184229    0.4072487449756171    0.7644356531516404 H
   0.7586573473409696    0.4576453562072981    0.8897589971054216 H
   0.8806511374625547    0.4923581280982518    0.6601028282599282 H
   0.3295830688451637    0.6550155662444939   -0.0707719046890277 H
   0.2512900997268789    0.9236818000193239    0.8193227410564783 H
   0.0832991349055870    0.8552998407419182    0.8153385026509814 H
   0.2296149411541800    0.7333157288458615    0.6758990809563123 H
   0.4656820934824673    0.8602718638689481    0.9841391189621449 H
   0.5635764927695271    0.8039757815673576    0.8435054552647946 H
   0.9622668831537565    0.7578712111534924   -0.0052979300650186 H
   0.8686616918137086    0.6650551530280068   -0.0019217941965192 H
   0.8173604713653615    0.6934996047558346    0.8145299870882466 H
   0.8142236463128476    1.0118273358689227    0.6940206738280322 H
   1.0435837781871675    0.6786892564524184    0.7052630209567210 H
   0.7039809592167350    0.9505709772267107    0.7323414288485502 H
   1.0925141167503754    0.2478594194319456    0.0120151472439665 C
   0.3780458721570722    0.1466530233346536    0.2241784161340941 C
   0.5265286039406482    0.0786532261750601    0.1618945776183966 C
   0.4937552387918920    0.0826048451227673    0.3408901770949779 C
   0.9081608939393297    0.2514500204773751   -0.0075793440977268 C
   0.8107481238481710    0.2751542523299610    0.0301641939548285 C
   0.9916391064459973    0.2800573609767296    0.0579179662895531 C
   0.9893051197037952    0.2234817051586249    0.1496975232335414 C
   0.9517916141710496    0.1096913683418112    0.1586124711489589 C
   0.3155422532490136    0.4969218329297338    0.1000239193817877 C
   0.4140193006333365    0.5144261109160895    0.1516398823528447 C
   0.8896055886533937    0.5943160052780289    0.1673922089066016 C
   0.6936370369428841    0.3600752953105181    0.3056710195515385 C
   0.3974064508327538   -0.0399947983810773    0.2389293639051429 C
   0.4695165318976362   -0.1288412258196966    0.2480756104153326 C
   1.0525242092236904    0.6955897496173944    0.1633269816756355 C
   0.8970156091608847    0.7930528364459508    0.1523948629292524 C
   0.8783319087775274    0.8026953818488676    0.2598670343268634 C
   0.6483689102676149    1.0144178938314705    0.5645907846153762 C
   0.6802381968338398    1.0880256068223224    0.6387327598717197 C
   0.7519630926064587    0.3143149057384121    0.3813550769524937 C
   0.4077801105918120    0.5611892844879058    0.6348706910504052 C
   0.5694863567651949    0.4448431601963127    0.4125131253408383 C
   0.6677395982124614    0.6559733208963064    0.3907545851287691 C
   0.4150961960653851    0.6741737917571194    0.6011086460194326 C
   0.6501782480772512    0.4653768560854251    0.3369093704193739 C
   0.7237574937338898    0.5475371693243349    0.3753021917676397 C
   0.2283258248599571    0.6843731348357832    0.6170737398265406 C
   0.3080658214842357    0.6748237806050380    0.4588815614982749 C
   0.3248789381206810    0.8272375511319027    0.5513985285616199 C
   0.7676619759262030    0.6861061773905347    0.6770150795174387 C
   0.7358635280344172    0.9733526947867085    0.5049636541134594 C
   0.3930665489593464    1.0384251927733870    0.9000782088929574 C
   0.5844141315975534    1.1385454026874704    0.6776307318602002 C
   0.7354200484163131    1.0246258512201669    0.7166735228501552 C
   0.7435332903481856    1.0874241713582244    0.8008154217448120 C
   0.2174565157506817    0.5147902612947426   -0.0407964304217289 C
   0.3220631008117201    0.5200551709628828   -0.0046108977404876 C
   0.3937302187904993    0.3365100670970956   -0.0595364210201244 C
   0.4027895259775655    0.4526114666718519   -0.0484086936698539 C
   0.7050368982075953    0.4517945168331187    0.7402639204789809 C
   0.9788741248926127    0.5574882636502396    0.7589510624370279 C
   0.7979705979461879    0.5196565633440990    0.7764034679796591 C
   0.8948432231447471    0.4835124063733555    0.7325596868697298 C
   0.7742514484547725    0.6384212726452242    0.7689442598847513 C
   0.2395552305642987    0.9426231015429453    0.8885798547142686 C
   0.1595909114709624    0.8737931981438415    0.9326817019121335 C
   0.3322048377022754    0.9570262279175450    0.9468664142508767 C
   0.4022617778529929    0.8522621217767663    0.9448259076566403 C
   0.4111158004647569    0.7889485092749374    0.8611527830653348 C
   0.9459946493127694    0.6770525375462140    0.0243117217957119 C
   0.4507064656497193    0.0660622373836936    0.2428799713576907 N
   0.9447033193099703    0.6901321926521603    0.1295738591423841 N
   0.3199600776643042    0.7108574394716352    0.5594658391935251 N
   0.1119851085391973    0.2392678198530127    0.3718107497747435 Cl
   0.0709960805417752    0.3925779484947299    0.5597670078089140 Cl
   0.2788079731351000    0.1432707319681956    0.5096064414853774 Cl
   0.3146766931957087    0.3982123337513617    0.4721991443277149 Cl
   1.0717207520938736    0.8521407383172153    0.6908751502083265 Cl
   0.6778304198057634   -0.1717545859260100    0.9033047213381323 Cl
   1.1329932538724063    0.1632668949112702    0.0307070936238634 O
   0.3192671868799452    0.9826224755009396    1.0434057805561259 O
   0.7996906495099162    0.3018821070040089    0.1104103930752216 O
   1.0165536585685753    0.0393085397795477    0.1313878715636981 O
   0.8726035688851103    0.0823221391298774    0.1922269517945428 O
   0.1432574316926997    0.5165546286132492    0.0095408699912850 O
   0.4801971592459311    0.4392650812025308    0.1435327636541834 O
   0.6144740803541420    0.5034475643390172    0.2511936801958963 O
   0.4206504646734250    0.5818330869216175    0.2106409280531259 O
   0.6247073171991815    0.6898549684929276    0.3197836655625336 O
   0.9917689773491359    0.3862440029515372    0.0799263364378154 O
   0.1617219749270105    0.8647661843487126    1.0176739834742168 O
   0.4950720264433178   -0.1423625600945900    0.3406980002209833 O
   0.8662539147856321    0.9087524176136383    0.2931740319740558 O
   0.7525563665048876    1.1617578357491012    0.6063990008221147 O
   0.6921560659053881    0.2637630019904151    0.4388612611114877 O
   0.7518310079947438    1.0134687534896905    0.4199840013173816 O
   0.8434593575762210    0.3252096585724395    0.3967807028204595 O
   0.5034520202586257    0.3746765508158689    0.3802576097327883 O
   0.5044844939385781    0.5336281910979720    0.6697260852252119 O
   0.5713930977521853    0.4758051048752295    0.4923221907074914 O
   0.7327798319877328    0.6335173808793616    0.6100462433521423 O
   0.6757266587554889    0.7111119531771454    0.4655099477861450 O
   0.7959339860560587    0.7875201000477043    0.6801962931280292 O
   0.7919810404417759    0.8998131131570238    0.5325949136910125 O
   0.3164365915138093    0.2845775243865921   -0.0499008098272269 O
   1.1226766340043293    0.3144754451526571   -0.0535741335044395 O
   0.4473452443378619    1.1006338242337543    0.9478629886117348 O
   0.4826042721614346    0.2903820031104140   -0.0727520128371515 O
   0.3868294250458263    1.0405654572569547    0.8099733361366370 O
   0.5213994411695299    1.0738809097487023    0.7003899645089988 O
   0.5690915787357678    1.2391119904850643    0.6934757151210617 O
   0.7473349658764263    1.0353733776645453    0.8768543200166788 O
   0.7707766638929546    1.1798416218649261    0.7996438291594230 O
   0.7320345501004030    0.2587079682394342   -0.0231628295407598 O
   0.2155468231522564    0.5448933592634037   -0.1294414452816681 O
   1.0274089475235346    0.5422949701099172    0.8298835466284646 O
   0.3472012375004969    0.6296385920073851   -0.0085120882825796 O
   0.6275504569139159    0.4696428190374148    0.7916890792680004 O
   0.9933931015412278    0.6277011553691315    0.6954544505772283 O
   0.8075928512241886    0.5123782544855990    0.8783217277188238 O
   0.6998582959449412    0.4060382777922102    0.6629703817583202 O
   0.0864064438437512    0.8344156207463861    0.8820726084916130 O
   0.3449403031413102    0.7233615020435814    0.8376701417551420 O
   0.4936253678887534    0.7958086325373066    0.8132787783693457 O
