Li1 Co1 H90 C51 N3 Cl6 O45
1.0
  14.0803094745999999    0.0000000000000000    0.0000000000000000
   0.0000000000000000   13.7413991558999999    0.0000000000000000
   0.0000000000000000    0.0000000000000000   14.2022117460999997
Li Co H C N Cl O
1 1 90 51 3 6 45
direct
   0.8120225806489106    0.5600676459933559    0.4965108251492161 Li
   0.5892654029279215    0.7762457779505044    0.5987071608994253 Co
   0.0780280602412832    0.1313791308598196    1.0854250132718348 H
  -0.0006996127548027    0.2073692093193088    1.0272390057137566 H
   0.1029309219740124    0.2654418983480218    1.0773044471190543 H
   0.2011844442062928    0.2582344809026537    0.3053669351318418 H
   0.3311006227746596    1.0140468899716899    0.2661751521933253 H
   0.3835703501860301    0.2265652167278225    0.0875550861534975 H
   0.5084770507931886    0.1983548434170698    0.0974795966818457 H
   0.6444211508467408    1.0694684661416110    0.0122386481843387 H
   0.7229627483872605    0.9931705587665935    0.2537010387828807 H
   0.8269419970423467    0.2901904698829650    0.2836555280980272 H
   0.7904229133583137    1.2436312259048656    0.0725222163570992 H
   0.6861333022067295    1.1076421625788311    0.1289063918866535 H
   0.3447345560590311    0.3368451076477619    0.3244505824429323 H
   1.0188518414157612    0.6421939263812925    0.2906459885822728 H
   0.3958705059682893    0.7096259243523398    0.0524337959687506 H
   0.3912306931773950    0.4133992480278796    0.2323177496565660 H
   0.3561327430299577    0.4043341594887321    0.0820017257748468 H
   0.7842462025298417    0.5454374036345433    0.1830402136986767 H
   0.7075852454715335    0.4498957498986277    0.2284824315403607 H
   0.8439735829199585    0.6208620374903319    0.3114202176442369 H
   0.8081675517450420    0.4885249312489189    0.0317496937139966 H
   0.9771411104790974    0.3895748181946602    0.2471844481521703 H
   0.9635696758210229    0.5121245659237302    0.2056718999279898 H
   0.1122432172922746    0.8538033823770094    0.0675448226057765 H
   0.1191592584613744    0.7682298547719171    0.1753674651192222 H
   0.2867138142938215    0.9535828869561556    0.1226263841248701 H
  -0.0000724958568447    0.6893099436554153    0.0970683931239489 H
   0.3728312396378725    0.8756941663202763    0.1789359233922033 H
   0.6713232584093134    0.8054902526536105    0.0341591775755083 H
   0.8067378956684966    0.9426895275317094   -0.0001235108327745 H
   0.9123257737390698    0.8675006775261125    0.2267587563524645 H
   0.7614718451495249    0.8831904917549227    0.2242309810564894 H
   0.1099165638860339    0.0145380448987413    0.4208341615974888 H
   0.1068527107741530    0.2201219136117795    0.5988381264161526 H
   0.2159959084270339    0.1632339656574869    0.5648136372282136 H
   0.5277287583276710    0.2945204510824744    0.3322381018784436 H
   0.6688190520874562    0.2790424056820772    0.5561762501653369 H
   0.5506120621770101    0.2529198838102140    0.6605102107124963 H
   0.4610729080643612    0.1876987232986808    0.3927568446887684 H
   0.6007331906417698    0.0392749727867615    0.5999168316399505 H
   0.5856418320048505    0.1398440621728771    0.5305024321348371 H
   0.7804444395006579    0.2128970306960269    0.5599917122193286 H
   0.7918696145147581    0.0800452024878219    0.6743425632722267 H
   0.0011327333343611    0.2244002261280678    0.4535782868304971 H
   0.6893008462213307    0.0368050641832095    0.7378819623554578 H
   0.6961870585006069    0.0808355150227239    0.5268815876551649 H
   0.1228637224928002    0.5023548184273584    0.4827699372164904 H
   0.0181486945553986    0.5725867496194329    0.5749636055977237 H
   0.4038014396030539    0.6442344755045571    0.6148483087782372 H
   0.5119738986493256    0.5786356241959575    0.5981966770304609 H
   0.8040951980724584    0.3834167844282320    0.6164445390278126 H
   0.0558282640959020    0.6940256206592507    0.5771993841206513 H
   0.1787268412274362   -0.1550764152851967    0.4062153118217126 H
   0.1052710694018399   -0.0212130452505517    0.6672584554023642 H
   0.2050849266565594    0.0055513326579446    0.4886112809088052 H
   0.5111183279659021    0.6981678480521258    0.6478530272249058 H
  -0.0209030039169903   -0.0551950287954738    0.5955653967293303 H
   0.1220959836856738    0.2315341430522342    0.8132441678439031 H
   0.1504419515580411    0.3185260123981404    0.9013466424703358 H
   0.2603969211411213    0.1607145715545119    0.8970677314748926 H
   0.2452431348990713    0.2415986203613457    0.9992849090492690 H
   0.2306134848639217    0.1039430600694498    1.0148493861850716 H
  -0.0022954583603652    0.0898935446009243    0.9245190895429104 H
   0.6101790057525758    0.2323768519982899    0.7714668721235424 H
   0.5345521168748190    0.1403774867475393    0.7223449457312271 H
   0.8155750593845686    0.3068954645778786    0.7232793072403522 H
  -0.1254610750769869    0.2623272227961058    0.8904624222683346 H
  -0.0072307192028457    0.3403935090475614    0.9574829692800618 H
   0.7469231592438964    0.1524424881436174    0.7761288220496292 H
   0.0147141109557101    0.3766874842346417    0.8403948685159930 H
   0.3208309621353924    0.6630666189467255    0.7578872970934095 H
   0.1204411905121266    0.6064035389236343    0.8810434667991814 H
   0.4643586312995967    0.5279816848042660    0.9910481638090692 H
   0.3543252543489802    0.4937973201212626    0.6937001115833547 H
   0.6307275597827221    0.5763010729878859    0.9252724933219337 H
   0.4807280158231246    0.4472145818762156    0.7017411126641449 H
   0.4062381758169769    0.4573662409916635    0.7999286361942690 H
   0.6055143355534950    0.5476300478957401    0.7551933504966403 H
   0.5624063341920943    0.4784831590513073    0.8891415012501592 H
   0.3699115594934723    0.6142768274274143    0.8622266793313150 H
   0.5792459498573413    0.6701168471586324    0.7919693125325132 H
  -0.0795032783987727    0.6819715351821629    0.8052355560844542 H
   0.7101831997328363    0.4448453180457547    0.7325996865141191 H
  -0.1841550974982147    0.5703970162699668    0.8316434147127407 H
   0.2709144456505894    0.7516638561121473   -0.0181706998609471 H
   0.0938011510530041    0.0627849513802653    0.8462580397944290 H
   0.1072056859703989    0.0306237431229352    0.9634989336613465 H
   0.1577365355432356    0.7084382723661887    0.7219231804381103 H
   0.4255232632995952    0.7239497932514897    0.8236869075137103 H
  -0.0870201586343192    0.7123963845920932    0.6799966121933076 H
   0.0694387603954121    0.1981816441690895    1.0446341836210176 C
   0.4537265496489729    0.2534285656351647    0.1147677490055445 C
   0.4117501285293802    0.1638299748343605    0.2593311477707964 C
   0.4421003137132283    0.2689611906305137    0.2229621645987325 C
   0.7174578977914818    0.9563831840411491    0.1001946667490547 C
   0.8585776653352593    1.0059967635802660    0.1963782770501133 C
   0.7816049253571283    1.1111410784792077    0.0097636815644633 C
   0.7010946210882512    1.0690827703372849    0.0639841096052900 C
   0.2991339958470375    0.6978767568790495    0.1492778667788969 C
   0.2680530028625114    0.3248783495225971    0.1928499533709681 C
   0.3604288133762182    0.3401977502336677    0.2500002067618095 C
   0.4822155541501609    0.3424813604864509    0.0633123832453011 C
   0.7804288148440836    0.4707565597948981    0.2118638932296069 C
   0.9586976238165019    0.4669617849755078    0.2683677684249873 C
   0.8515700068617013    0.4746138660195878    0.2963014457347163 C
   0.8068863299059522    0.3912471369839833    0.1416410280991903 C
   0.2553934799790441    0.8985586502374835    0.2615068652261066 C
   0.1463759897904197    0.7864747217724041    0.1005467245897198 C
   0.2569587864831205    0.7935409599988301    0.1111098680410344 C
   0.1199248666335134    0.7089280332648896    0.0302464067343568 C
   0.2951859292153857    0.8863430091593385    0.1659576631539263 C
   0.6179146311801620    0.9084746710483262    0.1059332095518953 C
   0.7598135009176654    0.9592671698384021    0.2008233593463505 C
   0.0943728714412898    0.0731412475903858    0.5651629490177216 C
   0.1300617176918993    0.2049356871123913    0.4400691937800653 C
   0.1431928211192444    0.1757465197321697    0.5461584443092125 C
   0.6353744746902410    0.1021848693840692    0.5717295318618063 C
   0.7248717973359707    0.2522307254579559    0.6054828661008651 C
   0.7307757868860556    0.1017584208155125    0.7168345364091374 C
  -0.0203149486604680    0.0811360666589251    0.5638092162087963 C
   0.7670413250065881    0.3333898554233468    0.6636005744378541 C
   0.1636568599615573    0.5873174184329568    0.5903992999754111 C
   0.0652769200533578    0.6235997499731141    0.6083324222632082 C
   1.0205996723170916    0.5153107043586364    0.3472695634434793 C
   0.4744322024988568    0.6286378104511313    0.6443958192295748 C
   0.8308211731427393    0.3883908048481726    0.3736393998249740 C
   0.1017200110895068   -0.1074997462296808    0.5155286235617886 C
   0.1274247017891608   -0.0046827052594839    0.4936401455164331 C
   0.0754876331246402    0.0848860486960800    0.9170998226087348 C
   0.1019643239013953    0.2606883794916866    0.8825291508867880 C
   0.2211818739863651    0.1705454481972297    0.9654507423299937 C
   0.5843607522080934    0.2014767962483127    0.7067896220992819 C
   0.0053421578578007    0.3097772671913336    0.8888936525303310 C
   0.0708840411285316    0.5441857115903154    0.7672682303157707 C
   0.0440387504989563    0.6350607371850588    0.7167563795685098 C
   0.3897506120728146    0.6572637164114503    0.8007848408627664 C
   0.5614422928814622    0.5570497582564878    0.8953546180222164 C
   0.4221007532981685    0.4903152875089244    0.7321124384626386 C
   0.5550973329101517    0.5943006956750563    0.7941281312114713 C
  -0.0635881452545584    0.6585263243746685    0.7315209812903213 C
  -0.1350894145850467    0.5725692841490484    0.7037513629343423 C
   0.6692998653829461    0.1651413405690691    0.6511447680351241 N
   0.1158056389912071    0.1791122614208639    0.9482822896721210 N
   0.4613006729445143    0.5913628580107841    0.7450026842407493 N
  -0.0841991979110019    0.7234382005148081    0.2147514716387418 Cl
   0.4997596287634085    1.2840346807278498    0.4623001677751334 Cl
   0.5016825978607031    0.8691256939998108    0.5059177402402185 Cl
   0.7015683322671163    0.6900056515590675    0.5152076665107679 Cl
   0.7907446392414111    0.5991480914347086    0.9643340148594041 Cl
   0.6482797308089219   -0.1564867520187512    0.7334819434628258 Cl
   0.1948046128423553    0.2856327098405236    0.2373444315055818 O
   0.5550806429360837    0.9466520061252098    0.1498235564319277 O
   0.3668860578113646    0.1095189114897254    0.2078652202753331 O
   0.5303187582183542    0.2996531161917414    0.2586150621228837 O
   0.7998026787845102    0.3061000579474478    0.1668061225499292 O
   0.7947502330177227    1.2080307754376396    0.0092454524230043 O
   0.8804415313642938    1.0933677791791043    0.1845223772078766 O
   1.0583062299007688    0.6025516749759027    0.3373401241053617 O
   0.0379493957049676    0.6622144495375448    0.0433499995639105 O
   0.2801912303857282    0.6546082371850622    0.2239437018585067 O
   0.2601526083292328    0.3561393583271888    0.1121737868355242 O
   0.3686111619394960    0.6623512623888906    0.0953538714399101 O
   0.4179332312628145    0.4086933225783423    0.0462587014434853 O
   0.5635999869332019    0.3518173821349391    0.0297711286494589 O
   0.8195756816792431    0.4148899259252032    0.0534977147632404 O
   0.2034784278760600    0.8393805424790135    0.3039636325789509 O
   0.2797572910599611    0.9823550662309454    0.3010394401543868 O
   0.2981468016362090    0.8092824429108614    0.0163373055653614 O
   0.6108260085770828    0.8193563806830979    0.0706619427270250 O
   0.9295299410506609    0.9411489274982032    0.2114210044660503 O
   0.7746036587885324    0.8991910458109919    0.0442033877696826 O
   0.0508688560568977    0.2357280391283303    0.4004133986075523 O
   0.1278515389983032    0.0484508942900578    0.6566495444317630 O
   0.2032447682391084    0.2028754893349441    0.3921660916321324 O
   0.4358277243103231    0.1369047690527396    0.3459401930371279 O
  -0.0595718983033098    0.1573910380859138    0.5380571005145324 O
   1.0393109087764369    0.4686535268233544    0.4170643262396472 O
   0.1804363206989933    0.5233849185446323    0.5209701844525578 O
   0.2285346953278819    0.6210941827008601    0.6418272052240825 O
  -0.1419209405663130    0.5435540437447399    0.6207994945168395 O
   0.8015050561394427    0.4147535497106170    0.4557490050644697 O
   0.8377656227783379    0.5663035466485820    0.3526792842231387 O
   0.8305264353028158    0.2951797725894921    0.3509844777781770 O
   0.1422560519364509   -0.1807390131035994    0.4716941271375993 O
   0.0482041418993230   -0.1284954248157384    0.5838094813138422 O
  -0.0643324470768234    0.0079404634609680    0.6013250630026107 O
  -0.0677087933201897    0.2461782122417679    0.8528633490009869 O
   0.8373558306490946    1.0601710140735554   -0.0352110034648176 O
   0.1009735786322544    0.5411948953325434    0.8545328072814207 O
   0.0654786201654983    0.4700095241121749    0.7195411570881705 O
   0.1714400695705288    0.6849872397352329   -0.0383119289253955 O
   0.4813672063193445    0.5859129035228640    0.9534779592846561 O
   0.6892667560615322    0.3846219018847677    0.7068579213203707 O
  -0.1957592458512567    0.5420693332164644    0.7656431313232608 O
   0.0963437088046346    0.7157206457886239    0.7521579077944263 O
