Li1 Co1 H90 C51 N3 Cl6 O45
1.0
  14.2428407957999994    0.0000000000000000    0.0000000000000000
   0.0000000000000000   13.9000183797000005    0.0000000000000000
   0.0000000000000000    0.0000000000000000   14.3661502053000003
Li Co H C N Cl O
1 1 90 51 3 6 45
direct
   0.9805694729606464    0.7882473526726713    0.2812218336064400 Li
   0.6823157705635330    0.7082158038205748    0.6319588040538945 Co
   0.1329113285573077    0.0154771514701150    0.9556015290397918 H
   0.1976224359279516    0.2757825626690095    1.0086094670828631 H
   0.1807894176110791    0.0933022284196426    1.0436320718036729 H
   0.0046560158574233    0.2435415981063661    0.2882097878297616 H
   0.3514063636852493    0.2863163616900120    0.2099584829265686 H
   0.0599939931121027    0.1132611948340444    0.9951389132299174 H
   0.3626414818961604    0.2105236561538386    0.3079443719701535 H
   0.4275990288676060    0.2973292967681096    1.0360489685753764 H
   0.4948681231260021    0.1087950136892293    0.2693446084931280 H
   0.6255862169875173    1.0233736604747576    0.1076025992008427 H
   0.8312158411607822    1.1904863891451303    0.1362073397978326 H
  -0.1595675427383970    0.1172273766399990    0.3079346268402474 H
   0.3599664537507054    0.5499138548667857    0.9883319399905647 H
   0.4394990425256945    0.6300684251389471    1.0432854236113016 H
   0.4570451208385051    0.5022151409594513    1.0594372803498171 H
   0.5955065435472064    0.3528572808984916    0.2141015552980409 H
   0.4348721565733195    0.4603677142791022    0.2794795435953856 H
   0.9939670811159149    0.4547532612713298    0.0463377518045447 H
   0.9845707814648323    0.4669154394341221    0.2305067854141128 H
   0.7846689472156152    0.3527946910531954    0.1459719599636616 H
   0.8705141811496033    0.4392632098110779    0.2696167760497890 H
   0.8348625855669484    0.6088454316189654    0.0618673123904902 H
   0.1376322968644047    0.7353193651043644   -0.0028960366420679 H
   0.1823649459991109    0.7000640160383744    0.1399557344081113 H
   0.2299699153813384    0.8091804185184648    0.1047034230538027 H
   0.3499747672577997    0.8033689154115355    0.2621304280398452 H
   0.5558446524891684    0.8873270777765833    0.2656017825285100 H
   0.6458005832173849    0.8160149418554081    0.0539027569344441 H
   0.6424044910547690    0.7430884195796960    0.1524830989022960 H
   0.7028439786781824    0.9487528958349928    0.2976416814173709 H
   0.7323402010977915    0.9825845057763711    0.0493942421914961 H
   0.9066755065048566    0.8368559214920300    0.1082061011743082 H
   0.1469934911592477    1.0208110739351586    0.3548609077412567 H
   0.1376933801842616    0.1819913197808734    0.5536167998345047 H
   0.1737002419720609    0.3559802983517202    0.4321425722188011 H
   0.3752000720373032    0.2412157019012779    0.5715218750511833 H
   0.6214213175232549   -0.0118328843608011    0.5470455891308068 H
   0.4923880701291016    0.2247445006592446    0.5897415091396141 H
   0.6007569006263961    0.1008561752657378    0.6009470163701184 H
   0.5750114046781347    0.0794705920326877    0.4718278039512153 H
   0.3389924076118135    0.0651907547995312    0.5743477538997159 H
   0.4086772418544793    0.1141554382559202    0.4804395752491624 H
   0.6880091572384661   -0.7424995441137502   -0.6203126634519206 H
  -0.0318949789520893    0.1854841209178059    0.5331029533419853 H
   0.1565962103050189    0.6712849174017700    0.3206812567573175 H
   0.3423983292741764    0.5254743907797366    0.3731156242973491 H
   0.1078046798818940    0.4852960266406200    0.5969598660771424 H
   0.0745065473815398    0.4127540362305496    0.4620411876350270 H
   0.5114961753099343    0.4238466834334613    0.3698774568457212 H
  -0.0709854952319722    0.3071256866922313    0.5063186865411243 H
   0.6499689932172710    0.4306332212223441   -0.3325807421696956 H
   0.7992587332687794    0.6441058166495195    0.3492330952205320 H
   0.1099418939697589    0.8003631639902988    0.3770811960883904 H
   0.2019263526029225    0.8327976534769040    0.6096577703446824 H
   0.2792051775073314    0.8214688914782887    0.3671683107318485 H
   0.4906157411139909   -0.1276025154535285    0.5317169174370667 H
   0.3694182198646465   -0.0825363879932338    0.5341746391993641 H
   0.4478419708574526   -0.0468702481035180    0.4361450362873437 H
  -0.1058275612997427    0.7870171384720215    0.4982844394846361 H
  -0.0387061201696901    0.7412006522916813    0.6409883629925268 H
   0.0132097869587562    0.8549781996875671    0.6528085094878178 H
   0.2920748011047568    0.1612819946464261    0.8282097105048009 H
   0.1305171432617692    0.1983711542372443    0.7678156600736762 H
   0.2517801711058567    0.0454828671898234    0.8676336335395923 H
   0.2933652740001232    0.1353669209997555    0.9523369105212761 H
   0.0986955420448511    0.0801497278253271    0.8028862943633084 H
   0.0879055597510578    0.2747192547224830    0.9622595410077242 H
   0.3348155723264298    0.3345975928127067    0.9118688664251257 H
   0.1732726587330629    0.3334062274815511    0.7990933505877451 H
   0.3818104106172137    0.2464581410124680    0.7308600392279374 H
   0.4380997430259854    0.0519986859122124    0.7122120370720665 H
   0.0327466198132002    0.1834121812114484    0.8490858670056118 H
   0.2047523337802077    0.4092248322640540    0.8977801929038556 H
   0.1961824142150045    0.6172382262767319    0.7813906260327578 H
   0.5274243390275895    0.3065595003905288    0.9099024384262330 H
   0.5603067538993548    0.6754280773909760    0.9555813426992722 H
   0.5620293035193179    0.3878565151952235    1.0011154621851361 H
   0.4238736484634631    0.4466742072059046    0.8388430393936804 H
   0.5466132778016993    0.4539080105904271    0.8292823708751703 H
   0.6138111783976415    0.5996058754909273    0.8660897265301961 H
   0.6227812990239757    0.5692469228282253    0.9840092787965387 H
   0.8934176176674218    0.4252574009925573   -0.0044942379466547 H
   0.1100584437524743    0.7118625615884659    0.8263456063699214 H
   0.2536604139860479    0.7696739959368961    0.7143190733738888 H
   0.0882467838137064    0.8537062589233864    0.8066151987137751 H
   0.4207099537591533   -0.0734097813561325    0.6764996163700524 H
   0.4717511056208222    0.6241166344477332    0.7870803897364566 H
   0.3590958409159641    0.5989619914502362    0.8462695244627729 H
   0.5430241763904784   -0.0277997697229189    0.6983015602119349 H
   0.4311987320964112    0.6932323703954677    0.8794496035506378 H
   0.1308759200025376    0.0918511512016832    0.9816467808750371 C
   0.4286388495194220    0.1678287485797086    0.1758393909641882 C
   0.4007202618092189    0.2417804493559622    0.2456061681227784 C
   0.5512608759142555    0.2488840370853283    0.3439052934847709 C
   0.4853007199686079    0.3098041004168040    0.2777623124898039 C
   0.7466638885506598    1.0786361773302626    0.1646993153201958 C
   0.2955762093360911    0.6722029017994477    0.3214880142973942 C
   0.4335929173919497    0.5584138436274156    1.0112316031082893 C
   0.4515095678452252    0.4029152003193879    0.3289430386754971 C
   0.9308616927396689    0.3147674032064431    0.0942886635071009 C
   0.9281297939171058    0.4238209280718336    0.0653240491842959 C
   0.9135694963631829    0.4914167379717828    0.2318209857900100 C
   0.7672096493434288    0.4853542280025104    0.1142661798144355 C
   0.8792533085318812    0.4974228451379376    0.1280513621472040 C
   0.8966480125485867    0.5843224424625039    0.2842657945406551 C
   0.1756984388492170    0.7782351356958039    0.1543903600410450 C
   0.0819664355824478    0.8008789906463608    0.1076471483661273 C
   0.1885666582323928    0.8106221432308052    0.2537134201238769 C
   0.1895636503495965    0.9224399809877611    0.2630283721526139 C
   0.2874317666885116    0.7775797408789666    0.3019789603062559 C
   0.5170369168748664    0.8379638336961241    0.1493535200410494 C
   0.6282949462749622    0.8183192553552217    0.1294644059835765 C
   0.6967377530138720    0.9957614667699977    0.1170957478907183 C
   0.6909011364854817    0.8956385775778154    0.1703375690515341 C
   0.7940294394033334    0.8664026450128995    0.1772844545131090 C
   0.1041172132624899    0.1690898979912519    0.4150809379954882 C
   0.1232545471629276    0.3399968662488919    0.5753944504596931 C
   0.0471503474782946    0.2601286265333729    0.4182543699413118 C
   0.5742064388595615    0.0517512042250641    0.5455135851015102 C
   0.4247737497974456    0.1925351907310039    0.6108056074314696 C
   0.4075833589540544    0.0991367530788647    0.5562135289141045 C
  -0.0501350199470436    0.2360164282006370    0.4731332337101970 C
  -0.1237172508394261    0.2017020850846177    0.4055780441757065 C
   0.1071980593260743    0.3446997377282180    0.4739514069738779 C
   0.3667782970754310    0.3879061554173550    0.3920956569507322 C
   0.0304661758718779    0.7976998581594184    0.5205022915492932 C
   0.0195097941895090    0.7864257723474986    0.6243624752921543 C
   0.4414115823336261   -0.0652169864339104    0.5127719401041977 C
   0.1599761540037645    0.2668329342151596    0.9424560448772825 C
   0.2081828291919382    0.3373508265822311    0.8700831415495405 C
   0.2591529980232906    0.1239827633909355    0.8856537708972327 C
   0.1018220250715470    0.1533438756464438    0.8243172271880548 C
   0.4705649658441997   -0.0111724535793996    0.6742860797199713 C
   0.1302847458034633    0.6390518664977273    0.6633409066740992 C
   0.5076560214541018    0.3718745219394136    0.9511779361431677 C
   0.4884573936016698    0.4541724706723914    0.8804756265135999 C
   0.4320538985744071    0.6186777927185447    0.8532157138436403 C
   0.5808582017598347    0.6051591055580710    0.9317906962758546 C
   0.1966184227394999    0.8142501959874584    0.6839400230532963 C
   0.1055881276889278    0.7479373340313800    0.6892552953363209 C
   0.1834419783285408    0.9132061802477962    0.7338914707094163 C
   0.4751959240178984    0.0203505263211102    0.5734729892745095 N
   0.1644703417095539    0.1608114916714407    0.9095564863145694 N
   0.4859980527649507    0.5553188836910441    0.9192918710906803 N
   0.6023857891559120   -0.6473126196178592    0.6490691639267375 Cl
   0.5333862114670427    0.7003143754195592    0.5772249338963967 Cl
   0.7854152870892684    0.7035855941156730    0.5134660314131081 Cl
   0.7025652421496402    0.5524821967944581    0.7171187099797459 Cl
   0.1981307614863005    0.6480748761495106   -0.0834799079963369 Cl
   0.6776011212205590    0.8385530415501194    0.7253011386972623 Cl
   0.4049743288783297    0.1635316319595441    0.0909126720753736 O
   0.4843325844542332    0.0975648127113677    0.2062337550603474 O
   0.5284140994414078    0.1701596807493608    0.3732840758285816 O
   0.9865654678063646    0.2602602810355477    0.0541463851820945 O
   0.7407149348823027    1.0862332895869069    0.2517469921249842 O
   0.7958766832486595    1.1320138045917894    0.1060830550162116 O
   0.8695656344240102    0.2878487337645055    0.1562488955302640 O
  -0.1023493226035263    0.1374949757398269    0.3418957084820088 O
   0.2119306770240744    0.6254842585386311    0.3216035636948513 O
   0.5333982877095891    0.3357378790747125    0.1934787721747864 O
   0.3722322652208102    0.6317504373033443    0.3369493589739976 O
   0.7151154070052855    0.5522728445532948    0.0810394633191633 O
   0.7280390928513196    0.4004411028714144    0.1395540958398419 O
   0.8992149161968239    0.5869943813754941    0.0804491868791417 O
   0.9592176931886169    0.6430568971731759    0.3071014182332830 O
   0.0859614251225105    0.7791272208471524    0.0197961944248001 O
   0.2000461097227313    0.9763859528215180    0.1961183102179019 O
   0.1134159200232265    0.7768984468157997    0.3106764887473760 O
   0.0090006547456321    0.8327077255382601    0.1463701181283931 O
   0.4960066600395638    0.8697386118248371    0.2352742421802778 O
   0.4571673576889312    0.8217566608819497    0.0868148449498935 O
   0.6599578712816775    0.9086702150225934    0.2615707791509568 O
   0.8347993959257172    0.8566321543351073    0.2556039753256442 O
   0.8365279836669536    0.8486889993705610    0.0976333313069874 O
   0.1056428920446615    0.1195597476566695    0.3418038258286092 O
   0.0271978672059742    0.2967386500670959    0.3279476432636683 O
   0.1414391216950234    0.2612322221964119    0.6133630079510914 O
   0.1468179643780499    0.1398295050270249    0.4927816430589913 O
   0.6334919432126677    0.2957357736953381    0.3538376691011249 O
   0.3434802763534798    0.3112710049519647    0.4297710252481011 O
  -0.2049440241065368    0.2264545703404988    0.4199075616217969 O
   0.0894775776034656    0.5984209849713540    0.5950901932966023 O
   0.3094793346212094    0.4661542318075587    0.4024839654305462 O
   0.8017743830969066    0.5940706310115124    0.2984595762487687 O
   0.2306642993277570    0.9827996134056074    0.7126756268233099 O
   0.1098330673654162    0.7944459056275243    0.4826975914564573 O
   0.1703926153071688    0.9475061348936324    0.3518851627163837 O
  -0.0465591883604813    0.8110401282896225    0.4656326856538188 O
   0.2991379987801577    0.3165868252610883    0.8546719146838822 O
   0.4113670142495549    0.1881085778791922    0.7068459508973890 O
   0.1937524214561017    0.5902289094726411    0.7123074001290038 O
   0.1260032965564857    0.4174345336387411    0.6252144780782233 O
   0.4175961086607037    0.3576889291859560    0.9993028680226170 O
   0.0654079411513687    0.7486179086710376    0.7820247555573565 O
   0.1169067966476890    0.9209666016410180    0.7998966277242839 O
