Li1 Co1 H90 C51 N3 Cl6 O45
1.0
  14.3617194670000003    0.0000000000000000    0.0000000000000000
   0.0000000000000000   14.0160356643000004    0.0000000000000000
   0.0000000000000000    0.0000000000000000   14.4860580852999998
Li Co H C N Cl O
1 1 90 51 3 6 45
direct
   0.5748084167197861    0.6232027044885692    0.3889980980000537 Li
   0.7275280827068393    0.6527274581287182    0.6011890185320655 Co
   0.1351178201648408    0.2271199509222270    0.1456441103767883 H
   0.2971993874415650    0.1344496673192587    0.1312171352280364 H
   0.3400055431677372    0.0818984311750700    0.0361850711638331 H
   0.3030893507007951    0.3175920380638040    0.0866391005275337 H
   0.8033866874166259    0.2763007618526497    0.0094234775186029 H
   0.8256395938833164    1.1244457212921277    0.3020455265977477 H
   0.6947130704735970    1.0706487691396334    0.1947292373183647 H
   0.7172876654407916    0.3294092168986062    0.2696474789552182 H
   0.1380158018512004    0.4643057629180921    0.2696771626688598 H
   0.3021549221993308    0.5031813917371497    0.2632199194734234 H
   0.6460594255109885    0.6003160618113496    0.1557759211934892 H
   0.6345663727202505    0.3496438971457733    0.1253929144839807 H
   0.7135631810485913    0.4025979576074244    0.0421687555788473 H
   0.8437328312980338    0.4377800170578008    0.2253531653316157 H
   0.8081939112423411    0.5570135178869002    0.2560937572426676 H
   0.0912546879370123    0.7354669736219471    0.2380377755214964 H
   0.1862098918130887    0.7912081274483433    0.1213800905909860 H
   0.2825632569640834    0.7692860941887807    0.3495201394945355 H
   0.3274123435570934    0.8405544630717368    0.2546095715605863 H
   0.6305341257366589    0.9956289828616770    0.0254478506526274 H
   0.3519247287773247    0.6121853238469573    0.1413682749745504 H
   0.4141526536475690    0.7090500887860244    0.1798715031623483 H
   0.6737977475771842    0.9457682364467668    0.1738809155581151 H
   0.8814490672435024    1.0514850051172469    0.1629276252243553 H
   0.8243528398812999    0.6706612024498914    0.1371980583673630 H
   0.9639273528500262    0.8980892767176518    0.2598000795343394 H
   0.0590203861137709    0.1908479256380084    0.3205522865749184 H
   0.2586775376539250    0.2589570559844369    0.3699045669392694 H
   0.2045336030236218    0.1560484993464259    0.4030881975149193 H
   0.0182836204817508    0.2951391842371284    0.5981198606053058 H
   0.3548839844637804    0.1211755857989123    0.4469181335997607 H
   0.4999230937978884    0.2386132150561297    0.5652028311972932 H
   0.6019978490783036    0.2029262339453421    0.5079666255216185 H
   0.6469708762624168    0.1270395834348020    0.6668638898047011 H
   0.7512292837212540    0.2219337483653123    0.5668658094801461 H
  -0.0046203222359600    0.0407469947907358    0.5430313061275489 H
  -0.0085488211966618    0.2882492188922219    0.3583714087111151 H
   0.1766441848435529    0.3656477091631283    0.5238933875600866 H
   0.4456788229924279    0.3562855754512237    0.6958124137945051 H
   0.6271382927995192    0.4257938175343574    0.6485918382609758 H
   0.5806553489198578    0.3253317443971938    0.5113396825473655 H
   0.7304051755295298    0.3449128874945281    0.5464998825825190 H
   0.0448055143869494    0.0080687103620928    0.7054478853063610 H
   0.2735030604953398    0.9616143719246971    0.3403906717524309 H
   0.6002417919391879    1.0150660053211662    0.5442094734315527 H
   0.2968470619410129    0.8299323439814429    0.6088474166516049 H
   0.4366040043191159    0.9553601070170187    0.5523963106858053 H
   0.4437264105348229    0.7420530013840712    0.6488797012514074 H
   0.5218843290611673    0.8618721885082553    0.5830522694970324 H
   0.7131071075251494    0.9074143100673387    0.3411507128854409 H
   0.0646798755771853   -0.0872485413913988    0.6265271745603415 H
   0.8310693058463707    0.9147430585423185    0.3709952708358688 H
   0.3341399502494543    0.2641996225531822   -0.0895862041735783 H
   0.1821094078748447    0.0884302353308760   -0.1128699710902850 H
   0.2189072301143285    0.2630024224031611   -0.1258217347029403 H
   0.4443126913084690    0.3655421158245090    0.8476439187524979 H
   0.5556556265102264    0.1835106155409784    0.7249217820931112 H
   0.6799536957004676    0.2093602929160749    0.7559571401838137 H
   0.4883155004046981    0.0924791690921211    0.0667717219553016 H
  -0.0458988057324654    0.0847002219910012    0.7860094841297329 H
  -0.1287273279531745    0.3060003152763239    0.7834891297458824 H
   0.7757131208278043    0.2975207421040951    0.6605495426260977 H
  -0.2329140169800812    0.0332027788274925    0.7832910082152975 H
  -0.1700900631998120    0.0351976367651914    0.6733163007676842 H
   0.2403475597842911    0.5745398716921842    0.8711748198432443 H
   0.1180557963199212    0.5342836242400499    0.7292611268361637 H
   0.0213793500775112    0.6012257341541845    0.7684484610755627 H
   0.1663383158046754    0.3595982097161508    1.0094629578725149 H
  -0.0088767763562666    0.5436195736578510    0.9906034449262543 H
   0.6689703311832556    0.3609395305040169    0.7424862567418908 H
   0.5062322269214117    0.4686511642468809    0.7387129735147948 H
  -0.0461606128237848    0.3917606564162686    0.8936295137347511 H
  -0.0827502427220333    0.4890702689676945    0.8242483201704437 H
  -0.0008255120027405   -0.0032718715119144    0.8609760480911192 H
   0.2453051834284238    0.8487543565903253    0.7218049921607406 H
   0.2966618473498136    0.9467899233447585    0.6576260419918585 H
   0.4335131487915451    1.0002337085876816    0.7225967879641579 H
   0.3102312531892599    0.8197554292377600    0.8535923969024953 H
   0.3301348587886325    0.9444297695329174    0.8417582596243933 H
   0.3672898805968579    0.7124347833698740    0.7405264413226216 H
   0.4275298819412596    0.8704302432159443    0.8678143473314435 H
   0.5242372437018999    0.9160444250939503    0.7450977332234320 H
   0.4754217100458560    0.7479205663624817    0.7754130886785944 H
  -0.1099238691737078    0.0444334865518554    0.8871612254365643 H
  -0.0105771298589313   -0.1563765047618023    0.7527112606130480 H
  -0.2421956354037172   -0.0645695180488968    0.7087862676126612 H
  -0.1049940973478005   -0.1386853397320518    0.9010573453343764 H
  -0.2122061901294482   -0.0906667689949451    0.8921515409229670 H
  -0.1834491878116560   -0.1821163079872543    0.8025502158173372 H
  -0.1000503996127806   -0.1485832882905987    0.6702478331598465 H
   0.1470927094108793    0.1693554004179647    0.0192784704476226 C
   0.2476127065684035    0.2073447443917546    0.0129220138147833 C
   0.3233174299824945    0.1557666792872731    0.0632697340645117 C
   0.7631052990125921    0.2937386455634148    0.1421863028969998 C
   0.1098381173524979    0.3309888361668700    0.2893029296184276 C
   0.6673396072261547    0.4589270094812682    0.2723459356209185 C
   0.7051407912172108    0.3798771250105772    0.1161122668979804 C
   0.7102912887025549    0.4744730886450788    0.1712673681198082 C
   0.8785991299435817    0.5398631619833213    0.1237478844930971 C
   0.8122421730214123    0.5026403685704268    0.2019796569550623 C
   0.1856270925167209    0.6398322283840936    0.2245793178201678 C
   0.2616646451586060    0.7142783859846860    0.2091914187321335 C
   0.2703697309449750    0.7972091110370363    0.2806635883108707 C
   0.1878608083384031    0.8648373636116446    0.2844748390786710 C
   0.3900392457234174    0.6082876454085993    0.2879112466718807 C
   0.3558615832834942    0.6584558967488128    0.2009138045396513 C
   0.7613088567370496    1.0101266628666994    0.0749740913852968 C
   0.7277878009117917    0.9984371948941460    0.1731505581387467 C
   0.8072051716953371    0.9674241459542687    0.2359309221718629 C
   0.8411823010440369    0.8660987759270423    0.2140843992505484 C
   0.2204606652758538    0.2278790814106790    0.4271906826729973 C
   0.1221709024627336    0.2667103182194062    0.4469883390341178 C
   0.0639766171669923    0.1964550746123917    0.5037380079336384 C
   0.0667896508077642    0.2625229715683494    0.3529441213471509 C
   0.2838514035570112    0.2280702909698003    0.5164818889061534 C
   0.5732193312309323    0.2576535490272924    0.5506836294405756 C
   0.6261008125706206    0.1900281503267008    0.6999598498772699 C
   0.7496264115823784    1.0497405746245165    0.3854181040710893 C
   0.7301928054155605    0.2877847508959980    0.6002129075765013 C
   0.4949058672627532    0.9343020841160231    0.6007665433518637 C
   0.0096161346499862   -0.0440537312110812    0.6582873675190370 C
   0.7781961104226044    0.9555270586469978    0.3352546989735077 C
   0.2927646816846154    0.1319568083656392   -0.1531224674261731 C
   0.2751484066570091    0.2205046709514315   -0.0941443800148725 C
   0.4148357194895484    0.2114921368065771    0.0844176542368651 C
   0.0891658015701025    0.5724051739276652    0.7905918211332936 C
   0.1367798774174454    0.4550394622956696    0.9209412915607342 C
   0.0602312439111230    0.5053915031225610    0.8744848990737465 C
  -0.0118207135426982    0.3799727297901379    0.7517206529601239 C
  -0.0226369671505574    0.4415411376244581    0.8404218021915982 C
   0.5083678347133948    0.3916422206445741    0.7329860877387269 C
   0.6080145381104595    0.3674713346598230    0.6919473181507966 C
   0.1540995305809506    0.6528744326405802    0.8018205487168908 C
   0.3016257376530470    0.8694392354636326    0.6737304921208231 C
   0.3604313703588372    0.8722046393858504    0.8305302223597180 C
   0.4604161251996136    0.9306641082131880    0.7048058887089956 C
   0.4227010729564197    0.7574360958027859    0.7218823078799932 C
  -0.0625778670767849    0.0232720107177531    0.8318908409547795 C
  -0.1948823591932093   -0.0041515781775735    0.7329087720194742 C
  -0.0531235673801509   -0.1060741213428021    0.7153836455492429 C
  -0.1599464310020978   -0.1219017066396235    0.8490128211746223 C
   0.6299025857583965    0.2726877573474611    0.6336885430561141 N
   0.3858767914896217    0.8563563635024075    0.7302641602296820 N
  -0.1135480870202963   -0.0517035405129438    0.7813173864175903 N
   0.5144183497787855   -0.0386663305359866    1.0612051223444778 Cl
   0.5885774504663634    0.6824976449343066    0.5397714130826687 Cl
   0.8433554391610788    0.5912999603239744    0.5213340991890411 Cl
   0.3795718361388321    1.0314365401496719    0.3669493116346230 Cl
   0.7871149589138539    0.2911501818302347    0.8841749057804325 Cl
   0.7302617386656686    1.6661595255270285    0.7495185355992685 Cl
   0.1057327593460645    0.1306062124872186   -0.0462127759917881 O
   0.1051388193224064    0.1854947714511146    0.0965762414082593 O
   0.2447105471093101    0.3028703289484679    0.0492638534581177 O
   0.7644080678100882    0.2633691452143118    0.2225573736979277 O
   0.8083561480835043    0.2466497242872601    0.0777829990785009 O
   0.1599101161582381    0.3032820002753822    0.2281033959164584 O
   0.2062019269353272    0.5527933516846508    0.2281185829327402 O
   0.6224111429512021    0.5255981440575136    0.3056821266783078 O
   0.6913590152637953    0.3830656157557762    0.3187118963291376 O
   0.3579518622413153    0.5167141769371132    0.3012778919565968 O
   0.6644471959034401    0.5441482538194514    0.1190606190134079 O
   0.8756036668934329    0.6320033384876808    0.1073196747897621 O
   0.9353917724871265    0.4882859530410448    0.0882247630911341 O
   0.0959317045125235    0.6624798591124115    0.2337398499137578 O
   0.1146188819508989    0.8470184877196453    0.2439855633525719 O
   0.2468070927262320    0.7535034574077228    0.1171077067833576 O
   0.4511310252986994    0.6418420691603803    0.3370322701973958 O
   0.7011726034155378    1.0119081937216472    0.0069797485350830 O
   0.8449743260954339    1.0209143066499637    0.0610482877738430 O
   0.8801650984233084    1.0367682902814401    0.2293114540297804 O
   0.7889204530303195    0.8095670989980102    0.1770197956959866 O
   0.9268941827465372    0.8380880024527720    0.2450313965192478 O
   0.0114787249938141    0.2272769139931475    0.5744281842376494 O
   0.0666782435348624    0.1109458743859198    0.4831212881716857 O
   0.2745328814742263    0.2798038922081940    0.5822922283640223 O
   0.3498065980012781    0.1595302256468446    0.5125178560642396 O
   0.6857364294595296    1.0497997925103637    0.4417653860710355 O
   0.7912029095338964    1.1326698727398583    0.3653125654708022 O
  -0.0457233392776450    0.0020734345214333    0.5887487812405368 O
   0.0901371337307156    0.4249499983344588    0.3034213322090910 O
   0.1236846487832876    0.3601589959604395    0.4805441205405629 O
   0.2039619444545442    0.9526703307562444    0.3172787942472768 O
   0.5683411548982876    1.0019189211945647    0.6026828686790534 O
   0.2321598215214602    0.0583817958086558   -0.1534172336058236 O
   0.3711640685120200    0.1185871220657322   -0.1947700983032175 O
   0.5047729309054885    0.3493128477598318    0.8236656910003615 O
   0.4933525017307734    0.1627322722936231    0.0775220585260233 O
   0.4155758815588902    0.2955066205167832    0.1086071195791024 O
  -0.0755136440516019    0.3135381100230296    0.7353276495218057 O
   0.2219207968463237    0.4790391871862668    0.9226546631248858 O
   0.1068120173023012    0.3824334826610691    0.9734379746143319 O
   0.0294542884765290    0.5738478072431256    0.9383331864790392 O
   0.0551468944940644    0.3888175988365090    0.6977059585972720 O
   0.2400878415793386    0.6358268162016038    0.8344029115115672 O
   0.1253049283085540    0.7360891181575958    0.7850948115582176 O
