Li1 Co1 H90 C51 N3 Cl6 O45
1.0
  15.0672907635000008    0.0000000000000000    0.0000000000000000
   0.0000000000000000   14.7046239966000005    0.0000000000000000
   0.0000000000000000    0.0000000000000000   15.1977379652000000
Li Co H C N Cl O
1 1 90 51 3 6 45
direct
   0.8345594491785756    0.0033183778321215    0.5848073577101602 Li
   0.6344843296817950    0.0153798899143760    0.6984420317619493 Co
   0.1401200729008550    0.2107918909736619    0.1698804775099979 H
   0.2936367227290616    0.2393203321019081    0.1678676779690369 H
   0.0255858791239288    0.0042786199983452    1.0902891614885100 H
   0.4624366775398626    0.1229868576522701    0.1273037465858518 H
   0.4944886242089941    0.3030989095219664    0.1072876099281096 H
  -0.0699283060463918    0.0447944468659859    1.0381261355292997 H
  -0.0377718946778856    0.2466105559134647    0.3331014782720910 H
   0.6866655752912988    0.2406335244694563    0.1599809779697043 H
   0.7371019816717297    1.1131413834236550    0.2463865998462570 H
   0.2483724472395259    0.3911834467600140   -0.0686096193912288 H
   0.2868896570756750    0.3507825497267159    0.1286026240928335 H
   0.2422067734327227    0.5422502132760179    0.2696913838089103 H
   0.0565104831097195    0.4605425816985082    0.1621641976090991 H
   0.1590372096624602    0.6059050201052455    0.3203193128969003 H
   0.4616813990907623    0.3365706936433288   -0.0379425555777051 H
   0.3430550296886490    0.5559119022825812    0.0916971318883810 H
   0.7035969535997333    0.4623463680453154    0.2809042366946625 H
   0.8712601413388128    0.4308289351543309    0.1748351622250801 H
   0.8718999378457837    0.5943025473021702    0.0878459008608411 H
   0.0594605821486044   -0.1211567532846765    1.0829999188226824 H
   0.1680162625076961   -0.2131543453559047    1.0516518326080817 H
   0.1172738953495540    0.7020482469111051    0.1677762169895686 H
   0.1413226779533768    0.7920423875505380    0.2737998899657459 H
   0.3221700540855830    0.7937064899448364    0.2625028140197638 H
   0.3257652591460193    0.6923268150653774    0.3276335592837334 H
   0.6301464562693875    0.6389572083225286    0.0530670409271915 H
   0.5619269590728503    0.9735832416803164    0.3151402526854247 H
   0.5201565499210856    0.9151628427501141    1.0392868345780919 H
   0.5997674049067606    0.7801719718200604    1.1120035771966672 H
   0.8497128037918082    0.9878134593348707    0.2828558429184254 H
   0.8313239637309797    0.8826111773616842    0.1901538892970359 H
   0.1633485355019644    0.2130449237616924    0.5288868646771818 H
   0.1281630460651859    0.2824856656831518    0.4463985362910368 H
   0.1112675069801708    0.0929174046623647    0.4002410751210732 H
   0.0016167392388160    0.0976519697907282    0.3684034423688867 H
   0.6375684939638419    1.0574126548149210    0.3665064495357417 H
  -0.0584517902802732    0.2777681020095727    0.5095045657670082 H
   0.7276769296017177    0.3378315215301409    0.5756167136603791 H
   0.1210861268184751    0.4248792420496157    0.6364564914034369 H
   0.6175589245772638    0.5549230976723197    0.3532544774027066 H
   0.6451259242801033    0.5697327249059269    0.5098687383835300 H
   0.5802974813083756    0.4704923634837364    0.4191853417388594 H
   0.6320804469553968    0.4024492907583579    0.5546570155309997 H
   0.6834778754749290    0.3488137812626808    0.4657080546333040 H
   0.8417956538627065    0.4498867498978290    0.6223063592921697 H
   0.7313590779634124    0.4930260372503430    0.6563936689422136 H
   0.7397481110008712    0.5789039896748311    0.4319346074811478 H
   0.8762172368891911    0.4080207354970293    0.4952221179121347 H
   0.8059531119965699    0.5679713741902616    0.5975928130486411 H
   0.8658192162722711    0.5114073301050598    0.4402970361722472 H
   0.8099120188057822    0.4083674291629931    0.4001627739947659 H
   0.1775402042867731    0.8371907708178358    0.4905092454988842 H
   0.1800861165282045    0.7299217920010558    0.5933125708080557 H
   0.0895509286559073    0.0269660413208583    0.6047971746615807 H
   0.0618213250690349    0.7395296541288237    0.6194368533104335 H
   0.8410629408505740    0.8265798228577874    0.4857334689875246 H
   0.6792096894413927    0.8379490357012206    0.3916536129409222 H
   0.7874806470810960    0.8373349431544076    0.3481392424790614 H
  -0.0022260219389440    0.1254874316219617    0.8804230611975757 H
   0.1674342069717901   -0.0458695510919529    0.9150874304087254 H
   0.1661592597831067    0.0738778154783954    0.9356648348037805 H
   0.1654059724019741   -0.0045811781189084    1.0273508477611477 H
   0.0309498162290508    0.1183570214853786    1.0399724629277751 H
   0.5228251716813694    0.9921828332144651    0.8114121332291122 H
   0.3866468080852736    0.9802253700354913    0.9856696448446014 H
   0.5223662305148028    1.0352495583579591    0.9206573382590801 H
   0.3503887967031997    0.3041006352378641   -0.0781531449035198 H
   0.3640335854861994    0.9920821846021413    0.8690068885804875 H
  -0.0530686061847963    0.0168794182263613    0.8558095298380700 H
   0.2766582224787236    0.6413720949601067    0.7104102602191377 H
   0.1428723925216100    0.6460406944439067    0.8325132997799715 H
   0.7081969842945615    0.4492870065788541   -0.0135823513915469 H
   0.0160128243349805    0.5098980089551187    0.7460274027991372 H
   0.0408752900482911    0.6600430926043498    0.7856313228942340 H
   0.9656745933016121    0.5108934781356557   -0.0784183159447121 H
   0.8361370386983572    0.5601432243493262   -0.0149108385681407 H
   0.7937983057427708    0.3730041311881360    0.0166431993484283 H
   0.0630710520634601    0.0340257254055382    0.8252444548865434 H
  -0.0672728850667341   -0.1018328997767119    0.9679926720862109 H
   0.0129717998589017   -0.2236000391754485    1.0373207525158523 H
   0.0212745532844246   -0.1238219013366812    0.8927538436093472 H
   0.1008621857807025    0.8657668160194784    0.7624884051254599 H
   0.3331282284907636    0.8847438398498410    0.9253264541605705 H
   0.4281114622030172    0.8596197700276258    0.7841462334650254 H
   0.6051751455071732    0.9516976089654363    0.8926511967546922 H
   0.5309933289122724    0.8125379813222445    0.8145060147072419 H
   0.5394097723187540    0.7367114929837593    0.9364175784045844 H
   0.4301104944426395    0.7665619672360415    0.8616215789865854 H
   0.4325933561984254    0.8312368613523341    1.0312711680177824 H
   0.6294449366554165    0.8180138098792085    0.9630616751068182 H
   0.2048390735032887    0.2568767143704851    0.0539342752504954 C
   0.2885594994112957    0.2789099197128940    0.1070724463289287 C
   0.0730270555915392    0.2041116793597701    0.3099460586428140 C
   0.3870045366301462    0.1716164588012244    0.0264979553879748 C
   0.3773850235886171    0.2750206669164115    0.0583823056188825 C
   0.6133484795147923    1.0776865496162387    0.2321371108436250 C
   0.6276144815037304    1.0128137585662553    0.3108494825623104 C
   0.1130820335881149    0.5592605088169195    0.2001119501838955 C
   0.1902319352025426    0.5936945752790797    0.2563315008799557 C
   0.3919450399474598    0.3348685079903133   -0.0264513717975996 C
   0.3582501967292045    0.4328349708072534   -0.0161597086331109 C
   0.6774376389500940    0.3446280230947582    0.0823003387388341 C
   0.9388330060283567    0.4839009484326334    0.0484742521740343 C
   0.8526595843840802    0.5325887625627694    0.0507693305652968 C
   0.7346430127315570    0.4092941444603820    0.0364685181353373 C
   0.6968585159075403    0.5456029001595043    0.1134378673028603 C
   0.7753059301476193    0.4822170563449659    0.0996779248378141 C
   0.3068600687922206    0.6669565641778838    0.1498972404851580 C
   0.2353203330215935    0.6832908818765572    0.2203965478461202 C
   0.2874803405727746    0.7382742667075426    0.2935890191564625 C
   0.7016330968942079    0.8980097349890234    0.2099252526859852 C
   0.7120131978994181    0.9533304286829314    0.2955333874609867 C
   0.1037737908388775    0.2501386978103263    0.5062836259066099 C
   0.0584889409803418    0.1429268438816219    0.3891696906568007 C
   0.0296011995255606    0.1869918944500568    0.4760532784001576 C
   0.0120937388851234    0.1088484478535517    0.5386834541657570 C
   0.0749490998697418    0.3245193824339450    0.5668377098174711 C
   0.6385693374622982    0.4979126633902984    0.3887610772161545 C
   0.6932254805557168    0.3805418961813537    0.5266413989323359 C
   0.6941201337625597    0.5364221145759208    0.4663396617857618 C
   0.7854650226084090    0.4961260145099138    0.6063974128059472 C
   0.8294092200353256    0.4466890482761574    0.4581693669508116 C
   0.1254425835319150    0.8665869661982785    0.6056104535869248 C
   0.2259702778450334    0.7803963910232147    0.3632618877389197 C
   0.1284663520856067    0.7627747231682656    0.6340081007228499 C
   0.7659353006020591    0.9322737869033393    0.4511410841731651 C
   0.7327747272884836    0.8833606014885811    0.3694233309888572 C
   0.0114937637375076    0.0477962237227220    0.8758019787601227 C
   0.1386480099833643    0.0062793511973750    0.9603954888564181 C
   0.0050938075998323    0.0477765020351721    1.0361172839442871 C
   0.1403590010569852    0.5630579537575661    0.7190753655329380 C
   0.1127369151403713    0.6510853661075380    0.7671641009535307 C
   0.0051734503185424   -0.1022511355644084    0.9596986746315480 C
   0.1441241105840029    0.7468273585804854    0.7336538508645928 C
   0.2491343625818521    0.7597369032273865    0.7572981590387975 C
   0.0505014399830461   -0.1606674541454626    1.0259894609516516 C
   0.3808839936972788    0.9403807606027392    0.9221397957176565 C
   0.4983192398721509    0.8575727948715823    1.0012469630311691 C
   0.5356258803839071    0.9774078889486182    0.8817607602713822 C
   0.4652710955298211    0.8306642523551950    0.8398472859465458 C
   0.5705469559945683    0.7841210697373840    0.9857064924334520 C
   0.7486621222924940    0.4655973862291909    0.5138198066370752 N
   0.0378760779995350   -0.0007456499195447    0.9601816412425535 N
   0.4726508562144268    0.9000594303778322    0.9092411656419918 N
  -0.0563797522151667    0.9303288204760024    0.2473242393839717 Cl
   0.5668028854190765    0.8907038698390650    0.6570404757250723 Cl
   0.9064004999016558    0.6925417134538524    0.4683076520267099 Cl
   0.5665086719423751    0.1489950031232749    0.7042244712408525 Cl
   0.7788035728776357    0.0088064474365303    0.7392309966341859 Cl
   0.9141742929370794    0.5490242729203196    0.8056500915226084 Cl
   0.1425969614527377    0.2136590163085054    0.1000135010934173 O
   0.1416113828087008    0.2014764538681859    0.2680806177820150 O
   0.0081560701342339    0.2636575745967007    0.2886231485661936 O
   0.1917783313241627    0.2875024549609366   -0.0191792369408814 O
   0.4229141111178637    0.1057739047703383    0.0770745610486373 O
   0.5459275333111879    1.0737408519898719    0.1899295138006424 O
   0.4328813973644267    0.3012532315905704    0.1267523487384097 O
   0.6834028785814770    1.1379261042083733    0.2142449744860535 O
   0.7214674522996239    0.2750138663344977    0.1165284588176997 O
   0.7852513146465371    1.0123077952718713    0.2970901980899222 O
   0.2794702741385111    0.4490885655986104   -0.0530974424778076 O
   0.1063621791969542    0.4728663731835472    0.2045619545302568 O
   0.0664406027542179    0.6132006843823332    0.1576424720630108 O
   0.3113134241467577    0.5754717359829536    0.1443200947155648 O
   0.5933555023612789    0.3522249531506256    0.0860318151026098 O
   0.4087104959252484    0.4939343229707455    0.0120425146833746 O
   0.6662949589132351    0.5556738819155995    0.1858091637759618 O
   0.6652761958030691    0.5793059040659346    0.0414271508063677 O
   0.9618291773665617    0.4352722993651470    0.1102038333885670 O
   0.8068417919995097    0.4479555206459579    0.1799464491927770 O
   0.1692294865893792    0.7426395602379887    0.1784462259324334 O
   0.3526844980700169    0.7241589788873309    0.1161698528190650 O
   0.5804993756003054    0.7354513451551385    1.0641293473825972 O
   0.6233290395478071    0.8791034372105639    0.1887240712511031 O
   0.7691993246905260    0.8633519293819002    0.1694139607154437 O
   0.0928428276959228    0.0830327588507065    0.5624569920980019 O
   0.1428996037838359    0.3754353392223072    0.5938922623397936 O
  -0.0465830341245077    0.2370285359969692    0.4554542918459187 O
  -0.0576540357145275    0.0671057960086677    0.5557110539699227 O
  -0.0039098017503391    0.3375581381372075    0.5957010841567606 O
   0.6798282478900408    0.4333089713666429    0.3338963334030099 O
   0.1512687261416172    0.8149032237118521    0.3348866123533682 O
   0.0973459597496537    0.9227638531551297    0.6589374685582172 O
   0.1417633676635725    0.8889976038369013    0.5210612263965158 O
   0.2526266957972879    0.7845447459906115    0.4404878540430804 O
   0.8126271718244724    0.8827546696400645    0.5086491950513289 O
   0.7522838749258335    1.0111884194888654    0.4748252667024474 O
   0.3539468351615713    0.1536717633053714   -0.0470794416273241 O
   0.0790799022135032    0.4961503605931651    0.7169691310345346 O
   0.2081794218638529    0.5552026015889756    0.6742482997182766 O
   0.3037440474226898    0.6905831458626879    0.7444409825005897 O
   0.9906505498890845    0.4824871754585807   -0.0200648950586106 O
   0.2770278974314027    0.8336986720051172    0.7865334308284143 O
   0.0911676758457214    0.8069077795558381    0.7863399809869489 O
   0.1378130888155539   -0.1894325555243079    0.9990565054725359 O
