Li1 Co1 H90 C51 N3 Cl6 O45
1.0
  14.7037195501000006    0.0000000000000000    0.0000000000000000
   0.0000000000000000   14.3498038717000007    0.0000000000000000
   0.0000000000000000    0.0000000000000000   14.8310190824999992
Li Co H C N Cl O
1 1 90 51 3 6 45
direct
   0.7222087062404410    0.4931726941478822    0.3740572047301862 Li
   0.7475614748871652    0.5786591586994477    0.5794260996831943 Co
   0.2912402034470847    0.1274808667948214    0.1837749332084713 H
  -0.0298765033774745    0.0021648683269648    1.1966830763667451 H
   0.2062984310102249    0.1500456351285951    0.0469731403772536 H
   0.4052399294544132    0.0943717034746878    0.1794758355102400 H
   0.4977590362943385    0.1718891392491059    0.0913342187590028 H
   0.5132707712143948    0.3104485242955615    0.1804771153223280 H
  -0.0387246046729807    0.0400044098882860    1.0796493115023946 H
  -0.1139470676852379   -0.0438775728037465    1.1288205785571648 H
   0.8275215146576466    0.2795184848352090    0.1220664292338591 H
   0.8546466239635627    0.2834648802358934    0.2373889158739136 H
   0.6704184094107642    0.3161252569344410    0.1076351889522963 H
   1.0578027022485084    0.3506421049993004    0.0940892553328694 H
   0.2173276130785742    0.4637260199091254    0.0641236813201976 H
   0.2278113549287071    0.5476001976164346    0.2028761155631127 H
   0.2009956911331256    0.6610317130958978    0.1611190389552923 H
   0.3253995872879295    0.3598366557527227    0.0554971668987467 H
   0.6934846817811247    0.5146005828318808    0.1463830320238549 H
   0.8122274253468591    0.5277857804618735    0.1150905094117291 H
   0.8756800773660317    0.4709019089261926    0.2676612793239591 H
   0.1257099788187560    0.0014972633836740    1.0762456344037949 H
   0.1224101335085488   -0.0438922071501026    1.1881266852452654 H
   0.1615587311160219   -0.1178737060954419    1.0989082712819713 H
   0.3791485721830219    0.6943429697704723    0.1154364060740868 H
   0.0587588922827438   -0.2253664644488884    1.1521561294100642 H
  -0.0013843930259035   -0.1566860832526231    1.2365926737253257 H
   0.5115482614838669    0.6655042480917644    0.2411357925848721 H
   0.5244383400353658    0.8822256770259409    0.2114898189970689 H
   0.6849800309970889    0.9289789292653751    0.2550363882791532 H
   0.7239075960971800    0.9963533692677708    0.1591400785186064 H
  -0.0643222093278818   -0.2124868459082830    1.1380431410283707 H
   0.7318083180610458    0.6992259633379445    0.0984139750060901 H
   0.7932839193141896    0.8082170000087974    0.0706620047800077 H
   0.0487056537469888   -0.1817163905105751    0.9990236988355652 H
  -0.0652491856588407   -0.1538707137631714    1.0060886213076587 H
   0.0919171688901539    0.1595509915236746    0.4191950335116158 H
   0.0834961704089120    0.2921618632132095    0.5367657810307453 H
   0.2760896152410899    0.3246528996182085    0.3507169340397887 H
   0.1584146287110161    0.1338767730260559    0.6221163555906308 H
   0.3381521428138355    0.2871199824567285    0.5298469712423418 H
   0.9067239230028247    0.2345994040057344    0.6458807373933538 H
   0.7369253906319444    0.1977013387266531    0.6329463598611751 H
   0.2686683637932372    0.5576275123648803    0.3590609324738559 H
   0.1636384769854806    0.3905123363359341    0.5544147368134842 H
   0.3431121122794871    0.6118282531522775    0.6494563514293827 H
   0.4393979530952126    0.4629346502080806    0.6491846236419945 H
   0.8423714986536017    0.3330390769538673    0.6256535366641756 H
   0.2568495855985172    0.7903575224653151    0.2522442672678019 H
   0.2686663234931690    0.7180185546800346    0.6357593830100178 H
   0.1168829606239539    0.9390362095801689    0.5081671393837612 H
   0.0886730917818092    0.8711572330653069    0.4072828379290167 H
   0.3305887504612356    0.7655327929299840    0.3444044885173858 H
   0.0564322701050400    0.9652930144374859    0.6373337859468701 H
   0.3984110451263442    0.7234785596181174    0.6314575882617877 H
   0.0029077182174431    0.6747845143024150    0.6495871583543289 H
  -0.1371616018605499    0.9300590834011795    0.4396521577531994 H
   0.0042685983628934    0.7623425054243629    0.4830844395415807 H
  -0.0790511355197940    0.7899881794382336    0.5618091713691921 H
   0.3559095544068921    0.2410831163151053    0.6386094905963452 H
   0.3027781003324239    0.2549279048415748   -0.0087195935748335 H
   0.4235216981649822    0.9811914895692559    0.9719426197967069 H
   0.8965129012618001    0.2837276015966665    0.8568008355065779 H
   0.7810679627062048    0.1204675305220882    0.7091488105298243 H
   0.6184410850748412    0.1115914510203194    0.7265636623726596 H
   0.6080994841294555    0.2393869258850743    0.7330015207200110 H
   0.6714916072466066    0.1176354360653725    0.8630188842790197 H
   0.7906913780276046    0.2160221466171692    0.8800716571595040 H
   0.8923921752241772    0.1719588266127062    0.8182977497224188 H
  -0.1064924913362722    0.0109803198224014    0.9372295635234884 H
   0.7148860692958818    0.3529243661572100    0.8262203340941593 H
   0.2173915424807093    0.3836815809558337    0.7112477896914607 H
   0.2755809004241000    0.5617439449327495    0.7961118164315463 H
   0.4210910206838032    0.5442161792400046    0.8436641792244827 H
   0.5348697141837497    0.5996434176267669    0.6891198429755645 H
   0.5340716168070951    0.5926579562994738    0.8411242323880276 H
   0.9252811322225928    0.3375638774724341    0.7151140108648701 H
   0.7056108651861113    0.3637140606634428    0.7041262291693907 H
   0.8023285695162601    0.4176867843971397    0.7577186354348419 H
   0.7786162021243215    0.5683558819911450   -0.0286224740416451 H
   0.0806791961148315   -0.0419277203702104    0.9196973900057013 H
   0.2485979320229309    0.6611627253394664    0.8733506085622691 H
   0.1936635327882484    0.6531570410090651    0.7599450502089260 H
   0.2456721417252162    0.8160171066165778    0.7455879788023326 H
   0.2904546879208503    0.7970955936518271    0.8571231329814454 H
   0.3651364714150500    0.8479185879255183    0.7661469166813744 H
   0.5856963092812411    0.9938536835354286   -0.0915176800157691 H
   0.4060893743827828    0.7005960169063262    0.8833849830831408 H
   0.5763785989200509    0.8879595533029726    0.0244864860115050 H
   0.4639926822566200    0.7401171145513225    0.7774866634017090 H
  -0.0051181421506022   -0.0962281140875560    0.8726965739375382 H
   0.6641934539028650    0.8216771142881932   -0.0200923791576546 H
   0.2068969190302130    0.2846572310270943    0.0841432091994613 C
   0.3092261286477732    0.2873868850593176    0.0566885887357566 C
   0.3506564618314510    0.1235644369604851    0.1396646804766189 C
   0.3839187937423363    0.2835917112376459    0.2045037852374431 C
   0.3749163097416741    0.2229156206245099    0.1126962032752142 C
   0.5807859191072453    0.9978188945242851    0.1834876973835894 C
   0.3400829467783199    0.0624974002375514    0.0557938423986247 C
  -0.0463920523290558   -0.0142931963345156    1.1285913293072591 C
   0.8460970865780278    0.3264954335118002    0.1752037083119976 C
   0.2558029116635607    0.6090546960809861    0.1712788263011124 C
   0.2837427807966880    0.5867888865370574    0.0735545909038176 C
   0.4043251949238632    0.5941541439959721    0.2856114955915741 C
   0.9339660095126477    0.3754034190337553    0.1495925215225345 C
   0.6840829790671294    0.3651705265626888    0.2305606595392229 C
   0.7756421247249942    0.4022142384316947    0.2057188062619432 C
   0.7543019462122813    0.4741081269631329    0.1240433668830458 C
   0.7445010247849532    0.4421096965939517    0.0292514990970446 C
   0.1122684819698410   -0.0617746815235728    1.1169245652745590 C
   0.3392178595494280    0.6649098148802539    0.2291292002523118 C
  -0.0006002376997146   -0.1769567435766753    1.1621190321059653 C
   0.6708094669238247    0.9480474825673222    0.1808297546096830 C
   0.6405062502117670    0.7672317708545591    0.1606706543929767 C
   0.6500582550307820    0.8863776501492460    0.0182745056015607 C
   0.6831757256368293    0.8597598647484794    0.1204010008595443 C
   0.0014917499701530   -0.1256877501759424    1.0107578891182376 C
   0.1869808699650628    0.2982462669291508    0.4359747300797123 C
   0.1581398683018397    0.3147538096187874    0.5384328950613094 C
   0.2111577456725149    0.2556596221593779    0.6067209199344648 C
   0.3107509128986974    0.2870621419449403    0.6011144272492713 C
   0.0782580400339705    1.0255955807817243    0.3984614616451459 C
  -0.0556862992394623    0.9798757921444824    0.5611396961332175 C
   0.2086005695871111    0.6870230090978978    0.3454185793169686 C
   0.3325957256282639    0.3850140033478713    0.6353629166601810 C
   0.2846377924265793    0.7307845828179717    0.2938530061256834 C
   0.0750595296271476    0.9311678093560601    0.4503320037650556 C
  -0.0184474224957695    0.9093493926864455    0.4943683573269383 C
  -0.0114750370629078    0.8124309948857069    0.5382627786326294 C
   0.0569756700231883    0.7977004799678776    0.6160028175056460 C
   0.1667887002906908    0.2558484749147347    0.7073788714680526 C
   0.8753352666545158    0.2937681569441962    0.6806612199165446 C
   0.6510063144624449    0.1811735867015724    0.7509712906001178 C
   0.7456952804248386    0.1902252783596141    0.7080672934802692 C
   0.8488773354708817    0.2308843706522030    0.8335286653286524 C
   0.4678552423256206    0.5927527311139702    0.8050916444028520 C
   0.7521807142414371    0.3579843656282269    0.7622308000829855 C
   0.2573249755143941    0.6343651465406112    0.7986760367179915 C
   0.3066247460608930    0.7993332548970324    0.7856223147233620 C
   0.3355738836277276    0.6874230145649635    0.6628296738488807 C
   0.4236148718680940    0.6835686064842316    0.8086402879388919 C
   0.0116014368077933   -0.0593425925339227    0.9333356975875904 C
   0.7028435381936889    0.9652707144811339   -0.0283170331292708 C
   0.0192559625634368   -0.0946050953893052    1.1024737713805042 N
   0.8053516141172228    0.2638332530360558    0.7476876322264687 N
   0.3304418488563294    0.6972398734753363    0.7644889051945565 N
   0.8146941481292419    0.6877596045311529    0.9895401967769669 Cl
   0.6868020189579391    1.4429281139329622    0.5473836623188770 Cl
   0.7699728109356522    0.6194736538128652    0.4359100008797390 Cl
  -0.1237840344137699    0.5443485852308452    0.6457243084934181 Cl
   0.6368921986910659    0.6742207435308887    0.6385366702463752 Cl
   0.4709685361995974   -0.0363311281994711    0.8572525913813921 Cl
   0.1683638119432959    0.2008588731713822    0.0869413985733101 O
   0.9886508120389943    0.3291052252786310    0.0889695801724757 O
   0.0907426361509273    1.0342479638463364    0.3155278484417661 O
   0.3194738757900243    0.2801623960748757    0.2579067237404723 O
   0.4596534400816993    0.2180214770788615    0.0613362801463444 O
   0.5788447096124134    1.0816904241117775    0.1667221603279870 O
   0.4609561036652052    0.3265407302981403    0.2212922472180361 O
   0.6432626956038259    0.3078777574523469    0.1711668987261584 O
   0.7139033247630604    0.3611481719356801    0.0151068203778639 O
   0.1613751041098891    0.3576066601175134    0.0922141313211408 O
   0.2462883123457949    0.5162148209223179    0.0258491705234444 O
   0.3734214498917492    0.5305473513066259    0.3324113814348199 O
   0.4959403808235995    0.6060302645007335    0.2746513586585833 O
   0.6484450577769049    0.3974120822059988    0.2959762587373099 O
   0.9593623045608255    0.4435281828800355    0.1942475783541627 O
   0.8108012555992283    0.4539521581020940    0.2807102814810906 O
   0.3317578424002806    0.6426920896172098    0.0322593841083071 O
   0.3904470738603659    0.7197656168854940    0.1727042172255259 O
   0.6811871131704142    0.6903470963416317    0.1415580095758399 O
   0.5076740785054781    0.9478676891692335    0.2075790964986779 O
   0.5722590970624690    0.7722555328965039    0.2064254333616525 O
   0.7792439344452864    0.8466460966661771    0.1291812471309320 O
   0.2069180021309172    0.1592325202720213    0.5810625347700210 O
   0.1524875570130655    0.2409270166206407    0.3848231540632570 O
   0.0719671148238680    1.1008669928273052    0.4519585271931363 O
   0.2555152293539527    0.3527940507872774    0.4094546374406232 O
  -0.1316051846749783    1.0132602205508372    0.5565062990876238 O
   0.0020793563897777    1.0062015874917638    0.6282076430131247 O
   0.2114175438811915    0.5974106344970137    0.3747530436298999 O
   0.1419691300617743    0.7310570604096488    0.3607074814981785 O
   0.4224689033298213    0.3966406430909435    0.6283620491255612 O
   0.1133144758047748    0.8575159316405502    0.6409215367078941 O
  -0.0830582848536236    0.8947275900558328    0.4200412329487677 O
   0.1234772104441867    0.1863346328498099    0.7359729955562885 O
   0.2735705247569580    0.0785526719374221    0.0079839113307944 O
   0.4005805641988011   -0.0011640970322210    0.0393863387303750 O
  -0.0417116039727396    0.0254042103403893    0.9305678500262291 O
   0.6573346451737967    0.1821736003692366    0.8478641603352546 O
   0.1757374563895587    0.3352202914345564    0.7471893522391738 O
   0.2821343442429699    0.4465216035834860    0.6662400935724776 O
   0.4782925333442021    0.5641857901533036    0.7080517854427756 O
   0.7638029435295928    0.4980124118625587   -0.0411253235740013 O
   0.6500405724301913    1.0181466984864893   -0.0796924642956342 O
   0.7838658941996492    0.9755537818539924   -0.0276265883295549 O
   0.0554631275726728    0.7153746161050397    0.6587551055630571 O
