Li1 Co1 H90 C51 N3 Cl6 O45
1.0
  14.1703447463999996    0.0000000000000000    0.0000000000000000
   0.0000000000000000   13.8292672961999994    0.0000000000000000
   0.0000000000000000    0.0000000000000000   14.2930265110000008
Li Co H C N Cl O
1 1 90 51 3 6 45
direct
   0.6739360998133915    0.2699078026444431    0.3042786810863979 Li
   0.8963527069182187    0.7854499385578230    0.3736096936075990 Co
   0.1414656387883066    0.2198552593553131    1.0535636552489984 H
   0.2093574238660416    0.2544644681983235    0.3817913058021893 H
   0.0352868529558558    0.2948404323069519    1.0448692055532423 H
   0.0275396878752116    0.1729482189383383    1.0753700934977577 H
   0.6363872603516576    1.0411200275271457    0.0220781270682693 H
   0.3624828445126529    0.2667912239366294    0.2406168667533929 H
   0.2988661847818430    0.6494810575082332    0.0953124416617826 H
   1.0478599594531597    0.5088579168640164    0.3291873314499864 H
   0.3265832239244356    0.3786171050102376    0.2555640159688220 H
   0.4510524610224312    0.5029409728750543    0.2508974046007771 H
   0.6437766359719367    0.4410291606537905    0.1934064316869859 H
   0.9348062526682918    0.4386720581911779    0.2259481750079012 H
   0.9089593162278040    0.5401342665603485    0.0824852073556753 H
   0.7467480192454945    0.6101991499158279    0.2772214304962328 H
   0.8443476207196476    0.4536029287555742    0.3212946713535974 H
   0.8513171053558694    0.6472922213716782    0.1223130212593223 H
   0.2053031823477048    0.6785397192140794    0.2768695106284477 H
   0.1981149309802935    0.8056925149723321    0.2675236943384411 H
   0.0512504730405025    0.7897299917762798    0.1953087579703014 H
   0.5462710336222818    1.0122030942265736    0.1768459082864427 H
   0.4192161149014513    0.8297675431621108    0.1303575036445967 H
   0.7870116832713785    1.0120657044459507    0.1804700532469333 H
   0.6693850461055145    0.7413868665997417    0.0624425662971472 H
   0.7144248818626611    0.9445415196862424    0.2511345831995427 H
   0.8292216655057173    0.8912820096757311    0.0982362450961244 H
   0.2103439912537935    0.0461468517768369    0.3703192778259026 H
   0.2512300819148686    0.3014994980425100    0.4857697738233769 H
   0.0335063740436254    0.2348965479170836    0.6130432381662850 H
   0.1117648793832171    0.0528746124027065    0.6076280099820770 H
   0.4245053299023102    1.0218905199687032    0.3526603166670639 H
   0.4121626520684181    0.2268230905452184    0.5518422742328040 H
  -0.0181635050668325    0.1212535062187108    0.3838692421984552 H
  -0.0156737985260680    0.2645387546385228    0.4513143000564326 H
  -0.1585016574258439    0.1979025417241035    0.5890672104344213 H
  -0.1782612331461971    0.1050834521435071    0.5131874848098082 H
  -0.0454641817210319    0.0072221576140512    0.4498070615451614 H
   0.1644142688900982    0.6017489553034127    0.6096849571218149 H
   0.3137119774400240    0.4679489093307355    0.4427867849142619 H
   0.0838657698643441    0.6928564574590915    0.5721640024389654 H
   0.4133552836029680    0.3681906668691786    0.5122924770247073 H
   0.5166461651019413   -0.4283330942289088    0.5717572306474539 H
   0.1363704910489869    0.8382191839827432    0.6714556394416527 H
   0.3432807711072668    0.7670295844968383    0.3691263884132314 H
   0.3909182853725069   -0.3326664206688761    0.6645774600774473 H
   0.4532980662331361    0.7910561647113447    0.3178930125123028 H
   0.4843745860977552   -0.1971733421227066    0.5031608421047307 H
   0.4640778321974615   -0.3212124515895797    0.5320308648170253 H
   0.6027423484929590   -0.1532707992767215    0.4514584962487795 H
   0.6321495370587746   -0.3030770005473604    0.5203192094953779 H
   0.7420995790572815   -0.1888063044827736    0.5554389932314314 H
   0.7235008784104990   -0.1589052264904765    0.6823448657283470 H
   0.6520276702334500   -0.3276625402377694    0.6524659594189428 H
   0.1058659403315588    0.3352727985360466    0.8914069560911065 H
   0.1932117334051144    0.2474583124906655    0.8999369899440607 H
   0.1869352453173708    0.2975202561332065    0.7536579637076697 H
   0.1311631371475410    0.1794677255809480    0.7499351692414977 H
   0.0391554956022478    0.3554633114547407    0.7119705016756475 H
   0.1191076788607269    0.0839492883631664    0.8518499035966700 H
   0.4908981394519165    0.2185717495626520    0.8772504022048965 H
   0.6296965268729193    0.2524846091491371    0.8941782375946787 H
   0.6051861845900870    0.2873411195972687    0.7385869778787258 H
   0.7151750400409016    1.0609251259559873   -0.1290151349737463 H
  -0.0561110645386380    0.1730689773244648    0.8305528046396554 H
  -0.0948306588618029    0.1965647991233018    0.9426893069239336 H
  -0.0410457994501344    0.2958874870561199    0.8834142472052677 H
   0.2904104977717976    0.5282945937495561    0.8646778375446615 H
   0.4226909774317020    0.2835954403150240    0.7865579236733286 H
   0.4136234492734585    0.3265680712774247    0.8989693852181226 H
   0.5053322272359814    0.4705748105605121    0.9420904134710031 H
   0.5737853254040010    0.5080285164515194    0.8443483433135850 H
   0.4281672027027713    0.5711659901367611    0.8094621000384989 H
   0.4102777296845230    0.4614327000428609    0.7568308396528097 H
   0.5461988406009892    0.3844337544593450    0.6902962957430143 H
   0.6554100861772948    0.4051891563076317    0.7510350062835617 H
   0.5863409832361931    0.3266056726910688    0.9834616373713377 H
   0.6792514256821667    0.3696592913136263    0.9078821231817695 H
  -0.1393694482346119    0.5142647832148133    0.7505123737960161 H
   0.7826681051085651    0.5426260110079715   -0.1169826938481637 H
  -0.0435820821336683    0.6332321850851984    0.7844233162844373 H
  -0.0420274269439562    0.6374232964983046    0.6587165600129627 H
   0.1336436695995782    0.0765627798944156    0.9800417878410524 H
   0.1750519776189769    0.6979630186736111    0.9297207449572048 H
   0.0471849403360399    0.7879786336253923    0.7925076782571147 H
   0.0270033565342305    0.0463232891793211    0.9182011413327881 H
   0.5618046006553578   -0.2025257587341303    0.7438070059772242 H
   0.5732001596830253   -0.0829814644059508    0.6980889070499534 H
   0.6540579666387162    0.9296896844009098   -0.0377608440091139 H
   0.5303984487257752   -0.0747373544644699    0.5247833445021166 H
   0.4653979835653210   -0.1570692651588897    0.6707189165375220 H
   0.6896223801388206   -0.0750150264421498    0.5936057873376458 H
   0.0652797718019533    0.2251953831968916    1.0336637411348604 C
   0.6567636171141389    1.0811221468116583    0.2030349032982354 C
   0.3677889962927006    0.6424452545321249    0.2077679806452854 C
   0.3784415247033696    0.3302747029378081    0.2859382687322856 C
   0.4838176483420944    0.3627767864085288    0.2826744393421912 C
   0.7805785299761377    0.5791721988265318    0.0132885260762531 C
   0.7714954764369711    0.4174174252663542    0.1455642199990879 C
   0.8832958615618625    0.4898749878065865    0.2621889249709235 C
   0.8031425540505155    0.5167518997961416    0.1874363874885560 C
   0.8419680032436109    0.5762631509978696    0.1022941680248591 C
   0.9295036293839084    0.5784187243454316    0.3039722379410900 C
   0.2183663789962569    0.7406941328637590    0.2279715393371945 C
   0.1612823761384222    0.7285640614429764    0.1348876848452100 C
   0.3332584320222506    0.7540946982032490    0.2150953300991887 C
   0.6069271443508767    0.8644967872871391    0.1186797809543362 C
   0.6977739108225991    0.9236264564507898    0.1075470792919178 C
   0.7139090157965332    0.9883384893323803    0.1931174795887846 C
   0.2542420058139567    0.3133446664445274    0.4124545106638542 C
   0.1039993661251183    0.0547156354630530    0.4484212109008100 C
   0.3606310899880027    0.3117711919043412    0.3871050859131789 C
   0.3950600335833196    0.2068010608838144    0.4099190084752792 C
   0.0015861908656605    0.0757933971229275    0.4506841326112755 C
  -0.0252197906963972    0.0746349843410441    0.6306658179471419 C
  -0.0288477899384806    0.1312280042919314    0.5373701818567906 C
  -0.1323032828171871    0.1662421514357250    0.5269648978614421 C
  -0.1458858740275313    0.2391433383465475    0.4469637868916984 C
   0.1352710117999758    0.6764159624472934    0.6216348405050544 C
   0.2068564261391511    0.4061637560251238    0.3975899191907684 C
   0.2174828436819039    0.7474305707389312    0.6065750489462588 C
   0.3772079626191133    0.8003155128212178    0.3045186582527006 C
   0.3597172096109364    0.9072749032443421    0.3149762054968037 C
   0.5040310591747961   -0.3521540763940679    0.5899760452420810 C
   0.6048904966534145   -0.3034891698892290    0.5921806168193988 C
   0.5491154245472267   -0.1532035505946272    0.5118926666699443 C
   0.6980413707939567   -0.1519489649663078    0.6076329074752669 C
   0.1242472856454173    0.2526798472584432    0.7723957726520444 C
   0.0874373131757979    0.0944444213945369    0.9217805092126860 C
   0.1228775236285172    0.2623484722937509    0.8762065365135737 C
  -0.0421142279372992    0.2161927370455507    0.8932638056519449 C
   0.1591151741013792    0.6605741976373674    0.7981754771615424 C
   0.0903772557633334    0.6779402659080986    0.7200079876420793 C
   0.0034040718319330    0.5085441619913202    0.7265517381856060 C
   0.4624890211697185    0.2917014373717736    0.8519296627714762 C
   0.6175055743525942    0.3268001876962665    0.9126270944408520 C
   0.4224496283282606    0.4945896989046876    0.8239929623327905 C
   0.5113800123487445    0.4627026877886922    0.8665039028625923 C
   0.5912493324150421    0.3629879328082229    0.7489598684548329 C
  -0.0009126897638313    0.6136628185957415    0.7228877136377123 C
   0.5431089369477191   -0.1553960022517248    0.6852917573448696 C
   0.7844655207999844    1.0181513486234355   -0.0211009714610051 C
   0.6895115853749599    0.9774861428713905    0.0112105896799872 C
   0.5984375837824535   -0.1902351582012515    0.5989937294883676 N
   0.0541692446540519    0.1976682559929361    0.9304630649964096 N
   0.5461401970030478    0.3607412483429847    0.8416036482016149 N
  -0.0112335395820515    0.8707509147219140    0.2754324461981682 Cl
   0.3953162023685513    1.3434961339712688    0.6374649377784253 Cl
   0.9381456209650314    0.7787026541210227    0.5192235423189442 Cl
   0.7377545894962023    0.8086579649214605    0.3582560524574122 Cl
   0.5754482348406952    0.0593413324453926    0.8472931360044547 Cl
   0.7465363095056337    0.5790377014623430    0.7579670580728555 Cl
   0.5657330865882172    1.0789607886312278    0.2016279234689793 O
   0.3967459488117454    0.1465534727683587    0.3466252057733974 O
   0.6992615245946886    1.1572389776931644    0.2138373739912809 O
   1.0197187951317124    0.5748198351972209    0.3313520234399011 O
   0.1373330646662212    0.4107338463015165    0.3472150038818325 O
   0.3383034751231365    0.6021893257055144    0.1318246526758996 O
   0.4186169763376449    0.6085374566743997    0.2695442601001973 O
   0.5016540527855509    0.4474812016830731    0.2451379526095108 O
   0.6824066065052272    0.3872198745895551    0.1662015566592410 O
   0.7201191681657871    0.6436260835413731    0.0044891300978571 O
   0.8251434302168630    0.3695775805493611    0.0970846345546249 O
   0.7261020854142568    0.5634555310273837    0.2291126552504300 O
   0.8782628153462354    0.6511196114181881    0.3155429154230581 O
   0.1979469745866705    0.6954270925649564    0.0635703890145817 O
   0.0696226442656338    0.7474927576922656    0.1372608701166356 O
   0.2843944126640828    0.9469805498443528    0.3009665764062893 O
   0.3522798464496220    0.8061328853744338    0.1302924369493601 O
   0.5340023130575146    0.9013389416173255    0.1556054803220535 O
   0.6065136046590149    0.7732822657233962    0.0953712115800609 O
   0.7701645278723788    0.8494771918486249    0.1054957292872540 O
   0.1415143320284746    0.0721865538295228    0.3670078727876782 O
   0.1518210678640374    0.0300505543207045    0.5161014393853453 O
   0.0635134068723803    0.0465525131817287    0.6637071055734222 O
   0.5437267765385465    0.3039992689457378    0.2963328482068048 O
   0.4046660101799427    0.1777329988245571    0.4990915849774708 O
  -0.0887461209381999    0.0528760586109236    0.6812849082736862 O
   0.0305586687656284    0.2155730368245306    0.5472037185043180 O
  -0.2242876362910955    0.2541542565357592    0.4178606435035668 O
   0.2439444440671212    0.4839585499905004    0.4342434578655068 O
   0.2928952644186319    0.7314600933976849    0.5645122290433285 O
   0.4154617955145842    0.3799534014028222    0.4435285452399592 O
  -0.0709857908612667    0.2860706256785613    0.4084217748429530 O
   0.2047746136971854    0.8345031519689486    0.6460810275831440 O
   0.4594790732282024   -0.3475262100994028    0.6744340149429672 O
   0.4373483484214069    0.9502359645410062    0.3449082845894121 O
   0.0386495093239802    0.2824305195961637    0.7221558882267716 O
   0.7826335258510546    1.0595779830017746   -0.1058255047197960 O
   0.0740720772983776    0.4568880630310888    0.7125924833107586 O
   0.2271346907221636    0.6096409135440339    0.7871477217817636 O
   0.3440683313395495    0.4906845751665095    0.8902280595161207 O
  -0.0796348394337184    0.4697680151055522    0.7368532652895181 O
   0.8023507596234355    0.5181801027209219   -0.0477034548263982 O
   0.1279373864111933    0.6992971457538700    0.8783579353076875 O
   0.0584669523732287    0.7751551053645185    0.7283861992061479 O
   0.8565498644260986    1.0141178739059913    0.0253258646950256 O
