Li1 Co1 H90 C51 N3 Cl6 O45
1.0
  14.7202496291999996    0.0000000000000000    0.0000000000000000
   0.0000000000000000   14.3659360750000005    0.0000000000000000
   0.0000000000000000    0.0000000000000000   14.8476922730999998
Li Co H C N Cl O
1 1 90 51 3 6 45
direct
   0.7677722591321448    0.4204650157125247    0.3847437050503536 Li
   0.7470423117680264    0.5362901169320428    0.5861036164095472 Co
   0.3038888215541160    0.1482842138777929    0.1248353011705442 H
  -0.0588421194625538   -0.0062222511664629    1.0068585650636426 H
   0.3889756938253214    0.0767232661864674    0.1624855965644481 H
   0.5530935628054614    0.1559843734373571    0.1322505949397632 H
   0.5573676071718829    0.2323420847812731    0.2477156765474963 H
   0.9535917981278741    0.2568451869921048    0.2487461397143360 H
   0.9360092158674083    0.2663370849991757    0.1324627491211714 H
   0.7727789677041111    0.2588373996715004    0.1112096146814370 H
   1.1443603021095972    0.3331673976907906    0.1126468750723101 H
   0.0996089977911392    0.5436145265250319    0.1664350318653292 H
   0.2017410973051136    0.5704314354955810    0.2573905807250469 H
   0.3000743481984048    0.5781357716016428    0.1841482222495672 H
   0.4440651128519790    0.3193235382331325    0.0281280167259826 H
   0.4328091896051798    0.3774339179286652    0.1283961238915125 H
   0.7753169681416777    0.4800461662572169    0.1543853478666827 H
   0.8890446590552307    0.4840338632440978    0.1131567186130275 H
   0.9273116731473424    0.4500787490452480    0.2960901974352490 H
   0.6182007467284073    0.6695346190658864    0.1072002374054914 H
   0.7552038581430064    0.5167284957099463   -0.0030162171047373 H
   0.0498007392038936   -0.0324140703445250    1.0477679527871788 H
   0.1903336820621748    0.8113603928520892    0.2536559936269252 H
   0.0291523121964421   -0.1839732857435815    1.0473086221467967 H
   0.3140163671973824    0.7532012867807503    0.1415065787971998 H
   0.1634720452040851   -0.1264608482883006    0.9571734027885239 H
   0.4503479546739371    0.7217337932850296    0.2961831411718659 H
   0.5287959449654412    0.9045106054810285    0.2763989218738814 H
   0.5754217846956673    0.9224245095006801    0.0657096145754306 H
   0.7032889776722238    0.8902838959277494    0.2959063304780286 H
   0.6356440650462335    0.8240208974687366    0.0171465121930929 H
   0.7491672757318133    0.9521956290272579    0.2097205464206369 H
   0.7445654515979599    0.7462403759512761    0.1013575786000441 H
  -0.0855617750327818   -0.1773165667173554    1.0019177299055146 H
  -0.0062839075104073   -0.2469382046515894    0.9441983224557352 H
   0.0850562554534644    0.1862664238188182    0.4247216348917072 H
   0.1616840320478551    0.1123951498231903    0.5547619108137832 H
   0.3330228383542989    0.2813851820303328    0.3895121228420040 H
   0.3640814149081292    0.2159018055842212    0.5928891826879197 H
   0.5927317492967126    0.1299366451134651    0.6049341521492017 H
  -0.1973255046869650    1.0473812119827355    0.3774779294661270 H
   0.7347076024680002    0.1880853098185598    0.6186709670190464 H
   0.1132045552742820    0.2946401484318174    0.5496830744119391 H
   0.2004884011576637    0.3654862105809558    0.5908666461584952 H
   0.1938866109402460    0.6231116086530407    0.3952261421279308 H
   0.5103072163870801    0.6491161793297900    0.5725794271748470 H
   0.4212013701521012    0.5853709423177982    0.6227369187433676 H
   0.3927344616039767    0.6774380372216713    0.5506978449044080 H
   0.2447566721730795    0.8071894150830683    0.3604079366794916 H
   0.0365577572633356    0.9619659634675076    0.4630604547924479 H
   0.2967639423814181    0.7623138151476149    0.6807984669047512 H
   0.4318370593519255    0.8331278571069376    0.6004566886634825 H
   0.5450224360927510    0.7855416784944869    0.6089906747987934 H
   0.4957727957495662    0.8490940982765024    0.6976812252074772 H
  -0.0637075260829640    1.0438569028297726    0.6161951613972799 H
  -0.0106928001334821    0.9462078535317443    0.3540177180344098 H
  -0.1994586206864188    0.8823700364057203    0.5115825204945532 H
  -0.0953910920379081    0.8413319866105557    0.4682877317707440 H
  -0.1692213617260088    0.7744571240896323    0.6097207545849727 H
   0.1081136090004264    0.0928001858382208    0.9539978251207794 H
   0.0522599366300154    0.1237574445701409    0.8145121756402763 H
   0.3406144215689155    0.1785119691547841    0.6999596937652672 H
   0.0060779752418412    0.1345057869819319    0.9911369299632903 H
   0.3141726145476609    0.2527298965097198   -0.0318570626801685 H
   0.5245315471745587    0.0896190495891511    0.7608950892030594 H
   0.6414917919644814    0.1813123435814815    0.8588254593410726 H
   0.6607095367124264    0.2754698000074458    0.6654876700604591 H
   0.6417445050701491    0.0586687517680605    0.6887350538054303 H
   0.4642593356055340    1.0023538641911993    0.9473382043405761 H
   0.7270277055336610    0.2654975991531412    0.8991091606057890 H
   0.7351022968615296    0.0682866422611448    0.8107957731862753 H
   0.8594330688322401    0.2642251446535133    0.6811830384526372 H
   0.8124474525945901    0.1022419652873195    0.7211589477779773 H
   0.8400122025289329    0.1392858444485317    0.8400770912526302 H
   0.8613800466839707    0.2862940163472780    0.8047234490606370 H
   0.7934090526313125    0.3537320165543059    0.7219341524217895 H
   0.2132442989671361    0.3203760279505490    0.7616157399145094 H
   0.3189395174037651    0.6687591735994830    0.7544610927110205 H
   0.6327711518100265    0.2932549271767521    0.8153580983445579 H
   0.4807162576076893    0.3826977586979134    0.7045503061477375 H
   0.4093415169296605    0.5786125939934617    0.8069857534903198 H
   0.5719936498969274    0.5145399157360514    0.7191525753766600 H
   0.5155391127162856    0.5775928205569437    0.8561287439685064 H
   0.5777586336531582    0.6694754513238359    0.7175657968007945 H
   0.1178484982590801   -0.1693978345577457    0.8429145692407973 H
   0.1430437231596347   -0.0501344610431172    0.8733677865949305 H
   0.3666438714526959    0.7712544090169913    0.7867853078935726 H
   0.5126448126145070    0.7214741513110903    0.8090487003400125 H
   0.6319376061631061    0.9557046241763957   -0.0806006644930376 H
  -0.0522165524744415   -0.1498940585046422    0.8069237909992417 H
  -0.0120664181433215   -0.0343436348264553    0.8010898877631858 H
  -0.1161013386491653   -0.0558236134640464    0.8717850490510918 H
   0.3985808298496134    0.1072900178208541    0.0175048170328045 C
   0.3784194869732475    0.1366720224320642    0.1155382334875015 C
   0.4294125080773871    0.2407362471505359    0.2419854931334622 C
   0.4367153733621413    0.2239444419565956    0.1396295194207408 C
   0.7686085221242872    0.3126709957534041    0.2293767997044387 C
   0.9436775640845529    0.3089093195411563    0.1909135833678056 C
   0.3096536694430856    0.3327539195875198    0.0692300269761307 C
   0.2427016798487650    0.6151810429450209    0.2131028902270872 C
   1.0313493109984087    0.3628849182039813    0.1726171373610296 C
   0.4047145573525013    0.3169693581906044    0.0887798664165595 C
   0.3411653633127233    0.6566283942969585    0.3380920108167029 C
   0.8565431721883940    0.3660235928969912    0.2098741056376561 C
   0.8313941421566173    0.4341074264107778    0.1297700747806321 C
   0.8042960962641933    0.3950345809609904    0.0401204527709158 C
   0.1902331402889522    0.6324531509861950    0.1325779185339358 C
   0.2824557611137444    0.6978717909615926    0.2638690285693809 C
   0.2120541017597976    0.7672316986486382    0.3069100606870659 C
   0.0120948569001731   -0.0106124976266122    0.9865025397338628 C
   0.6136424001181096    0.9988017113949186    0.2369645108401355 C
   0.5918126072752918    0.7714131177839032    0.2033417773662978 C
   0.6417852652484827    0.8837072273760622    0.0689511957662799 C
   0.6703696989774687    0.8393947651267132    0.1644023927558375 C
   0.6877111168494612    0.9186788433833400    0.2330211370872946 C
  -0.0097512400139780   -0.1800605577663341    0.9827228277781084 C
   0.2249288834227428    0.2923639305905794    0.4607929643716641 C
   0.2203936342468341    0.2192924652492581    0.6193801681397537 C
   0.0102450241401372    1.0825881067760494    0.3844702618832053 C
   0.3204483233384106    0.2329602136629304    0.6480209826298573 C
  -0.1340106816726048    1.0815578919732873    0.5100304274435845 C
   0.1871489534617165    0.2993220570557217    0.5578781526612673 C
   0.4417302339697743    0.6508849467715595    0.5983492904614945 C
   0.1249339759260555    0.7302226240415732    0.3472806441403591 C
   0.4845405813398310    0.8007192484670722    0.6426093672406042 C
  -0.1130456839467631    0.9861460794158519    0.4619200082039448 C
  -0.0163747689931736    0.9878368846563310    0.4169662209268973 C
  -0.0964236832223571    0.8886982004407952    0.6042141749430895 C
  -0.1271235702068524    0.8953590960135190    0.5098398456381462 C
   0.1618579421420781    0.2109219699768155    0.7064920220366255 C
   0.0359660553411942    0.0847227449116991    0.9456524204800535 C
   0.6193107822516899    0.1308401713391308    0.6757256247004136 C
   0.3581997211746034    0.3215426766055688    0.6920305154233040 C
   0.6836989566288326    0.2397408369019211    0.8381744386733346 C
   0.6875806842787939    0.2051701693584210    0.6759337378497948 C
   0.7895782752042679    0.1217130250595244    0.7876931930889319 C
   0.8178013020186968    0.2840797506124222    0.7437415817545363 C
   0.4816137967345932    0.5766370875000570    0.7873039070036814 C
   0.5118855727726886    0.6735726434380643    0.7516990473206874 C
   0.1161780102837116   -0.1152656154012574    0.8959524410875030 C
   0.3537731658075841    0.7303138119734394    0.7249029639508283 C
  -0.0452438446341888   -0.0833171229672202    0.8445074093647031 C
   0.7120001071184008    0.9535543988211712    0.0329590705140488 C
   0.4470120737454918    0.7146427134230444    0.6807519950364428 N
   0.7463840348879400    0.2113340558979203    0.7596403487587311 N
   0.0222964502007455   -0.0983819261843680    0.9290006745081940 N
   0.7063127035682648    0.6567877991549534    1.0130022807550882 Cl
   0.6618800331669039    0.4726474600785804    0.4775703190890239 Cl
   0.8828857961090371    1.4961295543353585    0.5469569268561110 Cl
  -0.2606872019064088    0.6882970581156509    0.5733791474129551 Cl
   0.7084213634607185    0.5023776731165777    0.7332254694100689 Cl
   0.5229912879689659   -0.0647468050563492    0.8485976072811852 Cl
   0.3575040807977115    0.2499740719123310    0.2788929121397686 O
   0.5258019060659531    0.2142318830762304    0.1120184945921393 O
   0.6277936546991991    1.0782535476025359    0.2123835865263128 O
   0.5098463682241153    0.2514964231107370    0.2903088276155418 O
   0.4412254870947444    0.0272896618398742    0.0104720742954579 O
   0.7356444072333653    0.2575384937107205    0.1693391868819389 O
   0.8107817199733607    0.3102186668681804    0.0144700019806609 O
  -0.0035584102525065    1.1081966016266016    0.3071235618791497 O
   1.0840128200779167    0.3079264389320346    0.1259378294085289 O
   0.2612726964338185    0.3812157807823184    0.1192431863507598 O
   0.1121529426732774    0.5909654263514464    0.1243699089821218 O
   1.0533509759265325    0.4369682911525833    0.2075915960478393 O
   0.8669152789016616    0.4203027568810896    0.2921205569742339 O
   0.2096383818572315    0.6948660696654255    0.0791164118297516 O
   0.5766721710996784    0.6966069934638770    0.1595464192702727 O
   0.3420192890488105    0.7440741405011438    0.2025268359075553 O
   0.5365719000533864    0.9735816353686512    0.2766407102901530 O
   0.5497055767823799    0.7877253162216930    0.2729633711457446 O
   0.4326196547759289    0.6712156790312044    0.3365954819561030 O
   0.7504016297990131    0.7888627290512290    0.1538526051444800 O
   0.7857291556969732    0.9807959233523181    0.0640393213376774 O
   0.2231238868588738    0.1334936705473263    0.5731958866105389 O
   0.0578984279661512    1.1271497696330939    0.4496066468655482 O
   0.1682022638996891    0.2771752231606669    0.4004895863428669 O
   0.3131203226103507    0.3052311742588622    0.4512337010606144 O
   0.7217750772190825    0.3355577744696320    0.2932978443047148 O
  -0.0902553095678857    1.1009649113658611    0.5841100406096481 O
  -0.1766533009088191    1.1433429364956995    0.4693306547863330 O
  -0.1760622783229832    0.9826015836214835    0.3852111177547894 O
   0.3075191947710207    0.6072609186032454    0.3969711944581802 O
   0.0541844963836627    0.7748448468228341    0.3392470724710362 O
   0.1314474524237506    0.6490966887794675    0.3899034294432679 O
  -0.0469775108859742    0.9448824961098123    0.6394614032917096 O
  -0.1196929896966533    0.8086915796400689    0.6482560359927507 O
   0.1118893601867207    0.1432967212684747    0.7135395818914038 O
   0.1675630084361586    0.2717018589754514    0.7714138955688781 O
   0.0119127947702834    0.0905650373708766    0.8534340491119538 O
   0.3719325045914691    0.1551615937773133   -0.0473914632966115 O
   0.5453517783336859    0.1511214811318865    0.7358130769179108 O
   0.4463218680590444    0.3269840206009688    0.6851250651948024 O
   0.2720374595316988    0.3031589111049278   -0.0075933593804514 O
   0.3088241998139986    0.3761851305258576    0.7338814636090898 O
   0.5024537965802121    0.5046596685138041    0.7307483167776269 O
   0.7691288937343451    0.4516977872950754   -0.0203704291439259 O
   0.6871248496177642    0.9893989130464650   -0.0487519440789750 O
