Li1 Co1 H110 Cl3 O55
1.0
  12.7356599823999996    0.0000000000000000    0.0000000000000000
   0.0000000000000000   11.7849720444999999    0.0000000000000000
   0.0000000000000000    0.0000000000000000   12.9956438039000002
Li Co H Cl O
1 1 110 3 55
direct
   0.4497183498236482    0.8128011662760293    0.4769694749666668 Li
   0.6475282790681047    0.5134512835033820    0.7127646418887087 Co
   1.1551313407809498    1.1529945909919634    0.1905004045476414 H
   0.0778366407842173    0.2975458074112702    0.1283011005195161 H
   0.1259110241177948    0.4204820345426828    0.1213718555079703 H
   0.2990335794503772    0.2277450478597103    0.2605261773167366 H
   0.2942666494221025    0.4200153384844120    0.1965339648070007 H
   1.0280550838585336    1.1365244628264424    0.1954482163659912 H
   0.1414484992288970    0.1104572006946350    0.0034347203319473 H
   0.4315559616694687    0.1291423532065384    0.0409136561468726 H
   0.4558797894434591    0.2738563154934432    0.0032722043356743 H
   0.4337851355041371    0.3253133743400964    0.1158107612605032 H
   0.3914057063464901    0.3937361077123258    0.2670822203482046 H
   0.6104183059176644    0.2880812113495379    0.0897579542500191 H
   0.5070620603976781    1.1135375606108848    0.2826451276617541 H
   0.3352240870987404    0.0626989202443500    0.0011281781973433 H
   0.6855278802406228    1.0672582823961745    0.2061933554377541 H
  -0.0169069376143492    0.4197599284597947    0.1927542367118633 H
   0.7215275850563603    0.4012023961063712    0.1932505568709357 H
   0.7126234528671598    0.2111781863293838    0.1333066239842696 H
   0.8669719517055816    1.0811912810812778    0.1915215159446788 H
   0.7143854345807901    1.0520694470451786    0.0825663905683527 H
  -0.1205481310683268    0.4695911879470899    0.2485652462274009 H
   0.3154002224267171   -0.0117885708320231    0.2439498534923368 H
   0.2604215247410357    0.5370593157455835    0.0555288689724966 H
   0.2260071323494602    0.5999080011054837    0.1643270186706044 H
   0.2511891802718453    0.7923980631467166    0.2041980714494212 H
   0.2735319564132650    0.6970554525951383    0.2830975869695597 H
   1.0824692250147585    0.6899964625792202    0.2869227148932015 H
   1.0033763471119224    0.5809007434595447    0.2851752062400953 H
   0.3823853650246617   -0.0323442411454759    0.1483547434118975 H
   0.5944371945907865    0.6440048388440621    1.0289390509446816 H
   0.4503300181636294    0.8453935219090881    0.2874282689156984 H
   0.5754252234534750    0.7012743849619066    0.2040572550321960 H
   0.6799953832913189    0.7078217063903024    0.1297115731576242 H
   0.7079939322862493    0.5331738589259070    0.1860820008989690 H
   0.9248331069985429    0.9932063460229111    0.2621043984737249 H
   0.8950819986520875   -0.2181652165140187    0.3027426314054024 H
   0.8382887110643565    0.7227474948720911    0.0298232783114361 H
   0.7794005183019529    0.8436862628741046    0.0194930244182268 H
   0.8355248181802308   -0.1666020903813948    0.2176748951176292 H
   0.0053720805434935    0.4355995926775065    0.6522151214591124 H
   0.2271378158020571    0.1683278513355323    0.3399197045300913 H
   0.1692138447617292    0.0807794892262207    0.5412302390043348 H
   0.2372574327027992    0.2374387492591392    0.4967853458758647 H
   0.1138905241820584    0.2434760991765881    0.4558700970414491 H
   0.5964276685854621    1.1085057285644375    0.3556480518966649 H
   0.3382989179323303    0.3628230093507542    0.6141046586399199 H
   0.4117572232963920    0.2686632611723206    0.5832135380415295 H
   0.4179767674825169    0.3844437649230098    0.4593789651427982 H
   0.5693721409978714    0.4115214702238830    0.4117976364044380 H
   0.6072751629588136    0.1812858795279937    0.5726630795903019 H
   0.4088362910438500    0.4977635076391801    0.3968303132817753 H
   0.9835736827546352    0.3513711366190760    0.3687108906880032 H
   0.6707033638621304    0.2768346848834988    0.4305854705190301 H
   0.9844923630598702    0.3661654016662610    0.4946969537646670 H
   0.6726663559673333    0.4451685589486338    0.3639315968771525 H
   0.8774935893894693    1.0766091743273460    0.4033378785302643 H
   0.8418063929168802    0.0607037521683279    0.5966372669950460 H
   0.7356391427022431    0.1615616070288931    0.4513678191333365 H
   0.9045593245360072    1.1935207796156262    0.4621144971823368 H
   0.8312847552329925    0.4832025906211305    0.6165193139254536 H
   0.7311069865297506    0.4671236386062689    0.5394234797275874 H
   0.3001909595956049    0.9671392498227662    0.5828888138444309 H
   0.1340205371028091   -0.0296609933719050    0.6128796327589227 H
   0.2998470433787733    0.5720640657307586    0.5530095707796533 H
   0.5580535285192713    0.8950813784257510    0.3366932387518113 H
   0.3986161689473215    0.9266045758162258    0.6449049795813017 H
   0.4529722055372325    0.5722218938522829    0.6466471018140768 H
   0.5488408139711329    0.6734923928821884    0.6347708144727999 H
   0.5864415351478739   -0.1610577412091374    0.6080357019040996 H
   0.6430691462019258   -0.2221287388561696    0.5202901452231915 H
  -0.0061487201219424    0.6758564205519020    0.4663866979934531 H
  -0.0390070094118816    0.7569537703284792    0.5605828777650651 H
  -0.0321656678465125    0.9316533786284282    0.6500944108259286 H
  -0.0245028533449582    0.5493928197582498    0.5800232382283292 H
   0.7650463348318670    0.8356794555907527    0.4084672896626312 H
   0.8051306336201107    0.7455595982003689    0.4816648945180774 H
   1.0013583912277737    0.3993466428710289   -0.0085109748827378 H
   0.1744228406120957    0.0827896764299363   -0.1069315702222438 H
   0.1158134712483151    0.3305607351116360    0.7596241903027124 H
   0.2666960327061064    0.2040708296310630    0.7853828218142610 H
   0.2025109020470233    0.1344592941176747    0.6973009986069737 H
   0.0350323494672886    0.3908324096915935    0.8235779283815124 H
   0.5545421282414843    0.3648968369260522    0.8061720958261358 H
   0.3578809419769926    0.4711126170970529   -0.0792392138118596 H
   0.5715604845967516    0.1228979599468748    0.6730151683116492 H
   0.5966687240159810    0.2918631464981071    0.7059708268740571 H
   0.7203466490058703    0.2923714209324784    0.8781423663347285 H
   0.8926478884416358    0.3754008923902967   -0.0745253265335998 H
  -0.1504068113821475    0.1574131033400094    0.8812511003543448 H
  -0.1454553600959836    0.0734222380021531    0.7787336706599283 H
   0.7418508349199472    0.2851995753242875    0.9962126999906514 H
   0.7730200087632013    1.0092012927472840    0.9232574840501012 H
   0.1226328273021059    0.7082519153021993    0.7889132355969343 H
   0.2571299795790314    0.5819622648575389    0.8404605086761615 H
   0.0866925618873140   -0.0487341824428033   -0.0581990865102830 H
   0.0508231997473620    0.8349174682083398    0.6836949008508213 H
   0.1710724056869353    0.5157279117294559    0.7825149377323032 H
   0.0584582968003909    0.8061605056359793    0.8442540875664358 H
   0.2771454322805226    0.5461157648909007    0.6729651515514327 H
   0.4932755742444169    0.9610637156823678    0.9815693315764686 H
   0.3920676272843646    0.6074557491751545   -0.0419755732175651 H
   0.5534679789615172    0.9176779530289365    0.8773267083988886 H
   0.5396767816272037    0.7261009181853390    0.9523056794066646 H
   0.6461918740428825    0.6082678003165458    0.8906850308198142 H
   0.6668009355569869    0.9513479522874569    0.9739821737959199 H
   0.9529588578818905    0.6816510885190501    0.8862758610345663 H
   0.9058706032622827    0.5620504653968422    0.9232574840501012 H
   0.7748377394526192    0.6137561459618107    0.8701242949276984 H
  -0.0286039364511481   -0.0337257463317863   -0.1059135367796813 H
   0.7844414820281139   -0.0337178549257101    0.6718709387356172 H
   0.3363202218902857    0.6535144074350461    0.4176919192238095 Cl
   0.3916255614622729    0.3122458847085134    0.8500406419791869 Cl
   0.5925582185476862    0.9659428108370173    0.7178401888177655 Cl
   0.0603764541659110    0.3766592746710525    0.1126620138327136 O
   1.0908158674460813    1.1634994949944959    0.1472789983229312 O
   0.2652230034303620    0.1539391875898989    0.2747955742622230 O
   0.4037364375545328    0.0528344929414228    0.0375263980268255 O
   0.3477385543678301    0.3575349187414019    0.2119229676927202 O
   0.4819035683805553    0.2772691364868345    0.0741617280792791 O
   0.5667291684274262    1.0691590081607683    0.2972415572701952 O
   0.6896768603541797    0.2921737115114291    0.1080299231946234 O
   0.7370093111916747    1.0891081433061265    0.1528847229102840 O
   0.9204988204302548    1.0745557116709543    0.2491731422361872 O
  -0.0472421538916289    0.4528291626105775    0.2593103852991638 O
   0.7299621695339962    0.4734732506136154    0.2355416513556172 O
   0.2245081915779272    0.5243083308953368    0.1272730637249103 O
   0.2252886772389559    0.7134118766300991    0.2235537881646264 O
   1.0135996099958191    0.6603519289578575    0.3161048012694216 O
   0.3372294798334157   -0.0753180384601972    0.2011185779973161 O
   0.5129023545090778    0.8296259834458364    0.3305827296305803 O
   0.6221876213836190    0.6598750504401335    0.1548415324676811 O
   0.8466196495588376   -0.1539775377360251    0.2914172979151269 O
   0.7856616779207082    0.7746865234661949    0.0644114608426552 O
   0.1790021085951130    0.1976007251868539    0.4635926848188920 O
   0.1879478562169438    0.0327676994770830    0.5996882893682586 O
   0.3450751666794907    0.3032403478604620    0.5635438699698878 O
   0.5660609659148150    0.2004628448314857    0.6328663301414756 O
   0.4430410358785899    0.4198303571376792    0.4005023129702924 O
   0.6463324242776149    0.4216878074495971    0.4310333128951234 O
   0.6660259462738529    0.1892816558136045    0.4362365949348871 O
   0.9816499504915364    0.3081398079340179    0.4324668701917929 O
   0.8742585784000948    1.1137412097999484    0.4742123972458041 O
   0.8504592621166146    0.0038074780432713    0.6588673505679200 O
  -0.0346262391905423    0.4656514246769964    0.5939763753515229 O
   0.7555870684753152    0.4977677503306190    0.6042336586390193 O
   0.0218280789204622    0.8746061495419784    0.6221735162957854 O
   0.3248704815390581    0.5254742225027261    0.6104680554278638 O
   0.5285277716664930    0.5957976816395494    0.6605086697916432 O
   0.3641954949810093    0.9160911864308157    0.5772346114740990 O
   0.5738446222103657   -0.2181117586018895    0.5561683215594863 O
  -0.0496534933936601    0.6796807826148594    0.5331575339053757 O
   0.7530548086596034    0.8064837987236178    0.4777343466536714 O
   0.1802497863771800    0.0551518510053094   -0.0300141804350581 O
   0.1976544595787512    0.1761361006595471    0.7665772894614384 O
   0.0817378912940976    0.4024166543961631    0.7602436286407797 O
   0.6195776270805413    0.3534899367236255    0.7637024799819121 O
   0.7778489693420005    0.2814575214752433    0.9271587913469959 O
   0.9560446814712694    0.4195910693405294   -0.0736658077464930 O
  -0.1330987173921522    0.0859475965216830    0.8534725612186644 O
   0.2100291618099504    0.5859529404248983    0.7790399271301777 O
   0.0555644538389007    0.7475019023410633    0.7897966085312212 O
   0.0204847641630298   -0.0865170467821215   -0.0742829376187039 O
   0.3340345138829874    0.5512833630633904   -0.0524333082902372 O
   0.5480611135069463    0.9121794249242184    0.9537369282374779 O
   0.5516989304763084    0.6431461180968439    0.9587309093729507 O
   0.7017924476274923    0.5935668744810149    0.8376826547625934 O
   0.8889417593470127    0.6448601654381294    0.9181096051908850 O
   0.7408308642220838    0.9736984507871906    0.9840932542458601 O
