Li1 Co1 H90 C51 N3 Cl6 O45
1.0
  13.4411944743999996    0.0000000000000000    0.0000000000000000
   0.0000000000000000   13.0928206447999997    0.0000000000000000
   0.0000000000000000    0.0000000000000000   13.1359021999000003
Li Co H C N Cl O
1 1 90 51 3 6 45
direct
   0.8688229873797205    0.7800917847336798    0.4788641240072484 Li
   0.1787035178885931    0.3790277098136943    0.5435296328602655 Co
   0.2669449314221136    0.0245876601179789    0.0466895300122339 H
   0.3151400528626816    0.1054923046355607    0.2192083235837368 H
   0.0979339105395066    0.2972874928631895    0.2001171339430353 H
   0.0117272864030216    0.9914389096252901    0.2194915169223739 H
   0.5902517631383465    0.1441127068940172    1.0612593553038272 H
   0.6466678801318364    0.1979788690551940    1.1744879693240597 H
   0.8093944893008206    0.1141718705658504    1.1138518601418472 H
  -0.0503698733092114    0.2410100855733674    0.1331381029932846 H
  -0.1625035086695673    0.2711456851285867    0.1866441347301341 H
   0.1699736389910380    0.4444007889400733    0.2738456061303033 H
   0.3329688254808010    0.3829130452490502    0.1192700033966397 H
  -0.0263392709237475    0.4150298832786773    0.1263269986900963 H
   0.2035249726064331    0.3331453124069454    0.3515699972275340 H
   0.5376764506282918    0.5755101997057184    1.0228440266632226 H
   0.5422385451740399    0.3846727882887710    0.3028036475507773 H
   0.6301656265246545    0.5353263451893154    0.3284996366700149 H
   0.5474354047338833    0.6283383884333098    0.2903789204542828 H
   0.3873546169662435    0.6540135282003477    0.1225944800359628 H
  -0.0097946103711796    0.4977895902506315    0.2312775364621037 H
   0.7724937509814205   -0.3976773467883655    1.0116708314181242 H
  -0.1298159375733524    0.4424612527095755    0.1884072416448747 H
   0.2905447685202343    0.8299618637421573    0.2634808821906688 H
   0.0599000883986496    0.7190972884623840    0.1768724420023230 H
   0.6538272140871093    0.0388848085383497    1.2519055676377668 H
   0.6750730937255517   -0.0989907531128330    1.2293741879505571 H
   0.7716322204067343   -0.0099495883686254    1.2457841761431947 H
   0.7721239921769136   -0.1601746661696545    1.0716522463228424 H
   0.8635749418928145   -0.0663675306928695    1.1021229360332945 H
  -0.0166132008003677    0.8180293700314113    0.2335727727954124 H
   0.3046432179073717    0.1362717685060945   -0.3258543520545232 H
   0.0677409094060924    0.2366641923893347    0.3144709085936592 H
   0.2828348882564398    0.0359939112270027    0.4660995496789410 H
   0.4854779647469751    0.1934580708554945    0.5979862654625884 H
   0.4555155234797917    0.2089719166119223    0.4677630821617091 H
   0.5342244508757125    0.0370525066493348    0.4274941313161382 H
  -0.0858972217832998    0.1811818773323032    0.2592999740836933 H
   0.6703131001013352    0.1476803109472013    0.4829407834696192 H
   0.8697856994381351    0.1771766288512719    0.6739483109174941 H
   0.9037551506554072    0.1313721367353440    0.5491874855809233 H
   0.0983386364744197    0.5119493809504018    0.4027229359274822 H
   0.2616767984347616    0.6385699499611311    0.5420579410262514 H
   0.3830625877042700    0.5394994719342923    0.5373837283939079 H
   0.4824493648649087    0.6179059534595482    0.5697872126405583 H
   0.5985940276754426    0.4327327149517022    0.4436309749660258 H
  -0.0651029389141445    0.2858163206784816    0.4129206366991140 H
   0.6370958141785430    0.5173003516770820    0.5618007037275430 H
  -0.1670016208064872    0.3404042524457938    0.3537540877881517 H
  -0.0555107854604050    0.4219924777014616    0.3858173593922298 H
   0.2226281855306299    0.7384651547823669    0.3312942677080170 H
   0.0765667619168898    0.9278857591946780    0.3607273431158823 H
   0.5358655996621550   -0.0619574802105136    0.6129033984480556 H
   0.5197251442574515    0.7464405179858238    0.4295692837940707 H
   0.3722450967233213   -0.0587847490529614    0.4434812326818593 H
   0.8411253001906049   -0.0223411122733262    0.4563455184711740 H
  -0.0304802719416265    0.6331440755886586    0.4921623198480585 H
   0.2735046162899970    0.2101595904082617   -0.1161938385938668 H
   1.0528854979484055    0.1037440182562547    0.6501083039477114 H
   0.4044394080863608    0.2176721045309588   -0.1022595082970568 H
   0.6009755124505470    0.0827500699347242    0.6585508150377258 H
   0.6094740131022235    0.3377799134334323    0.7094121864024644 H
   0.6254703592907640    0.3111958786068164    1.0437234452083826 H
   0.7591080358693690    0.1053204547293380    0.9909543251699221 H
   1.0275201927555260    0.1937681644640565    0.9279734969473811 H
   0.6989816831453433    0.0557031860273483    0.7496043248612919 H
   0.0825186139009056    0.4546031741727048   -0.0671892106509988 H
   0.2902903268479176    0.4278727996037232   -0.1763084761713307 H
   0.1274045056383609    0.6738083460651242    0.8012589420831806 H
   0.2938666459088131    0.6775355795867551    0.7584388912453873 H
   0.3044445748474052    0.4875270193619540    0.0376402848069137 H
   0.7073589148128455    0.5201794257148810    0.9058745199922841 H
   0.7821625345294543    0.4192367689830099    0.8403221135495385 H
   0.9410025843528762    0.5547175830965447    0.7556495891142951 H
   0.8937337198773208    0.4671373716884387    0.6686498549042840 H
   0.1688323713731029    0.7053867210552534    0.9289151909255910 H
   0.1333154386399866    0.9379256126048907    0.8234035953832194 H
   0.2143320478464098    0.8955084730849532    0.9281036745304644 H
   0.0351984147019879    0.8463525259090013    0.9424133121282101 H
   0.2655633577803239    0.9586698057293777    0.8152503678111676 H
   0.3432707372836343    0.7435618411122528    0.8675870851175155 H
   0.1079136783537051    0.8651483229856030    0.6819218781994428 H
   0.1700450612148462    0.7328284778582611    0.6642816737830484 H
   0.2476058763630502    0.8531875695125005    0.6657966058902737 H
   0.6298821695739157   -0.0238564465575303    0.9668318861339180 H
   0.3525615782306830    0.8027813187966081    0.7489656173045273 H
   0.5974698716319616   -0.1159236972059801    1.0544627151765369 H
   0.5625025924295691    0.0081282579886456    1.0821730311076934 H
   0.0101850127576635    0.7206004023088121    0.9594239442568279 H
  -0.0504517112739916    0.8518120064853576    0.7826975980438001 H
   0.7766682311667097    0.6960296846057656    0.7188976407019755 H
   0.8120400875077156   -0.0513165340172017    0.9863684201377989 H
   0.3146296815550523    0.1658681412444548    0.0282050744868381 C
   0.0694669464814570    0.3091237506264506    0.2769424623173347 C
   0.6584800743756136    0.1769245823221452    1.0961553215666919 C
   0.3782170362077832    0.0585077764969033    0.3420441954899911 C
   0.7400673173910045    0.1025968246600478    1.0725695795837500 C
  -0.0872572199616474    0.2480544041737777    0.2062156872651367 C
   0.1425683365306372    0.3835515631228377    0.3268027604554394 C
   0.3471803600556347    0.4147045141228956    0.0418158640069794 C
   0.4555295847301040    0.4498703513775946    0.0339176626941842 C
  -0.0508073344300365    0.4313029237319291    0.1999861950875364 C
   0.2624044123398075    0.7064262220435608    0.1653467776287597 C
   0.1363508831518347    0.8369221668328586    0.2523244349387157 C
   0.1347409071901584    0.9203281822076824    0.1701412713027823 C
   0.2280071717611842    0.7743985882848609    0.2531519380545719 C
   0.0452815959444087    0.7630435102590233    0.2479798532623665 C
   0.7002196683580186   -0.0230071261321094    1.2147455772106368 C
   0.7950296945373985   -0.0794907533093988    1.0597931446312063 C
   0.3338861546678374    0.2354856839213272    0.5597194610702850 C
   0.3594099279197912    0.0208879225813436    0.4445890363011731 C
   0.4274455479490760    0.1776005252866213    0.5362849077890994 C
   0.4337676051264976    0.0633791485052972    0.5270950555686011 C
   0.8677553739300876    0.1076033852613369    0.6232155945910074 C
   0.7564735973849440    0.0816647423047574    0.5981210106801658 C
   0.5849136958901823    0.5964713056007264    0.3592809255260692 C
   0.4280913238893417    0.4851192876091693    0.3411999443809897 C
   0.5014476391988122    0.5388393391611886    0.4224946269805701 C
   0.4337617276726634    0.5963513925550510    0.5032494913101838 C
  -0.0863220352186589    0.3481726319844226    0.3639399127100988 C
   0.8911030013003857    0.6119187027267480    0.6122654521637064 C
   0.6511734320837362    0.6789218354969518    0.4000013870413865 C
   0.0347244984877607    0.6951605059689591    0.3428115580850078 C
   0.4184805708981522    0.0161532667205670    0.6333192020920597 C
   0.3834940969731112    0.6881711793385400    0.4761077697463073 C
   0.7462721230843409   -0.0342911728633749    0.5724798331748578 C
   0.3354477718321436    0.2385285729275111   -0.0619158766275065 C
   0.6793911623399552    0.2142312875196990    0.7262850282238420 C
   0.6794082739144093    0.1032208307639766    0.6849281429690069 C
   0.9314736693264670    0.0255041929511669    0.6678246356056748 C
   0.1906384690795409    0.3604534081717799   -0.0392840089814256 C
   0.3047094322606939    0.3562732546750819   -0.0468914042314268 C
   0.7778318182295848    0.5002132849502609    0.8621660642453790 C
   0.7763193038441467    0.5564532671493944    0.7637807397862918 C
   0.8786844621357367    0.5447113358902155    0.7025127744990558 C
   0.8686771670061121    0.5184518911664729    0.9348272325058482 C
   0.6953287339901536    0.5195808228459786    0.6946739524346845 C
   0.1305061645035311    0.7299230687770553    0.8583543732600136 C
   0.2054905717241543    0.9058538374395619    0.8456007764799406 C
   0.1788448743732135    0.8159961946964561    0.6913989585023814 C
   0.0287838062262149    0.7712617546632751    0.8949076295718379 C
   0.3055278119084961    0.7498683507819468    0.7972653069904652 C
   0.6191814836881533   -0.0363212930888861    1.0483314271405608 C
  -0.0376351420079115    0.3371727104314454    0.2606162140904232 N
   0.7149304145180116   -0.0097273291565773    1.0991646314259189 N
   0.2052993684791678    0.8008634738431623    0.7997303070724729 N
   0.9666044756621203    0.1325514089807125   -0.1274165165459851 Cl
   0.6536754418615169    1.3225478522748459    0.3300115236875775 Cl
   1.6564263525540468    1.6606033500226050    1.0438254557120852 Cl
   0.0546632026342136    1.2900567633383333    0.6132650028455089 Cl
   0.9451063862958552    1.0206915825512051    0.3535348413324327 Cl
   0.2159144964926600    0.5295927449181000    0.6342350128081362 Cl
   0.2783613275089539    0.0797163462568721   -0.0062143352438039 O
   0.2965412593941302    0.0803976356628751    0.2888114605503748 O
   0.3293181082701053    0.1840475699907374    0.1173873767126356 O
   0.0565856508250508    0.9834345228821156    0.1605949152100157 O
   0.4627764853076918    0.0604561725447887    0.3035451268836604 O
   0.5280895794431881    0.3946255710798309    0.0224422423000564 O
   0.4674684046248413    0.5520225183005556    0.0471402032823230 O
   0.4687077290042130    0.4084285555476412    0.2885381637531417 O
   0.2098279838575059    0.6574268492266119    0.1073020397495598 O
   0.2035346443659071    0.9226118765170424    0.1063390301437106 O
   0.3601665571032592    0.7094668197176618    0.1622126190933594 O
   0.2772252677615049    0.1991619601873675    0.6327589055941111 O
   0.3002507511431681    0.3020435344900739    0.5014535735543270 O
   0.5358844223940544    0.0393973031475739    0.5052111380709366 O
   0.7361926617494102    0.1509072702973838    0.5144972912520199 O
   0.0707994173443785    0.6052852963465504    0.3394794687215278 O
   0.1092461492166266    0.4321377323874910    0.4194830333040960 O
   0.3460026373442976    0.5227193596910793    0.3238147662238519 O
   0.5534138168573778    0.4714941105109975    0.4913538942189395 O
   0.7440677059057611    0.6732080170593860    0.4003439596284474 O
   0.9528564415605417    0.5715694904116908    0.5404317108918520 O
   0.7002635632664006    0.5441108541290052    0.5981857188354994 O
   0.1388744683930574    0.8877843926332619    0.3537807323227009 O
   0.3543382060479117    0.0421155867753371    0.6974213845829137 O
   0.2873635036347779    0.7000517361887386    0.4991589462389509 O
   0.4246340418681265    0.7593338436166951    0.4276694523534719 O
   0.4788871070543254   -0.0548589334174731    0.6566468727260824 O
   0.6037133643631942    0.7582813584132509    0.4350830276464382 O
   0.8499727281648444    0.6968652570386885    0.6003652417616231 O
   0.8066387818322214   -0.0770596499693678    0.5023758550859367 O
   0.6859887902642368   -0.0838542133727343    0.6158426712450390 O
  -0.0247382227400473    0.7264898895394056    0.4156082328354699 O
   1.0284590974060046    0.0344961438221015    0.6551212828050373 O
   0.1400633508268645    0.2946333665337494    0.0006196072318551 O
   0.5984072883194441    0.2637370447269842    0.6965954040118888 O
   0.6868748722283571    0.2690323131707275    1.0519208265805444 O
   0.7434263938544834    0.2540523477896318    0.7800392347682068 O
   0.1554109451491473    0.4507470150325388   -0.0795477070473283 O
   0.3456321345582926    0.4212164799026958   -0.1315829604770625 O
   0.6256079958678944    0.4679491142676988    0.7300944353919604 O
   0.9477385928357861    0.4702481605020146    0.9323317815272126 O
   0.7493217032446511    0.6617689235238396    0.7803003512067889 O
   0.8534493537050076    0.5894202657595394    1.0018397594418893 O
  -0.0418609569165628    0.7826955017572945    0.8206927043109433 O
   0.8909549489822833   -0.0439995468989180    0.7110161873823255 O
