Li1 Co1 H110 Cl3 O55
1.0
  12.8572550162999999    0.0000000000000000    0.0000000000000000
   0.0000000000000000   12.8762239977000004    0.0000000000000000
   0.0000000000000000    0.0000000000000000   12.8752463036999991
Li Co H Cl O
1 1 110 3 55
direct
   0.5383943150636876    0.6026944700702782    0.6020212327567297 Li
   0.5925326205664987    0.4910561512388593    0.4146259827484531 Co
   0.0725513343958266    0.2601437346382239    1.0297078082296633 H
   1.2752965533710474    0.3121535474622026    0.2590149790642564 H
   0.4153563883838106    0.2070870310485667    1.1898445505774577 H
   0.4167377096672015    0.0966530249102766    1.1425522514138280 H
   0.5709626976203948    0.1644425414763069    0.0872771382615861 H
   0.6631907819585121    0.0775900604850038    0.0965547083509189 H
   0.3764118392273069    0.2430672998045898    0.0087286603416436 H
   0.7431176402729184    0.2491451685970230    0.1671860561752059 H
   0.8075855223324384    0.1949025583314080    0.2518788049024001 H
   0.8671301140068994    0.0113663756413482    0.2324189830015174 H
   0.0967403233834230    0.3445450311824688    0.1984864282608404 H
   0.1549213269531313    0.5447924018759710    1.1481521442857243 H
   0.1313984210438547    0.3759999049150434    0.3161758273028261 H
   0.1313595324942096    0.6647429401918535    1.1417678004012599 H
   0.0159160728974083    0.5671382386718666    1.0146013011064476 H
   1.3925921968103414    0.3514383564318474    0.2738162493083243 H
   0.5587369153829949    0.5988424090927075    0.1792161172976474 H
   0.9121397213660398    0.3380299224040735    0.1441915446127420 H
  -0.1061833953024351    0.5732852271068409    1.0101819681742576 H
   0.9660859174336046    0.4098964882672717    0.0655674176545579 H
   0.7183985225765612    0.6382056572072584    0.0655022538526227 H
   0.0282134722878344    0.9593658048358387    1.0646275285515028 H
   0.2451684285723317    0.9063766676383284    0.2433981904407861 H
   1.1438221447311809    0.7879133665748748    0.2617178399788472 H
   1.0513762845150514    0.7144050150450265    0.2863006706707186 H
   0.0145234739346204    0.8772920540072751    1.1559733538862786 H
   1.2249047707410370    0.9929237796021353    1.0095916882044045 H
   0.5382247609872354    0.6805301771983168    0.0857167020939124 H
   0.4094274401049316    0.8272851575665938    0.0241863840469219 H
   0.4530728371425248    0.8983308305964669    0.2138678815805403 H
   0.5328091415636705    0.8069173851476884    0.2091572920842779 H
   0.6229675772896803    0.9171406928700079    0.1833465237182778 H
   0.7243632483211135    0.9783775896606233    0.2178305242202650 H
   0.8686078788934101    0.8836293156155367    0.0507228861021731 H
   0.7544085417768521    0.8858349311752748    0.0723246476094519 H
   0.0157441077308781    0.3061051904272590    0.6542858639822015 H
   0.1608043867434292    1.1009057470056505    0.4559828614783753 H
   0.3096713103265322    0.1960488571223142    0.3969828251232106 H
   0.3266998284450913    0.2620682118766152    0.5726050964696001 H
   0.3319738935479483    0.1135829105692197    0.4857228750647532 H
   0.4724175572779410    0.0638842566692637    0.5192919416134680 H
   0.3987439777464531    0.2923884361962399    0.6654724460950897 H
   0.4047507031246221    0.0097372489654106    0.6054836907904210 H
   0.5620704418585656    1.1971063101692969    0.4679903987598619 H
   0.6361787953750848    1.1278158100848492    0.5402173665447624 H
   0.8406470116986444    0.0187214045703973    0.3470536831995130 H
   0.7118201355186103    0.3186577834878387    0.3637671498722367 H
  -0.0041125412720651    0.0181817277209388    0.4669970197053326 H
   0.8222682831364103    0.0523283067241107    0.5213408344561952 H
   0.7980173835777791    0.1694331349928128    0.5750625251861993 H
   0.0795760842266028    0.4116027338252803    0.6274661828782550 H
   0.2157243520941051    0.5385118339070971    0.6636386947676907 H
   0.2478618495207454    0.4218510799260915    0.6358667988702704 H
   0.2504837155378123    0.5460722802007768    0.4241543441565565 H
   0.0657834045469061    0.5588749465748198    0.4259282908027993 H
   0.1337892890760302    0.4671687134267382    0.4817182914798021 H
   0.3107065235180825    0.6518509619201450    0.4168651632130407 H
   0.4365677589021876    0.4102770346138462    0.5374811082108247 H
   0.4031033841616593    0.5271358280201101    0.4704952052108834 H
   0.7647435627305113    0.3422702959801897    0.6382185985396327 H
   0.7324030670747239    0.3432170020954434    0.4785167993275195 H
   0.8654112401125899    0.3582408165331664    0.5765778360035461 H
   0.1598881725137926    0.9979796096351968    0.3827128068520105 H
   0.2863965133639907    0.8713120399896753    0.3585703560850164 H
   1.0517185037519274    0.8197984906666377    0.6032157730115114 H
   1.0004322844800817    0.7255014358610609    0.4778853550966108 H
   0.3814969059788890    0.7099588357916813    0.6550967222565788 H
   0.4593790043529604   -0.1832618787636424    0.3866272950731420 H
   0.4386148521555012    0.7773155391353728    0.5752132019153461 H
   0.4212456703420517   -0.1089194317721185    0.4688595083470536 H
   0.9240629506872015    0.6698430378611493    0.3995357859928255 H
   0.9386072682544370    0.7828388975370831    0.6294777948807809 H
  -0.0734462364402687   -0.0812537123761503    0.5065721849473034 H
   0.1546747735483819    1.0003949139981494    0.8392493158515173 H
   1.1401510656446914    1.0731802274695061    0.9761554346489065 H
   0.2680403401605508    0.2554661210761456   -0.0409158268334340 H
   0.1099004419145940    0.1409884605241625    0.7362547813221917 H
   0.0803914215584602    0.2455897784447410    0.9181448939274167 H
   0.5285990671791012    0.1896230602415843    0.8009883002266407 H
   0.4180443649352741    0.0771132126139900    0.7579289297941947 H
   0.4153882769945195    0.2235305163465718    0.8435909803666214 H
   0.6593345933757125    0.1629855926065644   -0.0640398116471801 H
   0.8282804529115296    0.0666947079324962    0.6981770631616380 H
   0.7900001201829627    0.1038649218155019    0.8099861863460470 H
   0.6977735913868310    0.2445972514428588   -0.1671197814353002 H
  -0.0025788546511650    0.1393629839866513    0.7482102807642308 H
   0.2295048985463126    0.6239949693508895   -0.0317968556517906 H
   0.2647830352422843    0.6274439618511702    0.8093990131128773 H
   0.3567521218397660    0.5041663611909503    0.8755204666306520 H
   0.3795695894584820    0.3787732334938549    0.8895473827563730 H
   0.4922024957953388    0.4916712383949552    0.7679318452306930 H
   0.5971611357452483    0.5575119693539253    0.7967142072344012 H
   0.6467261478098058    0.3987464803126380   -0.2575817401836381 H
   0.7696956306423075    0.4145546861994228   -0.2228880349555188 H
   0.9135630422830474    0.5228985609447822    0.8147449302609027 H
   0.9284962453467331    0.4441588620873298    0.7126202820029397 H
   0.8778011320294916   -0.3384704244022536    0.7386555120943182 H
   1.1525798461112382    0.8801966322443950    0.7300366478502912 H
   1.0772371700289862    0.7875335968534973    0.7681011623799404 H
   0.2203629782957625    0.6989470671221297    0.7072798016441104 H
   0.2424244525093794    0.9978786483595752    0.7555351891796059 H
   0.3342123184655153    0.6903676885698669   -0.0546085357604342 H
   0.4664893867700550    0.7857714342812983   -0.0748380516746386 H
   0.6083921488827286    0.8590102968677560    0.8141235829242151 H
   0.5123467645114566    0.8095656770697683    0.7581044604168089 H
   0.4369263113299146   -0.0494819755631627    0.7750664660242076 H
   0.8251927020697154   -0.2210105230934414    0.7619265232216081 H
   0.7796223218246939   -0.0664861842534673    0.7950101621635358 H
   0.7697679633446473   -0.1378914347495935    0.9004520285152393 H
   0.7941643060789509    0.7042894718529179   -0.0085164466460334 H
   0.5388057559189319    0.4498499715316117    0.2480349949408168 Cl
   0.3478489772840362    0.9581931007882314    0.1238781468080848 Cl
   0.6504796706215425    0.6495731202170775    0.4438937723589485 Cl
   1.3489048001391317    0.2890761297306473    0.2825026850752160 O
   0.4502565283772328    0.1596282418795405    1.1382338874238496 O
   0.6485500207881568    0.1504609580530799    0.0736294770164957 O
   0.7861804868368293    0.2639119200945089    0.2297541796112988 O
   0.8161472254222849    0.0420370132499004    0.2756818446867286 O
   0.1440566439533071    0.6008934762382244    1.1003860677778703 O
   0.1538433363569715    0.3458924758994215    0.2490780817822810 O
   0.5880464374794497    0.6599954303620370    0.1440463046727913 O
   0.9805835687412661    0.3579565717110312    0.1169081830587924 O
   0.7677115368394187    0.6363588424885763    0.0056980387069502 O
   1.0855515419430906    0.7516379802439572    0.2255080472492103 O
   0.2272198073691715    0.8778667566531223    0.3135910223822059 O
   0.5095374556851007    0.8656349097989412    0.2504038816619381 O
  -0.0167494532563120    0.9381251056954032    1.1197798715242300 O
   0.6845048182479520    0.9535333496056861    0.1590906770623382 O
   0.8028177861459597    0.8541796881418507    0.0210272211819512 O
   0.2869689528147654    0.1746256510605624    0.4682102003802150 O
   0.1168354369727895    1.0477535185167510    0.4204192699788935 O
   0.5640234248217383    1.1516426711315972    0.5289927269075021 O
   0.4189831345237047    0.0088033571659089    0.5310695803803802 O
   0.3459706603361820    0.3190841507210416    0.6188970264211631 O
   0.7765042379141568    0.0979823742601371    0.5700055345497337 O
   0.7997697016247833    0.3175456562056047    0.5740706995000119 O
   0.0061150695074745    0.3838678947867711    0.6356524340391132 O
   0.1885124783655023    0.4716855655730187    0.6269131837486031 O
   0.1208658462579988    0.5021339330501635    0.4139324037838756 O
   0.3217734269760608    0.5762216469770416    0.4146679236936796 O
   0.4650886212118415    0.4828324670268640    0.5207070601727739 O
   0.6831367190714404    0.3586400018844711    0.4239360959045449 O
   0.4507690794615541    0.7327364761971595    0.6356120464622286 O
   0.4029976073066248   -0.1771218799554419    0.4427574834169812 O
  -0.0787218570851114   -0.0119594844907565    0.4669488652867394 O
   0.9999656218843416    0.6744546382814749    0.4139238602579962 O
   0.9805135693519051    0.8142145554995543    0.5660343483841295 O
   0.1233088249466987    0.2308385594511969    0.9790757671313380 O
   1.1541120549672517    1.0005657715415095    0.9810485449253209 O
   0.0542170165572871    0.1909751647097195    0.7384900783659252 O
   0.3852947617372212    0.0032513412944259    0.7502420865551989 O
   0.4523658433099785    0.1961234131412349    0.7809086843574121 O
   0.3440363438768390    0.2643413938285001   -0.0621089747984236 O
   0.8470325115503557    0.0662566913213369    0.7727030160922825 O
   0.6700312778410703    0.1770029007888576   -0.1432647038115240 O
   0.2872318394103657    0.6320415830179481   -0.0777894515239044 O
   0.2612169552398365    0.6378134614827274    0.7263621550379554 O
   0.3833736673847574    0.4396435631914434    0.8392415490098087 O
   0.5570203748016639    0.5198604031737627    0.7444363723780247 O
   0.8776144669911955    0.4969786949918742    0.7474522370134720 O
   0.7158295449870115    0.3602848940519096   -0.2430888135554014 O
  -0.0459100322076265    0.5287201434221753    0.9873396867092822 O
   1.1232034357093938    0.8105636404480302    0.7125954281094722 O
   0.1658544538003308    0.9986086760448405    0.7652623817354492 O
   0.5296420580805805    0.8658368323501847    0.8115993593689220 O
   0.4258679633528581    0.7671293230503289   -0.0123416938559331 O
   0.8823588700478874   -0.2615123037469275    0.7229136773193396 O
   0.7512624581105704   -0.1266660941508420    0.8247874565901149 O
