Li1 Co1 H90 C51 N3 Cl6 O45
1.0
  13.8918888021000004    0.0000000000000000    0.0000000000000000
   0.0000000000000000   13.5575137324000004    0.0000000000000000
   0.0000000000000000    0.0000000000000000   14.0121597949000005
Li Co H C N Cl O
1 1 90 51 3 6 45
direct
   0.9083112509504501    0.6061185353300995    0.3941669220408299 Li
   0.4737077145985515    0.7932693691836779    0.6140302439764892 Co
   0.0279399656468115    0.1807212158926037    0.3070632907759175 H
   0.2088577685319075    1.0292927332871449    0.2085188821899852 H
   0.4138522110133008    0.1518427645977812    0.1397300577611613 H
   0.4076068399744192    0.2488878442465475    0.0463140520090416 H
   0.6250581918412260    0.1697745185165703    0.1844997441751234 H
   0.3861893060279177    0.2819875710001017    0.3088503100767618 H
   0.8341881410790017    1.1493420308298354    0.1384839971783842 H
   0.8406847378546942    0.3285211768258006    0.2298353676120765 H
   1.1589618319912107    0.4216594929598509    0.2298703372389700 H
   0.9948955892744202    0.3938052707585100    0.1601487515377007 H
   1.0114138614308539    0.5083786380188966    0.0976230586520914 H
   0.4145770944430097    0.6139842843239692    1.0286208627699183 H
   0.5547350691962821    0.3873498098438112    0.0739928685281882 H
   0.4155049740268177    0.4069623291632314    0.1112041198721657 H
   0.4551242805041917    0.4374608415130179    0.2235808000591216 H
   0.8448720734163787    0.4782161017256282    0.0242396534489724 H
   0.7516471694130996    0.4394363512214088    0.1009865658265638 H
   0.8444128126138423    0.6357670393208710    0.1980072978121358 H
   0.1468071710732168    0.6999889916039956    0.1862874771418226 H
   0.2037821448349095    0.7359483872293835    0.0765406556304302 H
   0.1162382537683356    0.8855466129831968    0.2568975768325292 H
   0.5062433910957370    0.7650621324035236    0.9957137301972633 H
   0.3738713266344941    0.7847427320522888    0.1804304214700859 H
   0.3470801533605086    0.8058586981247290    0.3092021473432618 H
   0.5946361228180336    0.9416852247539604    0.2721636031361870 H
   0.6433141686643101    0.7660726421673647    0.3393702303645429 H
   0.7014178586303558    0.7278584083317126    0.2377463536144161 H
   0.7491572272250531    0.9154488508124803    0.1411045781978331 H
   0.8536649742047535    0.8731210308797902    0.1870760779115642 H
   0.1375996398424267    0.1185697022278017    0.5548127491615921 H
   0.2847833690766338    0.1483546619166100    0.4357686457245812 H
   0.0817720982425571    0.3316382675279848    0.4834886267829883 H
   0.1786840458674535    0.3374608690431393    0.4037428904828140 H
   0.0677869589452550    0.0555264321363690    0.4707321350917461 H
   0.6035823504887597    0.1664855673946962    0.7443913037086827 H
   0.5555440304657030    0.2734255291470598    0.6934262840077283 H
   0.4985054224486118    0.1937103231489846    0.5279414455573438 H
   0.5188583207497599    0.0834437927579908    0.5957161508062556 H
   0.7574735909424574    0.0944708883561108    0.5551980573566903 H
   0.5818913476098390    0.1078022412551357    0.4867606419948535 H
  -0.0891593016431837    0.1515506756441455    0.4323544682744060 H
   0.7123710128174955    0.2206776570729221    0.4716605430024762 H
   0.1834573348668569    0.4128744013603961    0.6107702183509873 H
   0.1066412866532630    0.6633037991847248    0.5376387371946727 H
   0.1600717460079186    0.7216079997632531    0.6338787187349076 H
   0.5525042710347452    0.3161590281820218    0.4865287005919884 H
   0.5961981854222720    0.4765707336706662    0.5739574780204250 H
   0.6604673436856923    0.3776887464227961    0.4455455111047393 H
   0.2683054082132128    0.6980675478559620    0.3880129813734258 H
   0.9201260590257342    0.8648060844799502    0.4679836651510865 H
   0.7413951437865721    0.9930272343391338    0.3688110878796099 H
   0.1999172996173259    0.1571173305256847    0.9265816324921990 H
   0.0842541221409047    0.1429982225698844    1.0498381486381687 H
   0.0277952768986770    0.2534373509789357    0.8991062107417188 H
   0.1601746837740044    0.1838567465539822    0.8038789210496858 H
   0.3028291513004379    0.0541235200408758    0.8137196595238637 H
   0.1135899457863110    0.0216905822117831    1.0207990849994497 H
  -0.0088073771567697    0.0518450786828428    1.0157634587267832 H
   0.4856871511151210    0.1811327957818178   -0.0675691767977555 H
   0.6760577362583178    0.0436983047108538    0.6524433086202357 H
   0.6786570948131128    0.2711433997971880    0.7226030851564564 H
   0.7614003427885961    0.1415363026049698    0.6764260496764940 H
   0.0041462249461206    0.1910284154837829    0.7861907128342607 H
  -0.0696903868071310    0.1832489654989420    0.8961095278167008 H
   0.0248539921977929    0.0107136433026712    0.7719545063593242 H
  -0.0480223469683369   -0.0101353121606372    0.8678105356695855 H
   0.1197381378152516    0.5283311164260207    0.8267561936965960 H
   0.0687796245356904    0.6665197280681900    0.8372171077987426 H
   0.4826264442086871    0.3803957324325018    0.9365765227910503 H
   0.5340458739331763    0.4779518202304572    0.8088810050271689 H
   0.3946964285426139    0.5308808464637185    0.9326834755521903 H
   0.4152407910886815    0.5790331856673192    0.7749005190086393 H
   0.7461209230477821    0.2824957762754934    0.5784784084784873 H
   0.6408055105187934    0.4765962029423052    0.8717613898426980 H
   0.5892725613138027    0.6294222181613374    0.9606813007085084 H
   0.5932158695838572    0.6574671833005828    0.8363492901190992 H
   0.8185934294392677    0.3534402000824485   -0.0730294342541290 H
  -0.0823373351453181    0.5699644137356211    0.7572665493981918 H
  -0.1452625436934788    0.4540114424881628    0.6815458885200469 H
   0.0551724036103815    0.7134582753977929    0.0132820279117669 H
   0.2021337008885012    0.0128910336843200    0.7543398057269609 H
   0.2734652537188264   -0.0538763705659693    0.9313960223498250 H
   0.0697449360344387   -0.0560279450047463    0.8795824539473115 H
   0.3187823455101769    0.6352256421189300    0.9526183038790602 H
   0.0579034937119856    0.8122706407357295    0.7312341600064605 H
   0.4581512986871794    0.6953790018054504    0.7373909553372845 H
   0.3440812810981779    0.6848711754582386    0.8036762399468743 H
   0.3999052234754571    0.7966129025847667    0.9342307031257647 H
   0.5136462649212498    0.8122249096369278    0.8834940564984006 H
  -0.1056019901252187    0.6812746458170056    0.6900270935405074 H
   0.1718966319064559    0.1272010783274138    0.3584579373215637 C
   0.5386263885706374    0.1492397799579307    0.0531866541924002 C
   0.4535535077812844    0.2091290794287907    0.0994464749115391 C
   0.5301179703358087    0.2350055053668005    0.2552904013271374 C
   0.4991523467170123    0.2920897182450417    0.1610101462246492 C
   0.8266031393919691    1.0283515577698741    0.2157604496203632 C
   1.0422325647835096    0.5045968236676804    0.2557328741572186 C
   0.3254934559522579    0.3559008282373200    0.2120515281720854 C
   0.4287609108273025    0.3768589482590580    0.1797103326224215 C
   0.8422539989041135    0.3320387834416825    0.0681336718588866 C
   0.9871227081681681    0.4744997787334861    0.1651936554664818 C
   0.8284027506871747    0.4367250871411700    0.0859867368868097 C
   0.8317471483181849    0.4690330020469262    0.2665891591430183 C
   0.8777855243166538    0.4925008005149922    0.1670070804039600 C
   0.0690178930711756    0.8077602267168329    0.1160256463883413 C
   0.1672291600512105    0.7619826592180955    0.1443574671647852 C
   0.2305546021514249    0.8335356016784586    0.2029430108651065 C
   0.2687049219207484    0.9191110267084445    0.1356921363537425 C
   0.3189623066396975    0.7796208489865132    0.2396147308227269 C
   0.3077500084260482    0.6663876979603596    0.2603759842096517 C
   0.5981129718403708    0.8210790404436057    0.2041640931429598 C
   0.6776752268904487    0.7918686698832881    0.2747427915360477 C
   0.7528485899137789    0.8704391232145885    0.2991851334029065 C
   0.7953698055968980    0.9203693695238553    0.2014764275331437 C
   0.2282690958065137    0.2891953822499231    0.5372500747700562 C
   0.1455078517180783    0.2905105201396521    0.4610843718647521 C
   0.1086122209437722    0.1955115383630721    0.4215317255837898 C
   0.0789697435336629    0.1268013000120839    0.5028393909741509 C
   0.6182808557034815    0.2295185111089801    0.6948243554176140 C
   0.5553931510547129    0.1395610141760892    0.5513224235646915 C
   0.6870720772294945    0.2610228125930539    0.5367549333998781 C
  -0.0118429614895226    0.1569167037696520    0.5546000053702256 C
   0.0905570807412330    0.7011602978120101    0.6053941734655003 C
   0.6223638138100440    0.3472008554895056    0.5113797374840127 C
  -0.0908912475536896    0.5571774084320086    0.6024545838088798 C
   0.0434598134566650    0.7990403388130888    0.5913242511347717 C
   0.8347956898522632    0.8290915715126611    0.3666072877194632 C
   0.1698241995388970    0.1223661210266996    0.8610685343376864 C
   0.0617337863927013    0.0816123360108248    1.0025285254463694 C
   0.0044168864849195    0.1855679747672021    0.8624494777670528 C
   0.0257725138028659    0.0050732285843552    0.8499817352807313 C
   0.7152547099569330    0.1055053599379085    0.6209991910502687 C
   0.0454069928780775    0.6382092275165483    0.6893070046928430 C
   0.1019730949534995    0.5356683761893852    0.6881444430150971 C
   0.5628599542718765    0.4966222789145651    0.8786118683845526 C
   0.5579457917002845    0.6119610520011838    0.8906828126555110 C
   0.3904997350021943    0.6069734118383417    0.9548913296271389 C
  -0.0619765329513615    0.6168351020153896    0.6930102168142809 C
   0.2288471309545338    0.0342644215871110    0.8254394801941768 C
   0.4173823285299763    0.6576265045480205    0.7947696900768521 C
   0.4680619020587805    0.7648519168687101    0.9286762417765353 C
   0.6400777477110122    0.1846437640123898    0.6032645945542705 N
   0.0677344102954350    0.0980165237099679    0.8935517493924894 N
   0.4586914700135484    0.6633333031194356    0.8912965652907848 N
   0.3735833888272612    0.9131578702821952    0.6446329495034469 Cl
   0.4520523440232757    0.6552337354429837    0.5390416615323722 Cl
   0.3991623439327961    0.2707170679406186    0.8653740804407188 Cl
   0.1324304363580780    0.5920311441041133   -0.0496811421429389 Cl
   0.8078238356042391    0.4442186439986644    0.8329108480298552 Cl
   0.6275308577608385    0.8038303026133691    0.6530492109311050 Cl
   0.1329638411459769    0.0956466201543318    0.2839990376750053 O
   0.0203348083132725    0.2122085526142188    0.3690180509775510 O
   0.2440955973810703    1.0104965140813329    0.1478415838687475 O
   0.5290871529859148    0.1330797373185185   -0.0378107379772271 O
   0.6064372538474742    0.1118877986141984    0.0999610279929723 O
   0.6101286165362000    0.1897287671597771    0.2569496744399420 O
   0.8467004784923077    0.2678057671830413    0.1329159761779102 O
   0.8242665240862740    1.0733244054493774    0.2944242684844033 O
   0.8473756926502688    1.0773671821031094    0.1324256877355460 O
   0.2591446668760979    0.3903046289050867    0.1635472283390667 O
   1.1202442747416381    0.4565329225083750    0.2798669123747305 O
   0.3330223097668802    0.5996239817019091    0.2072913769194372 O
   0.3145316636309012    0.3076626325837112    0.2935614464657449 O
   0.5798739113634616    0.3320837769421163    0.1171425334513689 O
   0.8155758412194669    0.3707604849543585    0.2835522828497942 O
   0.8587996251522342    0.5933905378959083    0.1432798317237809 O
   0.3230128717429464    0.8923524331225851    0.0683035243323694 O
   0.1789115167351675    0.8697804478721723    0.2819393980175626 O
   0.0250044397020721    0.8695827715096107    0.1654477205108511 O
   0.5686182785098238    0.7697495700306844    0.1384939885003538 O
   0.5551056451541908    0.9095620782393300    0.2185530241108598 O
   0.0243767352823044    0.7737296508231564    0.0409658400918983 O
   0.2620168465032462    0.1074268036859422    0.3787039239612005 O
   0.2914116973991352    0.2277128703046859    0.5233145357198185 O
   0.2161649102349605    0.3430341623099885    0.6111241966150524 O
   0.4786699627839516    0.2414115471908589    0.3277902882018038 O
  -0.0145315807645598    0.1787437146686198    0.6370752280993173 O
  -0.0919616563520780    0.1466515472854355    0.5013360538506572 O
   0.1286822059524236    0.5070314146001698    0.6080140408190942 O
   0.6136371387173328    0.4099594863708168    0.5904692794405180 O
   0.8026841457451317    0.5341930319341772    0.3208249094572991 O
   1.0114952038613971    0.5687798307569870    0.3099536374885450 O
  -0.1266524033674982    0.4672635625705220    0.6164595625468061 O
  -0.0745378197918969    0.5846278692868336    0.5197429806753052 O
   0.2703116148851080    0.6423301895972637    0.3441753425660543 O
   0.0372166019513376    0.8525294972468325    0.6711356446936032 O
   0.0120508375991818    0.8282042406762371    0.5138038127512933 O
   0.6953610868552117    0.9431051016119124    0.3540232176987817 O
   0.8620403651726406    0.8923398939503331    0.4331173770733687 O
   0.8716769237362078    0.7453040849261430    0.3517608969385276 O
   0.8354896199676946    0.3016467802962016   -0.0216583386816968 O
   0.1139880198048105    0.4819443664353444    0.7676182726245280 O
   0.0666337680272872    0.7013727261419269    0.7721457688084561 O
   0.5176442165886720    0.4435525189127338    0.9533762170170381 O
   0.2227075770598102   -0.0588654859255468    0.8807007683420491 O
