Li1 Co1 H90 C51 N3 Cl6 O45
1.0
  13.9762879203000008    0.0000000000000000    0.0000000000000000
   0.0000000000000000   13.6398813802000003    0.0000000000000000
   0.0000000000000000    0.0000000000000000   14.0972896105000007
Li Co H C N Cl O
1 1 90 51 3 6 45
direct
   0.8166673814455161    0.5824767803063918    0.3681718222866185 Li
   0.5427136662792208    0.8198586100853633    0.7308940292696841 Co
   0.1110257936190751    0.2817344288402934    0.9638409354291529 H
   0.1346951686266915    0.1695098458448689    1.0264380746226849 H
   0.3433864904306425    0.2324510090463492    0.1695847124697900 H
   0.0185327076600780    0.2312193267808137    1.0377622372391000 H
   0.3803269143074366    0.3010476466504132    0.3482864395112513 H
   0.6190898833468130    0.2539827212228442    0.2578782805520487 H
   0.4621200203538282    0.3165947026759759    0.0893664555392018 H
   0.7288751145004557    1.1063002506755479    0.1269346700423311 H
   0.8988923618232336    0.3012221349713641    0.1836555023507226 H
   0.6540254830414077    1.0020244171580615    0.2264949428875890 H
   1.1909885194925707    0.4921436633491875    0.1583591503672613 H
   0.5692561933161163    0.3745094292033423    0.1505143799854689 H
   0.4414246825324111    0.4071834670176994    0.3105650040656799 H
   1.0567075136416471    0.4496277510889962    0.2508308265559272 H
   1.0291157809727822    0.4170853859739785    0.1319909611429203 H
   0.8527928535937145    0.5447279183003463    0.0699996121570067 H
   0.7645734346012690    0.4849827506346688    0.1304821604735947 H
   0.9087669437427680    0.6289229320243703    0.2032840981762563 H
   0.1738915563316352    0.7199735772156697    0.1305637364383208 H
   0.0584946777615076    0.7477876020906012    0.0291421128848774 H
   0.1216101491248841    0.8125887521418813    0.2028052827311247 H
   0.2109729332290907    0.9768013239059883    0.1881712640154744 H
   0.3819017244519837    0.9871929098772383    0.1436017036701993 H
   0.4953561702277375    0.6343115419360882    1.0051701565842637 H
   0.3251963957896511    0.6997600583209799    0.1907440990073146 H
   0.4024314961364412    0.7795562068109486    0.2379560112535009 H
   0.6443762828554183    0.8959208551358249    0.1672339059732478 H
   0.8723044722406025    0.9649075254573085    0.2999040895102990 H
   0.8382532275385839    0.8241159784877232    0.1483629025853445 H
   0.1657112726503051    0.0692457774208408    0.3676433519064363 H
   0.0202770907279590    0.2293593399310140    0.5038097394204059 H
   0.1196725817139647    0.0367381633411721    0.5182352215959677 H
   0.5140889268432997    0.2353403303609178    0.5569251978303890 H
   0.4947329002972900    0.1064000594760832    0.5533298967902337 H
   0.5177872693713556    0.1211655837783955    0.3656408393114638 H
   0.6720710471739035    0.1051537143264342    0.6153704041618476 H
   0.5836739701356193    0.2194406319724250    0.4178338508994484 H
   0.7151761980863260    0.3126203279370071    0.5206582263680735 H
   0.0318946247202406    0.2498045323946973    0.3827221369688977 H
   0.7854588085764307    0.2181832896596908    0.5626113263142853 H
   0.7589474772334480    0.1615361694639380    0.7516384424214280 H
  -0.1273565307147588    0.0504230330843182    0.4218282357461681 H
   0.0801320396793858    0.6133714771335735    0.4790049003583248 H
   0.1269119860949406    0.3366813876230838    0.4975701002819374 H
   0.1900846972636619    0.6341539159318678    0.5490756038263346 H
   0.5781735825907732    0.3631764860720045    0.6066304262367129 H
   0.7917652041302873    0.3345970586463473    0.6248481125505922 H
   0.0115651923544897   -0.0933963994547085    0.6391643396819183 H
   0.0288294331440298   -0.0541306620871196    0.4956744876685670 H
   0.1281362024317512    0.7532465938460638    0.4160909626791695 H
   0.6485369012064141    0.9517285252160789    0.3927609461237151 H
   0.5684816672000454    0.7512040540890510    0.4522493317049670 H
   0.3920646518909422    0.7550376651405302    0.4106587127846252 H
   0.6969331566253909    0.8466821571384269    0.4351151870095149 H
  -0.0272133447714374    0.6857423411084570    0.6636030800014329 H
   0.0798372546818604    0.0623446910128137    0.8030852112712222 H
   0.1720269696725303    0.2238724886957357    0.7798623075042344 H
   0.0093958037319241    0.2871450330781814    0.8404115353050333 H
   0.2411626375630398    0.1073399503477597    0.7764524321786828 H
  -0.0467385578720947    0.1809249011272424    0.7895152268780865 H
  -0.0871155165622736    0.2421519731758525    0.8972770762812867 H
   0.3264871534001750    0.2049720310734114    0.8689312019294987 H
   0.5542730303193208    0.2409063611704091   -0.0376806612814674 H
   0.5574554203969749    0.3213836006274509    0.7312593477204140 H
   0.5755728204851784    0.1368101479833132    0.6948949107141562 H
   0.6608169859455610    0.2387501840615164    0.8147229093346716 H
  -0.0842170359191294    0.1171904758952209    1.0010175853015968 H
  -0.0638711471093419    0.0300922111167202    0.9094772938232387 H
   0.0195143703217403    0.0337916567785608    1.0078054149230249 H
   0.7689436937393398    0.2991488031577126    0.7773483490782400 H
   0.0960196631503849    0.5727083669099663    0.7676989764854629 H
   0.0918332868869841    0.4430463888690643    0.7473780489940797 H
   0.2571153713126185    0.5687669836602528    0.8967549901070395 H
   0.3122093994544967    0.6403005969522544    0.9820728088673325 H
   0.3311378875844351    0.5252865468830743    0.7695191845331778 H
   0.3600947896107717    0.5259487227296408    0.9406478246231955 H
   0.4585439635149156    0.5340487198572097    0.7798545045858694 H
   0.3955548490218376    0.6176559718715434    0.6999590047331106 H
   0.6368220595450463    0.5880376791064433    0.8731412310655813 H
   0.8179466910949710    0.4604906021556547   -0.0840122624648267 H
  -0.1994350400975547    0.5503701961072278    0.6794252703772244 H
  -0.0637917268794261    0.5860449931554164    0.7147895151203185 H
   0.6526803476158063    0.4009586328249878    0.7043967372142113 H
   0.2329787763938757    0.6848207788419224    0.7904473209446092 H
   0.1337979346779127    0.0439992235541861    0.9135582201281897 H
   0.2875218714093107    0.7686154958296475    0.8767837752296561 H
   0.3337036618590130    0.7645604752280541    0.7533274195693661 H
   0.5902317199846960    0.7078129142761238    0.9630620623050723 H
   0.4407385203658410    0.7695685832970262    0.9149932477511542 H
   0.4894183990203010    0.7331459791590482    0.8089423655385575 H
   0.0786531062087911    0.2113599165374654    0.9944248286392967 C
   0.5263754939904018    0.3036715697625272    0.1384375904249286 C
   0.4891963801253201    0.2707863864169354    0.2454702216390988 C
   0.5988098203131720    0.2328117159955417    0.0996535393692726 C
   0.4510256581823975    0.1649702169233239    0.2429966965173599 C
   0.3302463776161908    0.3590349544541415    0.2170803672019802 C
   1.0688881442190075    0.5583937262941447    0.1473953407080712 C
   0.4104758352800775    0.3375941521591503    0.2841684405927385 C
   1.0195123726310689    0.4739401546031049    0.1855927541739141 C
   0.8608786915962257    0.3913746785107104    0.0426298119570720 C
   0.9097035300577213    0.4846610469572183    0.2017206770783749 C
   0.8434091030050114    0.4771803514030680    0.1091816120492831 C
   0.8793449682980053    0.4070765745925120    0.2716014858876266 C
   0.1209139699923787    0.8600620388920118    0.0700726758471527 C
   0.1743079759155182    0.8059303364659329    0.1453332421910380 C
   0.2660648148782684    0.8499167893738689    0.1780196672224704 C
   0.3337802200986616    0.8673817506414798    0.0912334810971074 C
   0.3235292864589856    0.7630069426562270    0.2349291882840545 C
   0.7726320836962415    0.9711011277068583    0.1303331956684426 C
   0.7010293801953738    0.9393970396766105    0.2034486688181386 C
   0.7381558334395384    0.8878789963437661    0.2927090894214555 C
   0.7785227751637820    0.7826258816001137    0.2762725965634655 C
   0.0250816568890830    0.0503629152594527    0.3314477416793508 C
   0.1593211638811318    0.2130820722765980    0.4450896575556310 C
   0.0525467464886224    0.1972131659447435    0.4411688329484078 C
   0.0422135306287634    0.0264074283389933    0.5128999541737832 C
   0.0060465596216900    0.0937173978620961    0.4329204388802749 C
  -0.0035103413781810    0.0446568539066773    0.6128649580104333 C
   0.6181912184029006    0.1581131191676373    0.6332475994925223 C
   0.5521210998373853    0.1647730011319970    0.5499102323489149 C
   0.7443527578656732    0.2831215376774322    0.5888809150247399 C
   0.0763005502091223    0.4717034049460084    0.6101126558961956 C
   0.0697129641115097    0.5817553664080067    0.6323765100604903 C
   0.1078847593007825    0.6428783319794108    0.5470570597809029 C
  -0.0338259732838884    0.6093428497233846    0.6473737191582257 C
  -0.1127954397326240    0.5879628983974645    0.5788426733548946 C
   0.2715161908397881    0.7471900895629755    0.3304652833215623 C
   0.0851612720764879    0.7508162208042484    0.5492730176609717 C
   0.5700881023370454    0.8377861853467556    0.3481211595131540 C
   0.6681415345369871    0.8799515080477929    0.3711674335826045 C
   0.2010725933971513    0.1623074371683091    0.8246439653577974 C
   0.1143628742706734    0.1037035550876073    0.8611985098296778 C
  -0.0262653104954152    0.2172617273931562    0.8528032790250379 C
   0.6084583050015946    0.3402715947982786    0.6762629603707111 C
  -0.0291430417091219    0.0750024257238078    0.9660136935157277 C
   0.7218961512337985    0.2351277185412718    0.7576020001210146 C
   0.3250196678906493    0.5923624967757254    0.9231047360697903 C
   0.3910658172876764    0.5774826019773277    0.7661944319534273 C
   0.5374956140742376    0.6508476094951077    0.9427127605650887 C
   0.2997203894258414    0.7260608735553966    0.8104334323025079 C
   0.4643198891727399    0.7019807521199721    0.8757332186752268 C
   0.6738368951687888    0.2518236115371287    0.6640861515838544 N
   0.0355493862915022    0.1503535208947638    0.9157934015616852 N
   0.3709803695922075    0.6502764901588862    0.8454550579937523 N
   0.5838871168607717    0.7157770597823809    0.6032744619835020 Cl
   0.4742741775212167    0.2949420217055445    0.8679785365327407 Cl
   0.1106809237918730    0.4771611063676690   -0.1220649672628076 Cl
   0.7874622017634965    0.5654172477845196    0.8326242227766567 Cl
   0.4375502632081390    0.9374534743873637    0.7138460713543556 Cl
   0.6670439612695017    0.8612973868785756    0.8151109271842819 Cl
   0.1170445591510744    0.0438122717817387    0.3159965446040093 O
   0.3022926031785206    0.2903305446518431    0.1584520760314276 O
   0.6045774461992213    0.2057887537185343    0.0114259414150098 O
   0.4033652204611273    0.1369347824982781    0.1758618056164109 O
   0.6577153039934429    0.1927395200017093    0.1548825955574987 O
   0.5714532716945174    0.2809265039256386    0.3021179902573443 O
   0.4757380139931517    0.0998978035159438    0.3115396595051033 O
  -0.0327620284020431    0.0257651940148212    0.2708119724203207 O
   0.7690782072819000    1.0583526196243453    0.0907553750081908 O
   0.8887916826725877    0.3098123856292684    0.0688795386935064 O
   0.8943439437910274    0.3128498020733836    0.2533235042954713 O
   0.2882810143276953    0.4357189791054367    0.2255883856448066 O
   1.1619936960951931    0.5521429387965522    0.1344928605132596 O
   1.0287930915701513    0.6363357530879592    0.1178889595885273 O
   0.8871918301132022    0.5731321242608470    0.2492539276899606 O
   0.0599213799097252    0.8174612285328032    0.0088013234194739 O
   0.1332706129711743    0.9476485777114926    0.0614901750017502 O
   0.2523945183668111    0.9391030488501345    0.2289585370223178 O
   0.3360247359657422    0.8143864217341985    0.0225224006864068 O
   0.4005568925114010    0.9363185671569774    0.0977794202492170 O
   0.5291219314005992    0.8816663323448687    0.2876591825268014 O
   0.7591699969767256    0.7105915308156354    0.3305128101879680 O
   0.8335080476755051    0.9143029798047363    0.0975510075479839 O
   0.8296271888731318    0.7676382146034816    0.1994457716968387 O
  -0.0279016534307079    0.1265197359124465    0.6368958185063173 O
   0.2235528114487308    0.1539371297721075    0.4149723079280992 O
   0.6022706820438283    0.1604481834627150    0.4582069308123476 O
  -0.0953279976341101    0.1114462910437503    0.4399920109877067 O
   0.1861816580367175    0.3021517618241610    0.4704534693151397 O
   0.0792011773449670    0.4116758081379784    0.6843063504927063 O
   0.0732568235599158    0.4430309928407452    0.5282213113968854 O
   0.8481321024435191    0.4306120431975397    0.3505152367388119 O
  -0.1862641608877302    0.5399026563962699    0.6106389982077327 O
  -0.1006792039362764    0.6135994849815387    0.4953374015951943 O
   0.0578192480584397    0.8023489270212062    0.6172700601056436 O
   0.0977146768861560    0.7951516503540861    0.4680366217549801 O
   0.1828596028340222    0.7308527040836942    0.3285422186226710 O
   0.5305710286226578    0.7633757141916819    0.3949053299616895 O
   0.3193092818099447    0.7602855113647582    0.4112723059106086 O
   0.8139463441989405    0.9407188986794440    0.3370630054773677 O
   0.2658687685449628    0.1891588437011883    0.8953738735564156 O
   0.1208867810848400    0.6125474230463939    0.7132565963396826 O
   0.5857358194738934    0.5658322074049322    0.9148981940183429 O
   0.8429933989186952    0.3990769449067001   -0.0507824705726968 O
  -0.0214364174170196   -0.0327096546856816    0.6646578926931523 O
