Li1 Co1 H90 C51 N3 Cl6 O45
1.0
  14.0973670000000002    0.0000000000000000    0.0000000000000000
   0.0000000000000000   12.1865830000000006    0.0000000000000000
   0.0000000000000000    0.0000000000000000   14.0707360000000001
Li Co H C N Cl O
1 1 90 51 3 6 45
direct
   0.1629043274534883    0.8115718384718669    0.3436643491854300 Li
   0.3682689540536186    0.1810896491658080    0.7041300241863681 Co
   0.4245348525011798    0.5526904022234944    0.0007703214671926 H
   0.5077335881232290    0.5422512413857108    0.0965136457680679 H
   0.4778077154407628    0.6746740378332466    0.0466914545195077 H
   0.2763649367999003    0.6298572093588497    0.0207609253702152 H
   0.3227389064922548    0.7525773385369795    0.0743790978666646 H
   0.2326245361988519    0.6724674800147014    0.1344419048157822 H
   0.3264710708035053    0.4448761264745007    0.0939400781878077 H
   0.2660961142602019    0.4991839279312338    0.1946104020429351 H
   0.3875771376314456    0.4505850951000784    0.2050316387145633 H
   0.4423881133264105    0.7379757032795822    0.1961941806029194 H
   0.4679151014512142    0.6072355803099194    0.2481153054111740 H
   0.3832992997912305    0.7018624712111672    0.3654686144349521 H
   0.2951030600253224    0.6127536439049404    0.3195294645567936 H
   0.3187263252776210    0.8349862787624718    0.2563558373918749 H
   0.6804230896450379    0.7482222744472343    0.3742899781503967 H
   0.6096850355105318    0.8656871093398371    0.4062527105902634 H
   0.5658172480009920    0.7298352171400301    0.4287860649222613 H
   0.7456337690577254    0.6328884503556083    0.4994981996677360 H
   0.6288518891506478    0.6194259309603029    0.5501996981536716 H
   0.7264446374986194    0.6674715915035413    0.6221790558788113 H
   0.8096084254598748    0.8090869901759993    0.4648035347973269 H
   0.8006188354179897    0.8425885246094004    0.5880640088762948 H
   0.7487264430301062    0.9318098403793745    0.4988514161590410 H
   0.5404429529287277    0.7783185811806311    0.5905573844893401 H
   0.5798925430543165    0.9116843326796363    0.5565711111344851 H
   0.5779268766997412    0.9064064594644782    0.7253852804856833 H
   0.6998186505324008    0.9072197965582313    0.6933539929965284 H
   0.6201309464384377    0.7717976778232257    0.8089773818512408 H
   0.0182810577322701    0.1722397385715093    0.4348438638888542 H
   0.0598874569981756    0.1785195119911791    0.5551824559852448 H
   0.1376724086136085    0.1357948983730714    0.4605783926299236 H
   0.0777590602557201    0.2961066075699808    0.3180707675845812 H
   0.1996974165459408    0.2730714860761216    0.3482513189075540 H
   0.1501661430818961    0.4102304280043060    0.3496086089597588 H
  -0.0336523040082591    0.3570566540268096    0.4487633034974148 H
   0.0483948633812257    0.4669657081070223    0.4722803597480615 H
   0.0125071440645618    0.3747134992639036    0.5659984865041886 H
   0.2483891346518821    0.2692677537255521    0.5060501170656603 H
   0.1697536575447032    0.3006528778411471    0.6014979500716950 H
   0.2093033223863718    0.4850062293917827    0.6006080435309141 H
   0.2038474759151833    0.4949586212968803    0.4752415239686112 H
   0.3583332227925966    0.4682026512271734    0.5885727768611394 H
   0.6937752879668948    0.1922659879311534    0.6183764374514595 H
   0.6430648638146400    0.0847968835891078    0.5494887730108787 H
   0.6792449987291952    0.0899196920088264    0.3891189714596309 H
   0.5910096630101209    0.2807667694873944    0.3820673872354652 H
   0.4747070392648499    0.2933955014297281    0.4276106615887044 H
   0.4208507042485309    0.0623013481301526    0.3003750507436143 H
   0.5524829473475437    0.2803246217582073    0.7149299119818608 H
   0.6552983716746538    0.3607650167401313    0.5895420673090590 H
  -0.0056410838988586    0.2429635288251021    0.8317778949160869 H
   0.1109501639561487    0.2486284695225889    0.7854095855398041 H
   0.2119809798524788    0.1114885304600970    0.8468516486984050 H
   0.2152850876337404    0.1897420433603086    0.9866777722217231 H
   0.2219272591825126    0.3290118296490493    1.0195402351376646 H
   0.3532009757566785    0.4213335772627979    0.8241080082804483 H
   0.0745618610907980    0.4776198241951825    1.0482902450873928 H
  -0.0134983965445462    0.2667008356649275    1.0106868524858970 H
   0.0636861032276453    0.7592528602972630    0.8265145547468165 H
   0.1151258727959625    0.8897186126742828    0.8206196022724043 H
  -0.0346184269729234    0.9505196928458124    0.7848139073890663 H
   0.2047782589472204    0.8749693273331827    0.6193696733418921 H
   0.3075361796284370    0.7988730557203770    0.6479999745571234 H
   0.3450005969199780    0.8691720657053744    0.8259683700980531 H
   0.1673620059689160    0.5817852920707962    0.8154641995983721 H
   0.1119456640378306    0.7004489396248317    0.6385239855257039 H
   0.9259248014185911    0.5046009336661473    0.8723274688687217 H
   0.8611085311179031    0.4067259165263962    0.8046307897468903 H
   1.0181727878688269    0.4847191587666534    0.7360782847464412 H
   0.6733043241337193    0.5936858486090809    0.7775201055580889 H
   0.6264862580366957    0.5209186397860663    0.8743817068275606 H
   0.5260369564046959    0.4375695771324907    0.7581061466862857 H
   0.7381559031555325    0.6100075681591796    1.0381962272620282 H
   0.8003971436651965    0.6858866320444377    0.8305442401875781 H
   0.8690122893161538    0.8331446296307997    0.0023407432276464 H
   0.8728116271641364    0.7083652989521344    0.0641887709356497 H
   0.6412345411735397    0.7648330397454314    0.0204557103480586 H
   1.0034557389333767    0.8163642179272074    0.2728699436902235 H
   0.9989987797012023    0.7011239885700529    0.1959076795982811 H
   0.9744806835205467    0.6627889770249791    0.3707354036064638 H
   1.0738203453169659    0.9587386611981390    0.1960850299515249 H
   0.8292306527878575    0.9459864656072994    0.1832098498614430 H
   0.5484263096789634    0.1134182871441486   -0.0587084932870605 H
   0.5506133081447053    0.0221682492951470    0.0380734568539983 H
   0.3651398385244564   -0.0039497593377898    0.0691396469950115 H
   0.7000981842921447    0.0806796449833395    0.1270171432396998 H
   0.7392820176987660    0.2179028969810487    0.1149471889743365 H
   0.8569686154868493    0.0676106403246915    0.0660529442098836 H
   0.6078952991718241    0.3506496915501252    0.1592181773576024 H
   0.5011407201075208    0.2056877756463809    0.1725906185717648 H
   0.4517524059634682    0.5925672134674665    0.0648773795485894 C
   0.2944877351919688    0.6703369517115667    0.0877847036572927 C
   0.3352789297462426    0.4916916702573642    0.1597074822525275 C
   0.4110772791827013    0.6606397896768931    0.2214944761951329 C
   0.3407382456596327    0.6829988176341145    0.3015381157034003 C
   0.6293481633839851    0.7815941408678708    0.4255016191050703 C
   0.6951922993847006    0.6662750452690470    0.5511876898266018 C
   0.7647324965009422    0.8470471181298318    0.5191266924487816 C
   0.6017443427556366    0.8342965759967335    0.5902592913405524 C
   0.6346806846980716    0.8570313023757357    0.6917709507164373 C
   0.0791180431069149    0.1901127715619711    0.4804523977992339 C
   0.1367635566272766    0.3230599332068718    0.3630195939999159 C
   0.0284182188063913    0.3824223968277243    0.4901505784772027 C
   0.1933905693169512    0.3264537943080517    0.5304906090200258 C
   0.2315623577083579    0.4443506132933243    0.5340597520982556 C
   0.6652426009764801    0.1713331144587453    0.5476448190059141 C
   0.7449143652144403    0.1906186664465339    0.4748950090457244 C
   0.5782153922785723    0.2438205360764375    0.5284296827116933 C
   0.5379548663236191    0.2406145504445339    0.4280335797644133 C
   0.5129394559991237    0.1309959420126216    0.3848014531720303 C
   0.4985092528271414    0.2106212504358276    0.5950500968819258 C
   0.0688799993644203    0.2226264277689653    0.8471842148129282 C
   0.0749001845521933    0.0994388738828595    0.8583682417181305 C
   0.1022326126573849    0.2903665030632459    0.9332822447951551 C
   0.2079782763689134    0.2740012963436921    0.9593797325171903 C
   0.2770759078627945    0.2955480104636385    0.8810881939651203 C
   0.0871500699385921    0.4136399497709899    0.9054587101911372 C
   0.0979608518385029    0.8176023508804724    0.7771168857123040 C
   0.0245402960708904    0.8438534493220945    0.6993646259868709 C
   0.1891786764152483    0.7649965671263224    0.7379653146786352 C
   0.2491650689096765    0.8476481184266336    0.6792185334157360 C
   0.2959694473443161    0.9500937752608750    0.7180606814028777 C
   0.2446199790358015    0.7157131330414769    0.8232316497161201 C
   0.8675030223729012    0.4944746972961986    0.8208722699366970 C
   0.8958073816195606    0.5588266907959352    0.7330826681703075 C
   0.7795899021427192    0.5360007148845579    0.8731363974137529 C
   0.6838630412331608    0.5195537403716858    0.8214668322964769 C
   0.6714209908843261    0.4241398757961932    0.7553574198250895 C
   0.7807065106555003    0.4743675556962932    0.9703677092655282 C
   0.8578540148667477    0.7963102495588796    0.0732451358621184 C
   0.7535781043367884    0.8149320740686704    0.0972368062338743 C
   0.9299048715976537    0.8474088011381040    0.1419629527552788 C
   0.9567883782836893    0.7703587182723819    0.2240506125621290 C
   0.8761253353197089    0.7220932832443679    0.2823501059219646 C
   1.0252209614745789    0.8673879519796485    0.0873253190167167 C
   0.5328873115100146    0.1070826883959187    0.0177270506674278 C
   0.4277652677978802    0.1291259896231782    0.0359153835307549 C
   0.5961913150164849    0.1873772451227715    0.0724164919304861 C
   0.6998166884638812    0.1519367044888628    0.0786293943685675 C
   0.7513742956397459    0.1213666218003849   -0.0132821609331594 C
   0.5875864344029632    0.3045554943498108    0.0305044704129194 C
   0.3715786586246921    0.6038812110006553    0.1345748019151237 N
   0.6734749950114798    0.7826798734312973    0.5229235506941500 N
   0.1091812542015825    0.3072060806544377    0.4656629823770413 N
   0.1070885456837436    0.6441612164788112    0.3962440614336024 Cl
   0.0950542516201784    0.4934403688055954    0.1593558652511141 Cl
   0.3971758995846529    0.9488123258176636    0.2008556816075577 Cl
   0.5567318202044396    0.8058214382161103    0.9359790575276234 Cl
   0.0915820805402881   -0.0221929461277209    0.3377830839836666 Cl
   0.4099914388268391    0.5066740997045686    0.7345979648825762 Cl
   0.2796248441286944    0.7720944180989863    0.2817895453372162 O
   0.6479428960032040    0.7593092313079064    0.7440890050101147 O
   0.3324802163411082    0.4420391844046850    0.5274365782998132 O
   0.8093386438758386    0.2559326859711208    0.4885579482125172 O
   0.7428368403830303    0.1280449351553261    0.3957903886477581 O
   0.5676810244068980    0.0509780887718895    0.3853782133358199 O
   0.4292759662141164    0.1306120977471700    0.3415628521493119 O
   0.4180597660541859    0.1801310457574531    0.5694376257219239 O
   0.5139463191956342    0.2108543223313705    0.6895551042958947 O
   0.6026326079189114    0.3560322142802457    0.5433293077206480 O
   0.0044201027042851    0.0405316576434920    0.8634528577609587 O
   0.1621570141431375    0.0551941023993354    0.8584037615374207 O
   0.2916072377203488    0.2227211516140332    0.8176233844484042 O
   0.3189496818803114    0.3897738422657114    0.8847392702130152 O
   0.0996351240625288    0.4375147865484525    0.8193296370566543 O
   0.0619261291842654    0.4852439777417508    0.9675895432904150 O
   0.0550145278902081    0.2584332540138610    1.0169749492848137 O
   0.0276701698976837    0.8029887951364216    0.6192533368545896 O
  -0.0478230488005313    0.9089395739560465    0.7244433588975020 O
   0.2872036544129127    1.0397924988489391    0.6748699606047616 O
   0.3531366885745402    0.9439603964458290    0.7911403006921601 O
   0.3111534856118877    0.7623178096764285    0.8633982166959853 O
   0.2142656249213062    0.6201246953309225    0.8562126131852663 O
   0.1657136016959763    0.6738865053477254    0.6789529524255163 O
   0.8532891808803728    0.6395589354292339    0.7030874774425446 O
   0.9749801803414779    0.5225021698042839    0.6899146547842274 O
   0.7312876482537484    0.3857876789580804    0.7013591847647487 O
   0.5822316082144985    0.3833737988737286    0.7521367389737111 O
   0.8021901167785445    0.3771882019758943    0.9740285334043650 O
   0.7594070502669045    0.5316803889982942    1.0475826509714916 O
   0.7907097921193369    0.6499069821294451    0.8926358749108789 O
   0.7224531722838740    0.8986232186659706    0.1355477680769506 O
   0.6967808087850731    0.7346842326515972    0.0654208770600202 O
   0.7916262632589476    0.7298428575097712    0.2621458451071785 O
   0.9023349253800372    0.6700558811276303    0.3620109196846562 O
   1.0425151952134040    0.8193942994521105    0.0132623410744115 O
   1.0875461105609294    0.9352090778850807    0.1279276755672198 O
   0.8993884517584028    0.9523619680758748    0.1758215782031587 O
   0.3996699851823393    0.2164344976766662    0.0698976435916359 O
   0.3686781205313021    0.0463373293399799    0.0116750744239676 O
   0.7167841654402556    0.1236519761117616   -0.0924752493401909 O
   0.8431482531454277    0.0904080159303063    0.0001546713690030 O
   0.5715260119141398    0.3258600093233682   -0.0519970540275932 O
   0.6019757207143716    0.3852793658402852    0.0962825206869065 O
   0.5696497807001831    0.1907869408512624    0.1719413213352877 O
