Li1 Co1 H90 C51 N3 Cl6 O45
1.0
  14.9059595156999993    0.0000000000000000    0.0000000000000000
   0.0000000000000000   14.5471759606000006    0.0000000000000000
   0.0000000000000000    0.0000000000000000   15.0350099693000008
Li Co H C N Cl O
1 1 90 51 3 6 45
direct
   0.8775123964896763    0.0126011729559391    0.5285344672751138 Li
   0.7283331371700809    0.0546629450591455    0.7177378004161321 Co
   0.1140352122122462    0.2270317956725795    0.1575792094210567 H
   0.2368505196113975    0.3185925222086091    0.1507631181641002 H
   0.0087551731549079    0.0770226113532063    1.1153304865670619 H
   0.4796758134938640    0.2284636887119170    0.1229480385031007 H
   0.5425701209024251    1.0237094485303644    0.2773935629651049 H
   0.6559117677934243    0.2566196690279141    0.2313683191233665 H
  -0.1018274430305080    0.0652141338545321    1.0956630569741459 H
   0.2343709744361224    0.3950987804001885    0.0657369025107481 H
   0.1945607227461873    0.5344264413489190    0.2519363134666651 H
  -0.0272136619566654    0.5728453070802269    0.1889686132833524 H
   0.3677605759512603    0.4765645372735329    0.1298166737890677 H
   0.4562436419766856    0.3569154242969542    0.1057501782736779 H
   0.7484452272159610    0.4626154587341934    0.3172724856411978 H
   0.7787056072689802    0.3940882749907665    0.1240893746269237 H
   0.7541832006694588    0.6486586472767739    0.0451875313676052 H
   0.7836506092946708    0.5676106140919625    0.1951222507062019 H
   0.1645217306552463   -0.1186737910076669    0.9906308685536203 H
   0.1874494730551927    0.7530576044429840    0.1629792723518949 H
   0.1612371383451416   -0.0625879911101623    1.0837501949031714 H
   0.0764093217481487   -0.1956179348766624    1.1024113065733929 H
   0.4081900430624018    0.6792377783194463    0.2415339259511694 H
   0.6205057948036193    0.8973612140016751    0.1061120004481299 H
  -0.0693109183821289   -0.1237098200072761    0.9785317744810894 H
  -0.0418105082563504   -0.0359360827913185    1.1215772399906896 H
   0.7129547242769989    0.9823110354204180    0.1694016159484183 H
   0.1188688493842855    0.2022097957890292    0.6488771876121485 H
   0.1803261476571756    0.1513057576440573    0.4085627476897505 H
   0.2148874920280219    0.2030676942590691    0.5814479007629825 H
   0.1825883301060467    0.2735109199941164    0.4269378602147250 H
   0.1371883678099449   -0.0110735252076621    0.5765229954818291 H
  -0.0166132038087969    0.2614769691795983    0.3958903250981431 H
   0.0141603937926761    0.3076316319002868    0.5272063670583016 H
   0.5761813083923886    1.0111496224517593    0.3875058943423669 H
   0.7601103601996415    1.0706546426937980    0.3562608202812773 H
   0.7595052331032947    0.2766146151801983    0.5567737568310864 H
   0.7984990328239900    0.3144570116350834    0.4493887931166148 H
   0.8707513423023325    0.3155383211650296    0.5480590968296938 H
   0.1897592874595412    0.6382401302800393    0.3113469824202546 H
   0.1964525835130368    0.4303813673016004    0.6783038392009002 H
   0.3587715538182756    0.5949396297769837    0.3070796091274527 H
   0.6561552945517102    0.4309148041707919    0.4555058492534443 H
   0.8134185688502192    0.5765071862067512    0.4026019934113699 H
   0.6490024507587494    0.5061259656335610    0.5629482123312528 H
   0.7596561794410752    0.4835000620979565    0.6765399561004466 H
   0.8432073254567508    0.4023647954869848    0.6711166141694138 H
   0.9032343233200937    0.4941346347750866    0.4014214155443619 H
   0.7903016403735879    0.5562345229215375    0.5427287378765808 H
   0.8898349846334678    0.4893175486141854    0.5540090762565558 H
   0.1970060534182322    0.6915989404093962    0.6004648485790345 H
   0.0827483970623193    0.7205268918647001    0.6025147308247352 H
   0.2313091118333206    0.7805062309723857    0.4727370317088599 H
   0.6191486195088192    0.7039683515230966    0.6982985050251223 H
   0.4276909681584236    0.8136294984234055    0.3028242078918938 H
   0.6407929826013248    0.8395692410251329    0.4035770509623748 H
   0.7820344771715004    0.7924178212679398    0.4932988404892497 H
   0.7218431155181299    0.8043802805432879    0.3428467952549015 H
   0.3318252844703049    0.2346085239873069   -0.0771808610549279 H
   0.0029051639751462    0.1494579763239714    0.9711523314194254 H
   0.2196392827413535    0.3423284006316923   -0.0999690069024928 H
   0.4429761297583880    0.2777942255765031   -0.0477548745804675 H
  -0.0032715601668337    0.0898615294020327    0.8690865527379733 H
  -0.1076358581083034    0.1218120606432063    0.9256166116960632 H
   0.2717613886132823    0.6312868906771119    0.6975382793901982 H
   0.4155018836644915    0.5889350279053501    0.9411184304827422 H
   0.5495422987008778    0.5972871644526138   -0.0116185500213628 H
   0.4678909968361388    0.6384243584771312    0.8034490837894944 H
   0.6119602194674034    0.6734146549703212    0.8563575954316077 H
   0.6304313551034556    0.3800188775658412    0.5553472862105951 H
   0.0328696892061156    0.5018807430441552    0.8018667768905581 H
   0.7303437423893178    0.3594052546322782    0.6724135870373945 H
   0.9185932809074174    0.5467123998390113   -0.0515466911550098 H
   0.7577401672601808    0.5629554150221626   -0.0229148511443282 H
   0.7178997263026896    0.4005926302179440    0.0162663666402202 H
   0.1404414291072688    0.6624159566364762    0.8453852049684918 H
   0.1007492509971087    0.8660314217977179    0.7332276471455681 H
   0.0409496789493551    0.6469545364536738    0.7913173991166911 H
   0.0787707933436488   -0.0297266301632172    0.9019219150694946 H
   0.1169595459295147    0.0526549951945729    0.9829335008607282 H
   0.5921728317659046    0.8119185134138468    0.6566503783342457 H
   0.4990872441833973    0.7411150803083659    0.6936447003290913 H
   0.5762040509739476    0.7607298839494867    0.9306082944520604 H
   0.5290423101105324    0.9072779153869280    0.8717662982175085 H
   0.4565715645096062    0.8657172714765574    0.7928112458148883 H
   0.4164759906976352    0.7335459135987431    0.8499305960350454 H
   0.5509110130046105    0.9414192498524744    0.7654969972152168 H
   0.7018336689819406    0.8769008854261401    0.7546609551818116 H
   0.7245017836809045    0.7637559008285858    0.7956579349815329 H
   0.7005362013496402    0.8488493927443145    0.8720044091337841 H
  -0.0704607940397105   -0.0556271899021302    0.8788238259621969 H
  -0.1520241445049694   -0.0306408969622181    0.9658074729747628 H
   0.1674936963279921    0.2736305308384970    0.0358433406895234 C
   0.2443508754175598    0.3231033633627772    0.0801585756884012 C
   0.0839901822677939    0.2210340679874047    0.3322102875088779 C
   0.3422318604332019    0.2968804042789533    0.0543182203581886 C
   0.3594430973032460    0.1982667624363458    0.0846727063832649 C
   0.6509043746147842    0.3482690725692603    0.1381186303727262 C
   0.6492419522813612    1.1141709926516554    0.3073835663585641 C
  -0.0402440207064945    0.0285252258874089    1.0876703785359292 C
   0.1845197723570254    0.6091437612564985    0.2466466595081780 C
   0.3022398022653178    0.5919961031353884    0.1230790660184813 C
   0.2707403204972734    0.6562587478254608    0.2054674383926482 C
   0.0955164446207164    0.6309301203999077    0.2082037185869417 C
   0.3477987613705485    0.6664373557147883    0.2755106244065136 C
   0.6068441449255613    0.5459686128641851    0.0940002692040649 C
   0.7171792091170170    0.4157535109687742    0.0885050949295748 C
   0.7693724274858559    0.5768639564839554    0.0471981718701207 C
   0.8655527504291706    0.5686781752489913    0.0695486725140285 C
   0.7036275823473859    0.5177181812262460    0.1090764148443297 C
   0.1158237585967926   -0.0863898617232486    1.0338958880865794 C
   0.5881335077668971    0.8680854287115635    0.2362409464212260 C
   0.6622548683432690    0.9325103042020600    0.2875538488785776 C
   0.1331825874415554    0.2109228271253719    0.4192085670358518 C
   0.1450476404637187    0.2354567985963047    0.5873627621552653 C
   0.0840834335609117    0.1949987741939021    0.5118197081553564 C
   0.0743390088664120    0.0936966380273152    0.5272431478786089 C
   0.6044477879542186    1.0178251449217575    0.3182222688491343 C
   0.1452328013047295    0.3387861323495484    0.5999008316600358 C
   0.6683819479119344    0.4374204654933965    0.5280568487025512 C
   0.7997696655517961    0.3270381476917103    0.5230887109924651 C
   0.8272291524482207    0.5032396322233017    0.4177599481094612 C
   0.7765192334253055    0.4161106936971658    0.6513287988897775 C
   0.8249253758973834    0.4946299199094325    0.5228384284846593 C
   0.1488977783860412    0.7388307881481555    0.6243477725500333 C
   0.1672776753468128    0.8326132517476219    0.5804435781831616 C
   0.3332180160135600    0.7320287806473184    0.3450144027301573 C
   0.6930197446007814    0.8725179041401029    0.3636961329434081 C
   0.7646977871229454    0.9121455268183003    0.4251260888852997 C
   0.3716570040838355    0.2974509617550216   -0.0502251090582521 C
  -0.0372049677725129    0.0994874527000846    0.9364652909010026 C
   0.1396672421126077    0.5514645249378781    0.7461208876818778 C
   0.3471138004333310    0.3901431793821455   -0.0922663182952706 C
   0.4726597606265630    0.6871795259351282    0.8600895517199355 C
   0.1145323288180035    0.6469174158467971    0.7771730785984986 C
   0.1466188241218611    0.7374057692952768    0.7280763369596656 C
   0.2449727743292156    0.7549315076716128    0.7582632141833414 C
   0.0739062960314411   -0.0078399078975117    0.9727632382328864 C
   0.5709766115784541    0.7586923750831419    0.7051132660534961 C
   0.5630695057074192    0.7277516618327444    0.8623090381099106 C
   0.5246831811372139    0.8892276765837969    0.8060416992968731 C
   0.6817450594774932    0.8253032418674902    0.8053632827197754 C
  -0.0849254784347609   -0.0572811191640822    0.9524579640346403 C
  -0.0235520392384156    0.0137938443065154    0.9913864383885054 N
   0.7673329747442876    0.4196832083997278    0.5511726298499967 N
   0.5855177754513133    0.8022327846936046    0.7949309650611724 N
  -0.3090593221152767    0.9747645535261088    0.0261426487513197 Cl
   0.7230285474241663    0.6863683719330070    0.5469057221371988 Cl
   0.6080483612647439    0.0713328472213792    0.6436487241684585 Cl
   0.7470605461440540    1.1575464217871105    0.8176506041367363 Cl
   0.8411450630463624   -0.0213291239853266    0.6687155515779216 Cl
   0.9159802320822831    0.5376239691801615    0.8275794302768463 Cl
   0.2974745940997390    0.1394484734215266    0.0853178672457989 O
   0.1013644411826410    0.2459179355490830    0.0912759610670144 O
   0.1192633224803520    0.2042837378436048    0.2584278289494809 O
  -0.0017647802794777    0.2411245653314642    0.3369864732345029 O
   0.4449357486590856    0.1747652937715027    0.1128708918760371 O
   0.6024183983018357    1.1750542872786540    0.2754567501489206 O
   0.5667332081307673    0.3366812564559088    0.1248722141477509 O
   0.6952799144318155    0.3033050189432105    0.1996663115441729 O
   0.0376476439513291    0.5611949358701016    0.2110124962389838 O
   0.3350421186465614    0.5206167506884017    0.1632912109545015 O
   0.2866192043591745    0.6023341921505567    0.0445250775334981 O
   0.3921655798436190    0.3650874571590009    0.1045449911778929 O
   0.5424178999066810    0.5598991517226455    0.1406314321651522 O
   0.8836039198098867    0.5801773143570261    0.1523653784917746 O
   0.7243582169418600    0.5370638604675104    0.1999669432038279 O
   0.0867514939402594    0.7073174551657523    0.1735838546119373 O
   0.2527716684478772    0.7507279426521465    0.1861385519739896 O
   0.0505015632041081   -0.1524432319858001    1.0589108365813231 O
   0.5801117497664103    0.8581927869789158    0.1495107079536348 O
   0.5391074790010004    0.8305853667423192    0.2896649216390753 O
   0.7304463858990086    0.9611316669413079    0.2313284122658902 O
   0.1425976136833874    0.0608180916142235    0.5727168124385953 O
   0.7259703238293561    1.1277035161141600    0.3444749950399356 O
   0.7924128764846784    0.9903359606922496    0.4232717502412331 O
   0.0062722736165710    0.0501521039049774    0.5051299600138269 O
  -0.0024812722294760    0.2347088871096033    0.5183851424451612 O
   0.2088402463002270    0.3689060677367827    0.6528206502451008 O
   0.0796851927142927    0.3864448670673902    0.5803265180678977 O
   0.7664393724246268    0.4447799007741660    0.3801058327376735 O
   0.2029634022159711    0.8349360393520008    0.5034113046851799 O
   0.1313712313881889    0.9007714979038129    0.6163630754833117 O
   0.2837820840815126    0.7169378791146374    0.4111320841969346 O
   0.3702911074450746    0.8131758021171344    0.3368401480904231 O
   0.8008866684513721    0.8568420093397905    0.4846213603767390 O
   0.1636610010935910    0.2655891075191646   -0.0449035296137840 O
   0.2571444161352265    0.3963285723576415   -0.1213876824243284 O
   0.0955687726844804    0.4818150615132115    0.7787008461255507 O
   0.2075333864513537    0.5415870064154396    0.7003942801569206 O
   0.4007493949187394    0.4515553739152728   -0.0989167960937003 O
   0.4624982544289603    0.6366068235774633    0.9430273084986931 O
   0.6082053454560358    0.5750471090029334    0.0077701966835104 O
   0.9297378167439082    0.5460043586337701    0.0166614445292359 O
   0.3003834977469232    0.6925049581846466    0.7249403230763177 O
   0.0906841491939019    0.8075025360328081    0.7640916107177589 O
   0.2688960916859013    0.8205304942092474    0.8024041892379059 O
