Li1 Co1 H90 C51 N3 Cl6 O45
1.0
  12.2074642796999999    0.0000000000000000    0.0000000000000000
   0.0000000000000000   13.9227241033000002    0.0000000000000000
   0.0000000000000000    0.0000000000000000   13.9102319382000008
Li Co H C N Cl O
1 1 90 51 3 6 45
direct
   0.1881076272095741    0.4276817889602976    0.5601489611184921 Li
   1.0925608164243399    0.6070820256860960    0.7604754554846664 Co
   0.1062134699059602    0.2470404158109236    1.0853506998427254 H
   0.2614520974030190    0.3171014177213757    1.1131719469448120 H
   0.3381912119755518    1.0954483791059983    0.1552217086453124 H
   0.4303987314250916    1.1117598421727823    0.2530619176401390 H
   0.4711565815895508    1.2381287903000373    0.1646255777239273 H
   0.5916059203146389    1.0399355359105487    0.1746973005120470 H
  -0.1201717921501099    0.1506375861605198    0.2477334658695792 H
   0.7188861616817007    0.0909416535374634    0.9324963111131628 H
   0.1253820699230106    0.4254300744418315    1.0977128229736679 H
   1.1647346913432393    0.6789558912152432    0.2157512529218368 H
   0.4449578565577000    0.4025782246429412    0.2097477584890325 H
   0.4008905557920065    0.5545505674331349    0.1863290260446507 H
   0.6188286909397083    0.5977900222649167    0.2080317554701002 H
  -0.1393436688509240    0.4152294844605692    1.1431376586491084 H
   1.1270634772840897    0.9699535415270603    0.3088970757777325 H
   1.1634469546241453    0.8027125632009793    0.0922378559035032 H
   1.0876179389669518    0.7031120834592800    0.0579429568594452 H
   0.5095462904809633    1.0198374575514670    0.0715020406215242 H
   0.3793226040890612    0.8733812048188071    0.0662303815776069 H
   0.5483463220966724    0.7829032214404377    0.1772702266975346 H
   0.5958555334047437    0.8705469893515446    0.0828102632808478 H
   0.6412093421331201    0.8810327246801214    0.2071266663201899 H
   0.3888118802684420    0.9524296720465056    0.3209263503968336 H
   0.4948208736473522    0.8533506419827670    0.3293525219028687 H
   0.9425272010857570    0.9924728414624577    0.0153800432696224 H
   0.5247655854748426    0.9897470817822090    0.3210298713162833 H
   0.9240802906676392    0.9452766178553080    0.1355211025578297 H
   0.0304467112402752    0.2456268993285180    0.3110897063632974 H
   0.2113974762302904    0.2462323842851582    0.3653835530335298 H
   0.0756207119471241    0.0972881127033861    0.5027428298945342 H
   0.3533270334505536    0.1628837528398974    0.6122198398225986 H
   0.3476051244283699    0.0783615004941028    0.5125546432853080 H
   0.7951239436384029    0.9903166542265931    0.4628697779954606 H
  -0.2751065072280950    0.2403412957746447    0.4371722194221666 H
  -0.1504966812112719    0.2171425311073592    0.5039593372881693 H
   0.3240285655783388    0.5940788232483569    0.3607962822904183 H
   0.3196124150359491    0.4719376397139555    0.3610874348763704 H
   0.5996887619055893    0.4357955028543498    0.4163266288318545 H
   0.6248425524852285    0.4574577147722398    0.2864157827705889 H
  -0.0888598021051640    0.4329951169736327    0.3540070353231804 H
   0.9079426231319173    0.6113814716534131    0.5427842614446737 H
  -0.1932467551039989    0.3871243523688364    0.4401920827994724 H
   0.0036712898660312    0.3764734194838809    0.6255675683741346 H
  -0.2650307046550300    0.5977138877389335    0.6147604157207581 H
   0.0650337467069377   -0.0057147184494693    0.5652631102078858 H
   0.2771261141861918   -0.0939057930473614    0.5421736317989757 H
   0.4841584627635090    0.6376047881029190    0.4750762602995919 H
   0.6463670062112120    0.7067679772069652    0.4985249562989921 H
   0.3226638267908001    0.9340611402776844    0.1641913649784580 H
   0.3665828576161907    0.8085368544386962    0.1774025034279424 H
   0.7002909813232799    0.8727082043391251    0.5762225967698135 H
   0.9651240314904723    0.7212996161663299    0.5896565927542241 H
  -0.0908102481154459   -0.2543162115423056    0.3295444669410149 H
   0.1281803578571236    0.2659411710113823    0.8276677211602125 H
   0.1057629258884654    0.1113952657678820    0.7183273444679160 H
   1.1106481107994031    1.0415882297245809   -0.0276343365522446 H
   0.6092624946089769    0.3278306398830498    1.0603496789003670 H
   0.7289038031179618    0.3443855897829310    0.9879396713264502 H
   0.5710176724818813    0.1936995613567313    0.9664741773414062 H
   0.5542867040087940    0.1235803811764240    0.8287611608718991 H
   0.5990371114221037    0.1805584548719282    0.7233919616729343 H
   0.5298958892435086    0.2924783628180078    0.8847616649225023 H
   0.6807840637076380    0.0911750848671290    0.7676565003762102 H
   0.7843624949878049    0.2634976836774678    0.7391321736961949 H
   0.8324732235177789    0.1401640610861102    0.8639877481910038 H
   0.7859893684764316    0.1965244395708071    0.9749413258780568 H
   0.0036901307976719    0.3137974665938017    0.8670789978690133 H
   0.6776908742348011    0.3493666552328714    0.7599370029244735 H
   0.7957260342799641    0.3463672422092303    0.8378810663173014 H
   0.1040877213143258    0.4917118590375105    0.9947087892260175 H
   0.2871879908532615    0.5787405892637172    0.8153005657623520 H
   0.2941476671671444    0.7750125242474968    0.8801858965037742 H
   0.3275976933678383    0.6360943078374216    0.7148543613994359 H
   0.4392080957235258    0.7210525380820070    0.9570199855936145 H
   0.4246194804370449    0.4883332098844436    0.8151229986296851 H
   0.5689709001606590    0.5301199317704359    0.8144472370721666 H
   0.4880093853566780    0.5533082099841427    0.7115438486628698 H
   0.3856294011630471    0.6043462105024158    0.9649213635496618 H
   0.5290617274743906    0.6231593391729693    0.9613355139231706 H
   0.6352960747791423    0.4818485593713589    0.9947080703307434 H
   1.0433736972780241    0.9092326658042108   -0.1029803124249965 H
   0.1190400484985660    0.7695983538997461    0.8820356140436623 H
   0.2635917719006488    0.7841860163782306    0.7503347187502469 H
   0.5961209447895952    0.7024757137420995    0.8018593808252019 H
   0.4953341661589200    0.7095863911688349    0.7088386457469744 H
   0.3934877079990969   -0.0241421467383909    0.7799575174088667 H
   0.4828420550614834    0.7900426288769782    0.8104329258623978 H
   0.7059367074479600    0.7899061613304044    0.6698968076520667 H
   0.8700952873204744    0.9817378732988227    0.7562936416760659 H
   0.8194484055574753    0.6662543538804565    0.0179838819518901 H
   0.4272621258923870    1.1036127296423317    0.1726074719506577 C
   0.5033534400848565    1.0230243338890856    0.1500938286561862 C
  -0.1702501692801247    0.2844260593199138    0.2593831637840317 C
   0.0865492714696655    0.4232085264336604    1.0248987962557883 C
  -0.0333896418421481    0.4142857036384752    1.0452047121639416 C
   1.0812710025168619    0.9951073833615754    0.1089471387560562 C
   1.0769097364275124    0.7739064188700047    0.0935095816431309 C
   0.9776131116554274    0.9469357759215462    0.0708528781891422 C
   1.0297910239069679    0.7560119322629657    0.1981131573753330 C
   1.0019162751300366    0.8392011121538088    0.0314229102032185 C
   0.4718283017610884    0.9289191867728360    0.3010920297883951 C
   0.3786082870285967    0.8812266522463051    0.1466086243680488 C
   0.5754464546401796    0.8579582173052426    0.1594746930860345 C
   0.8922137218957041    0.7915717836488487    0.0141169442732822 C
   0.2698977498036938   -0.0006855302331056    0.6610198888092613 C
   0.1224404270742402    0.0361808183486595    0.5303108533253227 C
   0.2050988708657135    0.0765407361227115    0.6057447500900793 C
   0.2572268136898589    0.2154754722884246    0.4929055532331569 C
   0.2971188001697872    0.1341013107670119    0.5549903124116407 C
  -0.1924619893426171    0.2175900010100719    0.4334247621380902 C
  -0.1846610244724303    0.1141734577160247    0.4074554611512408 C
  -0.1181328756782109    0.2786599463520520    0.3619572981578568 C
   0.5256402962055353    0.3382409589358885    0.3155087556123033 C
   0.3796232398243713    0.5290270421974540    0.4918224224796988 C
   0.3791489398495904    0.5272656771213345    0.3833350869194783 C
   0.5408459110447017    0.6196729524831336    0.3285164466992582 C
   0.5619289381257627    0.4404577370204793    0.3424809873958482 C
   0.4785782703141011    0.5229433907962225    0.3222699656638569 C
  -0.0220211875243436    0.3928782550825310    0.4828505375712039 C
  -0.1105522677911260    0.3826934666066615    0.4093943217050994 C
   0.1595103696627694   -0.0227796260233891    0.4471761503859523 C
   0.8880187475073574    0.6790456724958838    0.5845509985185905 C
   0.7977854300253857    0.7439158798848192    0.5476808009346410 C
   0.8372842144536822    0.7909792271966208    0.4527149509136716 C
   0.7586601875461393    0.8244575893721322    0.6149703331407532 C
   0.8520497706633973    0.8840788239696956    0.6617826366949283 C
   0.0944288767501787    0.3234284841306800    0.8678079576768044 C
   0.1273538143777559    0.3301592071777444    0.9737544297807559 C
   0.6372347247278752    0.3432572186478400    0.9903666617713247 C
   0.5933099597058983    0.2582444013846251    0.9272613157282171 C
   0.6241716514846317    0.1475692211133467    0.7870163501038379 C
   0.7614347195229663    0.1584162363152213    0.9092903716698718 C
   0.7366654477829854    0.3020849598465519    0.7951046408311138 C
   0.2581934354001204    0.3466689073121828    0.9754538982083871 C
   0.1162163662652851    0.4081267077865302    0.8005869361903002 C
   0.3283537881462886    0.6464845158833967    0.7929048212928093 C
   0.4859983206967696    0.5455961416271642    0.7908099604645024 C
   0.4515767577601688    0.6464536311228564    0.9329945055380140 C
   0.8641784156143567    0.6296781783977219    0.6759197122572677 C
   0.2642028734225598    0.7381863976794588    0.8175622102942168 C
   0.5115357290280320    0.7203148950802638    0.7863535286612507 C
   0.4825872928988637    0.9218106640968361    0.1882671677032353 N
   0.6808430440153826    0.2216682259018905    0.8534796559715929 N
   0.4460129487295787    0.6388976385441436    0.8258460405360087 N
   0.1557389066508677    0.3133543061925597    0.2392088057110121 Cl
   1.3058319708875485    0.6514425973254931    0.1428739634198488 Cl
   0.6775032840893350    0.6164623738874259    0.0459302168316450 Cl
   0.1605711960312344   -0.3676417352180945   -0.3888677093906144 Cl
   0.0180395481694100    0.0560713223869002   -0.1610239168441819 Cl
   0.4745143632762982   -0.0521495967967868    0.8597620817706919 Cl
   0.0875257232312178    0.2490673180026657    1.0178212722836941 O
   0.3075402928799118    0.3291565298355502    1.0574582821085170 O
   0.4662055124227537    1.1867889810287626    0.1169585076890188 O
  -0.1496963512020130    0.2115171951875419    0.2063890797691113 O
  -0.1602931464934901    0.0805650922461456    0.3276523345799635 O
   0.4718471426927291    0.3334595670540928    0.2292247881463150 O
   0.4543234379250051    0.5087894078157446    0.2233636349777540 O
   0.6151288234680412    0.6427374043545807    0.2615261905956938 O
  -0.2392145324525794    0.3500353462110826    0.2478053553969747 O
  -0.0618599278931134    0.4326532298569534    1.1369292790632268 O
   1.1383156093282867    1.0432955105572423    0.0401970270218481 O
   1.1090810367894621    0.9991496957411377    0.1927782355473075 O
   1.0952853789737720    0.6980491374813954    0.2512237024246342 O
   0.8107307884044218    0.8352809023159177   -0.0111493490251658 O
   0.9449945439597467    0.7905568960524874    0.2321248116814524 O
   0.2492988773238327    0.1928362245620913    0.3993786727483482 O
   0.1482344816612865    0.1410726476461930    0.6653095369089552 O
   0.2366271220390569    0.2985037641243596    0.5237633708387160 O
   0.5496422505251756    0.2680650369862163    0.3640600668341773 O
  -0.0176107711785402    0.2359671517818347    0.3677925710965554 O
  -0.2097047184776126    0.0600956785103344    0.4857380523285745 O
   0.3283587031719341    0.4709654880071791    0.5443139268085967 O
   0.0729403846285006    0.4219867827667032    0.4673415941575748 O
   0.4425929100513229    0.5985226375149441    0.5325282857978392 O
  -0.0516923781746677    0.3695760623799476    0.5730738354698874 O
   0.2432132564038896   -0.0755839475444732    0.4481331437746421 O
   0.2775406146822870   -0.0870062811926927    0.6242217964212895 O
   0.0973115392912043   -0.0076741051181698    0.3708457193250454 O
   0.5293245175122312    0.6773067886524368    0.3980710022450228 O
   0.7059350691060781    0.6820817162820263    0.5359141387591159 O
   0.8793076837218312    0.7220322314163571    0.3964038841047194 O
   0.8198375117544027    0.8745519527183604    0.4333060725283601 O
   0.9496539882715835    0.8749290340970509    0.6419461594006680 O
   0.3239278075526081    0.0198169230139814    0.7331222092059250 O
   0.3061640856992005    0.3767406085750672    0.9060438406126878 O
   0.1073701392745104    0.3963502767674642    0.7104072752347458 O
   0.1207267214658782    0.4899078298968306    0.8407106381155912 O
   0.5910677250064679    0.4295778977824025    0.9622779856273266 O
  -0.1016429646379021    0.4021451197451310    0.9831525476971791 O
   0.9284939836972061    0.6228109878040837    0.7396699073611137 O
   0.7659770223902546    0.5890991942989068    0.6784660393176190 O
   0.1513825555871637    0.7114287030475799    0.8432490573279289 O
   1.0575519079231142    0.8517669001922668   -0.0621679088272558 O
   0.8969075713870589    0.6961371553288732    0.0157826246230376 O
   0.8107193200112492    0.9407846808222975    0.7298677703007274 O
