Li1 Co1 H110 Cl3 O55
1.0
  12.4273294129000007    0.0000000000000000    0.0000000000000000
   0.0000000000000000   12.4297616005999991    0.0000000000000000
   0.0000000000000000    0.0000000000000000   12.4089079212000009
Li Co H Cl O
1 1 110 3 55
direct
   0.5836383236989812    0.1532873969528127    0.6048470589323370 Li
   0.4858280895276516    0.5295070019832315    0.3897024211484645 Co
   0.1375955887050855    0.1364801558557738    1.2047902648353483 H
   0.0595136478664735    0.0347090165011028    1.1917351272657295 H
   0.1718571734634348    0.0375584677728224    0.0278401985810361 H
   0.5354421280321737    0.1526309080946831    0.0564876027085722 H
   0.6374608287422361    0.1120396227416603    0.0898333252030610 H
   0.5636428772322560    1.2060300335749305    0.2306449108072055 H
   0.4928996007977060    0.3221152528224460    0.3143315661192208 H
  -0.0241520348763298    0.2525065163235710    1.2740791986770665 H
  -0.1308353741482240    0.2072111986746128    1.2243487950090923 H
  -0.1299486188660665    1.0251979249453089    0.1663282114595952 H
   0.2431468263377171    0.6373803500879350    1.0054657138187097 H
   0.0593251922520622   -0.4179600837436193    0.0029600881022935 H
   0.0469742683407130    0.3875187598342585    1.0523675043466001 H
   0.2778662729432057    0.3698707946480709    1.1588232866272581 H
   0.1148497524430662    0.4665146433878580    0.2735955075385623 H
   0.0611366836233806    0.5789391648631971    0.3008944448947871 H
   0.3227737491561315    0.5435965722925725    1.0439058411070321 H
   0.2255646095363189    0.6474963928601416    1.3154124089206318 H
   0.5497171177830572    0.3771372252444261    0.0622218704178549 H
   0.3907135270398317    0.3715828146114283    1.0939424763970098 H
   0.3986581140640973    0.4134927093253264    0.2519916724789114 H
  -0.2161932144979683    0.4543704040331215    0.2351835857943718 H
  -0.1319297363839174    0.4008633440129279    0.3119260361411150 H
   0.7411371663681281    0.6325878205194577    0.0610862346238360 H
   0.8725394931065592    0.6017770928236414    0.3048770677262103 H
   0.0445932257999653   -0.2950244998522727    0.0328255687999826 H
   1.2150829196597484    0.9769830018231251    0.2355002937613385 H
   0.2456509846299803    0.7784055810075197    1.3164519846900642 H
   1.3224913543806009    0.9221307832602937    0.2213274107714071 H
   0.4869514201754664    0.9870395100665308    0.1329086710267497 H
   0.4556599023376645    0.8868364619292375    0.0527810718605657 H
   0.5638030081770377   -0.1522035788207457    1.1889306903063297 H
   0.5093938927883266    0.7069898911074695    0.2820587825235091 H
   0.6254928511455681   -0.1565866073735516    1.3054598812055211 H
   0.3805391769603407    0.6731847375170967    0.3072519745421157 H
   0.9288267272144678    0.7048546932772297    0.2567358450018958 H
   0.7017352978144777    0.7278100812539570    0.1402114893388415 H
  -0.1057583853885547    0.9631050204472253    0.2732231943560213 H
   0.9541016667902992    0.8355884959208427    0.1423688105285866 H
   0.8924472296588060    0.7387032909832139    0.1044130127266433 H
   1.1661906774239155    0.2044895052836175    0.5897006817335106 H
   1.2220031514442804    0.2975138155764381    0.5276210849719042 H
   0.2897650482220284    0.1282032473111212    0.5009805456029868 H
   0.2998508837089265    0.0287407604408725    0.4123635611767166 H
   0.5412124747911131    1.1841068456043065    0.3656237510594125 H
   0.4420350925032813    0.0972734505577030    0.4699794291112787 H
   1.3773140743201551    0.2403791719026834    0.6318252589581477 H
   0.5491538431029208    0.0445657622647614    0.4462666252232517 H
   0.9598873024334137    0.1780103168184009    0.5377613810236643 H
   0.9092971893760269    0.2163891703578745    0.4214070644980909 H
   0.7825322226113468    0.2508459856824199    0.5905702183654624 H
   0.8644605248371754    0.0428876930732338    0.4338682738955612 H
   0.1725363217920562    0.4696007846375943    0.4385640940571766 H
   0.1788610917718727    0.4605804990035893    0.5664834895495154 H
   0.3219425166638732    0.5080737670942261    0.5062275826842082 H
   0.3925200294068403    0.6141490115250087    0.5564213631486351 H
   0.6980909106339956    0.3373400017823026    0.5473851126814662 H
   0.6828639866736818    0.5721828003649475    0.4877142693887233 H
   0.7110293300367271    0.4883083035323071    0.3952258725621786 H
   0.7708313981486864    0.6504634650522759    0.6578662290460899 H
   0.1319708886848670    0.8653959863542968    0.6501773977157360 H
   0.3016573860759352    0.9480363484953065    0.5833141406693606 H
   0.6379476590014967   -0.0348395418524436    0.6426207295064572 H
   0.3573040964047173    0.7713668297577951    0.6292754777686246 H
   0.5319739653587628    0.7846446387217284    0.6304601106221640 H
   0.6195253582485809    0.8794187814489015    0.4881075352611909 H
   0.6535938202594549    0.7597133480053369    0.6051218615194506 H
   0.9702435097667772   -0.1959719162580252    0.5411669990094180 H
   0.8064601310235379    0.6960733502790880    0.5482095204428069 H
   0.7019823339956233    0.9483340211393113    0.4154702003946723 H
   0.9181888825410360   -0.2500984571860124    0.4344420552504728 H
   0.8774963102917589   -0.0841556124012472    0.4496593492459736 H
   1.0545737761643301    0.0226253495068180    0.8629713048643876 H
   0.0780116688299619    0.3331476446257917    0.8835129997193004 H
   1.0180092026423377    0.1043829996254611    0.7094735102078694 H
   0.2352030439915659    0.0053346799907087   -0.0741232463921009 H
   1.0363317233090579    0.2283177981758724    0.7062701662671759 H
   0.1546885612128795    0.2397355553751054    0.8450164613427142 H
   0.4601282799073745    0.1540130745876568   -0.1895322742529111 H
   0.5320158086207158    0.0522672776337593   -0.1892566657931081 H
   1.4570013479971555    0.3005951297022175    0.7077916539049192 H
   0.9343790062043831    0.0281195095876278    0.8228952560164156 H
   0.6961355428158081    0.0144119015517846    0.7467765511313317 H
   0.8408834560828977    0.2749622969707659   -0.0250136870441040 H
  -0.2295033951895897    0.0358991439126604   -0.1011884806683757 H
   0.1193849182962781    0.5536490579326807    0.7375799319989558 H
   0.1241944793865278    0.4281478576582766    0.7369876155721861 H
   0.2952754839499906    0.5231923193270324    0.7573834474703025 H
   0.3398417766423767    0.5646299604138202    0.8689911738548231 H
   0.4691945882232260    0.4559496780876658    0.7937331410021069 H
   0.5800679669050314    0.3973572429789471    0.8029571598059252 H
   0.5017848565377993    0.3724814641880590   -0.0547995475200722 H
   0.7529434036637855    0.3767647321790903   -0.2792138165019878 H
   0.8058171932100681    0.4044370247823046   -0.1684159921703973 H
  -0.2310226274697288    0.5728618158015423    0.7825258695094717 H
  -0.1240205551966889    0.6445767873869162    0.8024825007918199 H
   0.7849172885426668    0.3836144210738388   -0.0082036662651096 H
  -0.0456922219194230    0.4108015877193911    0.9771312300564998 H
   1.0574303834707357    0.6688025134849505    0.8330976042652658 H
   1.0460200478074027    0.7342494646123745    0.7179351734474372 H
   0.2998114544813170    0.9040290684221637    0.7018257783846791 H
   0.0253929059185018    0.9202482049171282    0.6911278184317969 H
   0.3623687404572573    0.8721298242740813   -0.1336578972003211 H
   0.4034475582014850    0.6795235557930803    0.7095831088936390 H
   0.5399644190355539   -0.2039656335305434    0.8965197849275502 H
   0.4287579036143536   -0.2666739963331232    0.9357174325439863 H
   0.3840717138829099    0.9930170985664110   -0.1683200933203488 H
  -0.2734508904119403    0.7357442639976743   -0.1443864803154036 H
  -0.2476617615209558   -0.0805497508054917   -0.1304908175306543 H
  -0.3051713016847603    0.7889094027375919   -0.0357898972351349 H
   0.1403097679852281    0.3036941432825054    0.2346573509281396 Cl
   0.8058855908497988    0.1317214161549942    1.0511022842241122 Cl
   0.7034573089794660    0.4627398324536133    0.1066702621298842 Cl
   0.1346110375784774    0.0585288619264333    1.1817584233699341 O
   0.5648611598975796    0.1213736714328597    0.1202975693090358 O
   0.5656497444497703    1.2392647820177374    0.3092408683397588 O
  -0.1005867191467888    0.2488547970502256    1.2844991325520771 O
   0.1286620522781234    0.5397099329866611    0.3153759771247903 O
   0.4896116860219388    0.3460344565492213    0.0206241324639671 O
   0.3403849343696510    0.4167445818309141    1.1365328480361678 O
   0.4398568288473826    0.3925373597080477    0.3200524563418581 O
   0.4586895154386835    0.6449098589399377    0.2901940673238364 O
  -0.1699684802116380    0.4688566030275824    0.2987886995571689 O
   1.2672180146969378    0.9326136874532197    0.2772928514379087 O
   0.4532289697538191    0.9159279289757613    0.1284497774358423 O
   0.6107326404916530   -0.1999510754397759    1.2370977009567077 O
   0.9006066657396379    0.6744051953575165    0.3237514119865835 O
   0.9661476981640716    0.7572836956137300    0.1239320551386025 O
  -0.0825144533736720    0.9708042831583767    0.1956200719769106 O
   0.7470523551876741    0.7091701420946399    0.0732568463294788 O
   1.2360286909796749    0.2253185451573592    0.5571007138258690 O
   1.0324048941103934    0.1626182275613741    0.6570756679377074 O
   0.3299965399117082    0.0541593493207066    0.4846277769880048 O
   0.5233558627526771    0.1148152190168403    0.4694282121916726 O
   1.4502098647109405    0.2352881651695417    0.6595972435830987 O
   0.7058520310481597    0.2765472026699267    0.5968713369245272 O
   0.8957785970527550    0.1785453230569501    0.4931603570242471 O
   0.2125891749403214    0.4370008029951113    0.5001988490941885 O
   0.3986927152230200    0.5443648895223687    0.5152880093320618 O
   0.6504547709348666    0.5202445556307254    0.4346209589875379 O
   0.7486061886267358    0.6499421356649377    0.5783249828487735 O
   0.0513946066269885    0.8581955264520184    0.6549820106904317 O
   0.2673644188711212    0.7060904370101793    1.3443110035654795 O
   0.2794088408886647    0.8838275546628105    0.6296187795343442 O
   0.4206942242291449    0.7203859646083453    0.6407164523412098 O
   0.6023672068135141    0.8206139528860821    0.6117872345341616 O
   0.6259426662115627    0.9206665556600538    0.4162825200656708 O
   0.8389602753892894   -0.0268855679005033    0.4057328406876534 O
   0.9017251683187657   -0.2078257236546922    0.4998547414557795 O
   1.0084335330800203    0.0218008928254038    0.7990365891715921 O
   0.1030089139884861    0.2900776311209343    0.8169930444386445 O
   0.1624955482795690    0.0172789589536160   -0.0464714173851517 O
   0.6408823200850070    0.0276861947604360    0.6892823699728817 O
   0.4777129107431162    0.0885077152603551   -0.1445065553461365 O
   1.0350844722316130    0.6623687617711492    0.7579620640613510 O
   0.3207765380759910    0.6066396156894929    0.9922252255305097 O
   0.0287017181849020    0.4323587187899554    0.9914838226561857 O
   0.0864520180405590   -0.3449425932105596   -0.0211893376088951 O
   0.1470545799408034    0.4898537877191537    0.6951168882447361 O
   0.3603683106646589    0.5502893796587238    0.7961169124175965 O
   0.5021815628482381    0.3840552983952296    0.8079390647723069 O
   0.7518892753338162    0.4307786402147514   -0.2226423595729953 O
  -0.2016269312696429    0.6456234687648897    0.7894112457684115 O
   0.8435147535172488    0.3487674132294493   -0.0501185554159433 O
   0.3256070207972173    0.9307391543166489   -0.1720794894167854 O
   0.4632552590602457   -0.1987418808885888    0.9192453947709610 O
  -0.3170032886800810    0.7976835050497985   -0.1184808968392944 O
  -0.2180584583673340   -0.0133326128710305   -0.1586915264264101 O
