Li1 Co1 H90 C51 N3 Cl6 O45
1.0
  14.2805888370999998    0.0000000000000000    0.0000000000000000
   0.0000000000000000   13.9368578329999995    0.0000000000000000
   0.0000000000000000    0.0000000000000000   14.4042250555999995
Li Co H C N Cl O
1 1 90 51 3 6 45
direct
   0.6571135842326814    0.6659250261220628    0.3105826596385161 Li
   0.6871879743645672    0.6832237603768632    0.6024754885668867 Co
   0.1251061098446139    0.1588961043468800    0.0677893134848223 H
   0.2727778917337036    0.2380717702840903    0.1610702775640128 H
   0.1545551756217505    0.2348615775321729    0.2902851428424748 H
   0.2780619875690210    0.3023502475947227    0.4069259196641902 H
   0.3307839032118842    0.0339281940137446    0.0752107470980412 H
   0.3999162065966851    0.1027988111572495    0.0014775198053245 H
   0.5043364806491113    0.0296496112288354    0.1213694260574144 H
   0.6876039235994172    0.3229833058812978    0.2660665542926954 H
   0.8201600822840065    1.0718486616925227    0.2893472235897658 H
   0.3758709796164137    0.3001747213488994    0.0258314853012758 H
   0.0450512876631948    0.4286349540249343    0.9986217566218684 H
   0.1923141228298056    0.4725652148725625    0.2520276178542938 H
   0.3806887081278084    0.5977999141795508    0.2555897671404890 H
   0.4031947828888871    0.7107873622018314    0.1258861563743089 H
   0.6367376737349255    0.3506717565079721    0.0666542298592271 H
   0.9927461029386351    0.4383941839481919    0.1689762912204522 H
   0.7516264937069440    0.3751751276474402    0.0240826928530346 H
   0.7387530749637059    0.5620701961924075    0.0544487832405178 H
   0.8438649871630368    0.4195803305572831    0.2192400157322074 H
   0.8276737780583180    0.5389099542018698    0.2236067900471884 H
   0.1204116255509527    0.7274015806127941    0.2446124324078212 H
   0.1773658596709770    0.8411976757587696    0.1581961208606708 H
   0.3174588224207028    0.7921062659016651    0.3678165612762505 H
   0.3235888217504627    0.8920864778473343    0.2888140466940734 H
   0.4210974060171304    0.8322874894392991    0.1718525306460431 H
   0.6681803547841465    0.9106164795948236    0.0467142470492295 H
   0.7199219186950397    1.0000720810610282    0.2078572444017736 H
   0.6816917024044020    0.8905631789621486    0.1970867934124866 H
   0.9204822760214275    0.9671249128038659    0.1923853950561986 H
   0.9799427093191091    0.8275087939257163    0.2737399972980189 H
   0.2575145155181705    0.1772682512876143    0.4289208550930023 H
   0.0254708625708088    0.2821907537284126    0.5778973527328897 H
   0.2982481299815168    0.1201283988515520    0.5497726880295635 H
   0.5008788501155775    0.2746266383974529    0.6995956039913627 H
   0.5496148656916224    0.1409824538675841    0.5948832717292662 H
   0.5402375912999599    0.2348988886683150    0.5101338044522743 H
   0.6914314968615223    0.1411173479751747    0.5258154116979333 H
   0.0382721554366234    0.2451558634981450    0.3180346398447174 H
  -0.0166975666773992    0.0257936488129203    0.5190079715460677 H
   0.6721773888456348    0.3687877481486541    0.5156948186471240 H
   0.1571173948983773    0.3823948324909343    0.5125612061253971 H
   0.5723239432863427    0.5200676869457452    0.7005737892075483 H
   0.4905263358259760    0.3808657934309576    0.4964427103990521 H
   0.4187578666339082    0.3942138523857898    0.6079544365627262 H
   0.4789167305154945    0.4843235467694392    0.5532029315733348 H
   0.7166293373780954    0.4115757285632922    0.6246467611460971 H
   0.6382460148996848    0.4874720326423524    0.5547947561880915 H
   0.2293273024703265    0.9282043751547252    0.4397933594724804 H
   0.0250983289126602   -0.1388747454190954    0.5764467366866015 H
   0.4225560293440541    0.7317691361069651    0.6558806524705797 H
   0.3891372393036769    0.8391089696566614    0.5917522459485725 H
   0.4797110955188849    0.9263273379980385    0.6492714805343922 H
   0.7347623431633516    0.8734344973855342    0.3913388263541816 H
   0.8460196602196591    0.9054775881130996    0.4197700677725310 H
   0.0551902253254742   -0.0310204487037476    0.6414105925266769 H
   0.0427579648616225   -0.0118023435031764    0.8125923111184301 H
   0.2645933552742298    0.3309937198022648   -0.0133014772721502 H
   0.4523062731782766    1.1105847962264999    0.8026736935289016 H
   0.5851272668807450    0.9790214250584013    0.7850566402670641 H
   0.6230120492361108    0.2747478995899147    0.7090990656126305 H
  -0.2336676114944876   -0.0432391282684329    0.7148841737790433 H
   0.7531509406501571    0.2214424839143009    0.0008686706679257 H
  -0.1626082167051288    0.3093927245415420    0.7996461096198981 H
  -0.0565138520201167    0.0640433035333525    0.8548056198978292 H
  -0.2049713157972565    0.0619897560018398    0.7925995660114630 H
  -0.0084135945422541    0.0768977074561510    0.7425934048178092 H
  -0.1709783197424397    0.0547844015953234    0.6731040712273945 H
   0.2731595286579347    0.3599801674535744   -0.1656505270495171 H
   0.2067981194184227    0.5262186429953233    0.7668036624785934 H
   0.0741453260631108    0.5005952920019285    0.6977621141716702 H
   0.4868498767808418    0.4440848497317093    0.7418526499379865 H
   0.6124977769107344    0.4217774542107579    0.7669619493695021 H
  -0.0092370899971088    0.5981766131502162    0.7080799201922184 H
  -0.1236847516897409    0.4991285338384351    0.7870324494404244 H
  -0.0883619785356309    0.4241226743738429    0.8814221159967254 H
  -0.0441502161775029    0.5653313329955958    0.9455338607407423 H
   0.3071868370233704    0.9690105602227392    0.7922788267851479 H
   0.2371442070303116    0.8854737964879980    0.7211948221929031 H
   0.3123904039664188    0.9756397445846000    0.6642670807257420 H
   0.4889102259958238    0.9499173038238742    0.8600124255198256 H
   0.3070404845148120    0.7616897972055249    0.8252712299283662 H
   0.3589445067127175    0.8714254362086525    0.8753211282892448 H
   0.4336613137135610    0.7776065843793702    0.8390949517343920 H
   0.5238925369984455    0.8363099169241559    0.7213336703428229 H
   0.2992515900043117    0.7673417168092025    0.6394396430385638 H
  -0.0044641775648900   -0.1607742297689549    0.7420171849956416 H
  -0.1536274945890480   -0.0537902870563062    0.9017515678672482 H
  -0.1167921787627559   -0.1704392490734536    0.6804435844321606 H
  -0.0663362761232173   -0.1424551794450381    0.8772004379984107 H
  -0.1732744435489605   -0.1595745332376169    0.8269714255241354 H
   0.2103385896733080    0.1311610148000281   -0.0260553740830431 C
   0.3211540481989920    0.2717572685237565   -0.0175842484564297 C
   0.2792874272339833    0.1802789729655414    0.0355820966294011 C
   0.3564404082887717    0.1072366837926114    0.0626692879565258 C
   0.4165163624238829    0.1381762259165897    0.1459268040929984 C
   0.7471532888042132    0.2679113514137259    0.1286353497427230 C
   0.1058148885131590    0.3667686416658880    0.2879483284793228 C
   0.2335225076319202    0.6607258628050325    0.2231812204676839 C
   0.4653109190033512    0.7089024323048070    0.2560306100164846 C
   0.6646139752334876    0.4580471073891882    0.2398568832730645 C
   0.7105119425706037    0.3640291432468399    0.0884568606004001 C
   0.8855544445650538    0.4922536699955157    0.0934283186082823 C
   0.7164479723076810    0.4547136443836322    0.1479789797488146 C
   0.8187406730263616    0.4762561759641077    0.1726640980823249 C
   0.2813433648661715    0.8251818705697779    0.3052953220895661 C
   0.2884495144204784    0.7618684601458976    0.2144233734114859 C
   0.1812809643377223    0.8587583054884135    0.3351490628038449 C
   0.3959997014274657    0.7588979196915082    0.1894487566853926 C
   0.7488955138821710    0.9278355689243976    0.1950596104236560 C
   0.7893294208160294    0.9347072756711818    0.0936824107226358 C
   0.8251430700873617    0.9036543650950796    0.2709581746143736 C
   0.8430113809049860    0.7934473142372336    0.2685852597322425 C
   0.1078645238842131    0.2734283769098128    0.3376754048916376 C
   0.2373815921996958    0.2452764071687579    0.4501301876895676 C
   0.1294896825889933    0.2680620310019919    0.4411797582494307 C
   0.0681140621577850    0.1872066464165388    0.4878421088726384 C
   0.2665043409003338    0.2607390030122582    0.5542240902919207 C
   0.5671369022724903    0.2813842591702643    0.6555564420405168 C
   0.5771065191856338    0.2120393600846456    0.5732796103869285 C
   0.7622458037178886    1.0223898806487883    0.4013088177591804 C
   0.4857863352019020    0.4067547710128099    0.5665158310358051 C
   0.6568733980583488    0.4163194090106495    0.5756816139564679 C
  -0.0030692771005443   -0.0778344442124869    0.6141776106421363 C
   0.7869940829402300    0.9228064582855534    0.3695264762425142 C
   0.3606608224949018    0.2557974300389780   -0.1150042758847326 C
   0.5066812719166121    0.9745892925978303    0.7866041028979215 C
  -0.0234094747852069    0.0230060764299970    0.7976244805570643 C
  -0.1827306362550467    0.0123049555757063    0.7347068299023587 C
   0.1319804762394338    0.6366286090320342    0.7422927985732326 C
   0.1085871831609223    0.4456611734815277    0.8712021979218707 C
   0.0521770442521412    0.5662978349260457    0.7440763030589538 C
   0.0271486645349514    0.5135190802875144    0.8344296538970831 C
   0.5575152401990725    0.4434839969354519    0.7166315777457853 C
  -0.0542359347457611    0.3723631595216546    0.7397664564854399 C
  -0.0668355552552848    0.4524500064547656    0.8152172353926659 C
   0.3020161818884666    0.9259384411559421    0.7247153170341222 C
   0.3680603773175627    0.8089393284765382    0.8268485449114564 C
   0.4802304018363340    0.8989868854680741    0.7201430474572598 C
   0.3729124181395762    0.7885287019631179    0.6484383916348729 C
  -0.1258415255000746   -0.1080464191816945    0.8533838148426494 C
  -0.0538935118908088   -0.1177401393601487    0.6995699170836275 C
   0.5669386611472613    0.3845667711275133    0.6272272540123586 N
   0.3803890005983204    0.8548277208002141    0.7324887307073882 N
  -0.0966235426311880   -0.0458631056698101    0.7685212140931027 N
   0.5420375170798565   -0.0771183574072984    1.0570691910899026 Cl
   0.8159872851620006    1.6131227487495030    0.5852229116985890 Cl
   0.3263366076049268    1.0119614180970746    0.4710733483827365 Cl
   0.5990102378325409    0.7215731506342906    0.4952475749486165 Cl
   0.7290847061327721    0.2560349297709594    0.8850224485241485 Cl
   0.6683239062877564    0.7055989617125343    0.7470573728377341 Cl
   0.1197029712989859    0.1223103827940153    0.0090315534017169 O
   0.2267538791739057    0.2148298025549645    0.1145846112115783 O
   0.3911035447775135    0.2076832849400567    0.1913079334128202 O
   0.4934598983336483    0.0910013169178606    0.1664860496516387 O
   0.7566935116587539    0.2534604613771553    0.2146052644878810 O
   0.7670880410225825    0.2018161087817132    0.0709904575812257 O
   0.6458759523793587    0.3789880387524220    0.2898540193369735 O
   0.7886109630467431    1.0971621149993833    0.3465852906719978 O
   0.0325532035830537    0.4088488585287846    0.2637082184663058 O
   0.2782286473634558    0.5863030615948452    0.2170545458524681 O
   0.1861435089282926    0.4131613800971461    0.2915396358770012 O
   0.1415956259763464    0.6616134373321049    0.2358747183333616 O
   0.4358790093815241    0.6214214509667374    0.2922449844785943 O
   0.6451644971224434    0.5380385239163974    0.2669399091556916 O
   0.9739583622466704    0.4605457337235651    0.1002027198428745 O
   0.6880772934357112    0.5352474356764145    0.0944946723996672 O
   0.8610743615665302    0.5363093680127662    0.0227629411880459 O
   0.2383514401631088    0.8129710837454305    0.1373994449656674 O
   0.1090605529972163    0.8392474513734965    0.2885328791904856 O
   0.1670875720125105    0.9003910757263446    0.4135225952668848 O
   0.5415665280977687    0.7432559433857864    0.2692197957773764 O
   0.7329570954740529    0.9240542287807666    0.0236231054767997 O
   0.8695642075653889    0.9632237465114710    0.0868962073953004 O
   0.9061320274191006    0.9605667631050450    0.2630799305879182 O
   0.7809880280794406    0.7339238542191708    0.2717190624759347 O
   0.9325595091080587    0.7724411445892376    0.2741322433215426 O
   0.0512085967912024    0.1087980113357880    0.4484770616166213 O
   0.0241277806980101    0.2121972148914006    0.5624395270504566 O
   0.2614772372690399    0.3398988834687929    0.5880429176234622 O
   0.2993916402517359    0.1791904923207808    0.5945708633919465 O
   0.6762752590852686    0.2088341899856704    0.5490195756643980 O
   0.7259797921473763    1.0339613555057781    0.4763196563033851 O
   0.1011330087417660    0.3622231407531931    0.4757631529185061 O
  -0.0563766027776409   -0.0248870719394674    0.5466139620429606 O
   0.2338215149101710    0.0951550509010635   -0.0979592770005651 O
   0.3268498917617366    0.3155469094394400   -0.1821873417049778 O
   0.4264816377793562    0.2038603285291904   -0.1305760958982499 O
   0.4563136709580743    1.0577507924056042    0.7629048064288425 O
  -0.1185820209248380    0.3025511537124109    0.7427954288759427 O
   0.0997164004890696    0.4092977401974479    0.9570429838876032 O
   0.1855405926131312    0.4376613071317394    0.8313139014128804 O
   0.2169461603467847    0.5940314894291999    0.7503043368236112 O
   0.0093216685403172    0.3662383930195610    0.6817522282451556 O
   0.0118285679692115    0.5752417447724137    0.9085474905650780 O
   0.1189999190569161    0.7247883660391502    0.7376476337176622 O
