Li1 Co1 H110 Cl3 O55
1.0
  12.4567436532000002    0.0000000000000000    0.0000000000000000
   0.0000000000000000   12.4591815976000007    0.0000000000000000
   0.0000000000000000    0.0000000000000000   12.4382785596000005
Li Co H Cl O
1 1 110 3 55
direct
   0.5892513349437352    0.1675499937573845    0.6056631344765657 Li
   0.5138937594702401    0.5621834583620838    0.4052993953901382 Co
   0.1262603510585985    0.1206689048652767    0.1580417073376122 H
   0.0747976238927135    0.0112082160297671    0.1703376210580811 H
   0.2095582039234960    1.3294352979083832    0.3307247671121694 H
   0.6261317599400369    0.1227958503465998    0.0678800346731543 H
   0.5521645959964082    0.2578039154288215    0.2077672378470278 H
   0.4863167289425424    1.0421531861612137    0.1297628745140361 H
   0.5235913179464449    0.1715109280782637    0.0169423026578991 H
   0.5435122545016620    0.2109830231069398    0.3307247671121694 H
  -0.0409926693136070    0.2706306006126047    1.2591788087759042 H
  -0.1437781191587667    0.2079234320975799    1.2184657794307661 H
   0.7612722145296720    0.2743748272806698    0.0193991538896488 H
   0.0448018231921016    0.3840585965792280    1.0091763679156314 H
   0.2057538388888326    0.4754257534893802    0.1217022735619358 H
   0.1974258197139858    0.5665376769417736    0.2706577734023882 H
   0.1898275257589131    0.5997645784647232    0.0818065598888406 H
   0.3493949099275184    0.5590355790497255    1.0703584677016706 H
   0.4852891730775141    0.5731970228506560    1.0578969362077992 H
   0.4872993292384757    0.3664113700517366    0.3266840150290599 H
   0.7272633265093128    0.3980017274854717    0.0124853354228943 H
  -0.2359370358034944    0.4751047051148409    0.2468859951307244 H
  -0.1739465171335826    0.3860258204942179    0.3077593705236252 H
   0.9112367680283798    0.5584745470152180    0.3233370888607381 H
   0.6987012873516231    0.6366538393202302    0.1144786051443594 H
   0.9585605322810514    0.6659165960385552    0.2642461144563479 H
   1.2293215027160145    0.9958901153900941    0.2468506204606773 H
   0.1559992627929533   -0.0286397784882384    1.0161789446454133 H
   0.0442914169272695   -0.2923654473261452    0.0652926991471171 H
   1.3507737892942451    0.9661690621171142    0.2338448014299446 H
   0.4266823637600198    0.9555182822917715    0.0665282398954901 H
   0.5550353301943312   -0.1110710354656497    1.2006096107547088 H
   0.6353002877013559   -0.1322650439108646    1.2886201818923924 H
   0.5215065034296648    0.7457211957396729    0.2964844984158799 H
  -0.0932817761728201    0.9815392530481853    0.1694170756670823 H
   0.6811373070618147    0.7573913041541781    0.1565929538052279 H
  -0.0810161308120641    0.9445304016731623    0.2854226782981912 H
   0.8653499764307088    0.7217140009125571    0.1262286233884194 H
   0.9482207513892039    0.8168831731981915    0.1759750571119537 H
   1.2179300826185522    0.2205422384588488    0.6191376678854228 H
   0.2822802591587973    0.1386580479116525    0.4729092335176937 H
   0.2980444111287670    0.0362028432900349    0.3807590220147235 H
   1.2478817305280887    0.2860345016230025    0.5146368727173654 H
   1.3998797207503251    0.2572212126290326    0.6191191765806254 H
   0.4494130233836737    0.0925351147560193    0.4523830812228531 H
   0.5644527191417118    0.0557546892994811    0.4219407657379862 H
   0.9123044627943858    0.1645867172603864    0.4204453819587216 H
   0.9339553859817403    0.1263915921414405    0.5424140284020914 H
   0.7778246945148432    0.2051319164809602    0.5390260997753060 H
   0.6969737090535443    0.2898357143775483    0.4993582311361052 H
   0.1048526696111685    0.5818412503351279    0.3506608055930421 H
   0.1950407662178927    1.4368019005637034    0.3832875069533186 H
   0.3642567394035101    0.4067197960960877    0.3706265909555454 H
   0.4892982465071637    0.5359289249131924    0.6148452732631144 H
   0.4372292613809121    0.6457764288827658    0.5851265305746658 H
   0.6967754228827145    0.5713566130436092    0.5075940974988935 H
   0.7218124637565453    0.4817841165471320    0.4117769798576300 H
   0.7432771424433635    0.6607990849483981    0.6651560937678551 H
   0.2530559281349762    0.8267056482172227    1.3405566292797531 H
   0.1130891720917862    0.8289931178858154    0.5890346276450986 H
   0.2380150791606241    0.6980960772395701    1.3793481708655140 H
   0.2722937005955534    0.8459284196427660    0.5142067488883834 H
   0.2772323909718457    0.9561844576689407    0.5561514599269803 H
   0.3509595242876279    0.8176352290155500    0.6438516987319779 H
   0.4046886543583160    0.7382102690173250    0.3463201727843059 H
   0.5347362851919044    0.8092887738984632    0.6158719426642546 H
   0.6436949374518256    0.9012049235290778    0.4737107913821705 H
   0.6569367608843587    0.7947035462431407    0.5939959251192070 H
   0.8728559509135327   -0.0239954124400586    0.4602024912428139 H
   0.9753225373293259   -0.2414728589941682    0.5561345765617307 H
   0.8048333582046969    0.7009309343867526    0.5603248670227666 H
   0.9413489715418270   -0.3190493829759828    0.4471042156880944 H
   0.7394791996328565    0.9390083696310856    0.3851060865816500 H
   0.8882371777681756   -0.1576366943297727    0.4422699454382462 H
   1.0339654716577000    0.0474400179714738    0.6803326311878428 H
   0.2568747431739916    0.2693351704213385    0.9732871572132819 H
   0.0642512079386330    0.3004985335169363    0.7604112365372337 H
   1.0610190909166490    0.1662023932052556    0.6800552616158824 H
   0.1840643823565394    0.2658598217669501    0.8005976656805343 H
   0.4171774720085079    1.0032260707483180   -0.1040395754042041 H
   0.4905401441034128    0.1649783962773244   -0.2005014768040538 H
   0.4034925151091813    0.1932354689624048   -0.1138158478535896 H
   0.6830551437505277    0.0589070632890829    0.7432898962344284 H
   1.0454773084580957    0.6411742004337443    0.9091625280551414 H
   1.0093844086989758    0.5167904286859658    0.8858715237082090 H
   0.3016922344496176    0.5273473018617558    0.8134177676935197 H
   0.1337912116600287    0.6110510340716538    0.7937526670264169 H
   0.2069909198169643    0.6649646876080461    0.7125887024823984 H
   0.3119188236407081    0.3457816041247746    0.8864664613408196 H
   0.3836028868967269    0.5228742953834864    0.9208120500774766 H
   0.4449527887070351    0.4800592841549193    0.7842047219927901 H
   0.5738219414079193    0.4422092860386032    0.7610801393890338 H
   1.4835613015085691    0.3387546578270447    0.6754517306911142 H
   0.7203425772027430    0.3537668798205045   -0.2913581009409829 H
  -0.1358763751123028    0.6025392390416795    0.7846959475245807 H
  -0.2449650774113917    0.5280720685672784    0.7760420168794174 H
   0.7393298829212195    0.3599920078028224   -0.1568025037190292 H
  -0.0704106303957444    0.3750483739477813    0.9621602155439155 H
   0.2364031008973610   -0.0825916367812008    0.9359909994067857 H
   1.0589800347469833   -0.0601083783259295    0.8509470767344173 H
   0.0370462650229984    0.8412250609557645    0.6925569915984436 H
   0.1350893037176465   -0.2423059795260978   -0.0085158263333995 H
   0.4459546556754377   -0.2797522593114307    0.9406620637925529 H
   0.4337708936726761    0.7588424428070959    0.7346930474432047 H
   0.4359223387650791    0.8789402187547741   -0.0767247023394120 H
   0.5559737776991890   -0.2355519243467263    0.8898833328794616 H
   0.6023655166711591   -0.0041152944676460    0.6920842573714503 H
  -0.2966270540817297    0.6858970416280114   -0.1302827567605234 H
  -0.2979371878096408    0.7422514654318390   -0.0189544894794173 H
  -0.2453632553090902   -0.1010647602521947   -0.1254010522940210 H
   0.9414051660031958   -0.0518901017723777    0.8022281163817969 H
  -0.1927957450326959   -0.0048004116989130   -0.0631480647692826 H
   0.1197915657770373    0.2988563710811676    0.1841570574998975 Cl
   0.8063353558792813    0.1108456272253091    1.1001455478208921 Cl
   0.6435512401863256    0.5014218429967674    0.1216202686450084 Cl
   0.1437279979860604    0.0464743847229531    0.1468383885397350 O
   0.5559151749037616    0.1508851752559835    0.0904350046921745 O
   0.5569716307774939    0.2763845901052862    0.2833259251281256 O
  -0.1135880461774228    0.2520852412573394    1.2766892704492281 O
   0.2342620919192121    0.5487644389272754    0.1237781235178826 O
   0.4157011632305492    0.5855308987795214    1.0213323908954595 O
  -0.1928744172786122    0.4629169061963910    0.3176642781368184 O
   0.9683945630205802    0.6146186841337223    0.3248204130933958 O
   0.1087959152432147   -0.3100584232470085    0.0178810189717404 O
   1.2904048822238312    0.9557670947820395    0.2848221128771640 O
   0.4487467176274443    0.9740989569682359    0.1460030639447587 O
   0.6042046811139560   -0.1713920119369109    1.2225177870907087 O
   0.4709949076613467    0.6938863304284228    0.3280113691256006 O
  -0.0579869983207402    0.9289113982518232    0.2115868982423428 O
   0.7329510087778485    0.7117615013018374    0.1119766512082996 O
   0.9408833602904860    0.7375240281167471    0.1467483439250696 O
   1.2810766016366208    0.2494807363188890    0.5769750810381263 O
   1.0325365267828952    0.1081608601932238    0.6342908901819703 O
   0.3231135631233799    0.0711353143027247    0.4528952099687625 O
   0.5265134299376192    0.1187963902207759    0.4432339051970302 O
   1.4754131046101024    0.2675629833938813    0.6408319882615920 O
   0.8787162304562725    0.1348239276987164    0.4860316281656271 O
   0.7180763348535439    0.2567741527674866    0.5657910575148203 O
   0.1825431180094857    0.5806003983675333    0.3499396447059451 O
   0.2308286103295823    1.3694780564228028    0.3918023508276149 O
   0.4385610701153511    0.4281826825549792    0.3576794617183000 O
   0.4564798782898020    0.5743078502265622    0.5517577651131735 O
   0.6643584436751296    0.5144427624471468    0.4634288219450659 O
   0.0535189488730258    0.7950510811085797    0.6284371862589460 O
   0.2781331079097846    0.7687660480641071    1.3888430538940699 O
   0.2595487967571239    0.8849839544054774    0.5872297155029217 O
   0.4003375974923366    0.7547065371220928    0.6620809093830772 O
   0.6012440357778431    0.8540669959373384    0.5988639620995547 O
   0.6601253951780246    0.9429492384285560    0.4067786997739268 O
   0.7299028606376043    0.6859371726748288    0.5892299923001315 O
   0.8727435619907954   -0.0792021685670016    0.4074693098096194 O
   0.9163665195733259   -0.2685581051121800    0.5066831997451802 O
   0.1344486868580429    0.2774849834090198    0.7345065264556835 O
   0.2857193601945640    0.2726299293650485    0.8984054124817221 O
   0.6200483081078614    0.0703813321951191    0.7087280396286196 O
   0.4682172957136920    0.1466979018310541   -0.1277663313685352 O
   0.2085667730693476    0.6212780300426047    0.7764801804061374 O
   0.0043704701819094    0.3961115551803714    0.9463300506978299 O
   0.3497890739351190    0.4809285226289846    0.8624197254065169 O
   0.5024060060104312    0.4692953347775515    0.7264491413826786 O
   0.9993175723337764    0.5975870678644101    0.8554895059563769 O
   0.7021267411610574    0.3882049363364037   -0.2229772558003549 O
  -0.2168020189294201    0.6061502306343107    0.7831056953120079 O
   0.7738661961004254    0.3446218168717512   -0.0221181105393130 O
   0.1597329833618961   -0.0875462158212792    0.9668312799296828 O
   1.0183996058585600   -0.0535754452145220    0.7792080498486346 O
   0.3886041939585444    0.9455577564716883   -0.0569062042394685 O
   0.4722496497059086   -0.2353560848382573    0.8793513288427061 O
  -0.1937253619793387   -0.0403326010752422   -0.1330387651451034 O
  -0.3266196436702635    0.7469331533535589   -0.0970828249515287 O
