Li1 Co1 H90 C51 N3 Cl6 O45
1.0
  14.1615592345000003    0.0000000000000000    0.0000000000000000
   0.0000000000000000   13.8206932498999997    0.0000000000000000
   0.0000000000000000    0.0000000000000000   14.2841649373999999
Li Co H C N Cl O
1 1 90 51 3 6 45
direct
   0.5759476747468461    0.6371626926141144    0.3754536924071796 Li
   0.7229100936116980    0.6903807176943919    0.6001010563982092 Co
   0.0815661674518133    0.2259655191263721    0.1057515420271361 H
   0.2712211309714309    0.1599058806196998    0.1571203131954673 H
   0.3300741136267286    0.1133894007025544    0.0454890062910651 H
   0.4755104999663376    0.1411926369839747    0.1261965593788580 H
   0.7140487812433335    0.3639484672692808    0.2888339981217669 H
   0.6959872107789121    1.0509530790002228    0.2094138846624433 H
   0.8438190960489889    1.0707227095867331    0.3063274953681998 H
   0.7787725863570409    0.2794042277819849    0.0076527027781504 H
   0.0290451146719737    0.4043752381915023    0.2104744996907907 H
   0.2428873865471244    0.3505656364187850    0.0784660827995180 H
   0.1332214963521713    0.3768002104335599    0.9745282646696863 H
   0.3427570390748275    0.5231658060967612    0.2568363278342104 H
   0.3627661351996163    0.6311427341000506    0.1153383817619149 H
   0.6608145301614741    0.4002158231056913    0.0938565519633398 H
   0.7283565277735591    0.6439177806774918    0.1656773412426559 H
   0.7649654909120948    0.4338970568602549    0.0364496259306544 H
   0.8676363886517909    0.4301620054365229    0.2449245359481829 H
   0.8582384122145799    0.5566016107734437    0.2624719390409410 H
   0.8338180786712580    0.5943819153181363    0.0745344563974063 H
   0.0786893655880220    0.7082625992709033    0.1972689674929572 H
   0.1648013522560675    0.7987508242381313    0.1181330848597122 H
   0.2932646075993081    0.8408080488280919    0.2714994181106046 H
   0.1701552824797458    0.9269824525620449    0.3782245929234827 H
   0.2441379550549237    0.7580480903138347    0.3458194784468185 H
   0.6003388448348477    0.9781014512421663    0.0566321148100131 H
   0.4061702540414566    0.7421661084167552    0.1544621249032988 H
   0.6332695406909856    0.9364081736633321    0.1945869766192945 H
   0.8601689905885626    1.0098936335918598    0.1617800185609330 H
   0.9376279752833880    0.8469864653847736    0.2046274655543169 H
   0.2496691256487079    0.2462901146383977    0.3452195133779777 H
   0.2311499784519014    0.1238505257261523    0.3955381706568560 H
   0.0711760686241686    0.2977766780931758    0.6066159629683751 H
   0.0523109143303425    0.1576773382851666    0.3650554646738169 H
   0.1579913676771763    0.0400819347397069    0.6824033824461179 H
   0.3612648880807109    0.0838590441118709    0.4663894247858365 H
   0.5446427179508473    0.1627053060392807    0.5784685702602940 H
   0.6092848936351353    0.0986962159014614    0.6618722557554609 H
   0.5417688112484801    0.3309964299318415    0.5018715129737830 H
  -0.0058747689235604    0.2682405330808441    0.4075612746151655 H
   0.6958466895293063    0.1443965283662192    0.5122626489380123 H
  -0.0353538674526949    0.0219106320807888    0.6496174266655454 H
   0.7046147918225552    0.3304458063225624    0.5612014775684272 H
   0.2216164237236133    0.3535285847499259    0.4925969071021349 H
   0.4515423059010191    0.3393107740766861    0.5868339175188610 H
   0.5244328670960939    0.4453871461870799    0.5691593106302939 H
   0.6933695611694192    0.4557700551631574    0.6037309500760848 H
   0.3015228790271527    0.9120143177326653    0.5581144227638062 H
   0.4133784998503867    0.8190291123769716    0.6453952687540184 H
   0.4244217753407724    0.9489871374574426    0.6402392095568046 H
   0.0983249152754162   -0.1114849919059703    0.6526242527690124 H
   0.6863053672947584    0.8918763988187921    0.3462682271155781 H
   0.8024076956312082    0.8760573660071362    0.3825251593387556 H
   0.2061470819391078    0.2385358002880104   -0.1353693085857044 H
   0.2470444146698881    0.0667528110362102   -0.0712311525216259 H
   0.5136204630758522    0.2271058381910553    0.7218057558061700 H
   0.3166921126152636    0.2997903252740219   -0.0979901546526649 H
   0.6366187481627484    0.2388476515043039    0.7536480092380875 H
   0.0265482144779712    0.0311923661935785    0.8655082409703904 H
  -0.0833669420542224    0.0872908545965109    0.8929841208499626 H
  -0.0183260814577360    0.1219989543514541    0.7903186863337094 H
  -0.1743809313090227    0.0947506829955491    0.6982082965583104 H
  -0.1305171173239991    0.3237681383987288    0.7874700773895869 H
   0.7268757586257019    0.3670778327228055    0.6845190118954023 H
  -0.2293197969464031    0.0372904683998922    0.7948964828157978 H
   0.1033165972526230    0.5536726694194857    0.6840513611766327 H
   0.2362263968610314    0.5104564581050264    0.7684707168256785 H
   0.0482562760628193    0.6551632368344125    0.7436362234160434 H
   0.5570227106548209    0.4836148233699031    0.7143632486336541 H
   0.4816318598084667    0.3876506068129951    0.7573255080789515 H
   0.6042360145663804    0.3980350352497552    0.7902528791966370 H
  -0.0114440709117100    0.5699916771509996    0.9461436862377741 H
  -0.0908675285532874    0.4596124818084622    0.8538351749752318 H
  -0.0818734624415768    0.5414150353821174    0.7472990206624551 H
   0.3007609572767769    0.8462122639893351    0.7933773180557225 H
   0.3510922794283356    0.7825750799424087    0.9313867857872555 H
   0.3551963472811473    0.9597890558055747    0.8011502610654530 H
   0.4008798761417207    0.9105230756055637    0.9438950423624922 H
   0.0703279981680043   -0.1212059225113126    0.7744500653122233 H
   0.5109884859479948    0.9695215632542131    0.8343072570869654 H
   0.4848008611350063    0.7248015670250464    0.7210083693261120 H
   0.5693737517445541    0.8877753020810861    0.7535682005824890 H
   0.3923306762976065    0.6906223842982018    0.8079318965635399 H
   0.5187954299553087    0.7026102055314962    0.8392245903933103 H
   0.5783068076252802    0.8832357324035337    0.8753695104682795 H
   0.4648753010093551    0.7922525973853900    0.9708612669677168 H
  -0.0679738630584478   -0.0988387377102002    0.6571740462140486 H
  -0.0458668341066282   -0.1267316945271666    0.8638217580639289 H
  -0.2097809880187879   -0.0402946411609294    0.6874754325321755 H
  -0.1618335841520008   -0.0847670846835760    0.8974646067782950 H
  -0.1434775545866464   -0.1685436347497876    0.7968356931316541 H
   0.1487282633941095    0.1522731231239234    0.0164246541347137 C
   0.0796814879784557    0.2877287016647138    0.2894990702517538 C
   0.2307594847281222    0.2208225064920012    0.0184758765987784 C
   0.3037069605599721    0.1753132119416319    0.0900299369501734 C
   0.3873644152499767    0.2508680326093691    0.1055240173510880 C
   0.7660338760912593    0.3142490789983653    0.1407273353051810 C
   0.1858053953190207    0.6267992472058289    0.2095475991643669 C
   0.6886356191726453    0.5029401925949188    0.2601126831693035 C
   0.7360717799001627    0.4131340607636533    0.1057963468864194 C
   0.4093076204334116    0.6425271123765266    0.2615275366163597 C
   0.7541990210993246    0.4986903334208557    0.1741678620768458 C
   0.9278868162968881    0.5086056102830342    0.1305608327034243 C
   0.8565027276340204    0.4990747569735626    0.2092549674271728 C
   0.2362906553219064    0.7884018498839659    0.2763502442039507 C
   0.2519591277214313    0.7152441593312641    0.1930573107203248 C
   0.1464516779231073    0.8467230921997834    0.2664420696189993 C
   0.3605523959156237    0.6836046466025402    0.1760916707223235 C
   0.7347357688235076    0.9864512494696057    0.0774432718711908 C
   0.7034426045142848    0.9727862330637632    0.1847348081084473 C
   0.7845692644375176    0.9263913100012288    0.2349211510372545 C
   0.7963327995992503    0.8219964020243485    0.2063993577237871 C
   0.0598665795101576    0.2348746235955630    0.3835381692041144 C
   0.2316880547946135    0.2014985843723975    0.4089397241140540 C
   0.1423596143981514    0.2453068065109202    0.4535998076958190 C
   0.1252569778883270    0.1802594182399661    0.5431215267185312 C
   0.3149543096239061    0.2194846575385753    0.4770089465195033 C
   0.6096647953049241    0.1683063275365605    0.6204599644109959 C
   0.7522458463434958    1.0233849973482583    0.3869727416985518 C
   0.5221815825113901    0.3688917793567909    0.5697741873163649 C
   0.6825444819912355    0.3783406541446707    0.6224124761694521 C
   0.3801032091710947    0.8846249535990868    0.6655546551278091 C
   0.7571789189552890    0.9215037114720820    0.3360856227675164 C
   0.0717077897344864   -0.0710022180043031    0.7124786442400493 C
   0.2674291756428694    0.2326135213892589   -0.0880371752084303 C
   0.3249023667316850    0.1590007161844721   -0.1373232204960131 C
   0.5859126085273163    0.2408034144686686    0.6920609298494532 C
  -0.0403462555668343    0.0604195542004409    0.8329960148770019 C
   0.1078951891242044    0.4510184121874713    0.8616858264127818 C
   0.0971428420500881    0.5960475336473882    0.7500580198880111 C
   0.0470297162107316    0.5357181431512903    0.8280002730669113 C
   0.5551987589576749    0.4073976625550777    0.7309480473277470 C
  -0.0327044416812308    0.3966885036638571    0.7230882949031551 C
  -0.0472988798061296    0.4840840472997553    0.7918413514734162 C
   0.1876208733729744    0.6418831504681713    0.7916383294547885 C
   0.3660454351150425    0.8863166198257554    0.7761876537613047 C
   0.4126999022580687    0.8321254163558846    0.9282595466244649 C
   0.4613231497831363    0.7315486960086575    0.7967390826538245 C
   0.5309236777814080    0.8966149454904994    0.8220055229099877 C
  -0.1813730992165487    0.0212333867479566    0.7363386319602719 C
  -0.0310266603291522   -0.0424747054641595    0.6908799017617817 C
  -0.1138868864221464   -0.1056755872293575    0.8361624582916656 C
   0.5855481006426602    0.3469015655155135    0.6523407220188600 N
   0.4455568068047402    0.8360579253130884    0.8281808926558972 N
  -0.0923539467966062   -0.0169405304688094    0.7769997418358149 N
   0.3164167192115133    0.9684384048533053    0.4006879291707331 Cl
   0.4708986490452264    0.0013696943096640    1.1074754833781300 Cl
   0.5928439074312443    0.6867882785090161    0.5317510335387203 Cl
   0.8338145479865945    0.6781837897290586    0.5072665570899585 Cl
   0.7661729850669997    0.3226922155248811    0.8790834132573112 Cl
   0.7261660910083453    1.6852830537331063    0.7503989568641202 Cl
   0.0752215271115668    0.1721158325337415    0.0664114754245249 O
   0.1926852874542485    0.3118779967807467    0.0440174466939784 O
   0.1365876511103188    0.2552455264807737    0.2261891040084904 O
   0.4700260756374977    0.2182140989868089    0.1275946110036829 O
   0.3662184386635522    0.3385633441313703    0.1082830165766439 O
   0.7570821781955100    0.2896482869937776    0.2233425952921467 O
   0.7797124546144552    0.2465238221624413    0.0775041784767791 O
   0.0246183422409213    0.3609934780179062    0.2756620695683959 O
   0.2205459201336507    0.5483994172980318    0.2298161973826607 O
   0.0924604480494008    0.6387190544847577    0.2095195961273149 O
   0.6742311318826409    0.4267342468470367    0.3131357337514861 O
   0.3956276296363501    0.5491540827704078    0.2913423701657067 O
   0.7361466304150283    0.5822544484125806    0.1240410256017743 O
   1.0061027797835604    0.4667062504224722    0.1274328934647072 O
   0.9055100430367797    0.5721977893516463    0.0656553934241188 O
   0.2187353850382258    0.7585704953675793    0.1075528373855110 O
   0.0841294445174889    0.8324365440194721    0.2043936401949321 O
   0.1194341727413406    0.9090788644043531    0.3300285658531519 O
   0.4779811318664439    0.6893474844301992    0.2954084111456684 O
   0.8159923579423560    0.9893968325358021    0.0493758278338935 O
   0.8657375864397795    0.9870300916344196    0.2263536218511713 O
   0.8874364682445026    0.7927641491485441    0.2018586652657927 O
   0.7283635891428860    0.7667770301592273    0.2039595931206249 O
   0.6640733521058522    0.9877312142065503    0.0185920892025445 O
   0.0783843144330987    0.2246544416230688    0.6112196622597367 O
   0.1379773285938587    0.0935141314209656    0.5514407389735549 O
   0.3287557559733907    0.3022258036824761    0.5085850310842407 O
   0.3666145814827931    0.1490294363428479    0.5034128701407220 O
   0.8147650919533356    1.0902984280480308    0.3661370819799534 O
   0.6997777538336081    0.1791198227279888    0.5749901730128703 O
   0.6870439865263553    1.0339872151495295    0.4471523184373560 O
   0.1526755688478634    0.3440811570674581    0.4835115317533662 O
   0.6521000942751096    0.5825503814693416    0.2792289564129043 O
   0.2912344639178157    0.8853738306498148    0.6227303106399931 O
   0.1508233716734096    0.0767769102253737   -0.0336048717866018 O
   0.3121135207436822    0.0687657346643503   -0.1103758979407989 O
   0.1290701173248692    0.0077839890485073    0.7372774337774429 O
   0.3823628473557122    0.1883024301200542   -0.1979252930563406 O
  -0.0906578058842776    0.3240626243500778    0.7285446866727525 O
   0.0312002445905527    0.4019219603864801    0.6658248844353617 O
   0.0794096252593689    0.4128616431698379    0.9428729315100914 O
   0.1810135500937660    0.4222786816386528    0.8176909549761889 O
   0.0248958540554696    0.6049146720596300    0.8948330213713260 O
   0.2621225565936816    0.5803522283484611    0.7803622065098432 O
   0.1955938654800110    0.7234065574078450    0.8238054181165101 O
