Li1 Co1 H90 C51 N3 Cl6 O45
1.0
  14.3590123966000007    0.0000000000000000    0.0000000000000000
   0.0000000000000000   14.0133937525000007    0.0000000000000000
   0.0000000000000000    0.0000000000000000   14.4833275780000008
Li Co H C N Cl O
1 1 90 51 3 6 45
direct
   0.7556989573718438    0.3853178231958768    0.3867180217278103 Li
   0.7752427805992999    0.6461668412538955    0.3123621809032316 Co
   0.0570471474203867    0.0679821314611990    0.2985152248829429 H
   0.1908864357307062    0.0092326226312536    1.0908234798885661 H
   0.2332326628391930    0.2530094022133272    1.0286029718494569 H
   0.3262251307833097    0.1706225071905543    1.0460216208885915 H
   0.3483004651618116    0.2783494451944680    0.9864904119618745 H
   0.3429344972336661    0.2602117974205549    0.3148118941896931 H
   0.4579631603742522    1.1453749648215346    0.0787473584960159 H
   0.5105378973512015    1.1267856063405792    0.1945184056514336 H
   0.6738757812682978    1.1590354672937389    0.1967022960474532 H
   0.9424980161034260    0.2537544037585909    0.0109839253543948 H
   0.9213565899652411    0.1856566954622151    0.2716194719627572 H
   0.8275757669666585    0.2226962598366480    0.0273883047154538 H
   1.0668749544799736    0.3545993543079813    0.2470318902704860 H
   0.3972655318795256    0.4254740487282971    1.0389017101191467 H
   0.5090975963452008    0.5231348312746983    1.0403164402555503 H
   0.4087140908374470    0.5944555989382558    1.0299679896531024 H
   0.3573916196503272    0.5028913410102939    0.2866788565430871 H
   0.9502582991174852    0.4467342805652031    0.1926479791314156 H
   0.9480784834633521    0.4610961120782937    0.0745653085027530 H
   0.7533770706654924    0.4017296934438651    0.1650921569040548 H
   0.0879817261874597    0.7575538491099714    0.2437460431649984 H
   0.0793160884288724    0.7766841186745566    0.1281572745630265 H
   0.2324394327976410    0.9478731998043169    0.3077023401562394 H
   0.3027374430033438    0.9339907667951614    0.1490247166872442 H
   0.3228746218018291    0.8654070948471337    0.3025854221275005 H
   0.2446791325169347    0.7607358049436211    0.0514911911633350 H
   0.6448166796758513    0.8991819254384430    0.1074182559651003 H
   0.6510928773356108    0.8351296326210897    0.2484093361573210 H
   0.6994952312582643    1.0140020773886407    0.0937432217622662 H
  -0.0658679912571112    0.8299602923970575    0.2483879322362724 H
   0.0254913560132221    0.0833966701386313    0.6029956680856893 H
   0.1523580199372220    0.0896114387762758    0.4890561061229626 H
   0.1686188875756737    0.2028759361587774    0.4633966022555980 H
   0.2918237397714205    0.2261786425386465    0.5756889598813713 H
   0.0152678116673199    0.2933065643407567    0.5905544663639450 H
   0.5911284468986068    0.0225477412453090    0.6355572460421497 H
   0.6431278448639430    0.0051814983281296    0.4661658553698425 H
   0.5746125477928887    0.2970201544188715    0.3771083516260713 H
   0.5400172715803253    0.2720319177229941    0.5170234359937087 H
   0.7948827107150211   -0.0275685983369359    0.4401753502201978 H
   0.7668717313460475    0.0419591703968999    0.5939590707087989 H
  -0.0806649699163336    0.2715987606942824    0.5162578177378015 H
   0.2863289328988614    0.3608704975836294    0.3557700232387853 H
   0.0926951422728184    0.4165911184261501    0.5562075252124080 H
   0.0700118273620295    0.5682613731509075    0.5959303027924649 H
  -0.0113844391581351    0.6068772865804050    0.6803190589962916 H
   0.3302769414784363    0.5432538691736871    0.5676974262109035 H
   0.5266493605640042    0.4584527837986332    0.4629995249976938 H
   0.4777433508327026    0.4844060258485911    0.3458006291736171 H
   0.1717096293881474    0.7511913646486968    0.5875565365190140 H
   0.0712570383491189    0.8480030309702808    0.5030271358404264 H
   0.2528705036747346    0.6950115402675009    0.3524648435594473 H
   0.5955918457891305   -0.1147380607508552    0.4642337027033167 H
   0.4959754543206827   -0.0045670324284282    0.5657566429310517 H
   0.7912995952068694   -0.2213303699645686    0.5996034918240249 H
   0.6748298858836852   -0.1896007256076707    0.6538707170709275 H
   0.6853682151099927   -0.2480961917650932    0.5419438141358318 H
   0.7361669733987394   -0.1282522746054552    0.4087827025326154 H
   0.8452308809116833   -0.1383989958431021    0.4807656080068811 H
   0.1539221943650760    0.1247271294284571    0.8316537566474973 H
   0.1238894882088983    0.1774795185396329    0.9420144449210910 H
   0.1111323434317704    0.0099455120409456    0.9381223835355826 H
   0.2329422528942174   -0.0097670575820067    0.9329115644338566 H
   0.2085979602405826    0.2719027555776946    0.7779782462502277 H
   0.3166980131639675    0.1264754568095834    0.7801372804798683 H
   0.3615304836862739    0.0850094129473438    0.8869407751650039 H
   0.4001494349542110    0.1944761150962314    0.8460599764113130 H
   0.7151481183644290    0.3370568514466638   -0.0182869723531154 H
   0.1706942392208228    0.3106663848308218    0.8872086694026440 H
   0.0704812189757310    0.5644600099022301    0.8326756212652997 H
   0.1400249990365692    0.7281926531522400    0.8283879325649262 H
   0.2810103219881219    0.7444585202238290    0.7791147254129999 H
   0.2858442198971756    0.3382164563423088    0.8566369656546339 H
   0.4901505411797341    0.5994486792181499    0.7258162002058115 H
   0.5571395494368592    0.4054523462802413    0.8855294972739309 H
   0.4149032351563866    0.5831507000109892    0.8474429458906767 H
   0.4925376830703641    0.4345420876519397    0.7796753700546590 H
   0.6180697148155843    0.4278407131199319    0.7874291130667678 H
   0.6202871375129515    0.5766854567158856    0.7169411679103844 H
   0.6589388208370369    0.5306056125750042    0.9674899441123445 H
   0.7068926759477856    0.5799601809411871    0.8671435290932145 H
   0.1356542249006780    0.8278822804240616    0.6932981205405143 H
   0.5038854690809523    0.8773135611141102   -0.0250568254460563 H
   0.4854075269584965    0.6651543902159399    0.9073435450677478 H
   0.5712642673769331    0.6885969627862991    0.7738058625438899 H
   0.6346363137869957    0.6525007815946616    0.9371474694542740 H
   0.5837781502984737    0.9690350971460722   -0.0484678819297227 H
   0.5292717554028663   -0.1163579395896947    0.7028000805879445 H
   0.8491120670588028   -0.0521622125667877    0.6236104058517207 H
   0.7427948665554117   -0.0411484636687047    0.6877406960076146 H
   0.2918070255299831    0.2242212294747978    0.9971619927272488 C
   0.5215139238108846    1.1266749978736101    0.1157457621511238 C
   0.5964073614859324    1.1976492399141982    0.0876437947124916 C
   0.8738679479078346    0.2842266796071032    0.0241652884749798 C
   0.8566724756023393    0.2876412700228948    0.2054033351782275 C
   1.0499483028909304    0.3540634384454401    0.1135308015471305 C
   0.3502616028238049    0.3390256821587158    0.3217612640398155 C
   0.3699614256380104    0.3853927515122108    0.2258502938212007 C
   0.8674831076787316    0.3440537289862326    0.1162642893997519 C
   0.9572483341719689    0.4060386425154794    0.1263876536066565 C
   0.2472559114052071    0.8714384675105131    0.2956408854208407 C
   0.1029354008601581    0.8144786750364309    0.1944120764952569 C
   0.2081905506055450    0.8327790242972407    0.2009243920865490 C
   0.2537897869537939    0.7364333407429529    0.1870774360662603 C
   0.0481593495360267    0.9057492139643637    0.2130935568762567 C
   0.6365103981081690    0.9739703755819373    0.1237832797293926 C
   0.4708944814756927    0.9551405328857007    0.0901411489845127 C
   0.6480341711525589    0.9814389447129038    0.2239508684404072 C
   0.5544259226968178    1.0248031725889377    0.0796276810552714 C
   0.1663415721798222    0.1713546638815892    0.6124962472349874 C
   0.1324457869714157    0.1576035338267713    0.5147834880380139 C
   0.0304770749486658    0.1664072541945081    0.5027345235262205 C
   0.4095553743231317    0.2872131082152720    0.4733682057577776 C
   0.7747887103735827   -0.0328885087966488    0.6172762261194780 C
   0.0042781979222015    0.1359835033508597    0.4043962796157920 C
  -0.0051744020373987    0.2712869161777305    0.5206168091132295 C
   0.0601420677932197    0.5858074440272886    0.6689784330858831 C
   0.0384246967521697    0.3405934679776279    0.4537023521432638 C
   0.4645544214851075    0.4516525038890645    0.4147599200976934 C
   0.3785142422668949    0.5047093874057614    0.4532338134070200 C
   0.4381019058448300    0.3418180107474290    0.3905714179656180 C
   0.1208091927973230    0.7625162444603192    0.6492157094673978 C
   0.0163124517571600    0.7843710503274106    0.6139358335377698 C
   0.2096829930805633    0.8241686903459469    0.3853143387764643 C
   0.6264644425775396   -0.0559214732377156    0.5092133868602609 C
   0.5635308664345192   -0.0341066291393356    0.5916785174435277 C
   0.7805495522556878   -0.0991508301443483    0.4636700891306733 C
   0.7187737159029008   -0.1978078738567865    0.5903749496067636 C
   0.1736296778732736    0.1314614010593506    0.9035184572416496 C
   0.1767503660349894    0.0396264021483685    0.9571345890192361 C
   0.2312144181856218    0.2833225445900065    0.8522843747420485 C
   0.3358880516143310    0.1474261276595781    0.8509414513085176 C
   0.2267433586011060    0.6418352709667786    0.6950932881123293 C
   0.0782428948432432    0.4904845676711102    0.7214132065114021 C
   0.1253101987310809    0.6690535170773579    0.7057779874099592 C
   0.4484248999272851    0.5436863125993862    0.9908996196978787 C
   0.4667678049074608    0.5880060549094315    0.8984022296619768 C
   0.5540906628706518    0.4512591659084618    0.8234001285115446 C
   0.5628801949438942    0.6082638172340901    0.7573786983636502 C
   0.8484915508454377    0.3422597310122932   -0.0607633988985235 C
   0.6460786049043782    0.5795455775908056    0.9145621900536425 C
   0.7247692535918567   -0.0940999480204251    0.5483880514492081 N
   0.2614240167303457    0.1952796320885368    0.8997064879478071 N
   0.5587884789973356    0.5537623871387752    0.8479573304449082 N
   0.6840533614502472    0.7061066399090322    0.2129395867345202 Cl
   0.9149773211499506    0.6999332602461246    0.3021677004425204 Cl
   0.6777729852301282    1.2873562746412950    0.4992951895933427 Cl
  -0.2734658341774107    0.5451641844386973    0.4062860387096603 Cl
   0.2196551273781773   -0.1797037654244705    0.8784061342591556 Cl
   0.5760099280197316    0.8567139829463661    0.8746349014602118 Cl
   0.1832535988076076    0.0655801437204353    1.0479880198287952 O
   0.0766048991823739    0.0947286859803806    0.3628968384988910 O
   0.6587438213536002    1.0549685991419870    0.2670038199559944 O
   0.5937233328817697    1.2449753917167681    0.0169141923829792 O
   0.5731189213924354    1.0369444142470938   -0.0166430131267725 O
   0.6742616016748123    1.1969356369014934    0.1411819057456107 O
   0.9126129524132791    0.2109303733631743    0.2065619087111142 O
   1.1014734342554793    0.3348696582127242    0.1902652394043642 O
   1.0849618529954659    0.3360071414149753    0.0416232931108810 O
   0.3770956210248920    0.3385896707179534    0.1557579759796827 O
   0.3737527727374035    0.4804812092787157    0.2240357936755354 O
   0.7935692499087288    0.4088687207035646    0.1100854607073778 O
   0.8109903644736296    0.3181342403587756    0.2739676892365045 O
   0.2453922734849323    0.8980180389247219    0.1322806363856724 O
   0.2654709524383865    0.7111318323244981    0.0971305648804680 O
   0.2749005703160102    0.6775903499183431    0.2465934551135235 O
   0.0767685594631155    0.9886120821966106    0.2086014952523226 O
   0.6409751898521457    0.9002523299575000    0.2744910496285952 O
   0.4618019341337241    0.8848691898126266    0.0308902623786253 O
   0.4145403968318488    0.9676285856080314    0.1540159729859560 O
  -0.0414791272929766    0.8985154202245770    0.2341840140488190 O
   0.1217619045592572    0.1380979090775034    0.6799835007501753 O
   0.2529115928516016    0.2002591539111896    0.6312626528511153 O
   0.3265656834525976    0.2629327657079976    0.4882953693419527 O
   0.4717058882548079    0.2574101919926766    0.5319513590718564 O
   0.5154155357336702    0.3022879718586570    0.3400188086942404 O
  -0.0733211500847574    0.1415467524379048    0.3659113391214081 O
   0.0272372978167083    0.3319931244685119    0.3683672664494642 O
  -0.0222535710795585    0.1045492906412215    0.5587364330067490 O
   0.0757670978303221    0.4215348173775651    0.4923098473468774 O
   0.2483569620598986    0.5734192957267364    0.6446711737144415 O
   0.0948422258708032    0.4181409214491420    0.6837084734616916 O
   0.3117331870303207    0.5284269825772170    0.4076600323511649 O
   0.3915116542646860    0.5206795373888856    0.5430392115791720 O
   0.1692024931725311    0.8743549630234370    0.4432609670965214 O
   0.2268116084203089    0.7360586991612830    0.4029912157663136 O
   0.0116220177537778    0.8328082820207616    0.5347146743241327 O
   0.5543835103091703   -0.1170115999493321    0.6416808388092372 O
  -0.0480262349493681    0.7588361937238015    0.6586983369409777 O
   0.7529675717502751    0.3615441388276227   -0.0723360156951357 O
   0.0745051726017952    0.4960692248485365    0.8161331520910241 O
   0.0926526602424982    0.6869428310028498    0.7961046055820971 O
   0.3006425914098511    0.6906107504881516    0.7328539475363924 O
   0.3977209949586959    0.4577732196496346    0.9775608341902269 O
   0.9010891793688891    0.3549804183167656   -0.1225116397764320 O
