Li1 Co1 H110 Cl3 O55
1.0
  12.7452610651999994    0.0000000000000000    0.0000000000000000
   0.0000000000000000   11.7938564282999998    0.0000000000000000
   0.0000000000000000    0.0000000000000000   13.0054408817000002
Li Co H Cl O
1 1 110 3 55
direct
   0.3834335371868912    0.7667128448759157    0.6976175604755085 Li
   0.6282829744825117    0.4952460842396331    0.5837275344876786 Co
   0.1910239829647456    0.2993534163878999    0.1552660889521530 H
   0.1425510645333721    0.3862902047262494    0.0874623898679638 H
   0.1803180429842327    0.4427339984969316    0.2570880888401648 H
   0.0086299160164181    0.3726347900636161    0.2013221977337344 H
   1.3278316109827315    0.1436910161237459    0.1394173375045930 H
   1.3216332287294481    0.1805517327725294    0.2487646493670502 H
   0.5197759778093684    0.3095689044882045    0.1157626223128242 H
   0.4202762505371988    0.2958075024407324    0.1778005037917438 H
   0.4616367214842667    0.4639365628591675    0.2793418519099922 H
   0.6548520653993392    0.1904111032597756    0.0406867668396054 H
   0.4627704762128736    0.4780142312629986    0.0826013474338732 H
   0.3474460436664670    0.4995194955963342    0.3246428920945668 H
   0.6371796145293446    1.0080291621723301    1.1241544268885206 H
   0.6986487359535519    0.3061323695221907    0.0315190345739681 H
  -0.1034030970929601    0.3760119720941202    0.2654030703147385 H
   0.8776093698967695    0.3658812739016866    0.0776153572940661 H
  -0.1646948977084026    1.0070795152041745    1.1261151447320719 H
   0.1857820346313042    0.5556436314143426    1.0097792193480315 H
   0.2987746200819187    0.5238033252106041    1.0033895859049293 H
   1.2288693383742961    0.9247315566798062    0.0548263566983971 H
   0.1116682918709336    0.7360155066302791    0.0708718719483747 H
   0.0334351670334587    0.6685006945888734    0.1150621462518535 H
   0.0539195336277889    0.6496425711792722    0.3160272672173152 H
   0.1774471720140093    0.5549746390412399    0.3316591863386472 H
   0.4115616389312217   -0.0025296887393346    0.0882288383175528 H
   0.4985014037843328    0.5933225706740817    0.0273948299054841 H
   0.5215970468232760    0.9882052817120776    0.2196183863954214 H
   0.4818968007936699    0.8681080083044375    0.1925581734275394 H
   0.4607783632329892    0.6612316557870879    0.2829649509212916 H
   0.4122199228186273    0.7661057491355591    0.3293532283728393 H
   0.6866638892549565    0.9976763144212745    1.0224892844279931 H
  -0.0523260735098591    0.9857802903469655    1.0980269004870027 H
   0.9352857090662461    0.5437552384317420    0.2308767513621968 H
   0.8971225049143846    0.6781582650953865    0.2216406169556331 H
   0.7678509276927417    0.7309730508091876    0.1300958542036629 H
   0.8319061083456606    0.8294777262783850    0.1669058327622231 H
   0.7317904658749054    0.7815180106892805    0.3102635256662327 H
   0.2105473178518914    0.3617130020307456    0.4175147917084858 H
   0.0634972111171346    0.2819282424213195    0.5030182367754433 H
   0.0029223044086320    0.1670031533938136    0.5042315751115702 H
   0.2941634944486849    0.4029717712008006    0.5595968646507496 H
   0.2472644943464363    0.2325822118385232    0.4321402090034615 H
   0.1284979981360861    1.0073169269462132    0.6324709800783624 H
   0.2910619495059977    0.0165231970886464    0.3919047410358735 H
   0.6088161311804591    0.1018397350774879    0.3367116871033434 H
   0.3798839825902008    0.1086401400584701    0.3850553000357345 H
   0.5013958129150117    0.4637864847222358    0.4291999011470928 H
   0.5867789207566652    0.3668309208698424    0.4203982003019434 H
   0.6491989838632749    0.2176337510808564    0.4572989101175778 H
   0.6578837804660084    0.2958261562204640    0.6200085036829590 H
   0.7784995914828130    0.3493887889216878    0.6436985886868076 H
   0.9329240469672103    0.3078612357436815    0.6264450405725148 H
   0.7431523359267784    0.2793998073686046    0.3876757417654688 H
   0.8151288921783240    0.4238029557665613    0.4197592369576332 H
   0.8958279060893317    0.3277164884698463    0.4422044583580663 H
   0.0801350029140398    0.9868995171308633    0.4590058880049048 H
   0.1437703412449674    0.7206854912871925    0.3682923158368087 H
   0.0205091548351033    0.6840138561329615    0.4607220927997308 H
   0.0001602582002480    0.9780728877214867    0.5541768254040074 H
   0.3286853451780796    0.6066498483932541    0.5457103688646573 H
   0.3327425394352604    0.7280469510885575    0.4931985004695636 H
   0.5981808056813126   -0.0319879072713436    0.3491495584120826 H
   0.6165735242612456    0.7537654259440058    0.3402109917723636 H
   0.5127623905989759    0.6866915214235294    0.5485914707312401 H
   0.6166347234784300    0.7404152549497082    0.5807533946371466 H
   0.6640499939000026   -0.0419932011900359    0.5628462739083369 H
  -0.0101394131308029    0.6557474445459881    0.5775278215572653 H
   0.7167770425310347   -0.1328114171409987    0.4946032971362963 H
   0.7247196024740712    0.5994901885726222    0.4219790771201165 H
   0.8364725114740290    0.6063869996788538    0.4708586195964116 H
   0.9243326184009504   -0.1853506356542188    0.5721923622959311 H
   0.8594300639716332   -0.0733677564298385    0.5998700091572922 H
   0.0890336044742441    0.4896745393934261    0.7085783576754390 H
   0.2126053376810512    0.4544553553610262    0.8428721517795341 H
   0.2768676541459786    0.4673095053942781    0.6706280871317861 H
   0.1550255049694421    1.0644314088881557    0.7391155769525518 H
   0.1986989924839379    0.3446066381177604    0.7690968750528460 H
   0.1126475578064176    0.2067255294332452    0.8434719007669733 H
   0.2449632468592363    0.1801676344898736    0.8435949262002942 H
   0.4281976261358253    0.1585699491569586   -0.1506651006316265 H
   0.3597588554007425    0.0501942869831365   -0.0133424972500677 H
   0.4310363282867595    0.4481317240320030   -0.3198873530734309 H
   0.5694736651897766    0.2569737246357895   -0.1275601553450103 H
   0.3651600786199328    0.0487026629238690   -0.1858411476538941 H
   0.5078131000605313    0.3904890009640240   -0.2403491037046186 H
   0.5648586165298003    0.2229560135979224   -0.2482242692550704 H
   0.9063808480268839    0.2986530517488850   -0.0232220546728995 H
   0.9351209419430575    0.2275651929897929    0.8230343006565450 H
   0.9677762165483306    0.1283160621294876    0.8967188461261590 H
   0.8276457013032139    0.4685889851040522    0.9282518025042126 H
   0.9371844540096570    0.4197771309408436    0.6912433052115714 H
   1.1915770461592885    0.8636497549485773   -0.0455621662187391 H
   0.2043763967858060    0.8798285172694533    0.7661296553829384 H
   0.0411334291167596   -0.0433278791298342    0.9631141346715120 H
   0.1942079114690271    0.7470424341489098    0.7985168696136138 H
   0.0296906850839828    0.6546095639823586    0.9375017772720250 H
   0.0275964949482563    0.5711559450593520    0.7645495474737236 H
   0.4333250220883832    0.6442287355617053    0.8644169807898502 H
   0.4715588407216113    0.5908992751071270    0.7631916542534447 H
   0.5158623663309660    0.8992437103737674    0.7720879309004595 H
   0.5023451853867170    0.9672452164863530    0.6765433037476448 H
   0.6684932139886538    0.6957148634191671   -0.0234519584514179 H
   0.7186428340498079    0.6496459627755871    0.7050844353691266 H
  -0.0491696061927756   -0.0670721057704128    0.8871997532229573 H
  -0.0415628573389044    0.7332267665604002    0.8443253897106369 H
   0.8187043387515154    0.8485011900083349    0.8250719093959218 H
   0.9072831441776783    0.8595645771873501    0.7388695260859102 H
   0.8852121957238982    0.5682162789534625    0.8589961726341496 H
   0.7401386667831251    0.5358511232200023    0.7598607406462822 H
   0.7553655027817925    0.6152068458956008   -0.0210837957508871 H
   0.6043022966104414    0.1269009185671197    0.6166176151770527 Cl
   0.2657529347788883    0.8366492566861189    0.3902031455112542 Cl
   0.6502982159565471    0.8805746684587186    0.8905752635496985 Cl
   0.1332989982636609    0.3548204304199076    0.1572291135225790 O
   1.3206760102042576    0.2120783163171449    0.1805262860487591 O
   0.2093547177221457    0.4775894338245647    0.3199317869073360 O
   0.4803472052303490    0.3488961595569570    0.1766248419945713 O
   0.3424222156199134    0.0283283263817176    0.0576124983086355 O
   0.6302892103586694    0.2651084683969384    0.0309019697567890 O
   0.6986848277995837    1.0390877054254974    1.0879541931338570 O
   0.8570684018725973    0.3525090575313427    0.0083739522397309 O
  -0.0644450877230510    0.3990112346041437    0.1980320363013596 O
   1.1674268935319385    0.8864319552944511    0.0252265143322934 O
   0.0752422039606885    0.6644841966530216    0.0552806281109344 O
   0.4246064874556635    0.5178765106504175    0.3266359041143647 O
   0.4487079945514054    0.5323933907770207    0.0243993989658981 O
   0.5149310397822765    0.9325152702223691    0.1585731663816095 O
   0.4798999801816944    0.7413954262846977    0.2925670859919849 O
  -0.0994698704808450    0.9780644087306996    1.1584862118746238 O
   0.7068988611932071    0.6491151779523142    0.0287395363371290 O
   0.9567682035086386    0.6235917198849694    0.2340592655404158 O
   0.8027038818792105    0.7599093026683423    0.1922329249381974 O
   0.2200229966459299    0.3022905387965532    0.4696383610796603 O
   0.0425063346940158    1.0266659839223879    0.5118091728951771 O
   0.3065555513231607    0.0994565451369562    0.3757222831004305 O
   0.3201001934546078    0.4666803642778748    0.6080350533850061 O
   0.5569905940948729    0.0381186015730396    0.3378050756419825 O
   0.5523088539802726    0.4215907870702055    0.4687518090507918 O
  -0.0070370051222323    0.2531963342401340    0.5017372344509898 O
   0.6681244494748508    0.2470482180204039    0.3895634132579858 O
   0.7092770000045617    0.3570605797858609    0.6028449179167822 O
   0.8455347032493989    0.3575125099948135    0.3873481865492520 O
   0.0976618310313495    0.6554430487767310    0.3785618638832677 O
   0.3626273725549203    0.6843038376178806    0.5536439714959364 O
   0.5878671683750581    0.6671101400997881    0.5636759266742944 O
   0.6861805723602700    0.7747178600780219    0.3757761067275084 O
   0.7709956259295974    0.5559268297066319    0.4656085092294438 O
  -0.0413368909985315    0.6869586096333232    0.5110971631998327 O
   0.7011947803094893   -0.1153599583029782    0.5709029019729368 O
   0.9291187110269034   -0.1106863385811257    0.6063403780410113 O
   0.2095853916946097    0.4278024957208389    0.7695451489755090 O
   0.1805526399834392    0.2044141565446803    0.8040653166563847 O
   0.5278275978958487    0.2516056755684730   -0.1877803360466141 O
   0.5025758593591810    0.4558688031252367   -0.2856478371623184 O
   0.3675696016452282    0.1062546607904259   -0.1294355242941952 O
   0.8957180613405393    0.3458895094238494    0.6856525681760964 O
   0.9745630528130017    0.2111515626241142    0.8850698754085899 O
   0.2374671273595059    0.8125663791535034    0.7973627372672724 O
   0.2316634015965265    0.5063857823357322    0.9694960790250315 O
   0.0211653987486028    0.5311622413147330    0.7004133134477251 O
   0.1482166997550126    0.9907828949113576    0.7045731109118867 O
   0.4230333537318872    0.6459007925449226    0.7906732293304505 O
   0.4591181383155274    0.9153113979153322    0.7198774748170020 O
   0.8115879682404672    0.5282412289885752    0.8706682106204664 O
   0.7023410887236724    0.5706785778780379    0.7028407590289374 O
  -0.0120281935862876   -0.0069883660447340    0.9255298647919884 O
  -0.0009943670306294    0.6613919087129642    0.8613951685839064 O
   0.8935290124181773    0.8426651006495702    0.8107240682348762 O
