Li1 Co1 H90 C51 N3 Cl6 O45
1.0
  14.9503185587999994    0.0000000000000000    0.0000000000000000
   0.0000000000000000   14.5628306953000006    0.0000000000000000
   0.0000000000000000    0.0000000000000000   14.6107492768000000
Li Co H C N Cl O
1 1 90 51 3 6 45
direct
   0.9408034166015099    0.7516949881957334    0.4197658534486364 Li
   0.2119861705244081    0.0763043168495140    0.2915971357105589 Co
  -0.0023109354134574    0.1287295641090594    0.1361875836757771 H
   0.1724840022142632    0.3040272142303300    0.1704534512582815 H
   0.0902115078080486    0.2902853803666303    0.0924882505406980 H
   0.4645327624348253    0.0350891154536953    1.1202219906469240 H
   0.5832966531851583    0.0343214075654475    1.1493888726409001 H
   0.5271912266217711   -0.0683701660228282    1.1336381403793168 H
  -0.0745127413986967    0.1787988133680875    0.2170869254964505 H
  -0.0063717184503690    0.3368738503004987    0.2773302424766170 H
   0.2036819996459272    0.5806427352292862    0.1064252496734761 H
   0.2480977756301213    0.6168736721288195    0.2067986098767520 H
   0.0525561228885993    0.6701936630184068    0.1436033566760055 H
   0.5520519677851241    0.5988503904268142    0.1993575130554799 H
   0.4266752413543227    0.5834323714511171    0.0278639125199720 H
   0.7077348042976606    0.5332299063331266    0.2953833891703894 H
   0.2876574677981437    0.8032625725282471    0.1155623580770800 H
   0.0615719842877974    0.7880800846846332    0.1554617492004132 H
   0.2839264436209252   -0.1779745440037616    0.2483467870783085 H
   0.3574111654132468    0.0095899520170260    1.0680692922764206 H
   0.6171848942956987    0.6006508645618642    1.0436564443627014 H
   0.6072486511704603   -0.1229028332367857    0.9782463834620252 H
   0.4451082265055180   -0.1016500969744677    0.9652272017351821 H
   0.5335175801123679   -0.1129301841661025   -0.6303692703100837 H
   0.5854665066148638    0.7499068742950202    0.2855372137775619 H
   0.7058485568649328    0.7460985487599373    0.3011387408232662 H
   0.2022131346238455    0.3137863059188620    0.4957846789693533 H
   0.3043942349122274   -0.0446556830884453    0.4808580659758433 H
   0.1273077073183629    0.2773304814223689    0.6239195859841996 H
   0.2636753701197662    0.1978891953011635    0.5868585161005478 H
  -0.0180296640195228    0.2647065620864576    0.4833306222640662 H
   0.5127344778140488    0.1911164735643220    0.3564877160660415 H
   0.3639722296216253    0.2551864349284357    0.5785557249361942 H
   0.3777772866301608    0.0936807462878971    0.4623659274221404 H
   0.4909294574917148    0.1051874377757053    0.4583341697837052 H
  -0.2822006236192630    0.1687829034772257    0.7224224055682208 H
  -0.0641671424476323   -0.0403886555235327    0.3156622944056240 H
  -0.1167232132035632    0.2853502134678491    0.6946216410554126 H
  -0.1670525755539796    0.2685643285588874    0.4882049855599367 H
  -0.2851236382579228    0.1483068019390654    0.5703289052349717 H
  -0.2345160209670756    0.2895835937281783    0.6557707930088077 H
  -0.1802228634796574    0.1251526496279475    0.5017973069554822 H
  -0.0507821433780163    0.1536388696959927    0.7240821424879766 H
  -0.2288171457447915    0.0440029044495322    0.5817342066909760 H
  -0.0298942941477946    0.1211170331170059    0.6080525010313343 H
  -0.2188173588230605    0.0707490781948403    0.7500123663815302 H
  -0.0800878734383373    0.0438401613640986    0.6926758134006226 H
   0.1929437669207453    0.4324047281296968    0.5162724030640591 H
   0.3004250887186788    0.4021935686919926    0.3997579130985694 H
   0.1506008564663468    0.6601221320730297    0.3834281550909598 H
   0.3065132533047387    0.5753629237964158    0.5451713316542892 H
   0.4063606240566712    0.5100519399705199    0.4825803116679213 H
   0.5598533400128315    0.6064402609892505    0.5091797483317964 H
   0.3760803328227741    0.3566612121142291    0.4847878165254041 H
   0.3386510300424248    0.4615288049574857    0.6476076250739924 H
   0.6909966994194401    0.5038488052991023    0.4274150162590243 H
   0.8798609024726918    0.6035884802558932    0.5070893695687786 H
  -0.1343442424119967    0.3747675820581645    0.5472826539017377 H
   1.0198258130376450    0.8483595741854836    0.5108724746616685 H
   0.3679373625227639   -0.1506996269007157    0.4618800522718993 H
   0.5176536372092653   -0.0427837942661164    0.6382268604462923 H
   0.6299531840983021    0.7496129753896803    0.4605379581993430 H
   0.6809260109984647    0.6944162889199663    0.5683810242973945 H
   0.2714805549752631    0.1610762973682760    1.0049828630634023 H
   0.3145833154592995    0.2353235383493142    0.6930981052272162 H
   0.1749501704002447    0.3010944052940987    0.7356510221393712 H
   1.1885774011778847    1.0042640166324284    0.7632012861521256 H
   0.3196908989331683    0.0861739639673911    0.8891674474442378 H
   0.6322608272340863    0.1186250725387845    1.0089580185396669 H
   0.5104716497768437    0.1497481425986650    1.0220976595233664 H
   0.5506720640781321    0.1199366307378484    0.9168518592657641 H
  -0.1777948215715715    0.1754567433393733    0.7892896128203033 H
   0.8654685670081509    0.3162082251691753    0.9507303408290595 H
   0.6743281582763274   -0.0261373053332856    0.9975013850139794 H
   0.1230683327692037    0.3901409668543123    0.6795245371477948 H
   0.3320183954527336    0.3852751546037538    0.7341884003671989 H
   0.2383060110316450    0.4580741881283388    0.7040325204973269 H
   1.1588054603159283    0.6902708036593649    0.7075778554434443 H
   0.5139311747225216    0.5533748909269995    0.8001713271655393 H
   0.6248342296292716    0.5178824986294764    0.8184270644276612 H
   0.9309400816217209    0.6171126366593295    0.6862264521656294 H
   0.8779726483937589    0.5153848935442412    0.8801521671526819 H
   1.0193589333539412    0.7916954532281261    0.7506659947354959 H
   1.2117274095632431    0.7750894783967323    0.6502118720759185 H
   0.1840677018738309    0.8354108553583907   -0.0741951928516991 H
   0.6205132514677745   -0.0288462566920851    0.8926676101690341 H
   0.3139064068061362   -0.0450608241028158    0.9723014453651184 H
   0.4587218494660937   -0.0181017796550418    0.8854927556825187 H
   0.5939312091897471    0.7836036198156816    0.7620192796942212 H
   0.9959614386032959    0.8832209284525390    0.6840486035558715 H
   0.7545913309492389    0.7295324013502953    0.7779589139722386 H
   0.7228461879856704    0.6831986895797006    0.8924273760829169 H
   0.1290193765312532    0.2517262559938374    0.1460166483787102 C
   0.0556383314595248    0.2346876729606581    0.2183065754721226 C
   0.1899545329573195    0.1767779150540325    0.1074498377843521 C
   0.0034053307426037    0.0602380722508241    0.2596631129468620 C
  -0.0085770226296966    0.1528093606360612    0.2042121579923161 C
   0.0932502390445318    0.2358694486991864    0.3159709712513188 C
   0.5276955637013019    0.0014177770813928    1.1065881929390742 C
   0.2411574552889921    0.6403169165874798    0.1333506312912873 C
   0.3335166912858223    0.6518277281534001    0.0929276530571859 C
   0.0872731088818169    0.7086937329382577    0.2754898166715764 C
   0.0940167778948531    0.7234072185567614    0.1716642036752084 C
   0.1868081117078331    0.7275513304579920    0.1297197428956979 C
   0.1612146771268169    0.7486481904317301    0.0228210499942976 C
   0.6624829257280375    0.6754350890568648    0.1921032649678546 C
   0.6463535035320094    0.7048991409968823    0.2910283763784693 C
   0.3031527897933824    0.2508946868948497    0.6206069564206457 C
   0.4289407449198012    0.0988638045530983    0.3207920792359619 C
   0.4337071985388149    0.0708287330383436    0.4224592813662921 C
  -0.1303409832329626    0.2994079199868208    0.5471426200156421 C
  -0.1658492567130302    0.2641524115803610    0.6391166163208005 C
  -0.2187571594369096    0.1188915042567095    0.5657966256957458 C
  -0.0774504714428600    0.1176575408620929    0.6665553186354435 C
  -0.2164495163011255    0.1433888020324185    0.7351157997594748 C
   0.3199698227556674    0.4012974517025799    0.4719605756735203 C
   1.1966240524600535    0.6449767249324261    0.5679388840705234 C
   0.2388310834552944    0.3723078954251557    0.5222594334581060 C
   0.5469574275115880    0.5945991564946653    0.3840838367277128 C
   0.6413248481422050    0.6364632701931622    0.3772991059707895 C
   0.7102939470911416    0.5570955961342289    0.3770492898983314 C
   0.8015194279821302    0.5990062667153940    0.4044051764738855 C
   1.0755196095761739    0.7706830548556888    0.6159090454032421 C
   0.3015715525838191   -0.1009750908437453    0.3491472301013484 C
   0.3527691238589449   -0.0803307527826684    0.4360681659096554 C
   0.5045148603178271   -0.0684882749287125    0.5102201467201348 C
   0.4463736176024097   -0.0341652775349903    0.4236581247430526 C
   0.9944597983598654    0.7011663502271904    0.6083426983319431 C
   0.6122097494713620   -0.0450560173450182    0.9680333548778619 C
   0.5609922455105993    0.1077487530021494    0.9885394900748941 C
   0.1613203604936151    0.3257613129520950    0.6650831148769302 C
   0.2945977881392728    0.4184843575477998    0.6799413535536222 C
   0.5622297442252412    0.5971590983617386    0.9233867739502294 C
   0.5787121354887341    0.5750507592114449    0.8262582849785255 C
   0.6310534951007268    0.6333938119995415    0.6763891743315470 C
   0.6304775876398833    0.6513628460064022    0.7786344440092692 C
   0.7278654790265178    0.6702863647759323    0.8164969786075741 C
   0.8039588408853778    0.6015607151449844    0.8139536456616721 C
   1.1593131418058009    0.7187268098212537    0.6381563644039274 C
   1.0506345211055330    0.8385606550752001    0.7001579758776413 C
   1.1271405832005608    0.8826647179073861    0.7530888684245414 C
   0.3610258041105735    0.0073719766332687    0.9938239555418772 C
   0.4510532503289525   -0.0253819576793745    0.9609351562820734 C
  -0.1657449111103686    0.1600936587385061    0.6471983373717185 N
   0.2536153838118844    0.3422965597758953    0.6210018711434082 N
   0.5368122925164061    0.0077420969836852    1.0054051548899958 N
   0.5433752964827828    0.2583726286685700    0.4817853763925318 Cl
   0.9106783060074685    0.9065213435366416    0.4413755597010971 Cl
   1.2947289854239519    1.0702456942406227    0.7584219282508248 Cl
   0.7933644178048898    0.2685251878168211   -0.0297135589746485 Cl
  -0.0555071263087928    1.3797445886729149    0.8858096456593627 Cl
   0.6152130299582230    1.9707354598898450    0.7301482242693356 Cl
   0.2037488878527615    0.0984469899840764    0.1447538794645042 O
   0.0737851019736761    0.0436485777318793    0.2986111497120670 O
   0.2226882836178995    0.2015615582585424    0.0273252680020967 O
  -0.0007738444204047    0.3163256473953742    0.2137517098222361 O
   0.1719562542623405    0.1946624874595922    0.3289819398470126 O
   0.3701961772675589    0.0703329503055038    0.2680535108434748 O
  -0.0665684290729844    0.0055309883967817    0.2635581903944207 O
   0.1229740203975673    0.6896795724502581   -0.0208919716926971 O
   0.5977311282200047    0.6233353279681865    0.1541469637889283 O
   0.3817517838802562    0.5738330701253715    0.0769989696207008 O
   0.2418704835738460   -0.0497844936585019    0.3210877519573370 O
   0.2331382281716254    0.8104926229355475    0.1572398920942381 O
   0.1923859192757471    0.8307249531854000   -0.0067414311500370 O
   0.7278186572817337    0.6976292631678301    0.1453021059687205 O
   0.3664049537041896    0.7284735412754489    0.0730847282004603 O
   0.4977241822730278   -0.0604039949928072    0.3425678276231577 O
   0.0527634763297857    0.2737624937771668    0.3773552290336431 O
   0.4882226255375436    0.1641375154056722    0.2979260376886956 O
  -0.0389021289621726    0.2783646210285418    0.5447958546752467 O
   1.2754584930349839    0.6217717583245905    0.5892314265751016 O
   0.1588943252317343    0.6702005298152605    0.3135604172589972 O
   1.1601994105463556    0.6249703122990615    0.4939415838966892 O
   0.5178656059367232    0.5767030478703913    0.4649549116886807 O
   0.5008618679227016    0.5808534772247274    0.3141887217919192 O
   0.3483143692837792    0.4905436310473317    0.5037982994744917 O
   0.5807629279102743    0.5815499764296019    0.6366129801754534 O
   0.8310672933511913    0.5622436337354759    0.4821721738040084 O
   1.0810492576351669    0.8237345539882952    0.5315370548471227 O
   0.3257937789247317   -0.1743900760461105    0.3065765180717032 O
   0.0122626670916044    0.7196304802872057    0.3109363218567936 O
   0.5754647130469278   -0.1165235789596634    0.5056648704136908 O
   0.4660546029167198   -0.0414001347000883    0.5864594948122106 O
   0.6620989874208084    0.6941924313425346    0.4546954789135239 O
   0.6927872967163948    0.6834335340320983    0.6349176530207172 O
   0.9445618649435303    0.6967358928971590    0.5414966398925701 O
   0.8383453991368338    0.6678424717756871    0.3728366380463328 O
   0.3352009363339106    0.0940117258962473    0.9560011177441272 O
   0.6343751634521192    0.5897614981112070    0.9775140459345453 O
   0.4879109933819025    0.6228821193758398    0.9507515580845285 O
   0.9925347557671735    0.6418008313875724    0.6777765090681841 O
   0.8417245913461038    0.5829468889135578    0.7401921992373421 O
   0.8285576478307677    0.5606674291856690    0.8908456639090794 O
   1.1291679647497090    0.9718321350922257    0.7439148009307656 O
   1.1710607175721126    0.8344206632520816    0.8097827438930157 O
   0.5757168815866931    0.7301806269732881    0.7942571883104425 O
