Li1 Co1 H90 C51 N3 Cl6 O45
1.0
  15.1462947550999996    0.0000000000000000    0.0000000000000000
   0.0000000000000000   14.7817263774000001    0.0000000000000000
   0.0000000000000000    0.0000000000000000   15.2774259449999992
Li Co H C N Cl O
1 1 90 51 3 6 45
direct
   0.9904720671468905    0.3669325591760835    0.4144227565097191 Li
   0.4160484116802331    0.7001588599639884    0.4927178177527733 Co
   0.0696402580799396   -0.0273001475603677    1.0093809669257081 H
   0.3319195854159124    1.1186641036720724    0.2404857327226926 H
   0.4330387056208254    0.2844956388267071    0.1865008531383197 H
   0.6314099936870573    0.2461124361131553    0.2692294492087620 H
   0.6466414416240071    1.0661025841199387    0.1693461308085562 H
   0.8270763297724621    1.1853958219311882    0.0753309475459545 H
   0.8042898987950914    1.0013773973878402    0.3404737808074513 H
   1.0912755986169156    0.4290799008698474    0.1349895577909803 H
   0.3645757569745343    0.3744296537082509    0.1674832515445716 H
   1.0199763127215071    0.5193054919780077    0.1401023300787468 H
   0.5526597105791459    0.4117293564576519    0.1241474171976423 H
   0.5901371933020320    0.4851052918733078    0.2079874570454022 H
   0.5297272372834546    0.5275645408118877    0.0251739379319898 H
   0.4374054501659049    0.5300060012393503    0.2795571052267339 H
   0.8497775914050620    0.3206592090587537    0.0663484134139588 H
   0.8722722018367834    0.3726220164054219    0.2945255953914558 H
   0.8676770185840236    0.4565338659642398    0.1327699430389875 H
   0.1485420633942460    0.6533801561545877    0.0943387307317758 H
   0.2531867983361903    0.7014888805243783    0.2786564299395791 H
   0.0033322919245979   -0.1719111317866898    1.0153989964243286 H
   0.2106516430116136    0.8149837428406626    0.2835924708846625 H
   0.3026193501322587    0.9067713977707661    0.1528983338495247 H
  -0.0900667883701827   -0.2007785312436574    0.9436742173977529 H
   0.4026008983911221    0.6968838703745440    0.1733049128846554 H
   0.4788950692549830   -0.1871826903473419    1.0933204999737933 H
   0.4109507953160724    0.9176720189760370    0.1738547437285581 H
   0.5118658061959005    0.8441711319848449    0.2908960572611697 H
  -0.0930358313425478   -0.0989967798035639    1.0161052672345321 H
   0.6650083098579908    0.9786459523981852    0.0902896193027496 H
   0.7364297378369855    0.7873949491106212    0.2700738322904697 H
   0.8197359206626657    0.8577798265895263    0.2124973790864610 H
   0.1960137395781454    0.1499849633321356    0.6898736089733342 H
   0.1382398738143516    0.1002302877805399    0.4657635388393958 H
   0.1593447054031048    0.2084185980745970    0.5100207849510214 H
  -0.0238948290754831    0.1271486591426533    0.6445315466066885 H
   0.2796553179630786    0.0492240669406832    0.4251627856606180 H
  -0.0234478550723051    0.1008229113873057    0.5333043015120307 H
   0.4350490982939079    0.2572965154134433    0.6516472741115290 H
   0.8072721463170333    1.2173271395560126    0.3491349257199754 H
  -0.0464805508992851    0.3492532980852037    0.6108727351124463 H
   0.0359957259854871    0.7118286741383150    0.5997910253656936 H
   0.3029283365923581    0.3423549157585017    0.6176323816898069 H
   0.3495826511574475    0.4467283130606490    0.5890667056674775 H
   0.0239029994829656    0.6463532367442265    0.4372420456527371 H
   0.3569659750533690    0.4161551588524265    0.3474415776328609 H
   0.4578118931275360    0.3630236788109091    0.4641098571203056 H
   0.5376044773562999    0.2798595091724080    0.5432010603341203 H
   0.5731233292404450    0.3927759546122256    0.5702493341393841 H
  -0.1813749282394619    0.5961500344217567    0.5832902090038571 H
  -0.0893847733845360    0.6547940640748394    0.4300543164897665 H
   0.0339371367064490   -0.0871172472295827    0.5287727135174799 H
   0.4948454388936468   -0.3025697538372836    0.7441870779429918 H
   0.6022721743631996   -0.2681353456359373    0.7202995460175343 H
  -0.0965323960705099    0.7901199352841972    0.3644333143910389 H
  -0.1531700103432117    0.7148831211526387    0.5950834260450411 H
   0.6830952416409443    0.9994249867381528    0.3499740723174554 H
   0.0767370432500425    0.1334057090729923    0.7798252804752837 H
   0.1388862365161407    0.0196564786332560    0.8699896841489811 H
   0.3272742248747603    0.3066966992185260    0.7881264170971571 H
   0.4455051208763731    0.3403713856043495    0.8188698159976582 H
   0.5237510562131950    0.3108700953716518    0.7096963200170825 H
   0.1177114208146301    0.1085655794003589    0.9440721901990538 H
  -0.0262122275262283    0.0388910384364128    0.9837614678419572 H
   0.9198158428158768    0.5674788231451112   -0.1349014575439332 H
   0.2815204605908152    0.4387090197133418    0.6843857735027626 H
   0.3573013706126222    0.4166870317743892    0.8302807696902241 H
   1.0870917370834761    0.4578198456607023   -0.0223687569313235 H
   0.3909980606779035    0.5315887662968722    0.7260485511389595 H
   0.4927333051660744    0.4792517874996720    0.7677866032359288 H
   0.4684544959955228    0.5160758286233273    0.6492411096089263 H
  -0.0788825348785517    0.4952463265652493    0.6625797440577939 H
   0.9873491911719545    0.4263684449156038   -0.0742623156272809 H
   0.1088472066836597   -0.1597116095254937    0.9058668012741593 H
   0.0310816528604452   -0.1941209868210748    0.8302892789770940 H
   0.0875489284436050   -0.0926294585856647    0.8072494029359866 H
   0.3871898685799266   -0.1843514919520053    0.9905649699747243 H
   0.5776590259973607   -0.3576851022884366    0.8029829774115131 H
   0.6189415977490732   -0.1756698267172729    0.9490304862021048 H
   0.6620227611986546   -0.2774711969753986    0.9034704551794834 H
   0.4938591910857485   -0.3111479128941220    0.9351420209093345 H
   0.4581824127886637   -0.1033521574067126    0.9453813112559650 H
   0.4207868642959023   -0.2609237387316867    0.8639755820135313 H
   0.5015006639258983   -0.0833355509261343    0.8255764431722140 H
   0.4559236425380399   -0.1629676568078725    0.7571604676169811 H
   0.6860590027934786   -0.1720822890612466    0.8428653504103109 H
   0.5668114885199407   -0.1205565077990198    0.7344027071636379 H
  -0.1395336719951510   -0.0351524103500146    0.8814726394996771 H
  -0.0668221595224936    0.0110634363351519    0.8092294485345647 H
  -0.0914895785870933   -0.1028873943726394    0.7900148242217514 H
  -0.1713988910341168    0.7498330307105554    0.7359062326975004 H
   0.3431989116644971    0.3062995872811156    0.2918530247537717 C
   0.5469455737952398    0.3372837895526610    0.2980582585635305 C
   0.4049968639118499    0.3453288579677968    0.2217639924878065 C
   0.7731350845233625    1.0719347851632355    0.0950993300658411 C
   0.7365624435602333    1.1126553332664859    0.3128238349644312 C
   0.6976684427814857    1.0210699551154039    0.1412052645691944 C
   0.7408862733191879    1.0142791380323959    0.3095745965011778 C
   0.4844323971200544    0.4041264556103039    0.2506824766349735 C
   0.5311875944439114    0.4552982186836945    0.1787770389025440 C
   0.4819954314728904    0.5418810011898549    0.1453080499615539 C
   0.9735213868550289    0.3197066816177420    0.0402111569521995 C
   1.0195504659976522    0.4463194974835159    0.1445998154697650 C
   0.9845234175624987    0.4083537696874700    0.2302974980972817 C
   0.9703661597336296    0.4173809967239558    0.0571734384865971 C
   0.1961926612249123    0.7499507436187486    0.1636933460848139 C
   0.2509453260455122    0.7680176454935059    0.2450807476324507 C
   0.3181049856485637    0.9873898566418474    0.2579206069586351 C
   0.4002669942534057    0.7785143896517003    0.3250896447071601 C
   0.3484404576190460    0.9039604947044282    0.2064138935349950 C
   0.3446210416539288    0.8026813909125392    0.2340330750331777 C
  -0.0532062882262771   -0.1419545496734517    0.9731935881100421 C
   0.6584469691732311    0.8893133557659735    0.2403999852934650 C
   0.7315328306263936    0.9614605443129436    0.2180199062650407 C
   0.1626583871194268    0.1355191293327370    0.5221604085150746 C
   0.1033376083726998    0.1096019942012325    0.5968055747954077 C
   0.2583101635720260    0.1114312798549936    0.5402117478567166 C
   0.0062293701017690    0.1455233735072264    0.5843571426652397 C
  -0.0052493448454269    0.2412787652566009    0.5596072272435419 C
   0.3288112344455110    0.4058048793185071    0.6435346509218507 C
  -0.0342445550338543    0.6758964706568551    0.4692753215306127 C
   0.5133201288772007    0.3485835522282423    0.5715372474351732 C
  -0.0447467935398386    0.6258319530825440    0.5567812930740408 C
  -0.1298435132881458    0.6448060561635491    0.6088874530296406 C
  -0.0344347005477616    0.5190886025621069    0.5361969353993815 C
   0.0932651779554434    0.0057589138458246    0.6081045986376078 C
  -0.0246639940883373    0.7771539260978122    0.4735278703718828 C
   0.0873462386075997    0.0655543651641075    0.8988767493907822 C
   0.0273335414630432    0.0006228425871877    0.9535803364353994 C
   0.4730723250508070    0.3223437213656564    0.6623670118860459 C
   0.9945945275247975    0.5689685002936252   -0.0229840438280717 C
   0.3807242608795994    0.3600104989655496    0.7937242187365091 C
   0.4497383014024823    0.4829288884425701    0.7111651538429369 C
  -0.1187252825443993    0.6349959706364818    0.7100308004471233 C
   1.0130927810270713    0.4684766861391490   -0.0204410761750218 C
   0.0574815088295337   -0.1321864078263154    0.8571262606437723 C
   0.6369974988405209   -0.2075537885744331    0.8846217302020769 C
   0.4780656254733103   -0.2466155317875124    0.9030449908359873 C
   0.4545691198424419   -0.1706183193294644    0.9710348474871956 C
   0.5585377158233011   -0.2936262788584663    0.7714338145004833 C
   0.5197894206468598   -0.1408829563023136    0.7878973209121977 C
  -0.0849203151725874   -0.0515172106327370    0.8454947200531169 C
   0.4081322842088839    0.3908079842103058    0.6991068397877284 N
  -0.0110817943935419   -0.0785235284205120    0.9071163573229810 N
   0.5494280291156963   -0.2161048871926063    0.8414914278610827 N
  -0.1365699108426167    0.7271178219840995    0.2695259651281524 Cl
   0.5409210640735288    0.6470574846604860    0.5235933069679167 Cl
   0.8333108578551938    1.3325301920630315    0.3950759109701578 Cl
   0.3448435383142995    0.7235742575409040    0.6105893104036251 Cl
   0.5891580759509052    0.4629546315485027    0.9390857480932794 Cl
   0.7565600736669638    0.8482721414645417    0.7057329560172841 Cl
   0.3118202802774400    0.2293985561716531    0.2995781481106044 O
   0.3390150501310576    1.0600593116550541    0.2072235849086945 O
   0.6050081570355323    0.3020314795926619    0.2396760413489931 O
   0.6744165514315293    1.1624350397238468    0.3023750852486950 O
   0.8321079233887384    1.0361338248093013    0.0488016093276504 O
   0.7722173683277683    1.1615217499188994    0.1062674418023500 O
   1.0421857048823677    0.2817395331486661    0.0206790707830854 O
   0.8140302347904887    1.1516379246964696    0.3334411824897247 O
   1.0393520085431658    0.6179715721612976    0.0232606575073141 O
   0.5031580329660423    0.5740761580916638    0.0670946124163981 O
   0.4405448318278120    0.5913549246903002    0.1977095476275928 O
   0.4583064695319387    0.4731085889529287    0.3147024236810987 O
   1.0329022463023307    0.3835848766196227    0.2923223446526744 O
   0.8960489740324215    0.4084120849327933    0.2400910327240339 O
   0.8827612357931909    0.4557587873497745    0.0694189568529439 O
   0.1741701134405649    0.6610497609832452    0.1554216646867209 O
   0.1722653571640976    0.8090257107575730    0.1106222329981649 O
   0.2819898823282739    0.9937916799190447    0.3302587092003737 O
   0.4840214055144736    0.7977090353078260    0.3326269091923260 O
   0.3898703921440365    0.7604914609897737    0.1579574321739577 O
   0.5792553900184596    0.9134560026320137    0.2369812156533415 O
   0.6738527171645958    0.8000808827568224    0.2527783794470882 O
   0.8114302589787979    0.9224366857139954    0.1932244988866153 O
   0.3180013299343850    0.3617247777549840    0.3566748084472551 O
   0.1277911137341537    0.1466328514924957    0.6822237600772739 O
   0.2936990166655865    0.1376602865421134    0.6109250999547228 O
   0.3099914501610398    0.0711098732220536    0.4814210194163700 O
   0.5465692441322983    0.3216042948791324    0.3754868780350681 O
   0.0238026449061812    0.2759513053182001    0.4915764605593053 O
  -0.0426664167539986    0.2850530838632083    0.6225428947742807 O
   0.0328305954519051    0.6456909325078980    0.6130052933141545 O
   0.4473154646233655    0.3866420296778129    0.5199585323534029 O
  -0.0168026654977321    0.4905782655933253    0.4635825431585818 O
  -0.0470608908531897    0.4640112740272784    0.6090798938250065 O
   0.0172280996718446    0.8151102503914219    0.5335168373156202 O
   0.0610084440215226   -0.0191955461801687    0.5304368027489725 O
   0.1072976527908109   -0.0432549821973137    0.6723359687344241 O
   0.3647335513419782    0.7279303116550192    0.3788297186538906 O
  -0.0682786213408252    0.8258092713286378    0.4161750150443946 O
   0.0398177828605197    0.1190433812514877    0.8337217943883151 O
   0.9374333528613716    0.6023563460295986   -0.0827107283680569 O
  -0.0964346824036409    0.5589541084546366    0.7355108781383132 O
  -0.1323325708833907    0.6992151271655429    0.7671556068864976 O
   0.8934754073198845    0.2711345472358114    0.0449645755098438 O
   0.5126111237922188   -0.1701961764862887    1.0419617172295839 O
