Li1 Co1 H110 Cl3 O55
1.0
  12.8691539385000002    0.0000000000000000    0.0000000000000000
   0.0000000000000000   12.8881404750000002    0.0000000000000000
   0.0000000000000000    0.0000000000000000   12.8871618762000004
Li Co H Cl O
1 1 110 3 55
direct
   0.5340640497537709    0.5613429843920132    0.6267880791516677 Li
   0.7537886729506854    0.5819696993564930    0.4034409971757936 Co
   0.2519856771313110    0.1885335779985747    1.1624514056711233 H
   1.1253313573299286    1.0601736739294814    1.0735412165226450 H
   1.2165494751339361    0.3201848432289065    0.2207948860605932 H
   0.2849544334324306    0.0765586190974536    1.1220235748574061 H
   0.6437441426911408    1.1065574017573703    0.3148489541047362 H
   0.5840440253662912    0.3007212130421786    0.0602908107746300 H
   0.6671085380070185    0.1275620203464612    0.0839628188498443 H
   0.7037504184486915    0.2169814367654151    0.0113081871322758 H
   0.7751801335949184    1.0583502921898436    0.2257781399854626 H
   0.8505658197586102    0.3241528322572074    0.0014897336034442 H
   0.0610731267227043    0.3529785577930706    0.1180647416953721 H
   0.0762239284717373    0.4118505107696694    0.2263251960454179 H
   0.1547283122741240    0.5016819338710691    1.1001335727987696 H
   0.1687346720442682    0.6158093367227983    1.1480184372808135 H
   0.0465703862246173    0.5855062840242669    1.0154136002797360 H
   0.5812388681529641    0.5929208524940445    0.0231102426555240 H
   1.3369692018234927    0.3460202227117640    0.2400993692656538 H
   0.5011854314683704    0.3893398933099385    0.0056867787340629 H
   0.4948695539531563    0.3906860921687774    0.1609671282185892 H
   0.4418513055694147    0.4863081101309923    0.2331203306795008 H
   0.5427530436483480    0.3483456163601444    0.3085713888209939 H
   0.9786705893400794    0.4454286674354393    1.0289309287399080 H
   0.7542269301995265    0.3818097146787965    0.0460987798405133 H
   0.9229559710033615    0.6563194476276841    0.3095498820005736 H
   0.9596716713717008    0.6612022311542970    0.1482692198992865 H
   1.1942636277992489    0.7305178940098417    0.3039574947323498 H
   1.2197120762027009    0.7685551889129296    0.1893356707659729 H
   1.0435233375462509    0.7219883470039536    0.2119480972101673 H
   0.5936227436401647    0.7980722476956087    0.2195184219206976 H
   0.5156790027545135    0.8788286610834756    0.1741119929783660 H
  -0.0268108169619281    0.9932128891930005    1.1473666258051221 H
   0.6729729483917773    0.9885962418096625    0.2046664318674433 H
  -0.0774563374922365    0.8875653752912713    1.1883919504715563 H
  -0.0745695898336464   -0.0258406372235014    0.3302860225540278 H
   0.2718541161306352    0.2434476287394749    0.3673647839283591 H
   0.0230513575886697    1.2686056044481466    0.5028011210184817 H
   0.1230797670825453    0.1338926465650585    0.4659830842344270 H
   0.3182472203590232    0.1452635654562882    0.4322960704318184 H
   0.0109373522123247    0.0885459186073932    0.4606079674581003 H
   0.1036652817796271    1.0359498535416141    0.6085280462397984 H
   0.3148989038958026    0.2789671050276165    0.5358572744285461 H
   0.6034827546872303    0.2603212809487941    0.3668681656611657 H
   0.4670542055852182    0.0475162602927790    0.4732562139506836 H
   0.6646079851226733    1.1214315413100742    0.4331178184708151 H
   0.3751072131368615    0.0121346627004389    0.5563598492032109 H
   0.3575885789611111    0.3111206962150992    0.6512511846072003 H
   0.7657793601969042    0.1471885910290716    0.5844257649940235 H
   0.7975219286635002    0.0558842634356063    0.5083865245923231 H
   0.8738540639922426    0.2795498112771773    0.5594311227993854 H
   0.8077121867509162    0.3049336128143032    0.6538351515286913 H
   0.1886660522442239    0.3648398499861943    0.6410968929751791 H
   0.0380523670507184    1.3618386043778745    0.5786533536039421 H
   0.1883264805815579    0.4834217356325021    0.3813989057728292 H
   0.2710358805224265    0.4854398700600755    0.4662019066584090 H
   1.0318520186143472    0.4103786149568641    0.3934488824466529 H
   0.4289817726699345    0.3975466629525544    0.5402570018894631 H
   0.5441579534105905    0.4254839748322964    0.4931100811138270 H
   0.9965505526305660    0.5122466852612421    0.3538784941098869 H
   0.7074025621890341    0.3967785149005368    0.3802023661353099 H
   0.8012129249968254    0.3937563566554779    0.4526496597263252 H
   0.9385902544194670    0.6565359257150710    0.4378147409260057 H
   0.2358354312803996    0.6684654977350408    0.4382648012306497 H
   0.2978208581244721    0.7713484545566299    0.4056393089741672 H
   1.0928583601152639    0.7804304474342719    0.4443755338152567 H
   1.0222321165919124    0.7843239493787408    0.5458144706857749 H
   0.3776862482590312    0.6843452129194766    0.6327071481237797 H
   0.4307425721838956   -0.1127961605725748    0.4572115640901226 H
   0.5126819137318536   -0.1644180373895250    0.3942946854329667 H
   0.4581048993176592    0.7371751771273272    0.5552261628151333 H
  -0.0225957768544568   -0.0754680447801373    0.4315581267254106 H
   1.0350223902017084    1.0555880628310732    0.9917621553046478 H
   0.2769741108338519    0.2020297065003864   -0.0009522315322711 H
   0.0757513255306997    0.0537322850292722    0.7850339380607773 H
   0.2034028407624367    0.2898119588892827   -0.0783718379269566 H
   0.0762195769813232    0.2331451339569605    0.8243009236749297 H
   0.3282727434521938    0.2325213046298674    0.8281962732082283 H
   0.6543275890195384    0.0014756385947912    0.6799976226172765 H
   0.3516013943825278    0.0936521633855019    0.6909046013105128 H
   0.4420207028748179    0.1999285500106252    0.7941600746864994 H
   0.5894709555540686    0.1773519804454179   -0.1046941580202947 H
   0.6102811814072854    0.2321791295885142   -0.2066110899729865 H
   0.6096160250154272    0.0672942880458478    0.7713008910407932 H
  -0.0355649278023437    0.1003664756765463    0.8112181361985521 H
   0.0861718240841292    0.3449122273397629    0.7873168301577822 H
   0.1485251072785588    0.4742799979063698    0.6805702855566340 H
   0.2378977269159037    0.6034863797913407    0.7747438523713204 H
   0.1509572795992551    0.6525027604884172    0.6959995943455005 H
   1.0095506302424671    0.3581569619336415    0.9391206189821416 H
   0.2515225542229611    0.6059320390438249   -0.0183504765573513 H
   0.3571013674451121    0.3562133145899001    0.9360788320955816 H
   0.3702312127175741    0.4811669495323374    0.9378480346724583 H
   0.5499974981358406    0.5757189915715905    0.8391218750864844 H
   0.4916137066612338    0.4695842079964604    0.8112258958589770 H
   0.6834887912083857    0.4302798567611050   -0.2130066020951872 H
   0.7481224107901365    0.3481826758642619   -0.1571967964211952 H
  -0.0453920695557464    0.6216914886241570    0.9273724930988464 H
   0.7997310871004778   -0.3494493849780916    0.8508700009697796 H
   1.0948709244317507    0.8304586110200666    0.6974459950487016 H
   1.0044609405617766    0.7668249160280820    0.7376557794044791 H
   0.1991189538602006    0.9886350371658250    0.6731675695112814 H
   0.3374310766699980    0.6696223752558066   -0.0776346701865913 H
   0.5359491775652755    0.7030313841687080   -0.0101936767119073 H
   0.4531278821566176    0.8188355223137804   -0.1079733905158565 H
   0.3816678619878645   -0.0281411242532255    0.7162026462277643 H
   0.5252771473248782    0.9271133613633273    0.7599710108544000 H
   0.4017935051527319    0.8287438562776839   -0.0034126646597977 H
   0.4584436939284655    0.8302025616693939    0.7230094203524847 H
   0.8297641414758495   -0.2316565968761292    0.8786573449513383 H
   0.7372755438813187   -0.0691389703757865    0.8711925516225867 H
   0.7587719065266040   -0.0728059074402663    0.9872925908999066 H
   0.6353177923251244    0.6192372943933170    0.2806490267480419 Cl
   0.3702661800512583    0.9379062294477356    0.1095115007988201 Cl
   0.7131636246764599    0.6090271325584694    0.5723913076410496 Cl
   0.2447171340361692    0.1402543090685858    1.1019027753756463 O
   1.2841918395162415    0.2953108126717559    0.2544182706477177 O
   1.0595461468921803    1.0225344193806205    1.0577037495954287 O
   0.6427161030808273    0.1730666454037078    0.0257358013568924 O
   0.7077366944886825    1.0606624954171289    0.1959763881576003 O
   0.7729826309358356    0.3263067504313495    0.0030924138676026 O
   0.1143208385205998    0.3809577686574680    0.1659930602757955 O
   0.1701341424434932    0.5766399933268883    1.0834968608477888 O
   0.5578294038292267    0.3748102565199577    0.0572316422487183 O
   0.4411542900513110    0.4070422143268888    0.2216600881979694 O
   0.9833406710165603    0.3704279330878413    1.0119605513906564 O
   1.1740447384112236    0.7243230515378131    0.2285506666552785 O
   0.5947549081996709    0.8709609628537199    0.1979349264488445 O
  -0.0752969103742764    0.9623007494027178    1.2011565918705132 O
   0.9676286824144901    0.7081368530396934    0.2051948647423789 O
   0.2705649870954802    0.2050852287517451    0.4339915562346586 O
   0.0654961059078173    0.1207596425969278    0.5082600421273973 O
   0.6118539343712117    1.1335667287177051    0.3785107601626822 O
   0.4018137085010828    0.0053980818749572    0.4821712878128486 O
   0.7414187843969584    0.0798420252709109    0.5525886542367107 O
   0.8031858596684701    0.2756974324102407    0.5844451641450857 O
   0.1207509426591820    0.4041635988996310    0.6569048731927808 O
   0.3240207156762033    0.3342660057016488    0.5855811784312909 O
   0.2397813006236890    0.5295230332675280    0.4127440540592036 O
   1.0533452730521939    0.4605161814470368    0.3433517387774705 O
   0.5904352769118910    0.3376714620655932    0.3683975947309130 O
   0.4910076062107088    0.4461766419022524    0.5388905256886386 O
  -0.0054348973548880    1.3369552629352450    0.5171448533139051 O
   0.7837447991919521    0.4264872227426587    0.3862828360442598 O
   0.9020066528672677    0.6243070715366329    0.3787939877681910 O
   0.2301559592382368    0.7467754759633002    0.4275758689953531 O
   1.0209966041350731    0.7935518127955538    0.4725345655311681 O
   0.4499847073843439    0.6941247463009204    0.6189492701904361 O
   0.4634308127636825   -0.1792704515427777    0.4466910164860462 O
  -0.0524888841899061   -0.0071363873382983    0.4030204235807642 O
   0.0781032283942945    0.3048342967025272    0.8489844034865295 O
   0.2737773194832625    0.2636413875291811   -0.0520107195314940 O
   0.0355320848196566    0.0924246783165203    0.8384933425920676 O
   0.3354962175394759    0.0198709222635161    0.6735105465020620 O
   0.3710867468150459    0.2188079221335458    0.7671758555589175 O
   0.5637722964518100    0.1806138939915612   -0.1752923245320568 O
   0.2933403771017453    0.6049388779260648   -0.0835265803472161 O
   0.1953284948888406    0.5942127378542559    0.7134006328483339 O
   0.5469436843274265    0.5204503512753650    0.7900590941519410 O
   0.4072289829109654    0.4139276141386098    0.9304220396458313 O
   0.5862959216555493    0.6501727113972972   -0.0275258870267717 O
   0.7105239795092378    0.3606088284431118   -0.2245413373167977 O
  -0.0285332301140225    0.5831451986482169    0.9949048177767313 O
   1.0648922636865543    0.7607829272593337    0.6964108563480201 O
   0.1231986560170713    0.9962622041873732    0.6723349579476900 O
   0.4568794885349953    0.8867739500255564    0.7709478264914604 O
   0.4304131021954050    0.7745451919044202   -0.0513170058895081 O
   0.6338312921176189   -0.0044943459929195    0.7537725941069917 O
   0.7853058963779836   -0.0977598564311117    0.9219950484243922 O
   0.8603100500785885   -0.2984047830608395    0.8612058686557433 O
