Li1 Co1 H90 C51 N3 Cl6 O45
1.0
  13.4317828185000003    0.0000000000000000    0.0000000000000000
   0.0000000000000000   13.0836529236000008    0.0000000000000000
   0.0000000000000000    0.0000000000000000   13.1267043126999994
Li Co H C N Cl O
1 1 90 51 3 6 45
direct
   0.8104436362838442    0.7727091221262882    0.5242165125668634 Li
   0.1734760709494716    0.3529761903474039    0.6600979156601217 Co
   0.2825628556153088    0.2014489363322841    0.1782808617114833 H
   0.0704875087688271    0.3031926930471117    0.2097952456836862 H
   0.0044493653603218    0.2114385012315675    0.3322852448256930 H
   0.4512755299208235    0.1658656017147605    0.1465470776574782 H
   0.6138331017267558    0.0870496925782575    1.0949191673643877 H
   0.7410827768514816    0.0907726589611503    1.1411775415560359 H
  -0.0723781127149409    0.2503779322127294    0.1790838050664123 H
  -0.1815356251473625    0.2834527930736006    0.2469515637039006 H
  -0.1231144899486003    0.3655445457570300    0.1513182676308369 H
   0.1923641071415527    0.4370513340724277    0.2328276834378823 H
   0.0375105014731221    0.4222725867967934    0.1627887781575595 H
   0.1117225411903722    0.5132276745653981    0.3054232091158727 H
   0.2816121255318524    0.5390655809952014    0.0049707950103569 H
   0.2403823046299503    0.3913462084861812    0.3874171334368980 H
   0.3148981014921106    0.4312731312691698    0.0783707876549555 H
   0.5876824406606601    0.5372575232503090    1.0381311128579118 H
   0.6348117017985121    0.5389826530845990    0.3246664246239429 H
   0.5269612384925714    0.6106160115566397    0.3002954940095853 H
  -0.1210432831418849    0.5107835406383724    0.2800756434151594 H
  -0.1631627848971388    0.4266406329635419    0.3771022823688351 H
  -0.0493610639599399    0.4827747267283831    0.3940387497946235 H
   0.2517404394406081    0.9247461726056635    1.0019651424291658 H
   0.0166130522072363    0.7616487553583059    0.2109059585978100 H
   0.2379455469454142    0.8586820538884140    0.3396854267514806 H
   0.0226241678641091    0.9318779729174625    0.4045882370612805 H
  -0.0086873866542335    1.0279986822746752    0.2194656090114551 H
   0.3397823632849413    0.6701643658694217    0.1695985605576640 H
   0.4912054489231839   -0.1358834604969649    1.0078950390845427 H
   0.5976334651676903   -0.0935222022737149    1.1538882719896129 H
   0.6830108134688048   -0.1926053870364073    1.1128078920896649 H
   0.8210565237855436   -0.1453785151827948    0.9962744528074207 H
   0.8638818142010298   -0.0335251964998862    1.0672023855025461 H
   0.7272997964011861   -0.0927670614840827    1.1987670158057617 H
  -0.0578990221408932    0.8790685622708609    0.2366268091599229 H
   0.2493289948514812    0.1086109493348590    0.4333526543137276 H
   0.2922845732580440   -0.0057454929169213    0.3844262837106635 H
   0.6033050875449576    0.0645200518333322    0.5972809297391222 H
   0.4085878236239143    0.2356924310669888    0.4649256973355790 H
   0.4863833042477361    0.1793794117365071    0.5665847252386400 H
   0.4901972432230926    0.0401667613676960    0.3545954906439568 H
   0.6904297839321114    0.0067303806753512    0.6921935574879325 H
   0.6952020469195469    0.1686270629221906    0.4541763122166134 H
   0.9145623537242276    0.0523246809432813    0.5394696938094915 H
   0.8795014830741027    0.1424126714213781    0.6397706504423135 H
  -0.0926754927190680    0.2537852375165554    0.4122089617776297 H
   0.0356738130503446    0.3180486358892975    0.4172639244262361 H
   0.3481900334748180    0.6108659417572567    0.4031034774799175 H
  -0.0573428785446975    0.6548582429411091    0.4315166260597292 H
   0.5282473670901993    0.3397352399024777    0.3487227294265493 H
   0.4463966541315470    0.5233700408277009    0.5860420081876352 H
   0.5399990460841890    0.6199176951698209    0.5727347837816587 H
   0.6231274747587597    0.4066943686042002    0.4351115116361755 H
   0.6841312901920639    0.4556708282933865    0.5667957454562067 H
   0.9172477753460186    0.4537994854701726    0.6451589031457411 H
   0.1811288152939100    0.8117142839858998    0.6021389655781944 H
   0.1623807456293856    0.7402548830479893    0.3540599411387242 H
   0.3668651418643395   -0.1730191138834590    0.5334176796780282 H
   0.6210666909913304    0.8148043995855787    0.4493140864454235 H
   0.7842148024231025    0.0220640188551081    0.3556795403536949 H
   0.1684879021482520    1.0391072007326845    0.8652522282619939 H
   0.1015020066675150    0.9441321958731022    0.9210232719726158 H
   0.3947839970950465    0.2633788885200599   -0.1243297483375940 H
   0.6317599847960943    0.2982812206643424    0.7181536150836771 H
   0.4977185753772170    0.0000724541389431    1.0440808164651179 H
   0.3777252042976815    0.0860698439018320   -0.3149297603740790 H
   1.0912782842953173    0.2159089652786913    0.8763532629565148 H
   0.8171277824774784    0.0900939494255295    0.7877422931128016 H
   0.7165171622596840    0.1113020937885986    1.0074364319691087 H
   0.0966672054443627    0.4596285914886022   -0.0854174678571222 H
   0.4921537965976605    0.3164084211782140   -0.0633464290724901 H
   0.3515678427063305    0.4839880728858132   -0.2156900754563913 H
   0.9844815902612043    0.5376269155009458    0.7285911168919142 H
   0.8595376403271318    0.3809416218776163    0.8368993385240939 H
   0.7759806013870593    0.4692922535207811    0.9089562674734935 H
   0.8113876658420451    0.6651252532924535    0.7503863819626144 H
   0.8546201992924964   -0.4357729502985942    1.0197068386274020 H
   0.2439492175742255    0.6611179626446384    0.7505608354998808 H
   0.1007240012350859    0.9463739245532550    0.7336220826565736 H
   0.2305265764821077    0.9340241625301011    0.7273257573923535 H
   0.0568087587113929    0.6875318397184205    0.8056051164395328 H
   0.2510674089038465    0.7325957070835118    0.8686018885386759 H
   0.0994844040628425    0.7636084527111570    0.9067904534715360 H
   0.3119610379218402    0.7714052049328546    0.7574803179408864 H
   0.0109630204113473    0.8136732170262109    0.8200855218384797 H
   0.1295786964931263    0.6954715183851194    0.6337851419606465 H
   0.0539439119133193    0.8074540058873072    0.6358709663494470 H
   0.4029199237606776   -0.0767677070818871    0.8963019106720463 H
   0.6369953285289566   -0.1420988500731678    0.9277995349157784 H
   0.6520640653254768   -0.0145580165044298    0.8950952102221340 H
   0.8196062323191591   -0.0295966300437028    0.9369846279237276 H
   0.3326745949946063    0.1152895123103707    0.2869212306897246 C
   0.3883462813302486    0.2534993846265529    0.0419564685225029 C
   0.6900270079139830    0.0658835854048946    1.0766868682054549 C
  -0.1159776860488254    0.3137585496016406    0.2097655352559422 C
   0.0509726012139659    0.3778981293428844    0.2346202125784401 C
   0.1366470061347352    0.4318127359224899    0.2900103533692664 C
   0.3436277202787174    0.4790849315097311    0.0148407514680987 C
   0.4402634400144653    0.5383740310089068    0.0408236632390310 C
  -0.1003341930859556    0.4543005687714710    0.3395178294667706 C
   0.2220950822024342    0.7370203123782290    0.2173188401554875 C
   0.1208538681078288    0.9523057541770757    0.1985410880154075 C
   0.0963783383555756    0.8767924395264031    0.2879976623410668 C
   0.1839422913983591    0.8043126813474408    0.3033869021066458 C
  -0.0021997892014234    0.8237973009325541    0.2680634889364876 C
   0.6751496083386439   -0.1114063513998304    1.1366600329272611 C
   0.8084029540921809   -0.0670227221954401    1.0112766952064873 C
   0.3158860567158746    0.0730215002170145    0.3926240763505029 C
   0.3428675829136360    0.1990612239569696    0.6110452376488533 C
   0.4033137657451322    0.0710885538030675    0.4707065847687319 C
   0.4174645305816668    0.1715887740151304    0.5265232606491452 C
   0.6715357917175810    0.0749758473820847    0.6432277253423777 C
  -0.0266864864957688    0.2797412913788094    0.3700830033628431 C
   0.8587432558329674    0.0667442013250624    0.6075317891166594 C
   0.7544190556180858    0.0706078012153361    0.5591986367208849 C
   0.4435265213635497    0.4643722208375625    0.3824036892065492 C
   0.5796574449131456    0.5886778722865081    0.3559499814267497 C
   0.5259637536328886    0.5247141608607444    0.4416826202667360 C
   0.4808114452464932    0.5806520555965384    0.5308451375383132 C
   0.9124755123585830    0.6164530664254864    0.6086699270410085 C
  -0.0504123019222268    0.7782779032935551    0.3602785622073061 C
   0.3919332958502898   -0.0237351171735725    0.5397987939321949 C
   0.6440725722042391    0.6720789687824061    0.3989569682950234 C
   0.4017525433606310    0.6618348878072650    0.5265193754393633 C
   0.7276169545966070   -0.0299657930005776    0.5018015946262400 C
   0.1688102718633159    0.9580289264774454    0.8768530075872866 C
   0.6742003672607998    0.1659290396555899    0.7094995007459227 C
   0.4077443019445439    0.3084977863880394   -0.0558860644853748 C
   0.2376023311517781    0.4021130792387599   -0.1118239436748671 C
   0.3454093154938396    0.4119062158152341   -0.0773202335881089 C
   0.8413300796998738    0.4561057221287110    0.8572349836061377 C
   0.8279193506526544    0.5187200397649044    0.7630544512691741 C
   0.9325681540910183    0.4886402140237220    0.9099953706386956 C
   0.7405422678142152    0.4666106629737929    0.7039154639417203 C
   0.9136049231155159    0.5306155708454687    0.6899210906684325 C
   0.1640335418590434    0.9147978805835463    0.7715310648463038 C
   0.0741683306424435    0.7650491818492707    0.8295738135705862 C
   0.2452096608250411    0.7367696178650717    0.7860183264978070 C
   0.1249665016090135    0.7757380927227580    0.6508137878930255 C
   0.5156405521730630   -0.0577363248330612    0.9839027259724619 C
   0.6247058207078023   -0.0640877620414043    0.9544878788941719 C
   0.8830661625099593   -0.0080307874118606    0.6965518486962330 C
  -0.0514694959069629    0.3585686652034142    0.2922378736442307 N
   0.7024334026757031   -0.0449088674723365    1.0486432716384289 N
   0.1548865803826577    0.7977220143140422    0.7595493826012156 N
   0.8662649676835229    1.0670596389497149    0.2593956620936205 Cl
   1.7390202942403243    1.5937367099663591    1.0809004163042331 Cl
   0.6461683476035576    1.2950204399138039    0.3390759820798078 Cl
   0.0461593905721920    1.2437167249712262    0.6871778278400651 Cl
   1.0736506913540520    0.2128899307452430   -0.0273122510539934 Cl
   0.2097973848504123    0.5118714019629667    0.6112852064883246 Cl
   0.2583032316768397    0.1694999078430002    0.2469622289856548 O
   0.3062871820361543    0.2568768817413144    0.0879466870586151 O
   0.4104386576000086    0.0943572847742826    0.2374320379323707 O
   0.4655519668310367    0.2004920170320621    0.0797328964961443 O
   0.1669043446795663    0.3773967403165699    0.3758727277437351 O
   0.5278357314886777    0.4927575656773133    0.0152559356506758 O
   0.4304715157571098    0.6251914516966038    0.0757501755667622 O
   0.1696351809725325    0.6890444142353052    0.1584937168339451 O
   0.0523000497173353    1.0215845714380425    0.1726594964211409 O
   0.1970805324185268    0.9444394495142276    0.1515864232863730 O
   0.3219835346982610    0.7186363028508792    0.2230019117188368 O
   0.2912631154080032    0.2758631695502736    0.5944531064625601 O
   0.5023567928679132    0.0472993259920351    0.4282705713772317 O
   0.4030278766675697   -0.0238528213047499    0.6331787445123320 O
   0.7527379682817942    0.1635971220957037    0.4986980738163299 O
  -0.0549135658882229    0.6753326472656692    0.3609360006468732 O
   0.3596054950015495    0.5077432887888105    0.3609679964921361 O
   0.4613391232521439    0.3802338684654712    0.3355754842468868 O
   0.5918017746871002    0.4501523388912591    0.4905727822382444 O
   0.8683451085239121    0.7001666903190366    0.6426792251378721 O
   0.9666321354837056    0.6052413657745616    0.5319301014150588 O
   0.7464729771680234    0.4763459410909805    0.6047451033554354 O
   0.0920207634311669    0.9282322021011211    0.3826124240065972 O
   0.3307746238333060    0.6676765285513523    0.4575679479950567 O
   0.3594431933898083   -0.1071498948639384    0.4895019117695313 O
   0.5857675794432367    0.7592839723591948    0.4076499347305970 O
   0.4053537034339891    0.7276475476988171    0.5936257853207643 O
   0.6999296397386132   -0.1075488660098776    0.5427457636420688 O
  -0.0893475651755678    0.8294394561036719    0.4303908293899815 O
   0.7300283991857339    0.6602695757251126    0.4297322482416550 O
   0.7429082977321668   -0.0299772576886793    0.4009338544487622 O
   0.9170221909957545   -0.0957838030799107    0.6837725557370931 O
   0.3419637565069673    0.1509156484301407    0.6980343228600773 O
   0.2154027464779321    0.3458505045359258   -0.1870796953447095 O
   0.6045923328967948    0.2341683918620025    0.6888240902594214 O
   0.7337040095397073    0.1762778314487266    0.7827593211160365 O
   0.1736919767632558    0.4498279646492349   -0.0537255831242946 O
   1.0132908708480692    0.4551942029933717    0.8754848042993810 O
   0.3970316510668200    0.4685262594930794   -0.1573197502210848 O
   0.6727984684768151    0.4224820084327844    0.7446644583014460 O
   0.7997391749369879    0.6157262051998384    0.8087254731584977 O
   0.9259495241443254    0.5333676310086554    0.9967178238060627 O
   0.2582049573064276    0.9278997261461718    0.9290138534240864 O
   0.4686111288615160   -0.0449990563520699    0.8883936042512515 O
   0.8601771682376165    0.0268180428546140    0.7900040946505474 O
