Li1 Co1 H90 C51 N3 Cl6 O45
1.0
  15.0223299669999992    0.0000000000000000    0.0000000000000000
   0.0000000000000000   14.6607453976999995    0.0000000000000000
   0.0000000000000000    0.0000000000000000   15.1523879142000002
Li Co H C N Cl O
1 1 90 51 3 6 45
direct
   0.8234487931748145    0.0328759681602284    0.5550791733108862 Li
   0.6910698609872973    0.0523770230005131    0.7043856069113518 Co
   0.1255337544936514    0.0997968492877267    0.9607049423185628 H
   0.1614096806105657    0.1900828452649611    0.1440772219838764 H
   0.2808745042392797    0.2663156676544240    0.1862190945135248 H
  -0.0154357225882655    0.1771135183418001    1.0007349364973401 H
   0.4672697575822061    0.1633836571008035    0.1209514940798532 H
   0.4916320902432485    0.3211300702103864    0.1105933907308150 H
  -0.0686698082298887    0.0815610779986392    1.0547310461952217 H
   0.7254560048900569    0.2176169159448413    0.1601340970703433 H
   0.7683807709827015    1.1163372499100608    0.2570118966826628 H
   0.2803539458427341    0.3819141555911886    0.1441075802351702 H
   0.1930093060376990    0.5902125686090619    0.3263145046904675 H
   0.4772898410400094    0.5999324018190674    0.2092181097164958 H
   0.7515471639087316    0.4427569692273860    0.3348062355469233 H
   0.7406334108251451    0.5639485561352892    0.4422566261532914 H
   0.0190775653729854    0.5390727404719726    0.1998387299906894 H
   0.8159166726416774    0.4007337989664351    0.0657080562309882 H
   0.8192157614054625    0.5114866942629274    0.2050986270083278 H
   0.7675766347384213    0.6437500920233309    0.0954624423088082 H
   0.1897408383560638   -0.0591507305785453    0.9883487699694810 H
   0.0810626237524450    0.0396593886004743    1.0498493073947861 H
   0.1500139783209703    0.7005732601093609    0.2976701746708242 H
   0.2239805336050638    0.6955469126760606    0.1315551032871801 H
   0.2246016090321444    0.8292890892715021    0.2087851746545672 H
   0.5011319481423557    0.7131053650614615    0.9322539811604211 H
   0.6696710499702206    0.8756509884493320    0.8851267557987478 H
   0.6167931008275129    0.9482073265579577    0.9573628948283094 H
   0.3845275329918467    0.7785147268631091    0.2813044373755424 H
   0.6236402410664742    0.8411991248981623    1.0544934598807487 H
   0.8723939302883773    0.9826264496183148    0.2303190742516213 H
   0.8559244478217098    0.8941282208581628    0.1379402354886419 H
   0.1611121235731541    0.1794919785806274    0.5461668486816147 H
   0.1527738697686403    0.2665400764352024    0.4678539776860169 H
   0.0428947762041925    0.0482558137194708    0.3519071704931021 H
   0.1501970391381698    0.0738043100502755    0.3822258240677955 H
   0.0168209247536894    0.2448133503132160    0.3381225445197756 H
   0.6764296553412272    1.0121099436886649    0.3687573198851150 H
  -0.0577320908211415    0.2270209398372165    0.4886300429361007 H
   0.1309823100892083    0.6442705294085402    0.6228268448866636 H
   0.0183240204818222    0.6816976850623095    0.6366662477047158 H
   0.6199450752618394    0.4993972680303563    0.6880007307185153 H
   0.5903604501752988    0.5406243668990688    0.5316307239963705 H
   0.6850628034803571    0.6401302215078573    0.5821903456439956 H
   0.8035344389663013    0.6052997960316663    0.5530532220104162 H
   0.7614683945252473    0.6169397226091220    0.6604169596082001 H
   0.6751295907012612    0.3882965050189796    0.6560909087988376 H
   0.6159636689066744    0.4234250053802774    0.5136328017187584 H
   0.7735836922453616    0.3765262985718318    0.5606919520017155 H
   0.8483264253943811    0.4476473072051022    0.6176045657021502 H
   0.6294229658628827    0.5483211106142760    0.3877497058792927 H
   0.8300030361062566    0.4643633740456358    0.5027577171490468 H
   0.3308594267945359    0.7142362761816151    0.3711021648165666 H
   0.1955422020720416    0.8090963915628001    0.5024941943285772 H
   0.0880835053488211   -0.0365475142337619    0.5708055394354418 H
   0.6092190427253448    0.9501512931999588    0.2905247662630487 H
   0.8532777212428542    0.7794880743712268    0.4712683570097878 H
   0.8260282865080806    0.8227798704418122    0.3164784312712853 H
   0.7138173309703603    0.8250062238170723    0.3483473355479150 H
   0.0543317503871202    0.1487227381523222    0.8356909834147782 H
   0.0344187275300049    0.0415822103421589    0.7968693796298902 H
  -0.0582353416495155    0.1110070569232664    0.8253572986591721 H
   0.3377624837922055    0.3106967671380885   -0.0628782768956917 H
   0.4478432770934221    0.3419564328350249   -0.0252459246071379 H
  -0.1240533607032838    0.1350672251092127    0.9558628012372061 H
  -0.1205512408513320   -0.0101061574347539    0.8947074239298713 H
   0.2306705743790829    0.4321712864540976   -0.0209482521631151 H
   0.1903659078373378    0.5703868372348849    0.7499150643081943 H
   0.0586553140515237    0.6124031183508941    0.8749019647706083 H
   0.0895692935087824    0.3920759854271649    0.6561232469360853 H
   0.4337582449802409    0.6712309594056405    0.8378998761773926 H
   0.5264606422155019    0.5181911282690878    0.0363041099670159 H
  -0.0908414687333968    0.5144066685779247    0.8078161690692336 H
   0.8794074894520656    0.5946502693012932   -0.0483393143739134 H
  -0.0335966870058567    0.6392244012620406    0.8150196541316580 H
   0.7480843189230155    0.5799197768098350    0.0032558536238217 H
   0.7376325447744707    0.4670498199889764    0.7155435841857823 H
   0.7264611751954071    0.4282585249645625   -0.0040189073329446 H
   0.1828637427106516   -0.1208740587895354    0.8493145786638510 H
   0.0598528646338580    0.8293047774233498    0.7623764665023032 H
   0.0798477656019390   -0.1056858815202587    0.9732442200268600 H
   0.4675771666199616    0.8702453969974516    0.7082767427728319 H
   0.6005785721535269    0.8205842112766888    0.7396414360931910 H
   0.3928364970656086    0.8974002236587520    0.7938216751847893 H
   0.3779779497902970    0.7869406285924564    0.7363007085269068 H
   0.5429621436832868    0.9371089822660279    0.8188236750111646 H
   0.5510323298838506    0.7042865774423623    0.7402862189521914 H
   0.6191163090166997    0.7424367522682443    0.8262759657418011 H
   0.3944414411756743    0.7560567964463069    0.9177493366618444 H
   0.4708268622468876    0.9220340325274782    0.9145432413404283 H
  -0.0693408093343873   -0.0513380309583766    0.9905193849369857 H
  -0.0250374288693056   -0.0881335679768852    0.8816791143909506 H
   0.1898560002519748    0.2968338976531656    0.0705699961718843 C
   0.2787703033550334    0.3070182365765756    0.1248578090669801 C
  -0.0583924411144576    0.1154788622934275    0.9898356643208912 C
   0.1026784450473654    0.1677251826012726    0.2963337516519136 C
   0.3694193573294448    0.1821753346401475    0.0432686887909981 C
   0.3628038722337033    0.2839805266349660    0.0773022683772706 C
   0.6458451853549276    1.0826629730156916    0.2493134401317530 C
   0.6947936508469851    0.3254981973596408    0.0926384649765027 C
   0.6671820885320059    0.9938857679900734    0.2980384334582574 C
   0.3495602542039410    0.6065214255951132    0.2232555011299422 C
   0.1313504287507041    0.6047432076878512    0.2009778243761906 C
   0.6246434143447276    0.5179090825826080    0.1274527795906129 C
   0.7763708763966868    0.5713922431402568    0.0678067353421664 C
   0.8735861554651205    0.5545977355404844    0.0701449806537715 C
   0.7435537301162518    0.4130560237305552    0.0614598809358141 C
   0.7237372302354781    0.4994497210250124    0.1208828580334498 C
   0.0896365267543720    0.0369119157464461    0.9769241680532529 C
   0.1901435721539028    0.6438258044083350    0.2728272256827489 C
   0.2816420283201199    0.6827713003235411    0.2438311359252886 C
   0.3196288120782695    0.7524601171118255    0.3085681269233038 C
   0.2575365799112859    0.8285135488953774    0.3330355575421148 C
   0.6111162184672309    0.8777497903291346    0.9307743463908420 C
   0.7299213574783276    0.8997595852779386    0.1825054884259149 C
   0.7532912342398690    0.9407274885943843    0.2682906470002839 C
   0.1116391056303576    0.2232564654873203    0.5121807579270745 C
   0.0865504542142374    0.1058381519362193    0.3753193218984623 C
   0.0452612533138083    0.1506066805611668    0.4610458098523962 C
   0.0275755813452370    0.0701087271497976    0.5224738174555887 C
   0.0627139387877619    0.2872866341134851    0.5756009552082854 C
   0.7435151209257153    0.5996561539278357    0.5935852492709146 C
   0.6412713276277351    0.4921104625438659    0.5134175551174657 C
   0.6835949885642663    0.5160776613777754    0.4242700222237160 C
   0.6835151074803975    0.4614481061761928    0.6686539451385819 C
   0.7991303285423300    0.4427873906000994    0.5643616046211478 C
   0.0877812885815172    0.6937079884420834    0.6553279927445853 C
   0.1193502929265007    0.7796279035507392    0.6028636548130698 C
   0.7956847911247854    0.9047982103952937    0.4251451318153582 C
   0.7730864324982777    0.8675852321189239    0.3355209743762963 C
   0.0076718779479063    0.0900967967909205    0.8416570397559892 C
   0.3753112529404740    0.3429754806115686   -0.0077186542188770 C
   0.0340352983274342    0.5230228744101205    0.7736901948051105 C
   0.0359211575824388    0.6177827902475477    0.8065648811463425 C
   0.3561477809203284    0.4471782314648551   -0.0033417863366966 C
   0.1889786396808148    0.6968735846475316    0.7890857879829608 C
   0.0870690155836863    0.6954937093784901    0.7559748352512251 C
   0.1297122008556930   -0.0565328555006504    0.9528560144351534 C
   0.4263286385047357    0.8423266255505228    0.7572380024898400 C
   0.5740973271752925    0.7646791411205300    0.7781099602162930 C
   0.4518588326119411    0.7321487351239278    0.8818526843929128 C
   0.5250677158155382    0.8901413840081641    0.8757915935259127 C
  -0.0559281096771025   -0.0341601867786728    0.9234408488174422 C
   0.7146813780275421    0.5001569838359216    0.5856294075459924 N
  -0.0026740537645121    0.0502734464658004    0.9330842133371072 N
   0.4929659712087191    0.8065289914082415    0.8268468328585209 N
  -0.0210773241365056    0.9186631261608925    0.1642779983719432 Cl
   0.7432641611872272    0.1648296954450289    0.6231720050046341 Cl
   0.8632788329432386    0.6473263085510543    0.4178360528353903 Cl
   0.5602656512331154    1.0602643847384874    0.7573746146206619 Cl
   0.8110219592276116    0.5900863813007216    0.8420728158063169 Cl
   0.7799042830064871   -0.0561843056922074    0.7437503594096047 Cl
   0.1449761446316392    0.2194599327401701    0.0840437800504420 O
   0.1550005549814855    0.1357083930542938    0.2399729981630409 O
   0.0642476555980445    0.2504344833296129    0.2927521379612331 O
   0.4287769937253170    0.1279141099602072    0.0811637059494415 O
   0.6144572448000469    0.3115432452443073    0.0943358872010154 O
   0.4336690444365873    0.3022879177477062    0.1397155332273430 O
   0.5728875281600982    1.1017431761303220    0.2172307081720977 O
   0.7110095108723690    1.1441127817096843    0.2391599249979555 O
   0.7513101833599207    0.2622892693780267    0.1192811302967110 O
   0.8246077345666122    1.0064581164621311    0.2688351156376179 O
   0.0715960496382831    0.5499506321257639    0.2367332447804077 O
   0.3381732056984313    0.5234570951695233    0.2190185451885070 O
   0.1416890380304346    0.6246269170145088    0.1219440769047626 O
   0.4334693417269151    0.6468508893407123    0.2220279718384983 O
   0.5843101237479295    0.5196977365213166    0.1975790201552574 O
   0.9115263419243467    0.5354084656658343    0.1438198368098640 O
   0.7575768543894347    0.4827741705418593    0.2063934724222057 O
   0.2671828864641527    0.7379383452492980    0.1632326185882620 O
   0.2097057839176939    0.8648677713814739    0.2672743055439272 O
   0.6040340947065552    0.8140299742721314    0.9972839952796196 O
   0.6486097365324900    0.8836792296340172    0.1684707368604070 O
   0.7900718136315984    0.8881319363845377    0.1157331746672476 O
   0.0944273947594084    0.0109084630120573    0.5231246059686493 O
  -0.0216498052375659    0.2920722025206007    0.5778749202225859 O
   0.1151798346728460    0.3353871897721784    0.6290892241589811 O
   0.7737427887374003    0.9802643596248939    0.4560639548188897 O
  -0.0448539287500794    0.0570166233860891    0.5641960861553984 O
  -0.0348175362376528    0.1924865429654565    0.4331055932741730 O
   0.7158562956361136    0.4336413344915856    0.3888822006449474 O
   0.2489819815046271    0.8577985537401759    0.4087694950903067 O
   0.1727794215479038    0.7604583461799325    0.5389941838438734 O
   0.0993786906078815    0.8591702438865142    0.6241705274874054 O
   0.8380763509826052    0.8473836671939601    0.4784812795285927 O
   0.1667637102568778    0.3518481536217968    0.0154935287051351 O
   0.3156633819398783    0.1509102121947424   -0.0106297465331558 O
   0.0977065132522262    0.4873660925876894    0.7381459622359804 O
   0.2331502163575129    0.6154664005225526    0.7767359193642573 O
   0.2783529246918185    0.4801680956825283   -0.0216920293198126 O
   0.4219930926777518    0.4954433762992378    0.0156802979467903 O
   0.5896681474484351    0.5367601022615499    0.0483299372512576 O
  -0.0389034536775463    0.4759258011529638    0.7906538576584827 O
   0.9205335998062623    0.5683466954011218   -0.0021221765890685 O
   0.2284785043025810    0.7576426639700445    0.8270771595911628 O
   0.0349392859265504    0.7707927456862338    0.7905726823343709 O
   0.1482173196096193   -0.0665309828825635    0.8586550206325630 O
