Li1 Co1 H90 C51 N3 Cl6 O45
1.0
  13.4035519999999995    0.0000000000000000    0.0000000000000000
   0.0000000000000000   14.1524570000000001    0.0000000000000000
   0.0000000000000000    0.0000000000000000   14.1162749999999999
Li Co H C N Cl O
1 1 90 51 3 6 45
direct
   0.0944642591754783    0.1621499885143619    0.8088947530421446 Li
   0.3896868583790327    0.0827757844450614    0.6962750661913288 Co
   0.8526300438868742    1.0129723446607186    0.6882061825800363 H
   0.9112866395415186    0.9219298013058793    0.6190706974750776 H
   0.9655029756291467    0.9604905211865332    0.7294092435858610 H
   0.7705152164142759    0.9719445082928004    0.8342342345980084 H
   0.8840187295128934    0.9211882749405280    0.8792152951114938 H
   0.7695359909074848    0.8535012895640666    0.8780099445498194 H
   0.7000928119650672    0.9228351917974386    0.6903661830050776 H
   0.6978422189879220    0.8038860277052953    0.7312209410768776 H
   0.7558132284636192    0.8329203310774943    0.6201586983818324 H
   0.9752365574438775    0.8085001515991181    0.7736452746918009 H
   0.9169570640677934    0.7680151736196761    0.6685125523553488 H
   0.9031441628308676    0.6380090397024347    0.7641718987480763 H
   0.7840332756570796    0.6888040903427582    0.7832735533984709 H
   0.8258782209372560    0.7197825614308526    0.9284441065366041 H
   0.5271557584138891    0.4459365974402890    0.7377289688674953 H
   0.5956240144403513    0.4789021340958676    0.8422485124439699 H
   0.6335571369439982    0.5226229198223319    0.7279563270055309 H
   0.4276807311972229    0.5514307367264921    0.6576036298527764 H
   0.5256980948035267    0.6364882422889538    0.6440234707810666 H
   0.4101127805524983    0.6716383981947446    0.6969730761125014 H
   0.3907045863663602    0.4930007983772712    0.8321386909790296 H
   0.3626131080776200    0.6167557279983257    0.8473680832939285 H
   0.4512728588660678    0.5586053538265476    0.9239167287404080 H
   0.6231994071422261    0.6808597468269998    0.7708100784378316 H
   0.6082477734260291    0.6318929730717430    0.8867015377640349 H
   0.5787613626596890    0.7999864179060923    0.8866054954299205 H
   0.4744618113168808    0.7354167604960751    0.9276102796240511 H
   0.4722991644304435    0.8659753214583165    0.7911594007625951 H
   0.0773954023530479    0.7709595485787381    1.1396618994741885 H
   0.0170295575381809    0.8365151386787468    1.0472495916946929 H
   0.1204225849983646    0.8873274492195949    1.1079243249369966 H
   0.2369111202761776    0.7026159040794119    1.1151816615927361 H
   0.2835128330162035    0.8199208314146441    1.0912471292887111 H
   0.3061047288062150    0.7247092324675496    1.0092903489057843 H
   0.1003786742499302    0.6413655430996893    1.0348501456651986 H
   0.1634510538698996    0.6574859128701116    0.9229994442584889 H
   0.0397067665347215    0.7051739334025181    0.9408582979574994 H
   0.2321059111793650    0.9001999695176605    0.9590608818544553 H
   0.1051753654553659    0.8941752227192777    0.9279589268415358 H
   0.2180161191600555    0.8757830643823897    0.7923909005739829 H
   0.1291165274697334    0.7831111544801019    0.8028163003341888 H
   0.3366985930296686    0.7737035519698100    0.8153049292394772 H
   0.3949174084600858    0.6218507733321501    0.2527145326936462 H
   0.2616421938005687    0.6187687141533093    0.2585812992450204 H
   0.2311200329584277    0.6743412702119498    0.4012982823018112 H
   0.2105473787843700    0.4335582902671953    0.3302988111240395 H
   0.2295905234672123    0.3633210770398384    0.2286817754683867 H
   0.0188524802977599    0.4538832204188998    0.1352140802017530 H
   0.4429102845275640    0.3754278815332207    0.1562760310350996 H
   0.4223558538811205    0.4575958287666940    0.3500344651829184 H
   0.7428129871842927    0.3248623889123988    0.7252628983212640 H
   0.8423744437295428    0.3506038414389813    0.8043451236250357 H
   0.9327222545188021    0.3788039200543058    0.6708177872703670 H
   0.8629592148409616    0.1079609399272508    0.8680929076544628 H
   0.7901617287715973    0.1471821281633288    0.9649701390770583 H
   0.9023023255328140    0.2067354085583867    1.0732244922970120 H
   0.5915990261387429    0.1603818326386719    0.8501954347021435 H
   0.7513453299543286    0.1398798519578615    0.7164634253724868 H
   0.1985725925486020    0.4831130050421634    0.7752557902137782 H
   0.2422293060824474    0.4916986117675539    0.6553571129777509 H
   0.1207031651013104    0.4668888801428615    0.5412210515876179 H
   0.1239132805990531    0.2882881820449976    0.5961343739761376 H
   0.2373734589159650    0.2287156915580101    0.6180583695061197 H
   0.3542915728606865    0.2567556092910228    0.5095731267632574 H
   0.2727957887580844    0.3113825514537865    0.8622972420132082 H
   0.0953076356177825    0.3444104709168168    0.7914950969714036 H
   0.6791320032182514    0.4524169146035915    0.0608516361433877 H
   0.7174337578576186    0.5456463736296815   -0.0124438090076879 H
   0.7912474469454067    0.3858348666948785   -0.0423461996879488 H
   0.8427862562102941    0.6503046121249476    0.0771395286646088 H
   0.8104898686557115    0.6928223480912183    0.1907008144854078 H
   0.6936614786886341    0.8064389829977934    0.1996018878918129 H
   0.6102905685000514    0.6255167911833260    0.2704061163444322 H
   0.8026322291285176    0.5429532306651771    0.2405179943009045 H
   1.0439391819422195    0.7475278045359898    0.3377871825251350 H
   0.9263801386378775    0.7963701165105113    0.3064471767516573 H
   0.9721994251971418    0.9476987437587694    0.3034007597613393 H
   0.8250986007291202    0.8185569339656005    0.4779995806259088 H
   0.7927204333597543    0.7032957019406595    0.5191675502212871 H
   0.6684630536741305    0.6451121702754512    0.4470205227653896 H
   0.9664354127920719    0.5512863441309167    0.4990680622189636 H
   1.0186134168017551    0.7564968973231998    0.5265488147546007 H
   0.5934389764742958    0.1272659623696437    0.3894649587090079 H
   0.7205598433907670    0.1079086698514611    0.3625402692990892 H
   0.6839260995891239    0.0362327700412727    0.5215887364053194 H
   0.8018182665311404    0.3103995080147567    0.3871751287078213 H
   0.7597182731860928    0.3616349041018108    0.2802710311325049 H
   0.7567619023673725    0.1921417856984127    0.1725109889117349 H
   0.5055155461776102    0.3131686469706285    0.2910988189164635 H
   0.6340138628924632    0.3201456545672600    0.4488952305052148 H
   0.8959464774710465    0.9477619674096166    0.6907509325229213 C
   0.8141718098307076    0.9068767550397787    0.8414652696975655 C
   0.7415661803677115    0.8563078757278684    0.6924687426392587 C
   0.9038496616419290    0.7859697556403104    0.7430023118705184 C
   0.8645354015114799    0.6993524043210307    0.7952352189228391 C
   0.5699574478466604    0.5021261559035297    0.7723594099718233 C
   0.4632658074516367    0.6138110908939699    0.6887000487026500 C
   0.4204468308102211    0.5621557783217430    0.8521167177601741 C
   0.5690303092792119    0.6639143309179460    0.8266280828334672 C
   0.5182144352482089    0.7522904185471117    0.8635906228803280 C
   0.0879139701177718    0.8214004854422098    1.0819953918438114 C
   0.2537281736960472    0.7547858170492940    1.0602396630839228 C
   0.1114739719739961    0.6885368908027772    0.9739996493409203 C
   0.1739915240378073    0.8516863849153543    0.9335674142080684 C
   0.1967551974282638    0.8133750316287837    0.8352286782455004 C
   0.3303621360964616    0.5840954810885488    0.2831968072313695 C
   0.3442010774457397    0.5892086024356054    0.3901663434581716 C
   0.3306446134576864    0.4826742727428884    0.2434701371289522 C
   0.2269756404869396    0.4369144078657155    0.2536619136422321 C
   0.1393601673645911    0.4859553524875575    0.2052461934894298 C
   0.3542352101890603    0.4821374090732091    0.1351597677149248 C
   0.8058977209921668    0.2933062082435580    0.7648125528866505 C
   0.8758236801707489    0.2527123431641587    0.6897020410837846 C
   0.7614587230310295    0.2185177619688228    0.8311402342331813 C
   0.8341071560732559    0.1716878157623090    0.9037929106651721 C
   0.9310714928401069    0.2190588927420871    0.9341444382459254 C
   0.6746545624622488    0.2648666425907530    0.8864040485184654 C
   0.1894316476707070    0.4555596134296682    0.7026380266748842 C
   0.0818290412869663    0.4695914462061252    0.6743219404552547 C
   0.2143748246733403    0.3497157652554606    0.7052105771529672 C
   0.2043096650798236    0.2994863619794076    0.6096265650817939 C
   0.2457020116757110    0.3493479556235359    0.5226201175593420 C
   0.3232008418365520    0.3426169427683123    0.7385153307087033 C
   0.7325002081537790    0.5112896234201595    0.0560288149671213 C
   0.8384483411561353    0.4724102253057544    0.0538762024684274 C
   0.7135618782245183    0.5808377697243666    0.1361099348092893 C
   0.7794392643084459    0.6709605653633147    0.1222777779548783 C
   0.7262386104817590    0.7533492940483763    0.0758201373946031 C
   0.6011654970264598    0.6067395032537460    0.1341860164951448 C
   0.9753943104036900    0.7801329104903835    0.3668038841691594 C
   1.0075454998794349    0.8709046181874992    0.4184385519551015 C
   0.9248054836509010    0.7090497692379494    0.4330766664718561 C
   0.8181428199032615    0.7437097198034237    0.4570806965718648 C
   0.7402083238831021    0.7440346810451359    0.3796888350503231 C
   0.9194642591754782    0.6116128111182391    0.3837868672861644 C
   0.6681870932421495    0.1600134619734227    0.3924680469883167 C
   0.6909763434349342    0.1773139109343346    0.4980151888511665 C
   0.6664426205829619    0.2518474078387944    0.3336911501086512 C
   0.7715322192206961    0.2930893469593301    0.3168277417378169 C
   0.8555856940011126    0.2425021923755006    0.2634772062743181 C
   0.6085451020744352    0.2339849773081805    0.2406880065739723 C
   0.8381357852008183    0.8731475283761682    0.7431476030326698 N
   0.5037357127424134    0.5868981513245368    0.7848058896557343 N
   0.1577783187620714    0.7781302695355302    1.0106386089814772 N
   0.5015080301102275    0.0129209825544780    0.7868701254403163 Cl
   0.2418685987117445    0.0645383179754583    0.7564643576297573 Cl
   0.9364522874235128   -0.0636897720303973    0.1853519770619374 Cl
   0.4138341083020382    0.1321217637333221    0.5523939729142426 Cl
   0.0327743257906561    0.0246948604048046    0.8822743832916262 Cl
   0.6518259010745808   -0.0852994211535142    0.4886556899748695 Cl
   0.8874986772163080    0.7017707766220382    0.8931051329051043 O
   0.4574293993114661    0.7971046172406672    0.7932382020044241 O
   0.2722484435469046    0.7433814672604200    0.8326755861585299 O
   0.4118645923110530    0.5479990357858003    0.4318253909051787 O
   0.2833446514774591    0.6463546011833847    0.4407583891642803 O
   0.1221765954278388    0.5711618597392666    0.2107756982631750 O
   0.0817593657263388    0.4239455594177040    0.1601204411220382 O
   0.3150493973537760    0.5374771716317528    0.0804473786462788 O
   0.4169290438832930    0.4146968035302987    0.1040912103228366 O
   0.4025273449903428    0.4253166874133587    0.2899621125261445 O
   0.8822683837836418    0.1681942329872474    0.6711148961039651 O
   0.9275413979816693    0.3160927194479376    0.6392753300711413 O
   0.9923806689450677    0.2461349644093602    0.8741380923791866 O
   0.9535379748592016    0.2255802805124227    1.0250746964053903 O
   0.6836417369067542    0.3433453802403357    0.9238966221612998 O
   0.5898446978830686    0.2173259484201224    0.8912359358258465 O
   0.7147681517555944    0.1453069308036053    0.7771712268286074 O
   0.0140068945903295    0.4607227169105690    0.7337440103710080 O
   0.0626408902655057    0.4902841315822405    0.5845579134722156 O
   0.2047883173057410    0.4207927641115603    0.4884179069903357 O
   0.3236733397236792    0.3136323169891984    0.4778279730311291 O
   0.3934560174795457    0.3570581320261210    0.6855459064094459 O
   0.3371117185951903    0.3254911405136225    0.8317992133193779 O
   0.1509829051284316    0.3026092529374935    0.7735200759407139 O
   0.9049252601101558    0.4974518092512134    0.1089366351958998 O
   0.8559254211122544    0.4092762945684980   -0.0133651866374097 O
   0.7265229925619716    0.7634842381079130   -0.0116267917704919 O
   0.6782192444211803    0.8145831893359577    0.1301312237116378 O
   0.5514998270607672    0.6062745465328034    0.0618860372159086 O
   0.5616301708681400    0.6318188106842508    0.2181230600849020 O
   0.7305808057446266    0.5365537800256168    0.2254910803310363 O
   1.0457490298094116    0.8656758299989890    0.4991861918246847 O
   0.9956532156550741    0.9526621787298135    0.3762576168288023 O
   0.7427390299228145    0.7942412147940108    0.3096118643197303 O
   0.6631899962039913    0.6815127825507614    0.3884644716825084 O
   0.8986906224558983    0.6053274127594948    0.2996815987220425 O
   0.9348215383504314    0.5356474370492700    0.4375530888991607 O
   0.9790434938440198    0.6959662297507777    0.5190545636154014 O
   0.6973186130064627    0.2577495391789567    0.5325291247159750 O
   0.7027156823803123    0.1019456176408097    0.5515841140810873 O
   0.9410172497558856    0.2406554713432445    0.2923427611037615 O
   0.8312748747496186    0.2057778539797012    0.1769997757907097 O
   0.6414864224050461    0.1844617383398515    0.1761442809806411 O
   0.5183516697663425    0.2730787756500515    0.2345524176880941 O
   0.6101466730609916    0.3229817939033484    0.3817463034688684 O
