Li1 Co1 H90 C51 N3 Cl6 O45
1.0
  14.8343468806000001    0.0000000000000000    0.0000000000000000
   0.0000000000000000   14.4772870276999992    0.0000000000000000
   0.0000000000000000    0.0000000000000000   14.9627773376000004
Li Co H C N Cl O
1 1 90 51 3 6 45
direct
   0.9183025076024796    0.0612688697960365    0.5304956753485439 Li
   0.7710395362304874    0.0628451319752927    0.7044105804016854 Co
   0.1667756564554553    0.1102663096231789    0.1753483734738805 H
   0.2744959364827326    0.1910183177696756    0.1656456293426037 H
   0.2222105203304154    0.2996153219591942    0.1437733530521852 H
   0.4852403005698661    0.2039378654475056    0.0673370087696305 H
   0.7379669645865272    0.3280957961814080    0.0028690307842866 H
   0.6812405035718874    0.1669896444875609    0.1483366769899423 H
  -0.1262948801170425    0.1692138181147322    1.0739014760596153 H
  -0.1232829510877684    0.0433601276743995    1.0735706551238817 H
   0.1089342154465407    0.6365368729837247    0.2206220539354422 H
   0.2334742450730608    0.5513620748574835    0.0705362811319685 H
   0.2688414913848027    0.6203121480369460    0.3077589517574564 H
   0.4390141333163022    0.3260208217789164    0.0796930036380040 H
   0.5317343596310025    0.5654109777776815    0.0146014783131862 H
   0.7541564201744961    0.5603098839153646    0.3109822838242113 H
   0.6282088462746717    0.4844460844411556    0.2795442700526684 H
   0.7642943791429948    0.5708975029704212    0.0676056754689537 H
   0.7885900224160624    0.4363237395109894    0.1764196986455596 H
   0.0213334595481159   -0.1076267247529692    1.0422843511551902 H
   0.1994848821399752    0.8382894523455523    0.1577867942248407 H
   0.1097883143901599    0.7348936989052883    0.3007368596933067 H
   0.2488615082830450    0.8607860706260937    0.2911778054634092 H
   0.6051191880135492    0.8424842990653695    1.0367138612575326 H
   0.4142937999607721    0.6736860984546964    1.0070134928049950 H
   0.3499869580297969    0.7009577826621433    0.2759386560157322 H
   0.5142715550946748    0.9272439641636824    1.0513007253854598 H
   0.4905286358522636    0.7985306219169865    1.0544685864670311 H
   0.6137066911254387    0.9952497996573241    0.3123122508183732 H
  -0.2439427964053133    0.0952538283769237    0.9779761028741702 H
   0.7308544168721425    0.8102835145462784    0.1597463234845805 H
   0.8227667882744252    0.8818728943808409    0.1983708373004560 H
  -0.0808382108462262    0.7516820653675241    0.1521374419627052 H
   0.2549514292433095    0.1236092791747530    0.4493360100938591 H
   0.2861492975232564    0.2408853956702989    0.5661033695605771 H
   0.2331917924626611    0.2382260576378115    0.4113921185829356 H
   0.0476386284335975    0.1902301866800475    0.4181689353270565 H
   0.0746907125752196    0.3036796193574166    0.5158282312605734 H
   0.8133110298828345    1.0911793752292356    0.3607631489132239 H
   0.1723175249759705    0.6865773259093233    0.6382677796588693 H
   0.7316896407009855    0.4964025373089344    0.6412070735484791 H
   0.6059416037287942    0.4490960220281632    0.5472563337705468 H
   0.6606740436895862    0.6193395901279221    0.3724120558017867 H
   0.7119685163161574    0.5950069924992375    0.5050820110654802 H
   0.7849606074891127    0.3944873789524723    0.6377464860631678 H
   0.6494790782936251    0.3346695416502867    0.5448833785899082 H
   0.6266651315304824    0.3933241775896907    0.4459872334015745 H
   0.8109341136435284    0.3101283414019108    0.4958396092787153 H
   0.8508954280695277    0.4873821317764520    0.5886807288554381 H
   0.8731788492852132    0.4110973280085284    0.4808969956879778 H
   0.7995847767731483    0.3831206083907544    0.3860579181569603 H
   0.8121535808803136    0.5635556577893019    0.4572499152017322 H
   0.1822350495683339    0.0021991008287039    0.6422229277349746 H
   0.0615158824614927    0.7331026174719794    0.6474652699973892 H
   0.2318152573064889    0.7912765003540817    0.5282821825421802 H
   0.6889051483934733    1.0033113929500932    0.4059045010004921 H
   0.9519959357003254    0.8103318661468691    0.4317653416231507 H
   0.7462248273010766    0.8452886918996290    0.4377147718653759 H
   0.8158423175965597    0.7999632107687733    0.3525327250272428 H
   0.0349073635171093    0.0979359607354039    0.8955014411080721 H
   0.2604467840881264    0.2687407527705903   -0.0900328395460892 H
   0.1339464389698586    0.3364247047517284   -0.0189691609248745 H
   0.2145856480721077    0.2243104669878134    0.6607783064414610 H
   0.5611013417776665    0.9949741955339572    0.9251630467034933 H
  -0.0566652558192033    0.0507993667938515    0.8259709003183182 H
  -0.0526414858156812    0.2480939285812182    0.9427085861495885 H
  -0.1096153456561366    0.2215219611080337    0.8453763885808718 H
  -0.1718533401854014    0.2291932879103209    0.9463569729943772 H
  -0.0126154567104494    0.1014842774816087    1.0599241244435853 H
   0.2209290348593657    0.6094655025501537    0.7975202998452191 H
   0.0691812013943206    0.6357466696826427    0.8814211674231471 H
   0.2171142393408648    0.4550550114323891    0.6795569057389274 H
   0.3513675378534211    0.3496447230903720   -0.0773032509341296 H
   0.5087214489347823    0.6348625261289846    0.8503273410897917 H
  -0.0027956782481766    0.6668160267479120    0.7831720277860936 H
   0.6238358866477915    0.3774745229160654   -0.0313498838227877 H
  -0.0372097312637248    0.5302058320190309    0.7633261132676845 H
   0.8857206889426983    0.4951498164113449   -0.0796978598487435 H
   0.7441964265738864    0.5110133549017113   -0.0337899388457448 H
   0.0893162300817392    0.8696095469967416    0.7631443288343117 H
   0.0561020950769582   -0.0658108790878456    0.9034117372602825 H
   0.5437147320350224    0.9595711535814604    0.8163443452510285 H
   0.6354056578943067    0.9138678392288461    0.8788060112180440 H
   0.4054380005745650    0.9613884830265188    0.9206952932582816 H
   0.4008648299088097    0.8782914222513741    0.8351416576519304 H
   0.5981300026564514    0.7568971308598048    0.9125464050372691 H
   0.5443248027090360    0.7827307003182544    0.8120369898352634 H
   0.3991498909091514    0.7042809190970256    0.8790960643212934 H
   0.3682924488064165    0.8436530263253614    0.9444669495473974 H
  -0.2049656843926398    0.0955840007352430    0.8637546611298442 H
  -0.0626257474210030   -0.0956921682528866    0.9022107570148007 H
  -0.1889825068447240   -0.0035754617561260    0.9301246924143762 H
   0.1646097370348963    0.1921766839723980    0.0739307044301331 C
   0.2469962424764199    0.2338094842924284    0.1107935132225863 C
   0.3232665366192408    0.2682296072786317    0.0468140809019319 C
   0.3638379217192539    0.1742838288052408    0.0169740324987512 C
   0.6329916655366903    0.2773487191500342    0.0804321712237039 C
  -0.0860625729717575    0.1055844932116984    1.0497896422830479 C
   0.7145571034854530    1.0813322264003675    0.2861439806392752 C
   0.2536187113178675    0.6677892753940872    0.1244654402575449 C
   0.6065597637377120    0.4935466845569034    0.0946561348100081 C
   0.7648956863708626    0.5019874925457337    0.0339020395314768 C
   0.6729165779556214    0.3584530032436914    0.0233151012628753 C
   0.8644329300314528    0.4715402478957789    0.0485777909007224 C
   0.6956381714786096    0.4397759747194489    0.0831876757045728 C
   0.2776143750882433    0.6952882121243101    0.2916369448227002 C
   0.1242041833004162    0.7089924372060118    0.2323070503806305 C
   0.2243306001865181    0.7218733036033693    0.2116751855179328 C
   0.0565463343854389    0.7512786748711677    0.1713250562352604 C
   0.5303884291252172    0.8552650085757892    1.0279467722980280 C
   0.6843292812827498    0.9956055292902413    0.3322236611988063 C
   0.6648993729544674    0.8368458116993449    0.2667986416377641 C
   0.7348572894271626    0.9100667126852672    0.3017306591507532 C
   0.1454723929856436    0.1373183394165138    0.3505417844867362 C
   0.2000666401418247    0.1727324331634312    0.4340630433949739 C
   0.2159109507738876    0.2488406154417686    0.5911415019571988 C
   0.1529739028866646    0.1924888971647836    0.5219113733100962 C
   0.1313490883544170    0.0971236538454805    0.5635266420500289 C
   0.1987035872104925    0.3502705309494456    0.5954762587029944 C
   0.7013236256936716    0.5532540039148817    0.3639316783199179 C
   0.7406964410054016    0.5437770901991081    0.4590040013187558 C
   0.6495201990793874    0.4007005596283748    0.5128983908298241 C
   0.7813372595633411    0.4569144758436763    0.5994935610155103 C
   0.8102660694027023    0.3793795759793383    0.4617891794350724 C
   0.2609853989704877    0.7569579157291189    0.3734479597419629 C
   0.1324391262327376    0.7428751666885073    0.6739075534767918 C
   0.1679331054579762    0.8369217927859873    0.6441677538420153 C
   0.8684007488018887    0.9226056641927334    0.4082910900136337 C
   0.7860749133721453    0.8644690811168009    0.3783060150588283 C
   0.2916008351373431    0.3222252211325480   -0.0447290844540062 C
  -0.0298140568276985    0.0548256736487526    0.8940578588430521 C
  -0.1061349093136697    0.2096806541233759    0.9174084703048706 C
   0.0918515624629164    0.5612306365380414    0.7628455875044672 C
   0.0676927637719757    0.6540622559863928    0.8050342791996719 C
   0.2371259056709967    0.4110675572373076   -0.0240203622021985 C
   0.1193829396976033    0.7400749182771555    0.7745225640481832 C
   0.2100980895340868    0.7478788666124915    0.8226098932762882 C
  -0.0122730081995114   -0.0473771767312240    0.9259670418260947 C
   0.5644299008573098    0.9398948150896583    0.8835096834315670 C
   0.4707138100047969    0.6859052386611127    0.8946566781529863 C
   0.5336729013296335    0.7700342607402928    0.8826288309198559 C
   0.4133567853343865    0.8869622457115858    0.9074784956318778 C
  -0.1937821788877928    0.0721687020434787    0.9302984569462769 C
   0.7433362606290893    0.4410836092205663    0.5080083060314536 N
  -0.1010379542128772    0.1077029840547215    0.9508360879666747 N
   0.5102874700199695    0.8635331322767957    0.9274400303965130 N
  -0.1659481257054460    0.8096597788986587    0.0687999724632085 Cl
   0.8208462453459556    0.1894613962306556    0.6283605280400480 Cl
   0.9410557843538417    0.6741986254209575    0.4339066553162634 Cl
   0.6388908130154676    1.1186693323764916    0.7306831092999235 Cl
   0.8478383335870394    0.5634230362562532    0.8043626124513640 Cl
   0.7895391710448042   -0.0826814432710855    0.6779114892868537 Cl
   0.1100943608940297    0.2275458798044813    0.0224649917068081 O
   0.1422090204631021    0.1130658672973794    0.1140382316932674 O
   0.1809528899860422    0.0944270160068231    0.2877954120174530 O
   0.3213459936907713    0.1238724500293966   -0.0358964996324774 O
   0.4467691090443167    0.1505770390356298    0.0403593968669497 O
   0.6701345208598708    1.1070241947428019    0.2191711200940728 O
   0.5535472511997691    0.2672915862271725    0.1034619866266291 O
   0.6938928974730612    0.2178859207436145    0.0984809594871880 O
   0.7872916841639627    1.1224400664854135    0.3062986613643692 O
   0.2132225951407755    0.5871153205456870    0.1261850407982375 O
   0.3758081150435195    0.3263212924397300    0.0974036193894047 O
   0.5729829568847328    0.5082785883723023    0.0105046453110697 O
   0.5690325301843407    0.5129495602105075    0.1640469956491188 O
   0.2957021279336956    0.7017120676313577    0.0595189414843518 O
   0.8960514437264102    0.4460238304003465    0.1203378642997845 O
   0.7272425288374849    0.4034396778018369    0.1702784590931210 O
   0.0798341813517104    0.8113527756564838    0.1169741839572638 O
   0.2489417275208435    0.8185730510989752    0.1991307229649595 O
  -0.0247845128511063    0.7252413379530859    0.1890470335137469 O
   0.2484213136420164    0.8440971703136444    0.3589559977814583 O
   0.6709609812425678    0.8003507143106500    0.1872525805593126 O
   0.7916875635730710    0.9330164545370584    0.2269236915173274 O
   0.0564546552565263    0.1467047665654676    0.3544788877845287 O
   0.1984036077078007    0.0658001055085347    0.6130471945037521 O
   0.0699988983308715    0.2323478844802872    0.5021776037472750 O
   0.0589367328495852    0.0591517604273160    0.5440765765017916 O
   0.8618079408550890    1.0118634096202821    0.4240582163082392 O
   0.1532914092816485    0.3934077567849975    0.5405580452283426 O
   0.6439736117801781    0.4796805506869380    0.3425285662656308 O
   0.2145505942875235    0.8444756942725543    0.5701856999075311 O
   0.1419892601982088    0.9105170733079118    0.6835220786918730 O
   0.2672404771850431    0.7231221563729114    0.4496335484384827 O
   0.6035141291463377    0.8183326745703242    0.3200969018475170 O
   0.9437272872059038    0.8829967237259987    0.4312654344313753 O
   0.1718631739988598    0.5312903584202798    0.7564944938635026 O
   0.0245867204020274    0.5086555236357643    0.7424162251539459 O
   0.2447501038180624    0.3954357610612009    0.6603499100378138 O
   0.1490290038984569    0.4045146029566828   -0.0295721389964206 O
   0.2747103038576899    0.4886261493859351   -0.0057657298009246 O
   0.9179054560809391    0.4823175779094387   -0.0215275094945486 O
   0.2526001292311994    0.6625555599987216    0.8277346103171087 O
   0.0643329933418275    0.8154978893014078    0.7992840098440095 O
   0.2481038072470325    0.8137420354628148    0.8562313252236737 O
   0.0018920913287195   -0.0461828921966342    1.0185521260483132 O
   0.4782298807086451    0.6609544312820188    0.9858255814402156 O
