Li1 Co1 H90 C51 N3 Cl6 O45
1.0
  13.3790443791999998    0.0000000000000000    0.0000000000000000
   0.0000000000000000   12.6664772633999991    0.0000000000000000
   0.0000000000000000    0.0000000000000000   13.3677317123999995
Li Co H C N Cl O
1 1 90 51 3 6 45
direct
   0.6432486092190239    0.5291945994383555    0.7216635973664381 Li
   0.3638265597778861    0.4815866720359632    0.7992698825851700 Co
   0.1263036164396850    0.1628144581018599    1.1201941868948189 H
   0.2691493941972647    0.1031964613773863    0.3521005251649353 H
   0.1564201171836711    0.1442070746045531    0.2890195164985364 H
  -0.0074787337244772    0.2307710005643178    0.3169008360835392 H
   0.1316462999658065    0.3146790973380780    0.9640300713281094 H
   0.2532050566232268    0.1979678784839116    1.0700495539517290 H
   0.3200259725766768    0.2711547623129806    0.9694827540695191 H
   0.2550071285288618    0.2399906121083607    0.3175456724840187 H
   0.4623225332308718    0.2944532685877067    0.1001602504453327 H
   0.5804429277230901    0.0730894322429389    0.1927234486468807 H
   0.6503118939590699    0.2525892215466068   -0.0397655081083732 H
   0.8715952618954745    0.0759552645690971    0.1862922902536992 H
   0.1695795024887767    0.5870856969196430    0.2469233694403180 H
   0.1394196503675501    0.3979129735039761    0.2075561819980501 H
   0.0601979982107032    0.5952980828764372    0.1613650993757657 H
   0.0455489698911096    0.4523726299384627    0.3119418795884362 H
   0.4219540297195399    0.5223546842671231    0.2458424081889341 H
   0.5133426943614544    0.5866922173517759    0.3195893999157008 H
   0.4461054556989880    0.6436955960327865    0.1276391083325883 H
   0.6577130204665762    0.4666620015005932    1.0224124518838216 H
   0.9000771167424786    0.4692855407300853    1.0056025693372144 H
   0.6921407409333754    0.4272084115554234    0.3086249368973384 H
   0.6942417878544621    0.6416855659770291    1.0055935924963724 H
   0.1542009751314810    0.8447278125716168    0.0400184090845997 H
   0.0882545610982272    0.7858140369035985    0.2330818289321131 H
   0.4682895513330102   -0.0351561337094659    0.2841406035009407 H
   0.6476614804470908   -0.0524269182733881    0.2141317179147728 H
   0.3953512328446497    0.8120344289742233    0.0528650163994894 H
   0.7242095485282610   -0.1377608258408237    0.1034577433146062 H
   0.8546299246436690    0.7669421757673764    0.2338014723396088 H
   0.0495918595375549    0.1427875796947921    0.5398195828171983 H
   0.0456648227095971    0.0935007900832956    0.4108023316406067 H
   0.2107573313669363    0.1976181364121518    0.5900361801010378 H
   0.1402575278483534    0.0340249007468960    0.4949933016730194 H
   0.3057970041537928    0.1421046747465478    0.5108528135603908 H
   0.2900470003397984    0.2814630743467680    0.5166861143534989 H
   0.4721501409637839    0.0209139152260944    0.6207122894681653 H
   0.4959874039969954    0.1634886787097219    0.6151017639419513 H
   0.6483737884214045    0.2170363215069694    0.6267537033547924 H
   0.6129160990263741    0.0943510659552715    0.4878193620650720 H
  -0.0404923023681901    0.3315504022444145    0.3995408848043901 H
   0.7564682052579584    0.2631651691612668    0.5019829317770802 H
   0.7306150882343133    0.0324751407314005    0.5240466001948426 H
   0.8930287807532052    0.2383082185306629    0.6346196601425443 H
   0.1705556559142264    0.3512622759412516    0.4285571762998424 H
   0.0808825846547275    0.2988530712195744    0.5142265347698138 H
   0.2143607277406676    0.5833845889458055    0.4835380822465287 H
   0.4199366958027797    0.5744304813718141    0.6524970386792724 H
   0.4762803313147411    0.3417237122595315    0.4217009644927949 H
   0.6320333089518930    0.4975914376692442    0.4031578035936227 H
   0.7683696531855512    0.5903416140260642    0.3827205292768007 H
   0.8527590884844802    0.5802577527168847    0.4803765137090036 H
   0.1462071306558418    0.7547067296542084    0.5616278451516060 H
   0.3366721539994875    0.9194660353871600    0.4442246810423054 H
   0.4266968946209115    0.7056583646604804    0.5971847376915045 H
   0.6488274830073523    0.7448950039931905    0.4588836377161761 H
   0.6132031150412076   -0.0450775978534963    0.5180707920533685 H
   0.9634306699542277    0.6819074832003855    0.3899214517721787 H
   0.7664741515875875    0.8367816411218144    0.5373600780405202 H
   0.8674836079954754    0.8926630030254320    0.4673177537222160 H
   0.0047799893465802    0.1903446065992328    1.0048963911909816 H
   0.1924757566096048    0.0838730145412847    0.8236539745921660 H
   0.1204377266365231    0.2542471410741363    0.8447405737298885 H
   0.0189058113891334    0.0527372858142796    0.9956524893339915 H
   0.1753549523497645   -0.0079330950674306    0.9292156383328466 H
   0.0186569146887698    0.1325297947323200    0.8828031269697941 H
   0.2904678076740466    0.0781634554826686    0.9206382669083706 H
   0.3186753529443738    0.2470912445991230    0.8421874105804261 H
   0.6478782373332933    0.1791852292079803    0.7539248672122385 H
   0.5044942597016482    0.0787089899557748    0.7326834175699926 H
   0.6320041588878864   -0.0177700842641059    0.7791378208569739 H
   0.6688475974795354    0.0690417401392989   -0.0738213980524919 H
   0.8128010776693636    0.0535836142588090    0.6740332279291623 H
   0.8233369572138807    0.1721280184191295    0.7505368578644755 H
   0.0710754567103738    0.5490318647470016    0.6925733965480539 H
   0.2463114402044497    0.4380654160042741    0.9492310011300973 H
   1.0216597914011349    0.3873678158233988    0.7386320707679197 H
   0.9370102478387630    0.6519678249896697    0.8574128807184304 H
   0.8528054296118752    0.5959180658311842    0.7703465013924318 H
   0.2227469769240871    0.0678125112324591    1.0898105729251246 H
   0.1389368057175956    0.7249383897946705   -0.0241757278462000 H
   0.2075822167028394    0.7839105873888969    0.6738985753165332 H
   0.5637163967648767   -0.0101183909018124   -0.0381549132473147 H
   0.6865514030195065    0.8373658603838963    0.9494599105715668 H
   0.3755792676352916    0.8457430909108563    0.7065600626498701 H
   0.5867326146106548   -0.0952004525981613    0.6815820030071656 H
   0.9599079968346683    0.8366624288129302    0.7072819502675763 H
   0.7141976226983230   -0.0646963122625961    0.6842406440365210 H
   0.8029722740363896    0.7197964708028609    0.9961305061088249 H
   0.0032709129560879    0.8183179439835603   -0.0764643296103738 H
   0.2178983496109995    0.1647273814424333    0.3397079963826340 C
   0.0239786699638097    0.3045144716633432    0.3565014213876975 C
   0.5296836222934891    0.3309093400271030    0.2232851032932734 C
   0.5400655297050485    0.1564243625514674   -0.0064733977058898 C
   0.6105048655267563    0.0560215454497667   -0.0162693752746593 C
   0.7513153708666488    0.0790026785577943    0.1070821428045404 C
   0.1899187727899543    0.5057379015876819    0.1124203708252154 C
   0.1426029868445718    0.5992082466078412    0.1702170125159910 C
   0.5293915237033928    0.4160450867367244    0.3068535069711952 C
   0.5045735927219982    0.5222678250735903    0.2572818957018493 C
   0.5602677947053954    0.5461811115936890    0.1612723386870656 C
   0.2920635868190199    0.7217630791567068    0.1224871497593836 C
   0.1787146840859027    0.7140166475356973    0.1382774128003602 C
   0.1257146356592452    0.7611268256531942    0.0509925970138742 C
   0.5998628498517539   -0.0044822539937012    0.1608863345308621 C
   0.5150325758925411   -0.0765843847604723    0.1468480515942046 C
   0.6623815153328542    0.0104398112395541    0.0733232366782759 C
   0.0140018736981872    0.7771233806373865    0.0686148836566772 C
   0.2485298348191012    0.2038077026482621    0.5200444253194766 C
   0.0967387245992072    0.1062501912499979    0.4721689133202087 C
   0.1101387847917514    0.2897479350714799    0.4349298356135373 C
   0.6490061205790847    0.0324522456522108    0.5345723201170550 C
   0.5103355289122876    0.0892328315281409    0.6515320282887637 C
   0.6306490546303517    0.4233746700193836    0.3606090741429563 C
   0.6525870938266571    0.3239650256632221    0.4297359103093965 C
   0.7154929319527674    0.6275687759428596    0.5241101861508063 C
   0.7977895421435347    0.6342407178129322    0.4480178451400681 C
   0.2240333169280680    0.7594483795029429    0.5999900004546115 C
   0.2918169324312723    0.8434141087174218    0.5622664725705032 C
   0.2719149130901928    0.6532838973003323    0.6047170552279643 C
   0.3816058565092588    0.6587281892345437    0.6452100881258258 C
   0.7590887212683923    0.7899730464612299    0.3398965100403147 C
   0.8351315215734494    0.7454389594953180    0.4162759603439811 C
   0.9209784600727055    0.8082212140609052    0.5790866784840786 C
   0.8398605588803562    0.8222195812716798    0.4996833150087780 C
   0.2775984281339292    0.2897092502825043    0.9034925009002607 C
   0.2046208691747906    0.0697199081746074    0.9038560629543594 C
   0.0390335568668789    0.1291657970624136    0.9601670374857935 C
   0.1703755234674168    0.2593764282981171    0.9139048882068437 C
   0.1914569992444532    0.1467934290674993    1.0702612577815847 C
   0.6380569080757056   -0.0368511590549925    0.7023461839446484 C
   0.7884241497845110    0.1399991169465853    0.6808189715356006 C
   0.6758264217777160    0.1551319748054836    0.6799931021781419 C
   0.2051777101410693    0.5859632064509565    0.6615898303820900 C
   0.7567298083964786    0.6659938241925696    0.9538465934629959 C
   0.7417190203081886    0.4739723213373135    0.8955824079783693 C
   0.8884283027029427    0.5824807859576551    0.8436603605485747 C
   0.8131994618774528    0.5613092325396516    0.9309474205452712 C
   0.9557881211217442    0.4850582765780611    0.8370795881413610 C
   0.3856786436572492    0.7007761863946504    0.7517846387415056 C
   0.6926781485236498    0.7086884099684130    0.8735532405522428 C
   0.1678716077130090    0.1925433236869327    0.4413391503606700 N
   0.6191557075988506    0.0619940031763196    0.6416328170503118 N
   0.1524310430400071    0.1461847357552491    0.9630665570777408 N
   0.9908601327468418    1.1341602983183232    1.2015774778977979 Cl
   1.0219296163525802    1.2552981623109933    0.7000398839183395 Cl
   0.4322759926405014    0.0338141081212530    0.4015442164522835 Cl
   0.0633409730606389    0.5509781833237725    0.4078743853859932 Cl
   0.4913097305977430    0.3911905045625884    0.7262103672528820 Cl
   0.0774070001001017    0.8418509274486085    0.8059838114648727 Cl
   0.5849596927690264    0.2575266637966876    0.2125435651558192 O
   0.4511178465767893    0.1470776438436472    0.0223856494608145 O
   0.5794196857327067    0.2470122960501931   -0.0316317422355033 O
   0.4507103436307286    0.3488353975471440    0.1569342803501970 O
   0.7819595625129071    0.1557911951890490    0.0587672892530665 O
   0.1938121749286738    0.4118150234850561    0.1557732756013058 O
   0.0439068496187413    0.3826301134021108    0.2774199419906066 O
   0.3513884516975577    0.6676572701185243    0.1686827208020890 O
   0.5146816539681548    0.6095487696495919    0.0972435252417716 O
   0.6410384364172974    0.5026533817809876    0.1393179782679553 O
   0.8637015740500116    0.5391323482995737    1.0245818550872909 O
   0.1596654909763990    0.7851903433670517    0.2215017042460075 O
   0.3224446804516808    0.7963291941355825    0.0525478346897407 O
   0.4568133953648976   -0.0904366971557264    0.2262684067330789 O
   0.4940545155733495   -0.1228916561353514    0.0666362383210991 O
   0.8014773989591313    0.0397115647263224    0.1847265795968504 O
   0.7056745924453343   -0.0921317225012531    0.0462543211894690 O
  -0.0275743393880617    0.7617055185168509    0.1486703502851189 O
   0.7869741209595703    0.7915701756060833    0.2454990440267299 O
  -0.0405102408691172    0.8038064112047407   -0.0120345506074730 O
   0.8350052046294211    0.2024142607596480    0.5939800055109311 O
   0.2816360857176041    0.6032455175030225    0.5090025370488525 O
   0.4532831731261980    0.3982753473435647    0.3732544506089724 O
   0.6370725328373309    0.6933044957239173    0.5184524574031651 O
   0.5926186852273596    0.2560037462878283    0.4538409721802220 O
   0.7142357420127931    0.5540953088811748    0.5858559645489733 O
   0.7475206304830284    0.3175480876061934    0.4495855755861063 O
   0.2890558981635761    0.8593040831605587    0.4638090806721359 O
   0.3402142604950513    0.9036171141894666    0.6138569753452019 O
   0.6732567315199089    0.8144210436083765    0.3662674761536607 O
   0.8945356148310818    0.8431417362236135    0.6682080062928119 O
   0.9293086514407278    0.7389043881003837    0.3605948608116233 O
   0.2170724311308143    0.5236447193463487    0.0246358442318614 O
   0.1098383149012225    0.6095140322880628    0.6591668314248356 O
   0.2417401122181936    0.5050980235986045    0.7006069210315221 O
   0.2821249098678676    0.3993285209862906    0.8875788062977074 O
   0.9987059845898325    0.4692686457406143    0.7476620245848434 O
   0.3784972637861000    0.6426353170206568    0.8255645455513594 O
   0.6627372956012416    0.6538696955333927    0.8040941864676437 O
   0.6858689925467379    0.4273039392996287    0.9664598029159950 O
   0.7417436857469634    0.4483334642781072    0.8057174985198950 O
   0.9596321923829142    0.4195361915704081    0.9041552909824242 O
   0.3957929684299795    0.8040479937644666    0.7681688694181905 O
   0.6761231544805518    0.8097307103164465    0.8787373661384645 O
   1.0020447880748891    0.7668316477988745    0.5608122243541085 O
