Li1 Co1 H110 Cl3 O55
1.0
  12.3812981328999996    0.0000000000000000    0.0000000000000000
   0.0000000000000000   12.3837213117000005    0.0000000000000000
   0.0000000000000000    0.0000000000000000   12.3629448750000002
Li Co H Cl O
1 1 110 3 55
direct
   0.5711582089933603    0.1633108178952044    0.6176376271838712 Li
   0.4878220362492245    0.5363481209581750    0.4029395898766394 Co
   0.1625508121197791    0.1622335972711100    1.1262243808718755 H
   0.0815456550486534    0.0640333899674252    1.1075314236245029 H
   0.5942931013871443    1.2191041187059404    0.3018714372128914 H
   0.5713003588698198    0.2094375019203300    0.1199067012421666 H
   0.5305178823814898    1.0337317300499438    0.1101315221710070 H
   0.4928804719098261    0.3319216859407613    0.3305474528050097 H
   0.6770380598723690    0.1362729032351210    0.1250988298692062 H
  -0.0345287649817594    0.2987474897795588    1.2781218469681157 H
  -0.1238819966158704    0.2335506091587718    1.2205870114421262 H
  -0.0627823451996896    1.0048954868067583    0.1904465288332041 H
   0.8007682199538291    0.2908944383782712    0.0050020394190264 H
   0.2754000452940664    0.3984622660506735    1.1444158394825814 H
   0.0286065372789017    0.3898420785227820    1.0545262532038915 H
   0.1690872834276584    0.5042971735886630    0.2939372434595605 H
   0.3165031666741830    0.5417164588209780    1.0366178986622716 H
   0.3948358253008949    0.3918971958303683    1.0988846164858437 H
   0.4056279085352805    0.4176091762589951    0.2565545644398904 H
   0.5602538596633618    0.3744331400303019    0.0622915450474335 H
  -0.2319829393145587    0.4917234087177686    0.2322157031861715 H
  -0.1627236426886767    0.4162347913248058    0.3063404371606082 H
   0.7382303510091742    0.6542787464334279    0.0615976974175419 H
   0.8960789044501726    0.5871648330078433    0.3074785155183344 H
   0.0568131111172300   -0.3285663688309728    0.0398126775276105 H
   1.2348802122753544    0.9394628127660047    0.1915247509020378 H
   0.3058136574983790   -0.2635455257634486    1.0006798592637096 H
   0.2873398272469120    0.8076518684694941    1.3096434628889340 H
   1.3588332892085349    0.9599251595535242    0.2049357950890321 H
   0.4463562711501857    0.9513493851698045    0.0593676462219120 H
   0.5426393900286728   -0.1485857358774335    1.1872292634160921 H
   0.6187105733480742   -0.1448719895129583    1.2933609345726376 H
   0.5343963125335268    0.7172646599861709    0.2845098779589924 H
   0.9730579085715088    0.6788077222036603    0.2437388476667458 H
   0.7010250438551574    0.7562747432915489    0.1312777783942032 H
  -0.0180128877445715    0.9517450659087897    0.2919870608579415 H
   0.9888963124202067    0.8363677924675595    0.1589516055817567 H
   0.9060940093825467    0.7670485645559167    0.0909847086574509 H
   1.1681666907097015    0.1852396059521056    0.6046787406386458 H
   0.2740940433040948    0.0906315337490364    0.4797497681635501 H
   1.2257454673733261    0.2632331246763582    0.5283118224370470 H
   0.2916632834326376    0.0046383194965581    0.3835518143568525 H
   0.5323206012693170    1.1783005518877339    0.4022641844546767 H
   0.4331266406024206    0.0722018554435037    0.4796041717851630 H
   0.5474878315535954    0.0211496406780851    0.4619279625801940 H
   1.3744778523166064    0.2258380647954097    0.6317928306381776 H
   0.6624701205445278    0.2990075085508919    0.5088019077331687 H
   0.9151964474944705    0.1746676626157913    0.5387502738986371 H
   0.8714530536930691    0.2047951170868079    0.4148825372482299 H
   0.7576564238989694    0.2202436236531865    0.5461918665717581 H
   0.9072085936411496    0.0332448256576184    0.4326363978550054 H
   0.0796007862843666    0.5824182791634456    0.3409842865290621 H
   0.2054017308445455    0.4717770619143543    0.4332956259015917 H
   0.1735189673602339    0.4388814572938659    0.5556402626603154 H
   0.3308813036101607    0.4945618123862031    0.5294992417896711 H
   0.3973921000679081    0.6057311422950826    0.5719017603886226 H
   0.6703303625769362    0.3523000515102104   -0.3379453766592970 H
   0.6905431058057744    0.5651439886157497    0.5000119308224288 H
   0.7074395570303924    0.4992235775008183    0.3923070099105331 H
   0.7753322764348569    0.6441436669334216    0.6499422280729048 H
   0.2423154692178699    0.6933639283280416    1.3686342621987952 H
   0.2761519858337471    0.9173450669684454    0.5537410387911319 H
   0.3666247285119519    0.7822394748860990    0.6250743666443793 H
   0.4117250074977395    0.7121183878442270    0.3502531137509420 H
   0.5562922395268058    0.7815619725595508    0.6331056246499683 H
   0.6342541777370693    0.8793274155573793    0.4815786204498466 H
   0.9895343715247693   -0.2057284946805914    0.5774651597805495 H
   0.6765122668634193    0.7652155129691897    0.6124430719505251 H
   0.8147651367665744    0.6989688671225236    0.5422874570246760 H
   0.9676545979265424   -0.2701865020847020    0.4532439474781691 H
   0.7185425931195332    0.9495405589344437    0.4150022498260149 H
   0.9300171874548788   -0.0912306014939631    0.4583398207217195 H
   0.0743171722967372    0.3072457430389058    0.8940386007828091 H
   0.1673112176416672    0.0894277760396380   -0.0422141381100351 H
   1.0649141895359360    0.0239710462249775    0.8247185472951485 H
   0.2403786771511092    0.0633005730885904   -0.1515909098801996 H
   0.1297763812285851    0.2123768445527913    0.8336969906290228 H
   1.0283025196500879    0.2405816136370249    0.7033526417466940 H
   0.5066665869171399    0.3284211226683108   -0.0335626395325167 H
   1.4394225771240414    0.2921606167430238    0.7315190700144573 H
   0.4074411271298917    1.1021764227772581   -0.2502243675498068 H
   0.7074977092525803    0.0456277755109165    0.7416938302574128 H
  -0.1890431769170051    0.0711798686205249   -0.0686810522076359 H
   0.9988387270748458    0.1241408472708080    0.6846661554494717 H
   0.2249311854626749    0.6011032926723804    0.9811618558721432 H
   0.0501121174807439   -0.4515092195039420   -0.0045317732115181 H
   0.0904010269832536    0.5233762528131587    0.7272353010147997 H
   0.2761382554479527    0.5187839337057939    0.7626241185193345 H
   0.1326751079707053    0.4058090076084024    0.7472976730877804 H
   1.0262833452685611    0.6200071418553256    0.8571703623001069 H
   0.3467512065792104    0.5713949367800032    0.8515972564829543 H
   0.4341289587654106    0.4301958613172850    0.7919156832445231 H
   0.5567203044956895    0.3729271306870215    0.7934970216875614 H
   0.7648535690644843    0.4084027352280359   -0.0094417684119942 H
  -0.0663209886868033    0.3895570268883702    0.9646204895498250 H
   0.7208177988126377    0.3478635821633030   -0.2191783664650531 H
  -0.2547778027424936    0.5461763460075395    0.7821227090604496 H
  -0.1419810681021260    0.6011913114490118    0.7997479595329831 H
   0.9924985195168510    0.6589380890129064    0.7392470022317398 H
   0.2219839985353980   -0.2107253771557757    0.9319826347280386 H
   0.0172392639534968    0.8756209367983141    0.7214988037063460 H
   0.1273267188689166    0.8305698583738583    0.6677939618007074 H
   0.2885036793604242    0.9214230011151293    0.6757014628846673 H
   0.6436158778395812   -0.0278757358399090    0.6700167331774178 H
   0.4328681862815852    0.9904571773923604   -0.1968818988525984 H
   0.3999104143565486    0.6732730369281410    0.6841816430569501 H
   0.4236445977067698   -0.1465217359410128   -0.1006847539146695 H
   0.5548343956233432   -0.1258647788308497   -0.1093000151713449 H
   0.9327713413112816   -0.0041538680260351    0.8225774716640885 H
  -0.2840921764135028    0.7955408078096987   -0.0382775355859540 H
  -0.2901513148975891    0.7474591379293014   -0.1470402141868322 H
  -0.2332445194681368   -0.0459088451435730   -0.1232643255962103 H
   0.1221988236095906    0.3312780991061262    0.1953320961968618 Cl
   0.8377570716141463    0.1450634757342898    1.0785415669500833 Cl
   0.6727614485322948    0.4920980941522362    0.0931010329041850 Cl
   0.1531947657055355    0.0932163787398355    1.0895745369567540 O
   0.6128985818082868    0.1587136537175663    0.1682600673733086 O
   0.5119334013739151    0.3144358273244652    0.0440226776955519 O
  -0.1035012580784893    0.2609527116010640    1.2948007209811327 O
   0.3377998027110248    0.4398609690007823    1.1266126378809078 O
   0.4507346488790889    0.4053777963540798    0.3207965397969147 O
  -0.1959915597987159    0.4845244418033749    0.3079274376850281 O
   0.9586571568824581    0.6396119112044730    0.3125970370874116 O
   1.2969577094610212    0.9214956771692286    0.2388718842847708 O
   0.0002944010039072    0.9623719200415345    0.2119745711152821 O
   0.4788367102514293    0.9750175534548161    0.1265386162777014 O
   0.5935096617271118   -0.1909615279993220    1.2300022439111620 O
   0.4774135961473291    0.6712453750187700    0.3261730905032447 O
   0.9801896324870623    0.7625184238503926    0.1201509796103495 O
   0.7567534491155505    0.7307460680215947    0.0744814400541441 O
   1.2347832919050410    0.1990480562309762    0.5680483095739760 O
   0.3170265366738749    0.0284709779173478    0.4518777681276363 O
   1.0166397684223880    0.1867415777368248    0.6438433575560208 O
   0.5564255050359865    1.2422070287924016    0.3666885182645450 O
   0.5136448535796974    0.0857787113633112    0.4972836164652072 O
   0.6923950925485108    0.2610205425848900    0.5690974123671323 O
   0.8614621788532735    0.1538992688893425    0.4802043524116256 O
   0.1598370417510068    0.5580879512744179    0.3527525182465881 O
   0.2317576102117414    0.4269407816053478    0.4985511138259443 O
   0.4031540160830335    0.5318575483265493    0.5437474651523916 O
   0.6520043358901969    0.5125103752135982    0.4493654217316892 O
   0.2981787553269490    0.7529259922209947    1.3679709898083647 O
   0.2487348284116206    0.8818387769823669    0.6189390970328985 O
   0.4185167024474438    0.7219070448196930    0.6258516895312130 O
   0.6191604454002785    0.8251837552533865    0.6141336076773537 O
   0.6474111180070993    0.9189762406271189    0.4116640484171050 O
   0.7505658911407991    0.6675849244273010    0.5783104276439638 O
   0.9081535672517043   -0.0394519814927046    0.4033723346679567 O
   0.9403311301957188   -0.2243925128850088    0.5128907393595412 O
   0.0858063552946012    0.2812083353902565    0.8223930495847981 O
   0.1652565057910254    0.0758314590875662   -0.1256221780573134 O
   1.4420313504249744    0.2406882051830372    0.6680358135625837 O
   0.6527966599175081    0.0481231482040022    0.6908337798117052 O
   0.3728042097891773    1.0329645939233398   -0.2311601395375469 O
  -0.1974728261250041    0.0250052183996937   -0.1381240537481568 O
   0.0719817144400878   -0.3793992311148854   -0.0260818976109849 O
   0.0101941787723059    0.4126058336901132    0.9807493328000462 O
   0.3010782897388218    0.6071854708887813    0.9851576675901016 O
   0.1490829189949939    0.4715969868025304    0.7033631570406885 O
   0.3472002709616620    0.5531177166857367    0.7729064583085429 O
   0.4748322836179850    0.3736676189271224    0.8234639918347124 O
   0.8035966794274721    0.3486799765043521   -0.0486676166951687 O
   0.9907701062462638    0.5963413961054507    0.7869095944343115 O
   0.6698336456790805    0.3838099660325385   -0.2659884109852912 O
  -0.2217699552927951    0.6214574328904631    0.7918210455985715 O
   0.0540727684135968    0.8115036993367581    0.6885179885265807 O
   0.2779191672524595   -0.1875401008746685    0.9838230341215528 O
   1.0016817246040357   -0.0034539976250587    0.7815710605601160 O
   0.4824138795857426   -0.0954878032407587   -0.0932108064907958 O
  -0.3043033043028357    0.8161767696153442   -0.1150429834299492 O
