Li1 Co1 H110 Cl3 O55
1.0
  12.7589611452000007    0.0000000000000000    0.0000000000000000
   0.0000000000000000   11.8065338285999992    0.0000000000000000
   0.0000000000000000    0.0000000000000000   13.0194206329999993
Li Co H Cl O
1 1 110 3 55
direct
   0.3118310752201631    0.8639495776136297    0.7172864353755918 Li
   0.6450353190154646    0.5100480803021650    0.6088584154357585 Co
   0.0755025868984962    0.1818975785338225    0.2109374828507394 H
   0.1545917845624948    0.2458511495786051    0.1357636308346779 H
   0.3073260062458270    1.1521662591054493    0.2183786741856626 H
   0.3323735000318104    1.0885828220952141    0.3155873008730987 H
   0.5087279833156239    0.2934908724782681    0.1173142691640693 H
   0.4681862813609471    0.1989423778730255    0.2585379112775763 H
   0.5745883610091581    0.2373406077499273    0.3143837142895082 H
   0.5267968525108820    0.4400563272612991    0.2623660386117275 H
   0.4814310900939508    0.4666178909304210    0.0573778847429301 H
   0.3865652161230628    0.0670160206023670    0.0098888283994503 H
   0.5699861054389943    0.3126692361951024    0.0151633334589106 H
   0.9053096440336355    0.0661049149251069    0.2095749030171149 H
   0.8903789613681689    0.1707495140882554    0.1359011177513739 H
  -0.1047577002695738    0.3198432299539500    0.2353886476892969 H
  -0.1729435023971468    0.4317787073079085    0.2320613106885860 H
   0.8729715880348349    0.3730967935423546    0.0775420692639050 H
   1.1294187989608551    0.8060164018035447    0.0209016072351366 H
   0.2207554784865558    0.7310562134156421    0.1998924445150462 H
   0.1215632334755956    0.6583812003714670    0.1447717121699359 H
   0.2599953503148630    0.6584582763374712    1.0284262406087359 H
   0.0931682884736433    0.5530911958666135    0.3135687778726674 H
   0.3916314593120170   -0.0091457058665629    0.1167965809972921 H
   0.5667334895302444    0.9898747662916597    1.0265444364416672 H
   0.5335756175698647    0.5849964108491438    0.0293080028102661 H
   0.5130951100249141    0.5405439061920481    0.1716277459256739 H
  -0.2695853830304993    0.9724183304746763    1.1403513439659829 H
   0.6751161379498797    0.5772752624305304    0.2692680354465355 H
   0.9735518770878183    0.5231128800341868    0.1784391089271292 H
   0.7882366329161160    0.6225180074863280    0.2489414781088593 H
   0.9735362018304266    0.6627381099222949    0.1976158455145598 H
   0.8162890735440625    0.7267306424443984    0.1064423568117464 H
   0.8154308532018743    0.8179530126705388    0.1812479896777293 H
  -0.2706708946048652    0.9380814111141470    1.2536129123235156 H
   0.1886141469680192    0.2829196072947760    0.3397304642949237 H
   0.1613580094155642    0.4001885720984941    0.3887464703053964 H
   0.0955143258711520    0.2569882031718858    0.4902125829104089 H
   0.0620821369064200    0.1248359540316305    0.5194381537499865 H
   0.2971935198679188    0.3175368798942875    0.4861171625762005 H
   0.3271113161254616    0.4761829336126720    0.6289990966067284 H
   0.3301617212138604    0.0134753278658810    0.4744315427403704 H
   0.3474993396518020    0.2892110388934442    0.6013865007674954 H
   0.5901899446909837    0.3497385408999107    0.4839934121590801 H
   0.4743278472069627    0.3857652025920694    0.5284370180852425 H
   0.6359225081308777    0.1745482581270313    0.4712992989063678 H
   0.4289887327275971    1.1323806045355933    0.6489923057776668 H
   0.9748529234513181    0.2627714415881092    0.6588614085297754 H
   0.7358507064763719    0.2558955878296292    0.4359313656488112 H
   0.8514651348936063    0.3526394769830338    0.4490202737349411 H
   0.9424678416803427    0.2568433681148891    0.4594124412371615 H
   0.2980305786126284    0.6824433005715972    0.6502266156945971 H
   0.1646357057361407    0.9904337787923492    0.6420027474428401 H
   0.1453175185267747    0.9787876850279861    0.4829664847421940 H
   0.1807506540975401    0.6012992481419772    0.3813244810538106 H
   0.2749064389085902    0.7590178493023998    0.5493526953397113 H
   0.0233066445783379    0.9473051173755226    0.5190241568332313 H
   0.2963400021029480   -0.0856237825915647    0.4009374889746677 H
   0.0386723861750788    0.5909160144359898    0.4874843509098259 H
   0.0153335032824048    0.6233633021464614    0.6063406382685539 H
   0.5350130386726714    0.6374919196070681    0.3390537828781125 H
   0.4591926024325361    0.7386088110954112    0.3797760250534798 H
   0.4770098837466596    0.9139761144935089    0.6142626497702465 H
   0.5452121448944939    0.7203697577774626    0.6105574157694549 H
   0.5757428437160469    0.6964194600774704    0.4975032299119665 H
   0.6379806694263902   -0.0353292585068094    0.4142729518108504 H
   0.6306697293789638   -0.1599910789332814    0.3738610153022160 H
   0.7855467587477232    0.5232026608297521    0.4122667181437551 H
   0.8506265086231575    0.5365715294826034    0.5086780743310209 H
   0.9326551305532225   -0.2194581511657127    0.5305492472523604 H
   0.8547726142032266   -0.1326113242404232    0.5004841613292701 H
   0.1573608187807149    1.0130229657520264    0.7608843815515735 H
   0.2108596884952601    0.4292860197480162    0.9014927889149489 H
   0.2619382984685476    0.2716783740990941    0.9661039589287537 H
   0.1348049071571210    0.2795680732565516    0.9706279697630535 H
   1.0062818145214081    0.1497806163919400    0.8849559547447491 H
   0.3217684046435464    1.1226825846372690    0.6906316394532301 H
   0.6368410782140234    0.2522018703818920   -0.1363114560567866 H
   0.5436454029182068    0.4561719800652653   -0.2084091343221908 H
   0.5540459361975109    0.2141983372100224   -0.2329609180774365 H
   0.4264297469584239    0.2511211128805590   -0.0167908534229167 H
   0.3944012772931067    0.2019847610585959   -0.1272665067215207 H
   0.7783721934396034    0.3550500066450976    0.6672419657815660 H
   0.9757699260087248    0.2735756286468884    0.8336326264004500 H
   0.7614366453537554    0.2621184133486675   -0.0027915361615923 H
   0.6870896833084275    0.1491470688911587   -0.0156363473643367 H
   0.6690600022566482    0.3096700494300399    0.6981987964548467 H
   0.8265022874975374    0.4751978858273662    0.9239592264197490 H
   0.9150674917598854    0.2884690768470746   -0.0246461184829284 H
   0.9678147328825051    0.3947678448190814    0.7021759319556966 H
   0.0182259017762966    0.7248486336920773    0.9017155330816632 H
   0.0650826946763136   -0.0435000731930228    0.8894799655790490 H
   0.2357621861503715    0.5524966098431529    0.8809388789105574 H
   1.1805671638295350    0.8434964959974959   -0.0783564962110707 H
   0.1030538111713475    0.5106926386552326    0.7598797285513588 H
   0.0164441736448842    0.5998754602424939    0.7714831634705047 H
   0.3011969806057247    0.7570757043568227    0.9005019614147372 H
   0.2974529453777492    0.5101353201318179    0.7414096286307459 H
   0.3472030772871014    0.8738119133076110    0.9445131364241406 H
   0.5205510462032126    0.8754084868891255    0.7201682840428741 H
   0.6112935437172491    0.7030378292901781   -0.0708446412094657 H
   0.6618094119501794    0.9369210366808977    0.9727171564301667 H
   0.3757657475431434    0.6230490693619830    0.9938087247680063 H
   0.4644587051532327    0.5326753817505256   -0.2743544650862806 H
  -0.0151991549463222   -0.0055939437144552    0.7998431043932307 H
  -0.0649511678865615    0.7629275488526761    0.8203371038976094 H
   0.7814351387339155    0.5734197701530482    0.7671027842195687 H
   0.8145859568284689    0.8793478310417111    0.7852633465567822 H
   0.8655963794321030    0.6069825418989864    0.8921144914129452 H
   0.7046765383388949    0.6335745971590550   -0.0428019187034741 H
   0.6967754248506761    0.6639044132760060    0.7358387202128889 H
   0.8835915749176209    0.8745648862062669    0.6818409257013518 H
   0.4905517386072335    0.0491125441825594    0.5275322159183825 Cl
   0.2779176558535100    0.7440481721248469    0.3532763819644846 Cl
   0.6404659814858230    0.8469073192403389    0.8161049647300385 Cl
   0.1534694361332586    0.2012233182735659    0.2014147856820381 O
   0.3647131235563502    1.1102403215537424    0.2502364666091360 O
   0.5320449286855784    0.2524144645298814    0.2475381898585594 O
   0.5011983734275851    0.3307227990014587    0.0474130788074677 O
   0.9424600040516470    0.1302405885269324    0.1772562605935431 O
  -0.1213389875383723    0.3817276077575444    0.1906308956797340 O
   0.8540045265910399    0.3340158908237018    0.0053387027318115 O
   0.1779659446219284    0.7132753809505313    0.1373343612516801 O
   1.0179520436494289    0.5908135288108635    0.1920472413467033 O
   0.6428799711241243    0.9854788952635111    1.0305154272758490 O
   0.5427095900519303    0.5222303178740074    0.2428198539408847 O
   0.3901869843433842   -0.0090231466107299    0.0433806413066061 O
   0.4719538294750100    0.5509296808639477    0.0673317070867235 O
  -0.2210328407858627    0.9550720031805559    1.1982417848116851 O
   0.8509243385135973    0.7406204091092559    0.1714825781756429 O
   0.7494552623665119    0.5564486588252996    0.2775034249482951 O
   0.1876195518865244    0.3251623185968737    0.4075898587260891 O
   0.0440413107466354    0.2068092083372731    0.5233469298341549 O
   0.3422943704349325    0.3447548597574007    0.5463809809224097 O
   0.5456518358643273    0.4184674338824009    0.5065758302472383 O
   0.6582001839357712    0.2411613734932758    0.4298965348975218 O
   0.8733713070983198    0.2788854004148006    0.4234707497294822 O
   0.7072927387975474    0.3585751733539906    0.6497112317778203 O
   0.7890619352177819    0.4911746324947976    0.4819963954919867 O
   0.2628443283457801    0.7512729852019390    0.6263261666061574 O
   0.0893960377823629    0.9877064753798948    0.5349257860866289 O
   0.2670876205216771   -0.0172332615697190    0.4392825132328605 O
   0.1285802624469301    0.5419837868756420    0.3801592986368951 O
   0.5359958773111226    0.7180913583428346    0.3680604499676434 O
   0.5836502273072225    0.6640848218557740    0.5704058595108761 O
  -0.0196108777628915    0.6188691804363734    0.5352499172533648 O
   0.6704551001644976   -0.0851765725910131    0.3651747608836934 O
   0.9077863347015031   -0.1444081819822449    0.5501899061732235 O
   0.2111677073030044    1.0001317986906733    0.7080510013736185 O
   0.0487545628143888    0.0211802988015198    0.8414824380687939 O
   0.2193368676926191    0.4835068443603409    0.8439249430693158 O
   0.1969094931796360    0.3132392595480781    0.9988396706024145 O
   0.3839631233960629    1.1699106710591516    0.6956011386209585 O
   0.3674327807137870    0.2037854589017258   -0.0545904617059929 O
   0.5929495737547690    0.2775564752427071   -0.1980046774866345 O
   0.9392230634002886    0.3142793615948155    0.7043411588728259 O
   0.6825195620159163    0.2354662218953429   -0.0193310586234594 O
   0.9977074487282215    0.2363326912714115    0.9025450630818405 O
   1.1090017762083402    0.8316395020624182   -0.0470778386210544 O
   0.0331288078856654    0.5295754033376115    0.7331634859623173 O
   0.3044691905862141    0.6457678455831837    0.9692761430960981 O
   0.3084773539012375    0.8434744742929233    0.8805087522437989 O
   0.4605994567834292    0.8639004522726600    0.6712782436990951 O
   0.3394626351871461    0.5407429485218389    0.6803692780343708 O
   0.6386178686393574    0.6590748840655043   -0.0103512427548741 O
   0.5396082403770089    0.5225792771926197   -0.2544419046653594 O
  -0.0393072305568290    0.6939310074607650    0.8582804205723830 O
   0.8080242940843593    0.5472435863139471    0.8877825014120196 O
   0.7422179960288260    0.6057840529770538    0.7067529405400078 O
   0.8856450336359160    0.8716012729639756    0.7574387597175040 O
