Li1 Co1 H90 C51 N3 Cl6 O45
1.0
  14.5076615648999994    0.0000000000000000    0.0000000000000000
   0.0000000000000000   14.1316466484000003    0.0000000000000000
   0.0000000000000000    0.0000000000000000   14.1781464311000001
Li Co H C N Cl O
1 1 90 51 3 6 45
direct
   0.9829552625491161    0.5432845170572713    0.4426719138852243 Li
   0.2222489315783970    0.1242731911074805    0.2507493651075358 Co
   0.1357732446189427    0.3502426113350625    0.1329123821056344 H
  -0.0249170216635455    0.1417608913131732    0.1592769003320835 H
   0.5522279553228069    0.1930302173886331    0.1712276867641047 H
  -0.0901349753473529    0.1938602692779738    0.2508262439862593 H
   0.7318824081331669    0.1821206607151753    1.1036711527873506 H
   0.0270334595789631    0.3217682226094176    0.0815932619698757 H
   0.1439110137192114    0.6415929473885160    0.0379394597604157 H
   0.0287828800411418    0.4545570650344057    0.1926070681573665 H
   0.2932741616191216    0.6263109349399207    0.2693766237046605 H
  -0.0291313466067137    0.3611401382709937    0.3012235228881505 H
   0.7124685281815262    0.5873119411416715    0.3442552409596830 H
   0.1899653000706731    0.7505965220125961    0.0493252922304416 H
   0.0544658612944040    0.7043506728019527    0.1633366693773334 H
   0.2240493595717819    0.9003299573755285    0.2206340039723587 H
   0.4631947921061336   -0.1412110863687593    0.9861938783005774 H
   0.5479936409417336    0.6255615530551706    0.2631621301227118 H
   0.5899553311339597   -0.0259003911226043    1.0775175224942806 H
   0.6587589764033676   -0.1717142549466975    1.0558531955321724 H
   0.3469830241063180   -0.1497649373818460    0.3460234551703226 H
   0.2630487529246623    0.1801732584990920    0.5984852291683987 H
   0.2356549515031071    0.2969020475101564    0.4249243189352914 H
   0.3430416583841990    0.1069241866991543    0.4557673492372483 H
   0.1435112249611091    0.3041489029225507    0.6232550396444466 H
   0.5111814367411540    0.2464599427975604    0.3214849866412591 H
   0.3907240499884843    0.2397254126774788    0.3462780723741682 H
   0.5458711072816915    0.1780631010105889    0.5928737763324002 H
   0.5949699228842948    0.0589361484420004   -0.6572557865222315 H
   0.4228932591964755    0.0295269783473707    0.4969416312801732 H
  -0.2459333436707857    0.0149426906753226    0.6132974615727235 H
   0.0047500613514949    0.0230387040307763    0.6118078451336048 H
  -0.1441423008212016    0.2531697058109694    0.5758849547561433 H
  -0.2433553954719880    0.1789971747479545    0.5770120414368781 H
  -0.1621321056448433    0.1657234208346950    0.4864622000849860 H
  -0.0228581095593186    0.0998146118208881    0.5179127787743052 H
   0.0099266364779576    0.1562057755562357    0.6292353700361550 H
   0.3458195009620478    0.4194539371157519    0.6648958847908170 H
   0.2218622393485773    0.4168265009136018    0.5305268394957902 H
   0.3398957344325112    0.4242148826498393    0.4875582537952167 H
   0.4047338887961213    0.3299378296532698    0.6074969854385791 H
   0.5498728548921031    0.6211381478034496    0.5701049326356044 H
   0.9467206152458019    0.5158086602331862    0.6354399892667081 H
   0.7184281378410996    0.5749689350971673    0.4656900849547609 H
   0.0904875176903845    0.7170024185219210    0.2802271252668780 H
   1.2034525484617853    0.7104263978845440    0.5736484141650233 H
   1.0294582773169996    0.7812723527056231    0.5660282361308190 H
   0.5378648548970191    0.7927869344135109    0.3467181863220896 H
  -0.1591881439450934   -0.0103784915550946    0.5191962328624986 H
   0.6648578228373144    0.7000036917651070    0.5566680563185342 H
   0.8673398001607390    0.8085147547822126    0.3954332989326464 H
   0.6533638960418729    0.8346978323248351    0.3671721999274140 H
  -0.1381206549750261   -0.0487689221608177    0.6324149111855620 H
  -0.0352253680039249    0.0037741408292316    0.3881714187919423 H
   0.1309420042645649    0.1381264953168782    0.9655741166539685 H
   0.2844271121187023    0.2749131025746289    0.8417511607738469 H
   0.2338876094759100    0.1542392672864335    0.7260322261463176 H
   0.1291732836554433    0.2995960010845130    0.7529743939294136 H
   0.3559486316522435    0.1659300492675062    0.6891846732917327 H
   0.4852485875140778    0.0885257645995303    0.7912410321417194 H
   0.5889820522952692    0.0808253173192185    0.9222983610408001 H
   0.3520410411872745    0.0616180722788302    0.9752615606839385 H
   0.4587403181917191    0.1012843626940004    1.0264875797922524 H
   0.4171342332069154   -0.0075621177106137    1.0533387624803454 H
  -0.0293698412796506    0.0816235257856945    0.8144196614214357 H
  -0.2142466381363663    0.1441894830303235    0.7348373263480026 H
  -0.1405579878175257    0.0854857791633771    0.8565415285429383 H
  -0.1013979896704421    0.2004497349161161    0.7257416380909592 H
   0.3075700561760904    0.3917650194874370    0.8114961480975024 H
   0.3236898146191605    0.5698576411484059    0.9008336370390471 H
   1.1268895548303817    0.6620222722352909    0.8174849422189784 H
   0.1709877412981338    0.4026250419475497    0.7028500703125313 H
   0.3882639705442306    0.2980243512582336    0.7823548211964269 H
   0.5994944287604733    0.4695091796221225    0.8488818531031512 H
   0.5455201203237161    0.5066846775008131    0.7418735070282342 H
   0.4541144865440905    0.6108576756394749   -0.0043016048886489 H
   0.3731795271264531    0.6288442561367150    0.7267474113116899 H
   0.7588908959068269    0.5762375063009364    0.8775576748670020 H
   0.7957004118726538    0.4947521685586162    0.6596624785511099 H
   1.1362101472218635    0.9116966440750000    0.8518272310623179 H
   0.3579234502590764   -0.1054693209137628    0.9162404464595543 H
   1.2348773234305517    0.7688767696318111    0.6684217335498867 H
   0.3724323357233791    0.0440461639104509    0.8122670528171788 H
   0.4636908058825653   -0.0333128323338951    0.7688481191087732 H
   0.6128990701032588   -0.0210170253183926    0.8600314064504949 H
   0.6784409905393216    0.6357464949505509    0.9483306778738662 H
   0.4700544089751107   -0.1445518152430795    0.8613658545105389 H
   0.6276257715116311    0.7420752220539933    0.7545564060851633 H
  -0.0627983850756640   -0.0655504060105324    0.8036601449542211 H
   0.6936033238358328   -0.0065940776555258    1.0137433186945073 H
   1.0113037319533813    0.6633830478390439    0.8012359916865833 H
   0.8732387522156349    0.7918188943584229    0.8936958916016030 H
   0.1194591061245194    0.2058050910103451    0.0831696316391136 C
   0.0832368660585255    0.2920568938133824    0.1256039514512078 C
   0.0365870323156838    0.2730817519440971    0.2236626086075746 C
   0.0134034200915232    0.1076431404242781    0.2995702743401891 C
  -0.0205055595051752    0.1771085059562661    0.2290194442397276 C
   0.1078700571762881    0.2878535619952375    0.3083133071902442 C
   0.4255725331667232    0.1700597873972525    0.2159091268295287 C
   0.4497072979896861    0.1978647566111189    0.3193627064020033 C
   0.2837074923541181    0.6359050044332554    0.0173232246678767 C
   0.0616393123384915    0.5762239197738473    0.2398621873829915 C
   0.2002688213743168    0.6729636723316134    0.0727916883222604 C
   0.1998904006360441    0.6721038999142656    0.1817142479463103 C
   0.0986625085026145    0.6702803332315452    0.2166109110894355 C
   0.2388573973136990    0.7667779342492154    0.2220679008571733 C
   0.6282075330837662    0.7389729650353490    0.2430741728298413 C
   0.2839838980299785    0.1907955167351480    0.6775160111853021 C
   0.4760710229972618    0.1114954869592917    0.3831566589045679 C
   0.3941953192743520    0.0643084876950906    0.4305145419157893 C
   0.5404125432225743    0.1460647068212468    0.4612149583711602 C
  -0.1676167938314297    0.1805001843071699    0.5609083849321621 C
  -0.0227388622228502    0.0940021257006453    0.5972629255277772 C
  -0.1733958092588948    0.0077807510572343    0.5961294910497167 C
   1.0343550003127906    0.6226673397325759    0.6235957047675974 C
   0.2881272260040354    0.3805165072683746    0.5268773497510305 C
   0.3323004373195295    0.3572509948917809    0.6227867132639660 C
   0.5409700417528382    0.6304916225462507    0.4343924113021146 C
   0.7161369346825960    0.6310372065246664    0.4124228258197172 C
   0.6128970022303722    0.7743403933637801    0.3469191999040729 C
   0.3458436261457264   -0.0127674559015688    0.3658250562727184 C
   0.6260383344255801    0.6957303044166597    0.4261032459608535 C
   0.8055193616298391    0.6836368800442530    0.4005221164554883 C
   0.4219399697956901    0.0416310171940656    0.9946110575545754 C
  -0.1048079120606699    0.0634168718548781    0.7959419287168741 C
  -0.1384694362019222    0.1332494981972394    0.7225522225901564 C
   0.3147772824773279    0.3192780669413954    0.7883922817640675 C
   0.1724642025392633    0.3260069360085232    0.6890668863857986 C
   0.6370718148582416    0.6155690869602171    0.7968524849777180 C
   0.4940781979531522    0.5595804240898798    0.8738773630396716 C
   0.5714202282300856    0.5309397419337190    0.8124969841425352 C
   0.6943836012050946    0.5777569329137175    0.7102233895618437 C
   0.7087401533667410    0.6307492004556453    0.8767049540929043 C
   1.2458784071879876    0.6323611852842201    0.6922302053864841 C
   1.0613793417785824    0.7981960705108003    0.8270588312078981 C
   1.0753043977978631    0.7030578298336446    0.7807587028243976 C
   1.0854914289288875    0.7096076681011106    0.6720195240119817 C
   1.1892566010943422    0.7112606955635999    0.6478654498765356 C
   0.4459273642109249    0.0261261007854171    0.8151404890733199 C
   0.5790914162780105    0.0043133561230744    0.9249094216741418 C
   0.4358931488862305   -0.1061769525329791    0.9197507783807163 C
   0.6270950174707022   -0.0445344545514273    1.0154226637425858 C
   0.7681777130411587    0.7232614201938893    0.8554673401732518 C
  -0.1227680773729351    0.1003538271147309    0.6213055605546151 N
   0.2710858855444433    0.2959842493000329    0.6941507667329426 N
   0.4708200733759729   -0.0054675281177334    0.9148622691290437 N
  -0.3075490627858987    1.2044438449447865    1.2021410061482658 Cl
   0.7641053820362131    0.1297785651049834    0.0120538475766568 Cl
   0.8786655399613926    0.4438633360048089   -0.4470237922001962 Cl
   0.9787443840607591    0.8775824313442010    0.4201103610366562 Cl
   1.1644304085071511    1.0469519365087667    0.8778285142195691 Cl
   0.5959735305253240    2.2124665017816554    0.7211839196110417 Cl
   0.1788256688298258    0.1554125205110942    0.1225337334779673 O
   0.0917365129139731    0.0692215740273095    0.2887938304134390 O
   0.1913735215065404    0.2556747217429952    0.3023675370284207 O
   0.3522002673995532    0.1344503490550495    0.1889197032218963 O
   0.4836581175477928    0.1968224152360133    0.1520361795157987 O
  -0.0477036022934528    0.0778907689943284    0.3601783378960210 O
  -0.0290527674370177    0.3497472692016111    0.2343882701557183 O
   0.0548194675580359    0.5168631657958263    0.1669887687721048 O
   0.2539053083104776    0.5977629525258772    0.2175905878100492 O
   0.3642766450580920    0.6537486433434138    0.0429577462018599 O
   0.2801976227743647    0.0013229049002663    0.3072080851447428 O
   0.2064896723085812    0.8412214882223902    0.1819117349742238 O
   0.2859518237271890    0.7643132533194850    0.2920149849008707 O
   0.6348109405020768   -0.1472563832917242    0.9962572529943969 O
   0.5891771216375847    0.6594118191920020    0.2124538091518569 O
   0.6726971289509309    0.7889225581409706    0.1860822378172680 O
   0.0760034467007227    0.3388476193708223    0.3769485131199450 O
   0.2811950267967337    0.2900139613287049    0.4789140984681729 O
   0.5324345517673540    0.0559584345883382    0.3204566434744811 O
   0.4980921666923245    0.1767405375142737    0.5393779259625465 O
   0.6238574178210357    0.1330527766070973    0.4575073510153289 O
   0.0432469615928985    0.5492913188201508    0.3222975046989603 O
   1.0528907235785308    0.6195304087645900    0.5390031237959994 O
   0.4936620040701484    0.6086066994587478    0.3660049105302825 O
   0.5043249768247838    0.6050211300441789    0.5197989209530417 O
   0.6706085773353274    0.6009862145514074    0.6263062142257098 O
   0.8784366953619271    0.6373903232019904    0.4093413228734530 O
   1.0397025195978902    0.7920651501619101    0.6341866519502715 O
   0.6401936136262508    0.7482068500345026    0.5119700414489817 O
   0.3723916675566066   -0.0963861614495023    0.3838147138940082 O
   0.8048080133568019    0.7771900258943641    0.3765464859559783 O
   0.0950161593123365    0.1889719500524276   -0.0044095174431874 O
  -0.1175060301671540   -0.0334147312870623    0.7737197009009101 O
   0.2637738870169444    0.5888595314928976   -0.0612970664552922 O
   0.9887666746518068    0.5615274724901534    0.6790246710163984 O
   1.2288735991493944    0.5500142352823423    0.7145688094867542 O
   0.5098936344363909    0.5690687026561417    0.9667590388214494 O
   0.4134616909600721    0.5681769452896054    0.8391852400325995 O
   0.7625999705746692    0.5149939710262987    0.7229563656865651 O
   1.1402321599865652    0.8434752949295942    0.8445505393945204 O
   1.3345143320231190    0.6698805213666881    0.6914832812344828 O
   0.5852006020763912    0.6965051610397015    0.7798248713066925 O
   0.9871227157068515    0.8372969632622166    0.8391520904243427 O
   0.8337982126469173    0.7367665696466326    0.9214329446720507 O
   0.7600992229636431    0.7762050026804151    0.7864301070795844 O
