Li1 Co1 H90 C51 N3 Cl6 O45
1.0
  14.0220389999999995    0.0000000000000000    0.0000000000000000
   0.0000000000000000   14.0307800000000000    0.0000000000000000
   0.0000000000000000    0.0000000000000000   13.0814219999999999
Li Co H C N Cl O
1 1 90 51 3 6 45
direct
   0.2564581249560067    0.5219702917442937    0.7444067869685728 Li
   0.4016844832623843    0.8606061487672104    0.1795508661061466 Co
  -0.1155826438651326    0.5965290660961117    0.6633517181847661 H
  -0.0849602272536826    0.5840268687842016    0.5309792031783700 H
  -0.1820439737758539    0.6604866849882900    0.5661427564984908 H
  -0.0793203877125146    0.7355485817609569    0.7555506113937765 H
  -0.1516834463233200    0.8029868574662279    0.6662786186394721 H
  -0.0319807811117912    0.8397362334809613    0.6923726312017149 H
   0.0476419577780378    0.6365368283160310    0.6940645489458256 H
   0.1018024561192563    0.7390530583474333    0.6378459092597121 H
   0.0784199259465760    0.6358357147642540    0.5601397523908334 H
  -0.1208275508290912    0.7896572065131091    0.4861882477302544 H
  -0.0279261817771296    0.7141252553314926    0.4405211589382256 H
   0.0180028375331148    0.8732261164382878    0.4066888492703622 H
   0.0952386011763339    0.8339317707212286    0.5054925825342230 H
   0.0388181205315432    0.9782420514041272    0.5456816216157540 H
   0.4453618578581902    1.0074225923291507    0.7192248067526604 H
   0.4785042938477064    0.9245660341050177    0.8179920004109645 H
   0.3788288122718814    0.8997980518545655    0.7348377500550016 H
   0.4742177004357212    0.9726732156016986    0.5451206833630167 H
   0.4088957333523320    0.8630020526300035    0.5543011646593161 H
   0.5296462775492209    0.8629104076893801    0.5068156206565311 H
   0.6081522088192737    1.0003847476761805    0.6626312330570789 H
   0.6606884391064666    0.8904002657015505    0.6226166574245521 H
   0.6377507750477658    0.9118928919133504    0.7570914293568390 H
   0.4406906114010951    0.7519006961836762    0.6886936213815288 H
   0.5332664108265567    0.7756851415245625    0.7788196153292815 H
   0.6512272337853289    0.7047756361371214    0.6815075578174911 H
   0.6069334260160023    0.7488181455343181    0.5634096025646141 H
   0.5601575919165536    0.5798019197792282    0.6668593215630533 H
   0.5565859444550111    0.5990241910998533    0.3403708228356214 H
   0.5686575083695031    0.5053307278711519    0.4326725336129360 H
   0.4565529086033779    0.5233893119270633    0.3689560401002276 H
   0.5516069189366825    0.5678985530383913    0.1655802801866647 H
   0.4463825688974336    0.4948014059090087    0.1819959328580639 H
   0.5484119905813983    0.4478456365219896    0.1158301910908462 H
   0.6953087828382163    0.5330386208036901    0.2648484698376063 H
   0.6931552486767437    0.4190543875679043    0.2036117885349162 H
   0.6982314355280285    0.4261382588851083    0.3419152856623691 H
   0.4459443622999479    0.3714009235409578    0.3077157949647982 H
   0.5503158271061719    0.3474441128718432    0.3824703071271610 H
   0.5211757077554841    0.2158235344007960    0.2771803241268419 H
   0.6285364567877753    0.2698782348522320    0.2319290907364658 H
   0.5236523275965784    0.2299355488433287    0.0993784452485364 H
   0.3181602411746252    0.1716086846205272    0.2988528196705221 H
   0.2073704929789455    0.1268820749808635    0.3421842350166518 H
   0.2449622997054850   -0.0078109841363060    0.4203897015171593 H
   0.1871403602571637    0.0014880391539173    0.1099450564319384 H
   0.1076368886151294    0.0940021467088786    0.0758648723357445 H
   0.0819951128363001   -0.1066755675735775    0.1604217989450994 H
   0.2397676129698398    0.2487020885510285    0.0447608394561386 H
   0.3446244922011699    0.0923167607217845    0.1238247592654682 H
   0.6886761796911276    0.8981320126179728    0.2639867126066264 H
   0.6987630515077015    0.9359858318639449    0.1332012200202700 H
   0.5501553918085664    1.0076118384010013    0.0579638108150628 H
   0.6188048970624029    0.7301235590608648    0.0514658138847596 H
   0.7338232599410114    0.6790339218489635    0.0434709628662694 H
   0.8472566514755806    0.8091793293031464   -0.0081938270931096 H
   0.8059536098851244    0.8000711735199326    0.3258802766243609 H
   0.6808338124006073    0.7332716506138647    0.2940143540969781 H
   0.1864909475718902    0.2524299126634442    0.8795195904543099 H
   0.2707249773018032    0.3329150581792317    0.8259396723077965 H
   0.0784255649267556    0.4964976629952148    0.8246934866866920 H
   0.1680107301085099    0.3193015135295401    0.5989027653109883 H
   0.2401505558499730    0.2222611401504407    0.5595292950567606 H
   0.4000716044221529    0.2595408986528190    0.5347120213689307 H
   0.2370866726301360    0.0647464845147597    0.6451161441011536 H
   0.0730215391641686    0.2158495315299648    0.7369466171185366 H
   0.3276365455837058    0.6696673991039700    0.1780683629042775 H
   0.2338018122756612    0.6194079046211258    0.1062600610239468 H
   0.0870944211465964    0.7130745653484696    0.1050431550943009 H
   0.0687197896111971    0.6854780846111193    0.2889397337690046 H
   0.0828644414696037    0.5692953036110608    0.3389306835296652 H
  -0.0093106344947407    0.4682854445725754    0.2478378596761117 H
   0.2485319167918446    0.5701074687223376    0.4335147470970664 H
   0.2863662945167960    0.7177817598166317    0.3542098871208345 H
   0.7484266097106134    0.1632556686085877    0.2376161505989181 H
   0.7886393483857804    0.2825126742775527    0.2590821831143434 H
   0.9450499973648624    0.3101017363254217    0.2116174426602857 H
   0.9931005084210649    0.2135348533723713    0.3592701848468767 H
   0.9440565997569967    0.2065958542575680    0.4840526129345877 H
   0.8911258947432680    0.3466511826142239    0.5482256898370834 H
   0.7683024287694535    0.0615170304145600    0.4654028935080605 H
   0.9282828645676994    0.0660201863331903    0.3348088258294855 H
   0.8900137968522267    0.3745141453290551    0.8660947846495588 H
   0.8127540723570944    0.4549745188792070    0.8044445007584038 H
   0.8781535602632399    0.5392380473501830    0.9464829228810140 H
   0.6141194329868859    0.3540520070872753    0.8668216222976370 H
   0.6189311946714738    0.2751668738302503    0.7615641946265476 H
   0.7182180672867904    0.3700023990113166    0.6236773525080072 H
   0.8339609546086699    0.1630055848641344    0.8275711402017303 H
   0.7386013710274233    0.2745898267950891    0.9672078952884481 H
  -0.1121135720703672    0.6330274318320150    0.5894362279574805 C
  -0.0796814372003957    0.7785374020546256    0.6855789141272256 C
   0.0532548604379149    0.6793586992312616    0.6242137873084439 C
  -0.0461971229719159    0.7679557251984566    0.4981413060445569 C
   0.0204428143439053    0.8525772572871929    0.4881926261533341 C
   0.4495662071685865    0.9322192486804012    0.7406314779845800 C
   0.4794673028651539    0.8958812774485809    0.5603447087021579 C
   0.6130994179947723    0.9238432296707668    0.6785304533406230 C
   0.5148509093434985    0.7768162069393149    0.6972973205818145 C
   0.5852069181949929    0.7150577066991286    0.6362441063364518 C
   0.5341935712773299    0.5268523182602820    0.3610931334529228 C
   0.5243509014630467    0.4954095951900037    0.1768686668773471 C
   0.6711738107417902    0.4589457870481898    0.2716317255111868 C
   0.5238686092657423    0.3625090422627965    0.3051312953591743 C
   0.5506203741124953    0.2787973569537830    0.2370627413441750 C
   0.2623540128507701    0.1179769927259924    0.2831847952003995 C
   0.3111282096705051    0.0225712604716203    0.2906781625116903 C
   0.2212366511033096    0.1368232614295143    0.1768896263724234 C
   0.1467420344501966    0.0622592642746875    0.1407044922180478 C
   0.0732276418572221    0.0257265098590385    0.2165990646888389 C
   0.1806891101928899    0.2405572284648466    0.1754955447504102 C
   0.6713605367949697    0.8800019193515971    0.1840801160607769 C
   0.5647431054784543    0.8731618926388983    0.1780514060321577 C
   0.7187595891011286    0.7837788398079081    0.1584682376273772 C
   0.6954008571791876    0.7475512630088991    0.0513472961884419 C
   0.7136685285214226    0.8069521929643256   -0.0444223823679108 C
   0.8287366937148014    0.7943933003011949    0.1757195028185773 C
   0.2027467296304054    0.2967975401225021    0.8116265915127576 C
   0.1196478835923934    0.3640982810649159    0.8011554194949143 C
   0.2105957093686589    0.2278273738167087    0.7215443970846595 C
   0.2322415192255563    0.2777122818546082    0.6186132952518465 C
   0.3161073607055294    0.3469139021494172    0.6205916451590661 C
   0.2930925395372242    0.1559028742521799    0.7452598264928691 C
   0.2493436660673957    0.6684061670128104    0.1699555438239054 C
   0.2149641903007116    0.7684630590744065    0.1475952950680744 C
   0.2072625400628254    0.6283506918360918    0.2693701028833104 C
   0.0982374353687078    0.6142760416740908    0.2719590874753525 C
   0.0469584979759363    0.5795195349082517    0.1771941613075398 C
   0.2558566938802552    0.5318296024882437    0.2932168872772394 C
   0.8109943974624517    0.2073275641126153    0.2571733501143836 C
   0.8831726712498803    0.1915608668940715    0.1703915178334588 C
   0.8441609733078049    0.1772971317346577    0.3645038819174246 C
   0.9307056641334402    0.2333634673197071    0.4060774547293100 C
   0.9253529183594482    0.3406189520468570    0.4039002908093631 C
   0.7583687165611221    0.1938031249866365    0.4373949544629017 C
   0.8146232605685949    0.3973333307200312    0.8615412200600210 C
   0.7864733110498409    0.4352446285951316    0.9670077022207525 C
   0.7555815213465031    0.3116364443031678    0.8251655385782983 C
   0.6526582303757678    0.3389189667288633    0.7954113811174350 C
   0.6344163962174117    0.4242814932598188    0.7261594488733717 C
   0.8100573789589375    0.2645386393343777    0.7361365400489335 C
  -0.0448309564678860    0.7160975690588834    0.5995677732894787 N
   0.5152269338289531    0.8818187677377880    0.6678724935255510 N
   0.5638978660664116    0.4598700278958119    0.2769470635531825 N
   0.7160484170668759    0.7901769196010486    0.4365676055707094 Cl
   0.2798061301926204    0.6797215030098113    0.7379853184156890 Cl
   0.1678294640315863    1.0429180152493305    0.5171556387371342 Cl
   0.4283457206188058    0.1574048748537145    0.4555541278310569 Cl
   0.5816914501521497    0.0920724849224348    1.0163670241660272 Cl
   0.9723486862360032    0.5744069338981866   -0.1590131080550723 Cl
  -0.0113873688412933    0.9283834854512721    0.5509258565314994 O
   0.5435493939219539    0.6264677188296017    0.6120108219121744 O
   0.5098449241226615    0.2881614764111475    0.1385791407080973 O
   0.3730025611824357    0.0003318176181224    0.2254705046592029 O
   0.2903040420868891   -0.0367383103434022    0.3644934052276580 O
   0.0346443266917172    0.0775284766777043    0.2803731482708837 O
   0.0487280708604505   -0.0658812182929246    0.2116814165921717 O
   0.1438556639301887    0.2793882791975927    0.2483524642810239 O
   0.1910468356278284    0.2843953700364484    0.0837845449829537 O
   0.2954194151078883    0.1379031080239302    0.1009976384830334 O
   0.5174785992251199    0.8281830739274652    0.2464629999704925 O
   0.5159202110335023    0.9135857728508323    0.1063554566162608 O
   0.6481987662421992    0.8321209683282041   -0.1008895554321235 O
   0.8047069267172913    0.8247332771235812   -0.0688094146033971 O
   0.8867173932407405    0.7953811056833618    0.1048516873777178 O
   0.8582996602705212    0.8028062010807667    0.2713852186711811 O
   0.6825540664948941    0.7099297259311315    0.2219715784721264 O
   0.0380573424449896    0.3361079305640884    0.7838388387745613 O
   0.1412317573785096    0.4566522146309756    0.8161791118733117 O
   0.3072512984737811    0.4252718665676463    0.6632977492813855 O
   0.3965014032552612    0.3245570966118776    0.5750168697256307 O
   0.3587034574643531    0.1784579503063978    0.8015634470014039 O
   0.2882567485370708    0.0709554821613624    0.6996339832168094 O
   0.1249370758418230    0.1747022253930288    0.7110323143768315 O
   0.2670900722783612    0.8405850280597372    0.1596837010532953 O
   0.1276329006073938    0.7812135162834853    0.1163922041502828 O
   0.0468770775776618    0.6275636621770138    0.0965618126225115 O
  -0.0024656428355391    0.5000878953272734    0.1797580675862303 O
   0.2832149404234292    0.4762356504770227    0.2284542506158734 O
   0.2654090328803108    0.5123972644428891    0.3947594237079118 O
   0.2210327706262976    0.6942816258255066    0.3537306685771623 O
   0.8816549126699762    0.1210133955489289    0.1157432846367925 O
   0.9474573319900194    0.2616964260005502    0.1557232470598380 O
   0.9359694713443600    0.3860945457059408    0.3229147488705739 O
   0.9143022658830144    0.3879094996856911    0.4914170149086238 O
   0.7208957991059645    0.2716851928403125    0.4483819526653907 O
   0.7283903254013200    0.1159177686486425    0.4877009770038762 O
   0.8642440289889366    0.0778145192213120    0.3675111704216866 O
   0.7329609024764515    0.3918510973730612    1.0261716264485619 O
   0.8247810949605830    0.5182075572420065    0.9943556679082748 O
   0.5863058475304482    0.4927461652167592    0.7551050008171896 O
   0.6689039397194658    0.4211485263114382    0.6308642516081203 O
   0.8165310358928540    0.3021810234356180    0.6509014119413012 O
   0.8519491537571675    0.1817451966319763    0.7567647324579850 O
   0.7515466659306823    0.2397172730240229    0.9026497333393877 O
