Li1 Co1 H90 C51 N3 Cl6 O45
1.0
  14.2969811917000005    0.0000000000000000    0.0000000000000000
   0.0000000000000000   13.9528556267999999    0.0000000000000000
   0.0000000000000000    0.0000000000000000   14.4207593292999992
Li Co H C N Cl O
1 1 90 51 3 6 45
direct
   0.5525102110007555    0.5406945728664594    0.4346996937854236 Li
   0.6989828804350361    0.5759717959070656    0.5543590654312689 Co
   0.1575650876709407   -0.0220864240871298    1.1008906883525824 H
   0.0982427741959551    0.0912753164989267    1.1196296461168209 H
   0.0832871694334524   -0.0123894843624671    1.2036696035369290 H
   0.3589089910728109    0.2082442039906910    0.0283493854425102 H
   0.4839833669863861    0.1899404239738277    0.2623037787555680 H
   0.4906411361142674    0.3216682974042453    0.1550778023218389 H
   0.7044994296241606    1.1306883504977685    0.0863158198660834 H
   1.0247180784853491    0.4266096828212614    0.1584063371724604 H
   1.1639229898798888    0.4999135302455447    0.1364581170564144 H
   0.4103611116384484    0.4197852016865821    0.1822559828219239 H
   0.6306852456471502    0.3982741212290805    0.1994894720110167 H
   0.8024326912845204    0.3181012856518694    0.0883302768954699 H
   0.8287599274299043    0.4191714921901868   -0.0093566734121864 H
   0.9213794799245767    0.4845829767214946    0.1217667963594839 H
   0.1062619496052757   -0.1520153826092766    1.0161427238319565 H
   0.0200612346798433   -0.1742875259118352    1.1019793966266398 H
   0.1693934588307331    0.8312872736331838    0.2137224257212263 H
   0.2752088040225046    0.6724531210212092    0.3130972205760519 H
   0.4316907892753635    0.7253369191293695    0.2631428469158288 H
   0.5304361104778273    0.9599018058837097    0.1457537440715355 H
   0.7280162822724098    1.0256718550080886    0.1316102447354364 H
  -0.1293947918301786   -0.0494478481720113    1.0620120144078022 H
  -0.0948126661792732    0.0603970496033342    1.1108416206664196 H
  -0.0691009445877664   -0.0533646091177084    1.1720353470055744 H
   0.2603965861731211    0.2486051175601203    0.3452924739186882 H
   0.2534916319959895    0.1843035850281905    0.6581310628571936 H
   0.1317050830278179    0.1171237886430275    0.4537061131938047 H
   0.2897992967428211    0.1829755414724034    0.4968987069939423 H
   0.1268921788855122    0.0075705874285052    0.5076077131200085 H
   0.5430791291386434    0.1595831973723838    0.6296492062072819 H
   0.5584676924339302    0.2347771238389347    0.5260308761402942 H
   0.5112420585083591    0.1067237670358893    0.5224009008522633 H
   0.6279259218800529    0.0212896428763613    0.6517811891848726 H
   0.6778196715070104    0.1960445507761154    0.4324799771069154 H
   0.6197787474214601    0.0949727674996314    0.4095983803431743 H
   0.6703334757454789   -0.0695125580413133    0.4594056050252095 H
   0.7329529887738476   -0.0057722009568640    0.5981487845147129 H
   0.6894822734062701    0.1749205595385169    0.6723335049979392 H
   0.7290948316384083    0.2465317068710258    0.5729094062206387 H
   0.7452856621988054    0.0806065327042978    0.4339355176593018 H
   0.7966888213794754    0.1404372958347165    0.6118020184051058 H
  -0.0362695381736277    0.0237765889846081    0.6036082751144927 H
   0.1980813331799076    0.3826228448279583    0.4177276332710567 H
   0.3382388932362437    0.3384240072211624    0.3843500566116892 H
   0.3640240569052017    0.5864571047150341    0.5054648301209688 H
   0.2038154108079591    0.7581130054182293    0.3470878024037422 H
   0.2616856694944798    0.8155521434295645    0.5056580238312569 H
   0.3646808389121231    0.9068517335688885    0.4062400273678493 H
   0.0214958032593912    0.7012536770327074    0.4899429706343321 H
   0.3600637803096873    0.7620878189964244    0.5578825276040800 H
   0.5125234828702122   -0.1093767990882599    0.4652736732779030 H
   0.6439572782151275   -0.1302284446425345    0.5630544466616612 H
   0.0011383588382594    0.8603057061913411    0.4038580446153733 H
  -0.0930605480457932    0.7311436157775009    0.4627371216883013 H
  -0.1989381441413091    0.7768482383334110    0.5855551342184343 H
   0.1790444472561850    0.1387372854114423    0.8619206090864943 H
   0.1077084088068871    0.0646277247840203    0.7290240010621075 H
  -0.0189714808646082    0.0890965510323358    0.9706589885429744 H
   0.1471768806775495    0.2129780019863597    0.7209072301399150 H
   0.1627053336441720    0.0809663156859520    1.0016830136850483 H
   1.1201843857917033    0.3531915935498154    0.0045552153738903 H
   0.4487192092428834    1.0948146904106830   -0.1617917810097212 H
   0.5789148061343883    1.1409794338315773   -0.0571856388813355 H
   0.5040922274615544    1.0508989489747109   -0.0149499988507516 H
   1.0455133775777619    0.2724346481517914   -0.0471903261028234 H
   0.7584478813747841    1.0128744746885336   -0.1026832430655285 H
   0.2217408732929193    0.5200261156191783    0.7592713680723697 H
   0.2575757109506361    0.5530281054853636    0.9211387113028533 H
   0.1424989700680827    0.3666304196235145    0.7098245959768665 H
   0.2994950498631004    0.4461212442737493    0.8691206460352449 H
   0.4126951708046850    0.5093232169442173    0.9658714459161639 H
   0.4039003071678078    0.6210994756338289    0.7353350418278380 H
   0.4195189889724418    0.4465892488295664    0.7721666668394859 H
   0.5881189170047582    0.5112251931926513    0.9436444610063783 H
   0.5359716846622534    0.4549925465584407    0.7506962301634561 H
   0.5019622673257965    0.4098230116003453    0.8658406523178617 H
   0.6332669095316510    0.5914969332548587    0.8484774889585468 H
   0.5308240245364413    0.6226432456387753    0.7160288462494728 H
   0.3840296788029243    0.6384665298398915    0.9302547361249929 H
   0.4804324775140356    0.7042380123626034    0.7926433971736530 H
   0.5721752015487755    0.6460886254771264    0.9315792156176360 H
   0.9420048130663164    0.4273594934894020   -0.1329209018491431 H
   0.0397325202630734    0.5695960401206206    0.6534607123949154 H
   0.1708133389947908   -0.0159779970898423    0.9224618039059753 H
  -0.0027883442361345   -0.0358298473066517    0.9205104503497985 H
  -0.0177110749258733   -0.1414748879654766    0.9839467770445597 H
  -0.1418491692691985    0.8035295149091495    0.6936971511808447 H
   0.7573175728303914    0.8864308242137656   -0.0516907825987679 H
  -0.2029040163236770    0.7806173592507799    0.8085239756349202 H
   0.0102395808553619    0.7737449309418523    0.6803018787413749 H
   0.0932508112743396    0.0108838876758899    1.1283719042130260 C
   0.3338918216994859    0.2308818638682368    0.1604256483151708 C
   0.3781228374307731    0.2770487573866309    0.2441195767997665 C
   0.3035280690877094    0.3095073459446684    0.3174589881198872 C
   0.5946125955481626    1.0835732639819076    0.1646598220230656 C
   0.9394972907076236    0.2953797719718265    0.0884689658475791 C
   0.2327494909786844    0.3902707416351922    0.2871076043955430 C
   1.0518384890672068    0.5443101768223336    0.0641373760895361 C
   0.9898897470128929    0.4573578688181084    0.0961447059020644 C
   0.4511629419114472    0.3596798711054230    0.2121372109986178 C
   0.5145427902759434    0.4138194694933730    0.2827742680868901 C
   0.9657783632614668    0.3805437005455305    0.0281351110115014 C
   0.0322519200883954   -0.1321570820999674    1.0379217434264294 C
   0.3010254428675133    0.7932176472995082    0.2331042067784910 C
   0.6714015333861273    1.0655790980050335    0.0962091962647952 C
  -0.0747098209599724   -0.0212142012013268    1.1010425527551420 C
   0.1790227643571280    0.2015767516434230    0.6497930830563868 C
   0.1550540680704643    0.0753645949994802    0.5158907720957800 C
   0.2566454446362535    0.0501597187070236    0.5077644732425776 C
   0.1188149492625873    0.1183371603321519    0.6077946011339096 C
   0.1833054866450713    0.2980659604483997    0.6009232570016581 C
   0.5610309608266505    0.1584486625915899    0.5570101740953128 C
   0.6604796472965903    0.0174087168889963    0.5857000641733885 C
   0.6816876209194433    0.1196695040829389    0.4444218586727566 C
   0.0170913769573858    0.1564598224041591    0.6015529048442338 C
   0.7254737874958829    0.1765123483876282    0.6055450663306980 C
   0.2498391126774137    0.6672742528430561    0.5002338295697890 C
  -0.0880007386335799    0.5837185971992960    0.6062995342301722 C
   0.2781227058764278    0.7500522898910098    0.3263995714176085 C
   0.3092670428542577    0.7557271138924789    0.4977528922499830 C
   0.3555033770241426    0.7640150230555240    0.4017388774271443 C
   0.6285204529832298   -0.0660939030164322    0.5252686416595019 C
   0.4308171782778719    0.6857636579440796    0.3922206546438879 C
  -0.0757897692226842    0.6930474715746595    0.6160514478977326 C
  -0.0283231053934016    0.8437743232135827    0.5383369548943742 C
  -0.0412307253675493    0.7317979621166448    0.5197084143393575 C
  -0.1651715752742911    0.7489672073527142    0.6470754730398065 C
   0.1248686747896409    0.0437617452464129    0.9466678801623595 C
   0.5724256740053022    1.0583777047786174   -0.0508877735660554 C
   0.5636653631172448    1.0188997645824907   -0.1520759264697092 C
   1.0686189545922840    0.3933826494167506   -0.1283337647581304 C
   1.0535178645715921    0.3477518468750046   -0.0313055869729929 C
   0.3033280268576994    0.5227232695930012    0.8636396586478882 C
   0.4869717600902956    0.4553199347377626    0.8066634633423748 C
   0.3966505249508337    0.5620807326592154    0.9062546129624909 C
   0.5731079159324065    0.5771292650611919    0.8964694139464242 C
   0.4754440817790392    0.6318234452642892    0.7628592512634355 C
   0.0263387836810341    0.0197150548072494    0.9676681612907390 C
   0.6441391347878639    0.9161874569135637    0.0223933883941793 C
   0.6562892521917285    1.0237546847373218    0.0008085333326595 C
  -0.2434230596260707    0.7019818433860153    0.7050543894690696 C
   0.0213957821443862   -0.0281991512794172    1.0608380124281978 N
   0.6609657639044819    0.1180354299829958    0.5452872130403761 N
   0.4828118609337850    0.5560475590744253    0.8445269341577154 N
   0.6967600335575113    0.4057041414896553    1.0481930472196388 Cl
   0.0204109588581827    0.8077888580565014    0.2682729512543492 Cl
   0.5922715418983592    0.4670812905769784    0.5834366604749658 Cl
   0.7014260535449145    0.5994114421520835    0.4027630953384709 Cl
   0.3290299561722127    1.1856742272616889    0.9145093793920321 Cl
   0.8398608722987512    0.9075806166213631    0.8343346830672081 Cl
   0.2570042616432296    0.1883737195955489    0.1714299232202775 O
   0.3865847636498714    0.2385813630154690    0.0859025267887979 O
   0.4262973429970145    0.2040679979466696    0.2956952243101464 O
   0.5911950908774308    1.1644190800765952    0.2011350164277927 O
   1.0020223782078406    0.2452244475910712    0.1211628059730482 O
   0.8544814412984049    0.2734143759125906    0.1119025446407150 O
   1.1419449236163328    0.5395484992290825    0.0847285248091933 O
   0.2248443256515024    0.4212229002148655    0.2077858451261907 O
   0.6084987437733036    0.4228822021254744    0.2617150441538643 O
   0.2349534527505788    0.8450185129668728    0.1875989747019320 O
   0.3811031868785808    0.7907149338095952    0.1988085092561604 O
   0.5270305663739947    1.0211143650074137    0.1859624450670431 O
   0.4635046382202062    0.6752095460161133    0.3075628379421331 O
   0.1273747982516205    0.0432170538797652    0.6701893737983305 O
   0.3217633871946783    0.1198794969387650    0.4959045845852234 O
   0.2059123569812817    0.3051354810281538    0.5180172689951281 O
  -0.0508012772319831    0.0930262125630324    0.5911727302236186 O
   0.0010117586857006    0.2407207100278946    0.6132478507308445 O
   0.1806832547558831    0.4188102758101994    0.3617798165454333 O
   0.1681176650281513    0.3759166907256915    0.6463702397183311 O
   0.2935539355214720    0.5826442651485001    0.5031143991050976 O
   0.1647176465663364    0.6651091046606313    0.5004787542592138 O
   0.4860893360435098    0.4499942865702812    0.3551123451727821 O
   0.4571049655359393    0.6323774537201033    0.4547132030195458 O
  -0.1599411004630482    0.5383572735442074    0.5872603148846173 O
   0.2868804987504012   -0.0325559655134323    0.5150468498221954 O
   0.4039590608297688    0.8533931427290815    0.3907588730886566 O
   0.5323656786593967   -0.0624258366815598    0.5106013072168386 O
  -0.0265758833984184    0.8859699866496149    0.6157491059821345 O
  -0.0087945072749340    0.8949301596309699    0.4626123016314030 O
   0.1177853612815563    0.1073222108400351    0.8702585888873011 O
   0.4898420863115978    1.0558577905087050   -0.2046217032000932 O
   0.6216833452966961    0.9721165097807849   -0.1924309443096920 O
   1.1443692116205808    0.3886452679252487   -0.1692490859646344 O
   0.2730992677787619    0.5554820834319449    0.7767558842647803 O
   1.0212348256690895    0.6128072662757841    0.0171086458740572 O
   0.9977795244762280    0.4233490599626248   -0.1806423833804076 O
  -0.3018899477608383    0.6450859633429946    0.6773145187129421 O
   0.8952396959387826    0.4166373872767750   -0.0373656007354057 O
  -0.0115139624857005    0.5321486520034233    0.6208854513234998 O
   0.5805010151176641    0.8795849137740037    0.0658515715376061 O
   0.7147344574274390    0.8570884436322862   -0.0048465086895943 O
  -0.2475847773483086    0.7280560757676083    0.7921455038355808 O
   0.7443190245698756    1.0518177573063456   -0.0449005715035000 O
  -0.0073725287658063    0.7014579362952003    0.6815993138883568 O
