Li1 Co1 H90 C51 N3 Cl6 O45
1.0
  13.1821048167000008    0.0000000000000000    0.0000000000000000
   0.0000000000000000   12.8648141098999993    0.0000000000000000
   0.0000000000000000    0.0000000000000000   13.2962307542999998
Li Co H C N Cl O
1 1 90 51 3 6 45
direct
   0.7858105402087960    0.5399910558873982    0.3452441118108190 Li
   0.3742404552003095    0.6911378958952649    0.5255373877247271 Co
   1.1710843694356678    0.2862062773349020    0.0806375428504998 H
   0.1319392412125729    0.1517402846495676    0.2811063861832604 H
   1.0351280843870518    0.3271505144999499    0.1622877503462523 H
   0.3541070998909379    0.0900394319812682    0.1874738354998737 H
   0.5206952685131429    0.2833146692881621    0.2267082628830847 H
   0.6261622875766463    0.1683141735669301    0.1096660703431637 H
   0.6068231908584168    0.0265390974236668    0.1203330031469684 H
   0.3907818196509820    0.0957394754777047    0.3115443356652305 H
   0.9000866759964276    1.0902326636967647    0.1163920366453865 H
   1.0127909838940434    0.5490371251897478    0.0343214092499424 H
   1.0411498844792069    0.4632331570507491    0.1904152706120277 H
   0.3184124967495716    0.5022320182635133    0.2330957874055915 H
   0.1645736350352502    0.6404850069818886    0.2177433161848296 H
   0.4070690516966567    0.4941447657691351    1.0130551752679129 H
   0.5550379100180471    0.5132820807662124    0.2171536753952799 H
   0.7182689743981483    0.4015484802866036    0.2147830787515802 H
   0.1926465418392670   -0.0215362182953574    1.0538208636811279 H
   0.2491580026688197    0.7450259656394292    0.2006241788739501 H
   0.1239450702159580    0.9283383695229184    0.3069121958401841 H
   0.3304227183493444   -0.2242480474537090    1.0230647789262248 H
   0.5950822737475222    0.6630278900365940    0.1258653981060594 H
   0.4518373954631521   -0.1712484476013253    0.1692897347221546 H
   0.8709471716956143    0.6561338922498908    0.0593743739702088 H
   0.7123731026022012    0.9196099107173156    0.1564650475494493 H
   0.9495977373235356    0.8553493630764584    0.1808185659249694 H
   0.9054985583165880    0.7439330621680000    0.2546357264524058 H
   0.0571378332651246    0.2403043315348791    0.6219766736919409 H
   0.3004760591860907    0.1424552690263665    0.4924751606828392 H
   0.2459718650539230    0.2543978115067719    0.4451551335543596 H
   0.2013697314663380    0.3812228076599952    0.5587249886436788 H
   0.5588257724796429    1.2264771507936423    0.6580305004386653 H
   0.5146078643302888    1.0646427097971076    0.5807802617070741 H
   0.6482422212478810    1.1014143254581501    0.5497352228815778 H
   0.7190351646341117    0.1334384267300807    0.3432661076315899 H
  -0.0174238557570125    0.1659581348600299    0.5241671497725836 H
  -0.1098848107371232    0.2549442632424865    0.4454291961866452 H
   0.8850359687870103    0.9911196886387900    0.3905471763507600 H
   0.1267564573590074    0.4680757283827405    0.4116320992270672 H
   0.4090649393311314    0.5253651935630290    0.3221729117340008 H
  -0.2059984449114550    0.5171173479980981    0.7341671152964221 H
  -0.1830210824786909    0.5243178406914760    0.5996282348380272 H
  -0.2765380144968818    0.6746448476329725    0.5814719614955292 H
   0.1832269535620829    0.0144759615964204    0.5706607020749966 H
  -0.0112958510776943    0.6804428326922823    0.5995116604472361 H
   0.3636875122572549    0.7844598817198492    0.3285664529992580 H
   0.5487509018996617    0.9190168201421374    0.5006898195601062 H
   0.6353747769088621    0.8223803674596770    0.5448122487538288 H
   0.6833041484914323    0.9320391614343508    0.4819596241684941 H
   0.0174613167093313    0.6753864051804429    0.4190936123305394 H
  -0.0954091255067755    0.7878520799768310    0.5642347456081710 H
   0.7672945290410816    0.8970001786593791    0.6811520907360190 H
   0.7825963342387204    1.0124258651337203    0.6177784914377749 H
   0.2213650208123975    0.1048931250364168    0.8249153899237845 H
   0.2946082557453224    0.0724612533874573    0.9369320980813448 H
   0.1804231524609737    0.1435287396480191    0.9527914798788368 H
   0.5240510755420749    0.1519641510789927   -0.1221943761975223 H
   0.4356441544771167    1.1611874394286230    0.7426416974605108 H
   0.6465664645832843    1.1547901452822065    0.7363835329071400 H
   0.7868930683936670    0.2430956660767724   -0.1035454820423265 H
   0.0270007644491711    0.0839445129773736    0.8739097261411615 H
   0.7250728954143411    1.0145075120017768    0.7321861027458176 H
   0.1557047934029268    0.5476115313301454    0.7343205422365600 H
   0.3025204974889827    0.4559734408043924    0.7419151757733871 H
   0.2337333035917492    0.4680159311720363    0.8597974560198478 H
   0.5601364129456565    0.6488232541639797    0.8612986333360991 H
   0.5004715103419695    0.5024833238768227    0.7069782068997256 H
   0.4987566855613804    0.3949777673887818    0.9653356364207998 H
   0.3668342024540625    0.3919919488863255    0.9247662442398201 H
   0.5760438118713841    0.4306455194511213    0.7982499381463822 H
   0.4519083249552933    0.3923715113081597    0.7693665645725744 H
   0.6064325096984949    0.5322508740900279    0.9157313529070904 H
   0.3533985635737203    0.5988209770611200    0.9228611930664409 H
   0.5319549498814751    0.6115090733371779    0.9871719000480765 H
   0.3832329493162587    0.6444563041622097    0.8015418485237533 H
  -0.1274556010790850    0.3715188197956132    0.7403147222017523 H
   0.9554989193488409    0.3718460689858491   -0.0626812694665720 H
   0.8330435131412529    0.4063813522946145   -0.0415504689267921 H
  -0.1489392718538176    0.7134017232271801    0.9120949840072528 H
   0.0934567676581719    0.0318815764842162    0.7640650621165341 H
   0.2319073432967357   -0.0609864579695896    0.7805434163244845 H
   0.1478782739331911   -0.1549683833725831    0.8341405607459991 H
   0.0126965237666725   -0.0561733297369516    0.8383447597429158 H
   0.3512107490781579   -0.0821270665844244    0.9215420222183922 H
   0.0910163379659997   -0.1187657615529959    1.0052657496845381 H
   0.0644940181345660    0.0145793443572313    1.0380600060461753 H
   0.3412328281141728   -0.1847737110457539    0.8281960189084985 H
   0.5730690972453615    0.9330558881346562    0.7696207719537833 H
   0.5789274181337045    0.8197786975316023    0.6892987604202053 H
   0.4776086971425030    0.9199021807779537    0.6692223940474517 H
   0.7140670657674547    0.8551006225993195    0.0300608032897397 H
   0.5110808706789336    0.0991410015025794    0.0226474241282715 C
   0.5710009146311964    0.1010360930127815    0.1169395602356826 C
   0.5101373491265755    0.1269074345772020    0.2112279358788746 C
   0.4149903966906454    0.0707457214091898    0.2348090549037983 C
   0.5856371963694189    0.1104454788745521    0.2982706490647687 C
   0.8808484736360032    0.2528400742686895    0.0157108718297810 C
   1.1146601480884277    0.4228751778708980    0.0502635212602539 C
   1.0319813941902443    0.4068854404178164    0.1279938208540512 C
   0.3598929740787516    0.5670894653181048    0.2714833582466686 C
   0.4321098175371634    0.6170381077555814    0.1979865892706967 C
   0.8970226736567685    0.3647748436091843   -0.0039097262796216 C
   0.8538118201610218    0.4349408788343149    0.1719521433892539 C
   0.9282460636785630    0.4360850850291539    0.0829637660164145 C
   0.2111367604643847    0.6931052776066354    0.2607306868586692 C
   0.1495669268690864    0.7748903691759205    0.3157252197839889 C
   0.4230346355640657   -0.0496221274203054    0.2431467561703131 C
   0.7233318987890581    0.7140336795019111    0.1735007025546655 C
   0.7574736391452593    0.8833676458841843    0.0959072838584423 C
   0.8072373156689771    0.7845220668391338    0.1354605986074301 C
   0.8816199741013246    0.8182567167371085    0.2159360370811461 C
   0.8351486397796668    0.8903479255238951    0.2913258237449963 C
   0.2826625155020415    0.2595786092571810    0.6034774460126640 C
   0.1418557152368421    0.1555265811000166    0.5197038999165440 C
   0.1216487753206503    0.0983279310679315    0.4174758606234970 C
   0.2479252708535323    0.2062051213750978    0.5086505718933017 C
   0.0262353328174018    0.3075606472972781    0.4846101497686610 C
   0.0432303425761001    0.2152771529647487    0.5444544781880268 C
   0.5909018336155194    1.0752336129252880    0.6072642334812641 C
   0.2902561434842122    0.6394496247457978    0.3271359724103250 C
   0.2456304931666126    0.5691796626400627    0.4086628366796921 C
  -0.1575661187482477    0.5475672244326550    0.6765748536885710 C
  -0.1619440235519547    0.6635354760727556    0.6659387566913626 C
  -0.1101328743085688    0.6425627672799896    0.4801133114462167 C
   0.6226954664099610    0.9030181435781587    0.5286133722466393 C
  -0.0911745968957389    0.7013611295056744    0.5812285842512712 C
   0.7318540583047131    0.9679036516678274    0.6670488457288312 C
   0.2196794022932782    0.0884288373917937    0.9036204018431639 C
   0.5775651167220779    1.1485926208314921    0.6943204843383470 C
   0.2751887469825265    0.5143857889021172    0.7990960425956724 C
   0.3638528879715520    0.5770375297756793    0.8454888896662988 C
   0.4299121411870787    0.4395968341779607    0.9475516490359892 C
   0.5444107755848171    0.5821709113726338    0.9112699381575895 C
   0.5031796514542124    0.4614069821989943    0.7804516609975393 C
  -0.0538360984659246    0.4937219069579990    0.6886647461528707 C
   0.0626005420662845    0.0137149711991736    0.8394390548306642 C
   0.2069485067091835   -0.0972147311508819    0.8483626364225095 C
   0.3037699185965387   -0.1414765444297701    0.8931407401574687 C
   0.1223368293246292   -0.0380222707317302    1.0058253067603351 C
   0.5556097458595017    0.9048930249245933    0.6945453600986471 C
  -0.1260279079859336    0.7204916041396303    0.7684625489743108 C
   0.8334281254676227    0.9629801448484590    0.0562870328463550 C
   0.6245525294769294    0.9607632453459584    0.6247330939645169 N
   0.4593990103483350    0.5182460079131159    0.8697055271442448 N
   0.1540904836780458   -0.0065791424793979    0.9047823852868556 N
   0.1966489375669326    0.1646973315665320    0.1462869750941233 Cl
   0.6230800787363306    1.4213761970278589    0.3066211359096283 Cl
   0.8087507310360530    1.1176772887790889    0.4597093334306981 Cl
   0.5130775396757280    0.6068249792270557    0.5418062840756755 Cl
   0.3214522237550219    0.8439710408753351    0.5946584053261087 Cl
   0.7418023937051312    0.3069123674287347    0.7748921906960711 Cl
   0.4332856540378991    0.0445805551561489    0.0159342434043936 O
   0.4728643106526634    0.2326889863644729    0.1967268337573094 O
   0.6782306036418060    0.1447467906720088    0.2746857695756259 O
   0.9276748347204636    0.2075055676821397    0.0844687037968850 O
   0.8650073008564140    1.0227571453888871    0.1367594629486958 O
   1.1154673029508684    0.5077349349318172    0.0001891797191611 O
   1.1834754103408403    0.3495464852103451    0.0291582918771637 O
   0.5150509498679338    0.5673382057952436    0.1690490650121343 O
   0.9350810874667106    0.5447329821584552    0.0504507923783634 O
   0.8830924248419233    0.4752764091861043    0.2548560896556431 O
   0.7655292570815900    0.3956314884552625    0.1549202488482567 O
   0.1625496790455968    0.8681019764137743    0.2751768862026360 O
   0.4200571141025253    0.6990820448838890    0.1503595578433726 O
   0.6482854616869405    0.7221620519064164    0.1049060747346690 O
   0.4690826687454586   -0.0942166310873669    0.1689272259714365 O
   0.3777725163276808   -0.1003496384768233    0.3098566393237134 O
   0.7241185713382601    0.6653023107744329    0.2531721537783451 O
   0.8611133855284937    0.7295714088691917    0.0524287965575925 O
   0.9090040682971685    0.9389541466988127    0.3400997967591358 O
   0.7438271082989788    0.9039361514015996    0.3022717829938557 O
   0.2577560226038769    0.3585539997387382    0.6076365194389518 O
   0.1078527994481472    0.1730239190387573    0.3472747624891151 O
   0.1434267845226638    0.0770847170062769    0.5937777046060032 O
   0.3325703268226236    0.2190642267291887    0.6711620414916463 O
   0.5601079652883807    0.0686034440498309    0.3777435477776815 O
  -0.0592525324112491    0.3131635265448321    0.4304088491657113 O
   0.0886100454625586    0.3850767304276663    0.4841792005691560 O
   0.1710748729780278    0.5212355575227292    0.3664659155847003 O
   0.2813706125596203    0.5605468134553602    0.4948567378820585 O
  -0.2007314559923530    0.6143136222169192    0.4623606111237089 O
  -0.2662285835001086    0.6920815550804107    0.6557855032998824 O
   0.1124901468862100    0.0083452861489372    0.4068502929261020 O
   0.0976670209349998    0.7594637957093612    0.3910841706412427 O
   0.3547632925187678    0.7172595325648065    0.3735483738948907 O
  -0.0404512860665820    0.6272939885536153    0.4138823610157568 O
   0.4956977658698213    1.1300326946669736    0.7690190976787327 O
   0.5483090149566433    0.1618282656255328   -0.0467316365278223 O
   0.8158732658137353    0.2064181054086480   -0.0439173051062727 O
   0.2131743713295306    0.5890983336609525    0.7563606230245101 O
   0.0259144432433301    0.5350619524072942    0.6553462810790953 O
  -0.0545552552418584    0.3985690357588740    0.7334503708162680 O
  -0.1749502924584798    0.6852652886928132    0.8484085140859821 O
   0.2793140365896238   -0.2163746340382712    0.9710462773838745 O
   0.8606953946175869    0.9662946117063350   -0.0315423694541679 O
  -0.0638868454325359    0.7897712682207562    0.7605061587796093 O
