Li1 Co1 H90 C51 N3 Cl6 O45
1.0
  14.1793491350000007    0.0000000000000000    0.0000000000000000
   0.0000000000000000   13.8380549509000002    0.0000000000000000
   0.0000000000000000    0.0000000000000000   14.3021088564000003
Li Co H C N Cl O
1 1 90 51 3 6 45
direct
   0.7583598485248808    0.7046265540928377    0.3111138694912723 Li
   0.6932122884214459    0.7274281689960563    0.5671232480215957 Co
   0.1701114091510802    0.1907638743137317    1.0336646557954665 H
   0.0026199412854785    0.2790118256575422    0.3122626511265518 H
   0.2571527809552028    0.1026467216989638    1.0111260215816908 H
   0.3126786018165141    0.3319029293998639    0.2090044522953250 H
   0.3399774570964466    0.2311929665514102    0.2797667440777094 H
   0.4693922830189201    0.1341171849645889    0.2181793230306489 H
   0.6142587349584999    1.0151564670934017    0.0825713494462422 H
   0.7092285383802985    0.9849773702852307    0.2597284404346942 H
   0.7686233661669407    1.2079631880861139    0.1184338928760162 H
  -0.1742443122231506    0.1532506542953188    0.3018844613441702 H
   0.5515071240397946    0.4095222193803638    0.2119935219793297 H
   0.3966239217791854    0.4832150182323929    0.2940429604070678 H
   0.4693606877746155    0.5343068084087297    1.0218090615119617 H
   0.3553766124399757    0.5503628221179070    0.9703886725760383 H
   0.4173942686544899    0.4325081087361011    0.9586855033664781 H
   0.9749346694678167    0.4677459005883647    0.2476211350199047 H
   0.7427836751831275    0.3920775712085989    0.1758862593941402 H
   0.8659818546882828    0.4244060307780491    0.2915957688529120 H
   0.8577656806671189    0.4863455882549656    0.0288128437797198 H
   0.9626569550013410    0.4831120413324561    0.0855534271543779 H
   0.1794454059897157    0.7228357605813270    0.1490286816860729 H
   0.2412218663660121    0.8336121670516815    0.1226381679660560 H
   0.3784129307427481    0.7191293148285108    0.1936850331663093 H
   0.3304911260441998    0.8574710114609189    0.2987891136269564 H
   0.5662262058546879    0.8674890378737264    0.2770811261464201 H
   0.6594914176362158    0.7536298282094720    0.1296147614881609 H
   0.6167475656984731    0.8311421667430198    0.0362460133260715 H
   0.7235754592483274    0.9882372214825310    0.0293001844977903 H
   0.8627955307202470    0.6694359148210715    0.1771336278891728 H
   0.9285587749370274    0.8982448053215440    0.1182926549634620 H
   0.1345223284961450    1.0470027057131823    0.3468981027913133 H
   0.0946333325616359    0.1816498766856331    0.5618757002121400 H
   0.1440453325998168    0.3572822187036080    0.4775245033283216 H
   0.4500573334814073    0.2064026328508138    0.5110706121446662 H
   0.6073606750356668    0.1320677639946168    0.4608876561060656 H
   0.5159996340833454    0.2327589380753627    0.6138230743693111 H
   0.6510805943421041    0.1539581236640080    0.5793738889417001 H
   0.4504708221362235    0.0650937562103998    0.4398571211674783 H
   0.6500050865839689    0.0335112829834398    0.5309923525579689 H
   0.4035939173028903    0.0025264370985697    0.5339733814697243 H
   0.6647723370414067   -0.6984608067314680   -0.6367540383895745 H
  -0.0816716569127628    0.1995562949560624    0.5386374488929105 H
   0.0411068982539726    0.4299810917438954    0.4930334749231464 H
   0.2997718034679030    0.5275546311459907    0.3995113228104908 H
   0.1285530841257475    0.4654588595184821    0.6441899247660379 H
   0.9949017354667175    0.6281822847389861    0.4239252049523367 H
   0.4812051665585848    0.4613692457540622    0.3668056564855779 H
  -0.1268281724836730    0.3175396391321755    0.5234899624505139 H
  -0.0739562110937471    0.6975265678340312    0.5453308673923204 H
   0.2349585323332262    0.8173280866083281    0.3812846401151378 H
   0.0925133480888790    0.8082877987612370    0.3664728384342127 H
   0.2256901238365621    0.7304408756335082    0.5789450011418946 H
   0.1690048703494316    0.8935338831412734    0.5494813741879274 H
   0.0336002067276835    0.8585679864370888    0.6799070350977363 H
   0.5113572910270257   -0.0420773747947959    0.4895792990043347 H
  -0.0114921310032331    0.7357335269678085    0.6783121654020136 H
   0.1143429819495731    0.0831692733901991    1.0663451510072510 H
   0.1679201943284402    0.2503835248301752    0.8780449480763468 H
   0.0806672472276352    0.2067220419018462    0.7962933678206289 H
   0.1692453609366605    0.0677704329638470    0.8120868429135639 H
   0.0490578979032947    0.2748819099863891    0.9081691769104189 H
   0.3445432519988513    0.1932107499852145    0.9455007344702732 H
  -0.0115788768748729    0.0725124288753268    0.8358197066057677 H
   0.3272159404515572    0.2418649866094311    0.6230678648633250 H
   0.3320835827772288    0.1164145525592978    0.6307939981985886 H
   0.3507275979208759    0.1841921414854785    0.7797293769869281 H
   0.5529486570611902    0.0885060060641214    0.7152710506480493 H
   0.4700923856756419    0.2883455073388395    0.8070344411506124 H
   0.4496982196778385    0.0233855824787683    0.6859991436724105 H
   0.0433813326933077    0.1950375963223405    1.0560977111736198 H
  -0.0125013451684078    0.0129455314374474    0.9438771976734875 H
  -0.0535984360469730    0.1450703138933147    0.9290772823515396 H
   0.1782260270298366    0.6355814459912934    0.8351379889585385 H
   0.6077090690242037    0.3576435411595269    0.8009178606603966 H
   0.5959490087836109    0.3544487280042919    0.9334654464069346 H
   0.3606525950882442    0.5745121697817032    0.7753265297822082 H
   0.3638403295582579    0.4527140553804895    0.8132992515292515 H
   0.5235744596961008    0.6736207515055244    0.9298170333984817 H
   0.6098234114890492    0.5234570899668879    0.9205638525334249 H
   0.5947493768514219    0.5162672066810486    0.7955228520798632 H
   0.4549095308104210    0.4985715116669113    0.7360190398417698 H
   0.5245081414803600    0.6652171138257623    0.8033007260365574 H
   0.1312718266881155    0.7858301628360532   -0.0211273438647326 H
   0.3081720479971805    0.0236421214224707    0.9153918879831131 H
   0.1444988089857059   -0.0147556159680317    0.9097018180209073 H
   0.2974966637775789    0.7363846300333743    0.6816802001781188 H
   0.1852496216287011    0.7673355116073880    0.8353190811335460 H
   0.5667655112859311   -0.0269177298342622    0.6724535888213644 H
   0.4210545212870943    0.6845984503612526    0.8657558512889630 H
   0.7574310329724453   -0.0945739144152541   -0.2236750960239321 H
   0.3923169539897220    0.2168723123335201    0.1463871132027584 C
   0.3658517053787180    0.2827594621703332    0.2333826753602390 C
   0.5289887420633006    0.2736187266804966    0.3160879611244909 C
   0.4506323951377899    0.3396200544133799    0.2710211806607432 C
   0.6888538373097899    0.9922182723018456    0.0986654795015450 C
   0.7361775891697161    1.0760783237409770    0.1449558557423706 C
   0.4220023786162311    0.4245819948140815    0.3360143931536018 C
   0.4237422328059489    0.5140341616389786    0.9635903744385933 C
   0.8674219772077005    0.3552638714648451    0.0964497223486536 C
   0.9003332198576264    0.4926349114516725    0.2665770807983961 C
   0.7467493014939433    0.5373539129439850    0.1894115375151662 C
   0.8587643160674595    0.5292089098781698    0.1754310817650672 C
   0.8886570844847174    0.4630417351380197    0.0937934707160141 C
   0.9131751351152549    0.5711576521009520    0.3437999582837519 C
   0.2965706692290992    0.7050543598806457    0.3047378866963159 C
   0.1761758624049848    0.8036910544770366    0.1550040242637347 C
   0.0875751806643133    0.8332609616245283    0.1016657363469401 C
   0.1757978478749123    0.8346419360510503    0.2572392970253242 C
   0.1676197574071512    0.9473087816107727    0.2607282929839636 C
   0.2693324655342157    0.8085573453133527    0.3107153268667384 C
   0.5294384806189484    0.8102895251670278    0.1556913354916590 C
   0.6284272273263267    0.8256197143267553    0.1098687224364706 C
   0.6976031810785933    0.8982780469874886    0.1527938606915384 C
   0.7984639460110169    0.8577853619975684    0.1611199055563636 C
   0.0728361402464331    0.1896293218021463    0.4314765388908748 C
   0.0147488477932877    0.2846325577818168    0.4441922860457861 C
   0.0846512100641635    0.3328170752133388    0.6119925750868025 C
   0.4632105465255546    0.1830640927780997    0.5833590355080048 C
   0.6167630812202298    0.1051188899423609    0.5301412193354336 C
   0.4648544160556775    0.0256987688415612    0.5045854776144185 C
  -0.1644095871823668    0.2274518338428258    0.4166101997981713 C
  -0.0892093794825654    0.2546037711153081    0.4876336418792634 C
   0.0677124918117760    0.3600694601285665    0.5054902392918693 C
   0.3479510247774147    0.3935373139305113    0.4080324438020615 C
   0.0471001211579942    0.7756900094331449    0.5476259834713252 C
   0.0448278024716259    0.7851364237206888    0.6518027880922233 C
   0.1048206830968903    0.1519636237073356    1.0313985564163182 C
   0.0976786063318836    0.2191009492416280    0.8702908468376073 C
   0.1651563157027799    0.0602729920035297    0.8902557347339978 C
   0.2648555322564176    0.0864717606372979    0.9352029524103853 C
   0.3776145866232667    0.1784384426974258    0.6433117325968892 C
   0.5213846694804585    0.0392772667349937    0.6656014524697279 C
  -0.0048740557230097    0.0865433024835698    0.9143472867882820 C
   0.1386459310284837    0.6318894531367140    0.7033839924731339 C
   0.5667980233565213    0.3755196083436590    0.8632086744798801 C
   0.4083007624030833    0.5143326139875677    0.7918905206159090 C
   0.5640163724059397    0.4917999675205351    0.8643917167969178 C
   0.4873610908657550    0.6470050167576257    0.8648580815873812 C
   0.2549009145475138    0.8801916901340118    0.6520929550907875 C
   0.2309407174492287    0.7669460059999074    0.6480033484049995 C
   0.1355463529320875    0.7440063659185276    0.7024163030128620 C
   0.5192954621608589    0.0876446133292107    0.5733891771163738 N
   0.0869531492920673    0.1299728163951990    0.9292311058206579 N
   0.4723088484836860    0.5412340102691158    0.8724457738004383 N
   0.8388141760922935    0.6533397220547960    0.6180944724276934 Cl
   0.6391209480716408    0.7457602251195581    0.4158480744284485 Cl
   0.6958358221003069    0.8729688542401928    0.6405324221889551 Cl
   0.2459794895374088    0.7103860340401851   -0.0545552812969149 Cl
   0.5876037738314707    0.6173816338866581    0.6386229135791266 Cl
   0.7867990946539311   -1.0991168252017089    0.8618906870285705 Cl
   0.3620976543645845    0.2421316425818992    0.0706402418233520 O
   0.4479456004452209    0.1380223580681604    0.1559640225505506 O
   0.5270819549645005    0.1860804126401108    0.3220164574638302 O
   0.7529244791531117    1.1455505149854173    0.0865567756915818 O
   0.7545162306351517    1.0858333074058757    0.2309159062736498 O
   0.2809930853853680    0.6528541046740409    0.3733347635520657 O
   0.4979692646661105    0.3753909775493519    0.1889661486523098 O
   0.7972008414898234    0.3277079756866453    0.1512786995207225 O
   0.7117420529048846    0.6169097467592278    0.2025977048065450 O
   0.6959331467367806    0.4604474399045219    0.1880467038255342 O
   0.8952885595337305    0.6165137373475409    0.1437553334856604 O
   0.8454893767026210    0.6264522728200463    0.3608219235368733 O
   0.2105561428648749    0.9986209062207286    0.2080682267264637 O
   0.0739631313267610    0.8165931567329890    0.0102330663029815 O
   0.0288926563765016    0.8843071529069280    0.1458347471091060 O
   0.0946650688561383    0.7889780040720187    0.2970851691076770 O
   0.3390091474886305    0.6670743112491856    0.2276618407042094 O
   0.4637219240176358    0.7763765220993909    0.1100134563369593 O
   0.5123052047762416    0.8339019476613284    0.2457976277132651 O
   0.6740682503266395    0.9195100771421955    0.2512143114189925 O
   0.8213563931120453    0.7903835484255433    0.2091715605185946 O
   0.8569405370100579    0.9078978960538736    0.1068069362034282 O
   0.0839466643262113    0.1568075125513845    0.3513694713595495 O
   0.1085585133382781    0.1476544920980467    0.5017403727135570 O
   0.0637701387835952    0.2506769186643814    0.6457449401993072 O
   0.0096611671590665    0.3320026543976975    0.3593710885440524 O
   0.3337289333344284    0.3103695563169206    0.4329077963512625 O
   0.5978722282304533    0.3315257087558846    0.3438544956955303 O
  -0.1273881417688923    0.1705710075422475    0.3496025990574490 O
  -0.2479966396426559    0.2492728196006805    0.4236476235103367 O
   0.1239273428892828    0.5925226489194371    0.6298423902828154 O
   0.2942384042086710    0.4675875474088337    0.4368799378424509 O
   0.9932895317059981    0.5727207330452573    0.3832291086043114 O
   0.1256495658042769    0.9767666787969294    0.3386370833020700 O
   0.1055696596471457    0.8191679405538672    0.4951899401206685 O
   0.2138468439792741    0.9348474927510414    0.5890658862122964 O
  -0.0216879445503547    0.7304640002706870    0.4985853834421805 O
   0.3051817838040702    0.1663681047349988    0.8948089094199014 O
   0.4040311729160338    0.1872532653320235    0.7362120183757546 O
   0.9147457290676269    0.2978294991617990    0.0497663970639893 O
   0.1240810876048719    0.3977676772444099    0.6660608252843223 O
   0.1724253376457960    0.5901270810366948    0.7798838996536334 O
   0.4763756077863160    0.3298730198425114    0.8577521365116995 O
   0.1358164640608520    0.7889967928397266    0.7883232145275366 O
   0.3088244051619510    0.9140367645799359    0.7120924984179943 O
