Li1 Co1 H90 C51 N3 Cl6 O45
1.0
  13.4374133915999998    0.0000000000000000    0.0000000000000000
   0.0000000000000000   13.0891375614999994    0.0000000000000000
   0.0000000000000000    0.0000000000000000   13.1322069976000009
Li Co H C N Cl O
1 1 90 51 3 6 45
direct
   0.7854121837464241    0.8213841615068124    0.4100947768934976 Li
   0.2789322681806479    0.1407732382781101    0.2561269023108381 Co
   0.0545230078474770    0.2226823782013929    0.0616173274566782 H
   0.3235941374340832    0.3134011130623260    0.1827812719704064 H
   0.5406387363464881    0.0570511446832425    1.1559748869001485 H
   0.4144561184134911   -0.0329654812758001    1.0576662019825303 H
   0.6592703474716251    0.0665529166231920    1.1047778565667954 H
   0.1558520330340627    0.4748128936378739    0.0903177583948199 H
   0.3068468667025987    0.4191032644454342    0.1052566030258749 H
   0.2088533048744610    0.6780989380772350    0.2691734526760061 H
   0.3351231419742607    0.6932832845680685    0.0107652505649535 H
   0.5360037669379458    0.5658303494788280    1.0896014281083937 H
   0.4870125674551997    0.3853798813786727    0.2935775760696268 H
   0.5000709734806995    0.6559462180345579    0.3364485116330770 H
   0.0093662516834286    0.4833087169476609    0.2331696035068292 H
   0.7178031898482445    0.6042621405450037    0.1414325481725530 H
   0.6807305788120008    0.4945593436072163    0.2794862660534339 H
   0.0211207460490435    0.8756153892454452    0.3097051013240419 H
   0.2575375256344584    0.7890321445759526    0.2322878019937921 H
   0.0130470195930412    0.6895481263293926    0.1112708243989034 H
  -0.0453808918747115    0.9242251618152955    0.1583984702023168 H
   0.1643551576064917   -0.0067628381766244    0.0029029011503525 H
   0.6352858207917009   -0.0451488661054515    1.1680094215392143 H
   0.4811539994625523   -0.1571379099299720    1.0782210104811576 H
   0.4423623075789157   -0.1059359115667431    0.9502828809415416 H
   0.6515062044063221   -0.1734078894453829    1.0510290845493426 H
   0.4625822704603023   -0.0461199002885886    0.3399163217283888 H
   0.7290598205398743   -0.0737764206895030    0.9919171622241868 H
  -0.0580611596490522    0.7470522969795590    0.1918064114630797 H
   0.3044408977070917    0.0441580110289377    0.5297589734970992 H
   0.1409161228145065    0.1674113569747588    0.4698152031815792 H
   0.1150428397749793    0.1895579650792258    0.5955580429267783 H
   0.0722712152628331    0.0772992319811827    0.5341752151852328 H
  -0.0038312287268160    0.1585796062610966    0.3456807754880526 H
   0.5663169669660577    0.1056257736083844    0.4429348014285066 H
   0.4722866678915458    0.1515126777056143    0.5165315700582298 H
  -0.1218807337745371    0.1784456974209026    0.3868794864205621 H
  -0.0555718412791262    0.0784765440789122    0.4457628104605593 H
  -0.0532455007038231    0.2696709591610017    0.6325335490308736 H
  -0.1110542453901772    0.1532698599410315    0.5964390829531893 H
  -0.1445190192194250    0.2757095541126268    0.5358463737348971 H
   0.2747744739406548    0.4723917257151519    0.5169905941964498 H
  -0.0690930447060877    0.3746068262910127    0.3197018977516334 H
   0.0695459883956674    0.3196100782915590    0.3928906618470862 H
   0.1675239222161015    0.6290888335546201    0.5685557271648652 H
   0.1361183244495100    0.5797530391246319    0.6886246539102452 H
   0.2270249568794996    0.3999201823806121    0.6287192625206811 H
   0.4255304223485790    0.5505068035952584    0.3994950353553510 H
   0.3524218581204284    0.4197816895867605    0.6050058074969435 H
   0.3736610647804252    0.6383163322673893    0.5592534826889500 H
   0.4406047520649383    0.5613891859776524    0.6431684712511464 H
   0.6470246871496123    0.6605897630897168    0.4881442776504776 H
   0.6781273992430916    0.4606162363618001    0.5586018785829864 H
  -0.1517443681143763    0.3635465101074757    0.4199542772824013 H
   0.7545818455014927    0.5518147583722298    0.3822207112420121 H
  -0.0789572943304134    0.5525107553359103    0.5378038512559793 H
   0.0463711413529569    0.3691587973689431    0.5215952276758833 H
  -0.0253911816401575    0.5345243143734073    0.4041149747159694 H
   0.6785791230848092    0.5868818510544921    0.6964793884585850 H
   0.1622543068566259   -0.1444846698504155    0.3762346648741497 H
   0.1968018783624783    0.7008979955856353    0.6732883132603600 H
   0.3327945688264286   -0.0799808019650783    0.5731467300336914 H
   0.5636932477298811   -0.1762820283887044    0.6463644306209363 H
   0.3859015157665368    0.6853392928794302    0.6855337796948586 H
   0.9468435497975737    0.8622210766579084    0.5008951275289940 H
   0.6813795132271205    0.9845476999726159    0.6645045650281639 H
   0.1459498296767426    0.2447082755262095   -0.0251076229045322 H
   0.4964926062310874    0.1165760749041388    0.9701302683645112 H
   0.4201067594845967    0.1341532452042448    0.7704136479610010 H
   0.6222714113288410    0.0953982090059800    0.9461990281657057 H
   0.3813671609599720    0.3069041227449399   -0.1231665402087859 H
   0.5702155595354245    0.0742020072931907    0.7813577337514752 H
   0.8074059999212505    0.2053787171361909    0.9853889373785331 H
   0.9209896157199652    1.0209633918209469    0.7184132492371001 H
   0.2216675270005466    0.4593567950943717    0.7782950345412547 H
   0.2385249379767991    0.5431804232627554    0.9236255186212570 H
   0.2022441459975363    0.6409238379062931    0.8430061680282084 H
   0.3544564758852648    0.4701846284282402    0.7710624345664480 H
   0.6092599786293531    0.5052351424781074    0.8432323295561636 H
   0.6535914271484843    0.3920327261204176    0.9095722829363695 H
   0.9830826670896270    0.3269680879042994    0.8298187426372099 H
   0.8517954953261379    0.4805313758257426    0.9765374168366131 H
   0.9214584559510725    0.4814429714097860    0.8660578911738551 H
   0.9774446772628529    0.7391694246730222    0.7018722367447067 H
   1.1756829782192855    0.8680755494709529    0.7767042889793079 H
   0.3462249809705408    0.7205134972788252    0.8663731466370652 H
   0.3826531227367230   -0.0019267670678457    0.7872295571254208 H
   0.6299283909127480   -0.1387547277784028    0.9174635688427628 H
   0.5361268561033826   -0.0575790204403377    0.8188114534567683 H
   0.9182658772344856    0.9237912142023751    0.8087887664838891 H
   0.8497132493473476    0.7395277370505920    0.7139874889661402 H
   0.7181715643155431    0.6430209967046497    0.8224856264277562 H
   0.1714450637680120    0.1217353147457789    0.0706569351952476 C
   0.1385049444830983    0.2325577423644376    0.0576842490328124 C
   0.1488097550864962    0.3249717760864102    0.2205951748498503 C
   0.1797837221641319    0.3273309842355270    0.1090830733220851 C
   0.2953297692159095    0.3376380040346633    0.1062366363136804 C
   0.3509781278849556    0.2945885672514941    0.0184798715740889 C
   0.5987840041320590    0.0112520996977834    1.1185699023389264 C
   0.2345412843940744    0.6847991503401085    0.1138629248741869 C
   0.4650616166729318    0.5248791410832022    0.2453137922200551 C
   0.0151002421289533    0.6211394939200479    0.2572150666995514 C
   0.6800555977173751    0.5595558337122913    0.3360060879033063 C
   0.6879060669204692    0.6647099734356322    0.2857517780130792 C
   0.2022180993180304    0.7397737425635504    0.2105382209787960 C
   0.1006687936419086    0.7878640003855383    0.2062936945248506 C
   0.0892558828732433    0.8644374182513629    0.1107058013223287 C
   0.0148301008529345    0.7127223040454406    0.1901151496664861 C
   0.4710568181043591   -0.0864732083288068    1.0290145061884597 C
   0.6493063762743336   -0.1050214128120499    0.9945420066243930 C
   0.0845302710200204    0.1624026236115434    0.5266151759611980 C
  -0.0516075366583202    0.1547703407716226    0.4122988237841146 C
   0.4281589044061512    0.1243496963151692    0.3587037197678112 C
   0.4864286009006763    0.0930443488027972    0.4549264643705223 C
  -0.0902749486711713    0.2290609497159573    0.5732030800440236 C
   0.0129346467757441    0.3281201882569121    0.4524028215429262 C
   0.1921216621506801    0.6223259739250926    0.6481485937859155 C
   0.2801631598350148    0.4580453259529295    0.5998589193910560 C
   0.5922514969119661    0.5455783658202789    0.4070520286328814 C
   0.4868301662795738    0.5688119821354205    0.3463942884567192 C
   0.3789597035827789    0.6185984556091793    0.6370415498574534 C
   0.5941901140580520    0.4300894733781731    0.4329794298733755 C
  -0.0744668467835872    0.3848909263218610    0.4046190788624552 C
   0.2806885585701921   -0.0583651684926178    0.4118324893742840 C
   0.3456832100368170   -0.0239190487325065    0.5075247062445831 C
   0.5207698827048416   -0.0491407257489537    0.5819677911105667 C
   0.4568116658253007   -0.0155533333073680    0.4851874511241294 C
   0.8996082686089503    0.6926094433803999    0.5707990667653896 C
   0.7981415681164046    0.9035614627190653    0.6147992869953632 C
   0.9062791953258463    0.8746321311858879    0.6443449680884886 C
   0.5516242583140029    0.0596739301676717    0.9424106322008010 C
   0.2851373314298088    0.5145366621105474    0.7728618274639494 C
   0.2645277102230130    0.5881396115389126    0.8561829326064414 C
   0.6508044324413474    0.5255616153835927    1.0020289431323210 C
   0.6641931698982501    0.4770659068605893    0.8993843533656241 C
   0.8583183280652714    0.3389620026494364    0.9082998387841372 C
   0.7596713666769557    0.4650480027579776    0.7349100955051793 C
   0.7681558864783090    0.5029047368378060    0.8458845874749098 C
   0.8528202461169863    0.4532929119984022    0.9029237432037903 C
   1.0591278083843632    0.9357133136735426    0.7348103407571587 C
   0.5329754311404152    0.0273272611827459    0.8391477152937015 C
   0.9470883885849298    0.9408251859940542    0.7333528553547812 C
   0.9064630104640740    0.7609149368324483    0.6652112246171954 C
   0.5673914297052205   -0.0314161049395279    1.0180407224195671 N
  -0.0106063421617358    0.2198021273198612    0.4907614081911614 N
   0.2811253985950490    0.5531839089305303    0.6607831798863573 N
   0.8816963392081283    0.9405532047437027    0.2803330391816699 Cl
   0.4185714937754316    0.2497078409821096    0.7321390456727597 Cl
   0.8185547229406411    0.0959223077075001    0.0173186044692689 Cl
   0.0440663823121016    1.4128463540023128    0.7385088813001821 Cl
   1.3259738073503178    0.8517299347201913    0.7767172342519518 Cl
   0.6391050081981166    1.7341738654780199    0.7367224336753245 Cl
   0.2241040078206177    0.0850552815698590    0.1416023596901759 O
   0.1872033048691132    0.2560795365661877    0.2787658997051324 O
   0.4488287306521478    0.0690473514052082    0.2785039483057501 O
   0.3968262373421763    0.2116297019406186    0.0312302036416996 O
   0.0860506529123250    0.3905650969577061    0.2557408285913996 O
   0.1923932918083850    0.6114589477874516    0.0680739725594774 O
   0.1330090951073423    0.4092500560584012    0.0535234861077393 O
  -0.0285257134709881    0.5419707942917397    0.2154764617491289 O
   0.4529685154737395    0.4224877502293030    0.2347748173146722 O
   0.4630182174561477    0.5835655133816663    0.1705746413538394 O
   0.7136922796313623    0.5325459563740104    1.0692583128918254 O
   0.0541270983189866    0.6163408584328064    0.3411560219556982 O
   0.7172956516933001    0.6723285044145801    0.1889630204011794 O
   0.0875918721482344    0.8425230637988814    0.2990001223341667 O
   0.1564570601894438    0.8689174689594005    0.0499201313929797 O
   0.0102384433514565    0.9239004650978814    0.1047989495635819 O
   0.3227472482547182    0.7135649875261646    0.0842167275464147 O
   0.2783175665443074   -0.0122123950832465    0.3295875171318127 O
   0.5525608969090370    0.3607564103145437    0.3875907149293502 O
   0.3733194811834756    0.2015220841255883    0.3581356507447321 O
  -0.0738744708725375    0.4905570936687569    0.4391684885757592 O
   0.5978024164101061    0.6069720211489275    0.4987181134136039 O
   0.6557778598452983    0.4061642912545533    0.5047710183072388 O
   0.9320929430979313    0.5998951606938537    0.5942124960584394 O
   0.7125998074737984    0.5277383057779089    0.6613542948559409 O
   0.2171324280031388   -0.1321538345114442    0.4351169989815330 O
   0.5085837948598131   -0.1392673665957789    0.6123564378987977 O
   0.4790233066598811   -0.0842515187894184    0.4052465438423710 O
   0.5820278031104582    0.0137557023871148    0.6104359686277444 O
   0.6901267323960625    0.7412398437417095    0.3438509231255068 O
   0.9709955194171790    0.9015735548162150    0.5586718592039260 O
   0.7524251804383998    0.8744472450550309    0.5386279320827571 O
   0.8685085332788430    0.7185706649202748    0.4870664847096120 O
   0.1421805030568097    0.0679418545814479   -0.0058770396487129 O
   1.1091910147764898    1.0087372234238245    0.7130866502874503 O
   0.3449278563311444    0.3434397613806452   -0.0682191882418337 O
   0.7893764883672301    0.2984291564242951    0.9607182936657733 O
   0.9316933126152258    0.2875231666805643    0.8815160696839182 O
   0.3439752920520695    0.6520338135877876    0.8997719500583149 O
   0.5578398890731348    0.5531282138935903    1.0129075410729498 O
   0.8010364704957804    0.3881684531870522    0.7045572385883756 O
   0.7811390399257618    0.6098874156751676    0.8521904582257390 O
   1.0982901073078273    0.8503784323834727    0.7736172221970520 O
   0.4236081774010397    0.0581612254606604    0.8127347901803987 O
   0.7544054722716952    0.9638786529304518    0.6864079663416347 O
