Li1 Co1 H90 C51 N3 Cl6 O45
1.0
  14.2581106947999992    0.0000000000000000    0.0000000000000000
   0.0000000000000000   13.9149207351000008    0.0000000000000000
   0.0000000000000000    0.0000000000000000   14.3815523054999996
Li Co H C N Cl O
1 1 90 51 3 6 45
direct
   1.0258154224622649    0.5683398431189961    0.3693256499626058 Li
   0.4928972706364992    0.6247727912434653    0.6581143642665312 Co
   0.0780061166382746    0.0265868469280462    1.0191317210656583 H
   0.1725509009266750    0.0944219440852286    1.0592894166837545 H
  -0.0244022620912104    0.1745100754670270    1.0297188952987046 H
   0.0093862257605286    0.1307843502844734    1.1358680763864917 H
   0.1409366141779829    0.2406994571770322    1.1361003183537737 H
   0.0438985121730239    0.0729299064593419    0.3359989276576219 H
   0.4228785969587800    0.1772891067483520    0.1065424733124265 H
   0.4869760794066689    0.2796533262158057    0.1188860643399480 H
   0.5760690193614192    0.2147144007844417    0.2817940696951144 H
   0.7751440623848396    0.3058087033773836    0.0346441150521323 H
   0.7520856076542347    1.1447081999842617    0.2043594523225440 H
   1.0430238735152846    0.3470428584920930    0.1441072638526934 H
   0.2063001128875202    0.6088934338107899    0.2871411976244542 H
   0.2246482661316531    0.3619994654294953    0.3254527782032270 H
   0.4013757480496455    0.3630918180407221    0.2358518802871380 H
   0.8678155269486468    0.3258928997102484    0.1357423810191489 H
   0.9516085361048826    0.5189424363291643    0.0297955424836945 H
   0.8175536082877571    0.4039004586941767    0.2275620936585829 H
   0.7315085476018814    0.5691181443544951    0.1264151542253694 H
   0.2182547121783059    0.7212239335496206    0.1329652121050028 H
   0.2356721670792958    0.8510672890667309    0.1513331875772316 H
   0.2312550320641378    0.8533957248959247    0.3300955315431752 H
   0.5438525490427026    0.7390335930308192    1.0148686207620454 H
   0.4041110333083174   -0.0159502261367646    0.2617079208661367 H
   0.4189103292681220    0.8539239348756956    0.2131603103461660 H
   0.4774861124049856    0.7220202011109621    0.2835025083586238 H
   0.7036086379634270    0.8130728218279493    0.1436970160661771 H
   0.7128244452195680    0.9845010351402156    0.2242717673436758 H
   0.9650612300911872    0.8077389790118145    0.2460906915692613 H
   0.2157045846909902    0.1889736864233099    0.4608353821558890 H
   0.1175197669429725    0.2007279754425368    0.3813292220619807 H
   0.2894843457349029    0.0374967186326736    0.5602524666004665 H
   0.1793757883246589    0.3138475562123721    0.5900806792222670 H
   0.0877493430007032    0.1010134297103417    0.6363837476153315 H
   0.3667575570027759    0.3067731357486114    0.3414357538318101 H
   0.3642894880732204    0.2067905324348454    0.6012894831521703 H
   0.5627753225977149    0.0586114634158668    0.6504427306586762 H
   0.4786950383537992    0.1939029275814707    0.4931521300372883 H
   0.4350681502397337    0.0503059903053748    0.5142680425305358 H
   0.6037735314426772    0.1806437791096721    0.5235185321281798 H
   0.5460830689678705    0.2942268910862449    0.5470528483695887 H
  -0.1328486076904153    0.0991973934941772    0.5692238208228237 H
   0.0639670897093420    0.3443342552080708    0.6041945937488911 H
  -0.0094402517262746    0.3448538413514373    0.4444927096121112 H
   0.1474683351046528    0.6958756037448899    0.6746716867962372 H
   0.2722751933266889    0.7462639612028932    0.3979428667454287 H
   0.1510718980941545    0.8958415290254556    0.5334255989714100 H
   0.4451662623305951   -0.0467631936097639    0.5972266393951960 H
   0.7670279800737236    0.7385420343557670    0.3196515963677938 H
   0.7440880543709943    1.0094253596550622    0.3435363615658200 H
   0.7132957559102931    0.8173085628085879    0.3930108539492250 H
  -0.1024385478107335    0.6565774999029732    0.6548059592356081 H
   0.9201794071275469    0.9203626891883954    0.3451071238535155 H
  -0.0588472184050307    0.7659629595096938    0.6021092833899717 H
   0.2382475433536147    0.2197679689174329    0.9778190736282337 H
   0.1374571910579133    0.2785775026243541    0.9416407815393457 H
   0.2221205820105624    0.2347892546278684    0.8566165801162235 H
   0.1722921008598930    0.0548536267026400    0.8032183110221209 H
   0.2586261198859156    0.0657814647331099    0.8910148140127695 H
   0.0502135143445835    0.1282259454844949    0.7937297664546605 H
  -0.0117989092454833    0.0738375652409073    0.8858582079368289 H
   0.0034815163777697    0.2078052705184324    0.8864492428835049 H
   0.1724330732539937   -0.0226854423686181    0.8991683149359735 H
   0.4624052223345766    0.0682169798643253    0.7234258118799288 H
   0.5549271579709100    0.2061494939287834    0.7751420650493145 H
   0.3894309677315831    0.2143579488797256    0.7276075579614697 H
   0.5784576247474345    0.3071698322232148    0.7060500797828844 H
   0.5563629021896349    0.1224264155025212    0.0072868457085764 H
   0.6440264101224110    0.1950333688034836    0.6857511583731033 H
   0.0428015926487770    0.5483188882530970    0.6640010723354247 H
   0.4141312949725859    0.3174803472977348    0.6580441354081615 H
   0.9886562215456085    0.4760918005726887   -0.1226720043722473 H
   0.8537884230580213    0.5313361109524758   -0.0419567953780092 H
   0.0429748273818262    0.7171161128089809    0.9232776734137367 H
   0.1654265348606263    0.7598184760715433    0.7787007907635357 H
   0.2356111491773716    0.7990777726496400   -0.0260051098348383 H
  -0.0065338358001370    0.8279949334197340    0.8249405836505441 H
   0.6061427092898038    0.6263135833477220    0.9743764688976536 H
   0.5620752999780533    0.6716562778561048    0.7759695139746610 H
   0.4937689850077822    0.6592020207820521    0.9172407729348643 H
   0.5343888127252948    0.8769998837878611    0.9245139794551366 H
   0.4790061595180932    0.7921521133638555    0.8388326862383568 H
   0.5730040971613176    0.8688992267919742    0.8070071926979301 H
   0.6642492858015260    0.7486592317642212    0.7492686410895312 H
   0.6929936270941960    0.8120904231308789    1.0036048853488626 H
   0.6786915919673141    0.6414175141570332    0.8238649000475938 H
   0.7485556869601587    0.7219569596439964    0.9301781802499873 H
   0.6949202498135735    0.9290749199159625    0.8758356459116658 H
   0.8415778291212316    0.8249456885977371    0.7876455831800541 H
   0.8116650300744724    0.9061376710393015    0.9207063237280800 H
   0.0400838412699683    0.1623339371170170    1.0740805877257462 C
   0.2723046502448592    0.2851158079249733    0.2235778227827550 C
   0.4743635388078934    0.2082544286644960    0.1500836701664354 C
   0.4441521027193028    0.2174661232504860    0.2518237305520190 C
   0.5727221523731160    0.1579918354873906    0.1394777218821415 C
   0.3957985715427327    0.1244005553861001    0.2886041829512853 C
   0.3678979605490838    0.2966782165842019    0.2681634131543019 C
   0.8387815259606355    1.0502829405801117    0.2536357741650047 C
   0.3606010611051803    0.6620938805896683    0.2505366650387280 C
   0.8859939522357031    0.4813364010550985    0.0091294840717429 C
   0.9606854750325066    0.4369403163227078    0.2098811093949610 C
   0.8682237156718641    0.3971861552656039    0.1696483175718753 C
   0.7263171164519607    0.4306459218617270    0.0711478240293078 C
   0.8226566686831668    0.4700135194520028    0.0959059302779518 C
   0.2681673559523192    0.7781405351657711    0.1511809091615587 C
   0.3153587415715510    0.7634871998085910    0.2473972264690311 C
   0.1473119328962723    0.7319634844852606    0.3123575297905800 C
   0.2417571247470492    0.7763280922147752    0.3299321277638001 C
   0.3364625193749972    0.7916440256690285    0.0710643838015418 C
   0.7675694262839018    0.9783579890081324    0.2729862583191785 C
   0.8059384649111246    0.8741928250382218    0.2869172996799487 C
   0.8444912585993146    0.8467244687840708    0.1928120201349567 C
   0.1333212994757623    0.0604368421214694    0.4385984223891957 C
   0.0861930358240383    0.2073101185782119    0.5347017477215682 C
   0.1412557307914947    0.1661011163196820    0.4479453271700232 C
   0.4090219223804255    0.2393138941280551    0.6574238963817673 C
   0.4909834125816623    0.0821480689226352    0.6539082814518919 C
   0.4266904624410575    0.0317108430583402    0.5890133396420932 C
   0.5326868340747257    0.2129838842792877    0.5428153364024908 C
  -0.0190965100445813    0.1926970277909190    0.5282855418739762 C
   0.1131468173050700    0.3162133619993185    0.5523072185790618 C
   0.1199324288121601    0.3751457853750027    0.4684614713060886 C
   0.0128453095799569    0.6361627231746055    0.5675087764746162 C
   0.1299681202907082    0.8515236337431316    0.6643730766842149 C
   0.6397172838072108    0.8130124549731184    0.2655572967070762 C
   0.7313177789889689    0.8082183205852935    0.3223390670370913 C
  -0.0363484451196617    0.7007660376392307    0.6360082665903843 C
   0.1878285211291499    0.0515557279309823    0.8775712026491993 C
   0.1845440747531599    0.2216989896189897    0.9225274066990737 C
   0.0365104365538314    0.1377574406704821    0.8696749757616072 C
   0.1068767018659603    0.0956874920775775    1.0258973328670205 C
   0.5747631661247214    0.2279340233393868    0.7066654514626588 C
   0.0135179092115124    0.6360132433435955    0.7953339048334624 C
   0.9154726124170475    0.3925177851586769   -0.0485444013601373 C
   0.1215238037485516    0.7551695095965261    0.7179500469327831 C
   0.0163345516727500    0.7286943318349510    0.7317552326166727 C
   0.5593143451192615    0.6877095493229360    0.9561510371478584 C
   0.6297552346240884    0.7015637425066398    0.8024805603416230 C
   0.5436625519205041    0.8279374411770378    0.8649230547903318 C
   0.7046845168318380    0.7887679762281538    0.9314763711269803 C
   0.7495438964292532    0.8753405139330436    0.8798943176572519 C
   0.4988532490839783    0.1895723244003835    0.6409541860912158 N
   0.1258637896923112    0.1296460038790897    0.9240981689867692 N
   0.6107281695516493    0.7549266048711349    0.8895323592994597 N
   0.7668280938432821    1.0734983081808156    0.5706028096537037 Cl
   0.6116076689655916    0.5449117542203167    0.5872729155579400 Cl
   0.4219633284299166    0.7564781767708971    0.6075440235584657 Cl
   0.4844905467327695    0.0732173676728226    0.9063525185466287 Cl
   0.4550596488401727    0.5020604141838680    0.7592049815460026 Cl
   0.0786864311769700    0.8158482598441057   -0.0386699457392590 Cl
   0.0812400654402584    0.2559485558991512    1.0971622407315242 O
   0.2603781051618547    0.2308366629425084    0.1569667936219015 O
   0.3386781004345215    0.1204918015357959    0.3509632371722280 O
   0.5994026858703583    0.1156811381281959    0.0633009659431440 O
   0.6330480972624130    0.1520701344896876    0.2035118386754874 O
   0.4219177403422721    0.0479337166411251    0.2341636063453387 O
   0.5181409167060494    0.2439858575001506    0.3087139731781299 O
   0.8230494275921042    1.1311709327884203    0.2058578997461756 O
   0.7129415715370547    0.3338217986310805    0.0494596228272223 O
   0.2016585442101123    0.3283988428387666    0.2692724728483588 O
   1.0437715181526548    0.4146250616467156    0.1726493844305269 O
   0.3132771193541821    0.5899145258437585    0.2522165949577507 O
   0.1381368042414141    0.6333944716887862    0.2983729476169932 O
   0.6554262374543225    0.4807668685258898    0.0668033695036232 O
   0.4518959056931616    0.6585667315002598    0.2595106615349645 O
   0.9519571096365647    0.4907606732084575    0.2775907682214006 O
   0.8009083454559461    0.5668967878273228    0.1292743726968187 O
   0.0781737405297676    0.7801894149648551    0.3223821778214371 O
   0.4200212758962595    0.8080594982648455    0.0878073608380272 O
   0.3732878752190567    0.8458484307359883    0.2685395895144804 O
   0.6336828237134637    0.8092927068706777    0.1713199034681215 O
   0.9176362931921764    1.0432315170134296    0.2891173403520463 O
   0.9337183678027787    0.8253323239298687    0.1858906532417645 O
   0.7955563039664780    0.8543853101233323    0.1218669664768894 O
   0.1263961182849604    0.1590841880986174    0.6153728029286136 O
   0.1794452224889175    0.0065831397349560    0.4902237257103164 O
   0.0770129976828183    0.0227456464629100    0.3700912140523591 O
   0.3328007439043494    0.0506056686204285    0.6110853658919024 O
  -0.0435380372188019    0.1172549882720029    0.5749449000396015 O
  -0.0642385357853927    0.2522165906951376    0.4797314647363537 O
   0.1958190608604448    0.3983942110152567    0.4313446852554021 O
   0.0380849789655541    0.3961124876332534    0.4276552365176808 O
  -0.0022674921518032    0.6429532756900541    0.4843766517496118 O
   0.0646445988272592    0.5613394439177066    0.5985707223974606 O
   0.1204247801587211    0.8403198329477202    0.5710586714313988 O
   0.5664481794804365    0.8243607050283038    0.3067586905074793 O
   0.8746509346745487    0.8702352027816259    0.3566712440866560 O
   0.8942145364708043    0.3098080075099342   -0.0263618168085381 O
   0.0171754765509930    0.6457294323592442    0.8847185534925911 O
   0.0023074477821244    0.5500199399838692    0.7638539929030332 O
   0.9731611812328290    0.4067231122146473   -0.1151470864982142 O
   0.3078472274381209    0.7922261346263268   -0.0210758783795601 O
   0.1404814346567321    0.9270382572184516    0.7068956074242468 O
  -0.0363372234365492    0.8040795977642047    0.7698199691883045 O
   0.7813966439440859    0.8588402402792498    0.7883193630192649 O
