Li1 Co1 H110 Cl3 O55
1.0
  12.7259945925999993    0.0000000000000000    0.0000000000000000
   0.0000000000000000   11.7760281539000005    0.0000000000000000
   0.0000000000000000    0.0000000000000000   12.9857811062999993
Li Co H Cl O
1 1 110 3 55
direct
   0.4432366566916468    0.7077078084464276    0.6042404372035260 Li
   0.6106357534379832    0.3273486634560516    0.7378465703885588 Co
   0.1101212393344012    0.0914867103678927    0.2752105571351556 H
   1.0604536406252567    0.2631139325166996    0.2592307713755352 H
   0.0713395946928905    0.4202169876233825    1.1313369548461416 H
   0.3317050990069270    0.1866416289325954    0.1101338488145435 H
   0.3623274599677437    0.3170684570555678    0.0905846204761081 H
   0.4285753271867220    0.2533245537470997    0.2335634667081020 H
   0.5171342207018376    0.1904060560739587    0.2973925112003026 H
   0.6328571993094467    0.3540138510639809    0.0454240717806208 H
   0.6027628913782853    0.4914073744875950    0.2098028629004259 H
   0.6344885059903463    0.0234475557795397    0.1517963407024998 H
   0.9938733828831472    0.3656485039545334    0.2796846815273967 H
   0.7307332427838235    0.3465283051016262    0.1047163849420107 H
   0.7179617459222336    0.1250113414948363    0.1870256423713887 H
   0.8831708370232582    0.2779491552010258    0.1816566931006994 H
   0.8643039423178640    0.2207142376896589    0.0711058538213025 H
   0.1058991724767551    0.5167503845500465    1.0446883358074213 H
   1.0436612399649370   -0.0262304844182715    0.0678755514115654 H
   0.1366893002855353    0.8982092212047729    0.2012596725376854 H
   0.2089618439604176    0.7123706709398239    0.0723359685036030 H
   0.0177672004065975    0.8953899344668244    0.2037154354786246 H
   0.3305193370697991   -0.0197292261842170    0.1067848781485509 H
   0.0139256931951747    0.7107444859689891    0.3146791109175190 H
   0.1335587001811500    0.6730849292658126    0.3199464105462503 H
   0.4262006601396707    0.5319074474975301    0.2759498272584863 H
   0.3645999738989391    0.6429066726112287    0.2807874261280316 H
   0.4955374804234930   -0.0007931301520290    0.0521706817290586 H
   0.5329742400051003    0.7924307716527936    0.0427091792599932 H
   0.5288126792237687    0.6948274044581130    0.1173517434666047 H
   0.5739973597464501    0.6109994798727703    0.2717860423034351 H
   0.6994798898842964    0.5163606096666976    0.0065544808127643 H
   0.8712032066041349    0.6400203004358409    0.0130254816183479 H
   0.9669678237530891    0.5702777701644605    0.0860183183403642 H
   0.9415238399729697    0.7457461006571720    0.1623525020052263 H
   0.8608307363787618    0.8074774408424658    0.2405295474744037 H
   0.7207183084639464    0.9404136039987629    0.2577522311288738 H
   0.6906342158443705    0.7686298774686899    0.3150972605810279 H
   0.2511644392933042    0.1726674775591970    0.4062500368607496 H
   0.0983649087064598    0.1208253800351845    0.3964862807214683 H
   0.1316562948466328    0.3426925466090618    0.5573953537218035 H
   1.0751872631044794    1.0389612624141060    0.5684713143299968 H
   1.0423646811867655    1.1624494182672658    0.5428440534609107 H
   0.0220423868844887    0.3730007282247620    0.5107035147760629 H
   0.3206772772536782    0.1680776447825065    0.5648950951083844 H
   0.4780991577536843    0.1651318298144511    0.6613490542308234 H
   0.3658069522524370    0.2279017205059231    0.3867055829751939 H
   0.5836107537416934    0.3903333973838793    0.5375505713486447 H
   0.5766431254471190    0.3206766345704907    0.3826164951055210 H
   0.4956121307773877    0.4603714432530930    0.6043282255306717 H
   0.6514852128823778    0.1282042686438384    0.5754913002094579 H
   0.6575806107261822    0.2641966405260022    0.4573228213602697 H
   0.3450753702860724    0.0181173205610367    0.4210639320300338 H
   0.7639777956493424    0.2372495242442781    0.6492173234777484 H
   0.7618899431198868    0.0964918784287792    0.5236676944909301 H
   0.7398209411290082    0.4714040255721981    0.4448792110239146 H
   1.0445334704157072    0.7427637708307636    0.6619689630321580 H
   0.2728515457895214    0.8484335249904364    0.6310505302699413 H
   0.1785068569509648    0.5276683271975784    0.6152694233559661 H
   0.0735519168650507    0.6440488234131989    0.5129344163878223 H
   0.1724562493194973    0.7108879978541437    0.5670074054711929 H
   0.3158690086696588    0.8353909270964145    0.5231994900794873 H
   1.0097699792967301    0.5278160849964949    0.3681991875544819 H
   0.3618056932836795   -0.0921569572369431    0.3400614885582518 H
   0.3410285353117792    0.5222072329169315    0.5496884626860808 H
   0.4100989717011771    0.5533798825745689    0.4534301021171065 H
   0.4753253077615959    0.8630139928490442    0.4918351850241368 H
   0.5471672367634854    0.7741903261313668    0.4487773207783938 H
   0.7920015385014239    0.6716302792109614    0.6569819699918563 H
   0.9022734696883199    0.5081091008616835    0.4247433410396944 H
   0.7727896805817160    0.5575892814781869    0.5306476365720442 H
   0.8950284563945368    0.9918146360011820    0.4838841808331060 H
   0.8039149491898238    0.9121528019990852    0.5411067686710834 H
   0.7006373632662641    0.6495311472626556    0.3860117471615263 H
   0.7722270526513095    0.9011558853555808    0.3709814614665588 H
   0.3079104951512817    0.2151419004684484    0.6854477201053143 H
   0.3129183552078197    0.0406121886556133   -0.0026947125177571 H
   0.2858540658515854    1.0238797767315857    0.6672532042678823 H
   0.0208307723511173    0.3936426625699594   -0.0500382642815964 H
   0.2379772578295005    0.4254572943884068    0.6748815478530011 H
   0.1690922686350411    0.0243639088876482    0.9289771600452624 H
   0.2263066572395583    0.1189006224086079    0.8724306963409145 H
   0.0883545319871363    0.3297586441073462   -0.1356388139058863 H
   0.5730771959105476    0.1003940430125809    0.7119159007396891 H
   0.3379002925869906    0.3556892886344545    0.9190663199543601 H
   0.6275570241829209    0.2242740117876953    0.8995834719124155 H
   0.5131950393957926    0.3023223985602431    0.9253886196549280 H
   0.3922096037352044    0.4717623806937084    0.9674346079193622 H
   0.6949694369226570    1.0711452887298449    0.8614417539868217 H
   0.8159941622431898    0.3306188662355215    0.7181003573651776 H
  -0.0279115083002271    0.4105065828497552    0.7883864643408447 H
   0.7780167769407449    1.1423407706905719    0.9271366854673871 H
  -0.0576947207039473    0.2307863943158061    0.9279914665474883 H
  -0.0534349357727543    0.0966527136420827    0.9636227463459383 H
  -0.0079878789009631    0.4225361057201710    0.6670860984170878 H
   0.1142759637149023    0.7263541633234988    0.9430540953103514 H
   1.0374691895576691   -0.0813816772918135   -0.0554834507837541 H
   1.0467886968965268    0.7898067969478957    0.7772912519065230 H
   0.2617553600279690    0.6445447461405971   -0.0149273998470494 H
   0.2241182231806443    0.9618130093590961    0.7571053271743690 H
   0.4016351931559126    0.6204228608760883   -0.1505589791553993 H
   0.5536225278923823    0.6057566255594887    0.7487030601788884 H
   0.5235384352728064    0.7434456645809361    0.7671840431891110 H
   0.6003929390904273   -0.0130575369717570   -0.0167245963197882 H
   0.4371640468506103    0.6589740594692788   -0.0400766763770196 H
   0.6562463338744638    0.6442203583291825   -0.0081291179972829 H
   0.6775421153576329    0.5292673383203366    0.8544648921978881 H
  -0.0021353697349362    0.7341326773354293    0.9470584751450594 H
   0.8572475193918150    0.5565940392923808    0.6880952312344925 H
   0.6959831101492275    0.5544574954873571    0.7313040297970821 H
  -0.1062622409478581    0.8086849787163702    0.6745619675392696 H
  -0.2181104732917314    0.8600978992773228    0.6980445749776515 H
   0.3115369307641678    0.8206525112458614    0.2064815378567537 Cl
   0.2409326260505329    0.3343977294836756    0.8076906554363179 Cl
   0.6156868321204602    0.9567943392924466    0.7645850466617764 Cl
   1.0172743043461474    0.3173062282262382    0.2205191993965407 O
   0.1355774029091033    0.1446987944263427    0.3305456959395043 O
   0.0541844718919624    0.4610219172414269    1.0659808555054360 O
   0.3452757475517899    0.2629975944796217    0.1454332271305398 O
   0.4721860639320228    0.2555842290512206    0.3043639824779202 O
   0.3586326603465541    0.0448042642310823    0.0624118061490198 O
   0.6718749748072246    0.0638644088797401    0.2113391586254725 O
   0.6781181017724206    0.4053350598876747    0.0877291896247432 O
   0.8237035793175180    0.2508602253996518    0.1372273287615689 O
   0.1925552677607540    0.6506410291200349    0.0238328407483977 O
   0.0776152534965207    0.9512916350569324    0.1903153944202104 O
   0.5643855373376044   -0.0447119280048276    0.0458828813009129 O
   0.5492951647460848    0.5507516619559090    0.2202866373369095 O
   0.5379490967472847    0.7087743819834347    0.0429911800091221 O
   0.3640043426541791    0.5670755020051821    0.3105384281538219 O
   0.9403294343106541    0.6395192826119285    0.0507083900236496 O
   0.9388678589607151    0.7883156320346915    0.2270286268470766 O
   0.7591852429293008    0.8801241761270344    0.2952524782078692 O
   1.0369034184544668    1.0806136764190399    0.5162934750107063 O
   0.2332931445709060    0.4666231266762189    0.6093514120040947 O
   0.0576723721638838    0.3135774667604754    0.5450965171179338 O
   0.3157652839674050    0.1954476540749229    0.4422324699677816 O
   0.3429144389891197    0.1560727482119102    0.6403676440430437 O
   0.5563500160857360    0.4104522351536019    0.6128367626063810 O
   0.6399073358899048    0.3323987532845397    0.4230645818012975 O
   0.9697652475411440    0.4687800508673001    0.4087065698747339 O
   0.7187098210475787    0.1593454985396373    0.5537290359539102 O
   0.0667752363178071    0.6666065140477976    0.3553505187963851 O
   0.1146177051771003    0.6527223760461529    0.5768150557740470 O
   0.2940852496099779    0.7870715793024340    0.5809172348854873 O
   0.3711157711041506   -0.0628576047310871    0.4184980486436401 O
   0.4104297906379106    0.5543097376884405    0.5299083664487135 O
   0.5305925008192589    0.8063429326852672    0.5154048107166191 O
   0.6499238417961797    0.6994376176208609    0.3456660801807527 O
  -0.1835819343392230    0.8030489527887302    0.6506843126287328 O
   0.7658338391851252    0.5506599502186503    0.4536842262220014 O
   0.8202916652479295    0.9689886036168268    0.4875805314497595 O
   0.7901093484784922    0.5845975389180833    0.6557814261144891 O
   0.0145688649284677    0.3473070056855717   -0.1113953742989098 O
   0.2388054838611326    0.0412448552816295    0.8953326687032638 O
   0.5839062119844768    0.3034628509967085    0.8906429238583846 O
   0.3978649573876293    0.3875701567075887    0.9635765419632301 O
   0.5559524047270967    0.1777515346977808    0.6751356719578960 O
  -0.0585025161124081    0.4428561998022109    0.7235547847438769 O
  -0.0944085505425740    0.1704188416308572    0.9653785128888486 O
   0.7005988593995185    1.1299172270230453    0.9185195680923135 O
   0.7614145382345572    0.2709238662904688    0.7190775800594553 O
   0.0573876792879253    0.7696743722541347    0.9075768301209287 O
   1.0184529941444853    0.8054878056536063    0.7059154915719881 O
   1.0327308565683511   -0.0109455345482774   -0.0093359764736203 O
   0.2478436772347871    0.9526248519781911    0.6895498992167546 O
   0.6450259927874866    0.5161695435474090    0.7785487811892304 O
   0.3761652782002298    0.6303447121550618   -0.0796760655697516 O
   0.5036877274823996    0.6715886692560942    0.7326493474069350 O
   0.7160648411401087    0.5951673166371335   -0.0326654163833247 O
