Li1 Co1 H90 C51 N3 Cl6 O45
1.0
  13.3987586831000005    0.0000000000000000    0.0000000000000000
   0.0000000000000000   13.0514847199999995    0.0000000000000000
   0.0000000000000000    0.0000000000000000   13.0944302603999994
Li Co H C N Cl O
1 1 90 51 3 6 45
direct
   0.7635506455089758    0.7568689751567207    0.6048322051973010 Li
   0.1625016834019317    0.3488724817125634    0.6853549907658112 Co
   0.0926795437450698    1.0519733316823743    0.0506538365556760 H
   0.2632692270179662    0.2534955934346755    0.1806785849518686 H
   0.0501173920198282    0.0175691784666166    0.3223876905104114 H
   0.0048758876135595    0.3787441789457959    0.1681030091745862 H
   0.4008319702237835    0.1768445440359064    0.1550203475701273 H
   0.5483589200518452   -0.0090622743877372    1.0230413132759535 H
   0.5224217412265904   -0.0750455719569658    1.1817752145351677 H
   0.6082944722170551    0.0918718360419611    1.1398680838630129 H
  -0.0971305767407772    0.2074502573757754    0.1947082140649102 H
  -0.1526095966695110    0.2071445450307358    0.3142055857628676 H
   0.6727161115953899    0.0331267954240841    1.2454389237170083 H
   0.7486656845422890    0.0751771836959251    1.1391242561586907 H
   0.2551886277206177    0.5464101607820754    0.0400943851515050 H
  -0.0537877556828464    0.4893049335999223    0.2298452907341738 H
   0.3013854445034086    0.4426998144851676    0.1053244091398804 H
  -0.1209745765885365    0.3673439434023258    0.2195905490363934 H
   0.5524934075301421    0.5143010859150743    1.0450017952733746 H
   0.5944402037441004    0.6157509307722654    0.2965591517138201 H
   0.3653465934627479    0.6125589567636562    0.3794363734347176 H
   0.7957618383670402   -0.4563991196014671    1.0532480494327900 H
  -0.1441558284750835    0.3697957717334707    0.4100454944143543 H
   0.2542012228189467    0.9360210065280604    0.2221649260294838 H
   0.2398700444955250    0.8399507105502707    0.3179438163713449 H
   0.0166314542093419    0.7515975442447593    0.2186756562337467 H
   0.3706985817846549    0.7243945089107073    0.1026331885751665 H
   0.6213053789826113   -0.1417613532401240    1.2437924221456342 H
   0.5756872725254104   -0.1882372916496814    1.1301479205974971 H
   0.7511681551661006   -0.1954341739979450    1.0937981145704680 H
   0.7944878397524126   -0.1022654636107945    1.1837294805468315 H
   0.8088951445308382   -0.0765672379149826    1.0492585669611485 H
  -0.0471834125423424    0.8560347044025809    0.2764406742572872 H
   0.0755801985431162    0.2378130864715904    0.2690627282085639 H
   0.2418956052688698    0.1542601403206485    0.4218234791706983 H
   0.3104534487024281    0.2652360201590919    0.4569436020668244 H
   0.0283765720760061    0.2228737899713834    0.3960701631963614 H
   0.5626449449387202    0.3499145087532999    0.3229825999371742 H
   0.4485153426249783    0.1303938901060139    0.6372475139628643 H
   0.4913560276149996    0.1476156855432460    0.3872152533076391 H
   0.3974249381934523    0.2527477857936763    0.5946515407965631 H
   0.6247997325348590    0.0742799677659968    0.5718387880414176 H
   0.8864948703406206    0.0520265608754434    0.3364516853798127 H
   0.9294839272841205    0.0077457750186141    0.6157200404955773 H
   0.7697288297690155    0.2102399782988061    0.6364937583733714 H
   0.7530362386648781    0.1546562638353991    0.4806375080887059 H
   0.0741143911153899    0.4973622544531470    0.3640053851456687 H
   0.1561018368170270    0.3946940884362465    0.3010916131359475 H
   0.1215792358104553    0.3920982151906470    0.4375403141843137 H
   0.0224730401242165    0.6273863885962546    0.5267202156216083 H
   0.4330836892240707    0.5384784961308219    0.5347219383324366 H
   0.5303368028011947    0.6218582819058766    0.5575737916814848 H
   0.6352790615026311    0.3947592151262926    0.4580724789790718 H
   0.6637100534332855    0.4910244314564083    0.5995704260568702 H
   0.6887855106414054    0.5218995777439794    0.3444390508413174 H
  -0.0820702263924633    0.4870703985546252    0.4003574822231218 H
  -0.0328402928142143    0.3838102692350239    0.4875516691632661 H
   0.2721752759156534    0.0183169861076158   -0.3946125770303011 H
   0.1003780180918094    0.8909119624131162    0.4333226430904427 H
   0.6623584356880654   -0.0200533610784475    0.6634662950150085 H
   0.4414391647310076   -0.1188582118418172    0.4570142427882307 H
   0.7044944285328427    0.7971517484410769    0.4343977566860738 H
   0.3397449681097466    0.2807262118374529   -0.1299473773170503 H
   0.4407935825390609    0.3324659191954370   -0.0585551913716159 H
   0.5973427114255809   -0.0204678733056817    0.8295078834432770 H
   0.8791479210949293    0.0886630057135753    0.7032091467199671 H
   0.9145400056316952    0.1765955302210245    0.9740074884182398 H
   0.6663864207631360    0.0317660307002988    0.9779870430047108 H
   0.0592249521219381    0.4207455306510139   -0.0229690688192502 H
   0.1129873951241085    0.6307607173369928    0.8435321667719957 H
   0.2709490429198518    0.6593911764775833    0.8245500503257620 H
   0.3045036438074007    0.4777614959579863   -0.2082188240022528 H
   0.9677009003717743    0.5543672631522646    0.7966274914416437 H
   0.7253441211504402    0.5128047887183214    0.9173941050744917 H
   0.7798155850570607    0.4063624927034356    0.8387171424642430 H
   0.9297936574686960    0.4669796574914122    0.7010028651616645 H
   0.1086474408510798    0.7217396385458895    0.9482392806161469 H
   0.0222849630000886    0.7270202638140928    0.8463753603481677 H
   0.2170507664391446    0.9297680780872876    0.8256146250894428 H
   0.1543009237197238    0.8926703830443591    0.9306722696484644 H
   0.0803858675996995    0.9233297301289719    0.8223598061204274 H
   0.2890969927225974    0.7619258710897070    0.9222236393682631 H
   0.0754846673054640    0.7867782160112738    0.6799366565130743 H
   0.1648578718180885    0.6929092021570401    0.6688372808923163 H
   0.1896885302297247    0.8351175439525015    0.6518789256539406 H
   0.4268761738887205    0.7466563439611490    0.7917467903550699 H
   0.4376131386630361    0.9163251630654325    0.8271160268006311 H
   0.7007000471873436   -0.1432270868643365    0.9159683080272951 H
   0.3461933266512716    0.7949627254591767    0.6981703631541378 H
   0.5801784348355356   -0.1893069017591433    0.9639085381492909 H
   0.9328969300168051    0.0099309670187470    0.8505244526660141 H
   0.8002861380752259    0.7138340245706544    0.8183817789009057 H
   0.3307583147302903    0.1975073272966296    0.3064625990132552 C
   0.3415936468258759    0.2490738742787265    0.0315686228403627 C
   0.6242093793396799   -0.0333644903275035    1.0092468986731082 C
   0.6760664219533650    0.0481511397195276    1.1591151984749550 C
  -0.0798722615886680    0.1937613933244524    0.2809273146709347 C
  -0.0454332504150419    0.4065617037553411    0.2269303109113835 C
   0.3113520394065943    0.4895117299957273    0.0367929814905351 C
   0.4131689339612150    0.5402557651923604    0.0360590816713836 C
   0.0683929655853748    0.9392275382673857    0.1400819351222363 C
   0.2496425915722297    0.7867667230659717    0.1646587967038542 C
   0.1035992120113952    0.8931561515324672    0.2424223938784055 C
   0.2165857979933842    0.8616095490705213    0.2421268483737107 C
   0.0229044233692398    0.8158952098363259    0.2799238345852270 C
   0.5903637067124096   -0.1158761756340623    1.1698846628346584 C
   0.7632782322141081   -0.1134595923351776    1.1063523072104597 C
   0.0121437250530699    0.2447433324888419    0.3193123371579418 C
   0.2964887222359381    0.1559917440795196    0.6677864524311794 C
   0.3166152135309964    0.1901671662302647    0.4199291623117957 C
   0.3854984602428077    0.1686738261223663    0.6027252024907047 C
   0.3966174007001733    0.1332993066784206    0.4867193076337262 C
   0.6824237272840028    0.0565517165391126    0.6285896344106052 C
   0.8619978249229731    0.0213610842200028    0.6590880976547632 C
   0.7816508296928952    0.0480216525357891    0.5763513936932038 C
   0.0952588871616798    0.4159981780448347    0.3605993568486698 C
   0.4734938505536371    0.4659163301920489    0.3510220023929160 C
   0.6293329882965746    0.5789277638827899    0.3635143366714601 C
   0.5485271445906484    0.5204128886494992    0.4267754319254582 C
   0.4836936760174972    0.5936936701482036    0.4968246804806971 C
  -0.0690025979545511    0.4050814124004123    0.4160127643486793 C
   0.9395094828730447    0.6113736510048184    0.6530328513841570 C
   0.0400030222333992    0.7679328505010119    0.3880728698496861 C
   0.4337423323274151    0.6916610682972167    0.4672480595588052 C
   0.6861792990642057    0.6551908880677906    0.4234690643219030 C
   0.3837147129147701    0.0156743748844538    0.4702751481156761 C
   0.7688884534127937   -0.0282915042710941    0.4908838950892734 C
   0.6731758556765912    0.1354630451806559    0.7114653287645534 C
   0.3591139265437346    0.3225390792397143   -0.0596442040064859 C
   0.1867263155247116    0.4026548685489324   -0.0820812244920970 C
   0.3025191316127346    0.4267647692039745   -0.0574371587647087 C
   0.7914584546459252    0.4827035390575855    0.8771441675423565 C
   0.8170906798484872    0.5626099269033968    0.7936460711565577 C
   0.8804487878701468    0.4767861280000028    0.9521753052445622 C
   0.7215071985506739    0.5741539775024156    0.7175992344330497 C
   0.9159916326413324    0.5405606347214112    0.7358810531330172 C
   0.1009810590294890    0.7102773410977874    0.8643478872408964 C
   0.1506610342976153    0.8886892267916627    0.8493048501569765 C
   0.2761666904388103    0.7453806270326002    0.8398000456313157 C
   0.1533769575305562    0.7715071564900089    0.6945253019295694 C
   0.3604506175330716    0.7958101386261287    0.7826329917684366 C
   0.6240347362958470   -0.1211338150116610    0.9338354466005203 C
   0.8408675092947722   -0.0593806875100107    0.7413207705230447 C
   0.6627330972607327   -0.0558194068590229    1.1090404730412748 N
  -0.0011888533017683    0.3656828297079752    0.3295151483794450 N
   0.1719271834043529    0.7850925840336118    0.8095070132418422 N
   0.8538194553745899    0.2291726901933652    0.0356894588696465 Cl
   1.6788966331540363    1.6006082305937068    1.0951078317295158 Cl
   0.0363541767577608    1.2707744919537398    0.6396653358436487 Cl
   0.6967847591191908    1.3061283240961417    0.3500322686097522 Cl
   0.2544184071170467    0.4735027467664231    0.6257533139857052 Cl
   1.0175286505231438    1.1156603387802151   -0.0948164101155840 Cl
   0.2637879317849060    0.2597002515051789    0.2626149486319808 O
   0.2566969764026110    0.2466228121439351    0.0743639173935510 O
   0.1241697742939776    1.0197647355710195    0.1110749457040959 O
   0.4190090272005011    0.1966545507552033    0.0718972197703882 O
   0.3922789391027329    0.1454703357534943    0.2572263980347557 O
  -0.0599651936050921    0.0860112001341714    0.2948882122712566 O
   0.4920686309408617    0.4729654132637256    0.0465803489018214 O
   0.4944611660075939    0.3793747585447121    0.3094661661191064 O
   0.4275113073515490    0.6349916536009246    0.0347837302686957 O
   0.3927259954414336    0.5103702074670935    0.3362569460937736 O
   0.8685387293509736    0.5209639447288875    1.0381759923768330 O
   0.1970257770840918    0.7188763627729244    0.1306221879215806 O
   0.1133829541550123    0.9749767277281846    0.3257020767904506 O
   0.3472919358842721    0.7851944881486249    0.1505902197336048 O
   0.0068648778349905    0.9003538000770842    0.0853586683782801 O
   0.2496799084619376    0.0684844585482532    0.6677566687756675 O
   0.4878246557081617    0.1710781502795952    0.4589324629398903 O
   0.8058769544912633    0.1519822385617443    0.5332848387698150 O
   0.3579212787486701    0.6865367470851239    0.4031518000569152 O
   0.6024655740446812    0.4559106486315528    0.4942845928756190 O
   1.0095196996540345    0.5773959841329072    0.5881067734186977 O
   0.7236529197088782    0.6438818298903851    0.5130792250288230 O
   0.0220953932003725    0.6729474885597536    0.4102823126598475 O
   0.0628469294369868    0.8297909469030892    0.4641641529514194 O
   0.3035214632702888   -0.0239395089833121    0.5011351391167398 O
   0.4490606170173901   -0.0457102121711713    0.4279964090647501 O
   0.4608276772152026    0.7748109951662265    0.5032002919689246 O
   0.6904490975845837    0.7474570191505385    0.3790942432380684 O
   0.7379072252395015   -0.1149590385989434    0.5176740793908303 O
   0.8987019713018686    0.7006263318293184    0.6477924553810167 O
   0.8074599369526724   -0.0086761114255819    0.4024049176186943 O
   0.2680196670777817    0.2292155971891603    0.7220988574657666 O
   0.6220017121445607    0.1258066725377126    0.7896749170883081 O
   0.5771299434815178   -0.0919923029032976    0.8433641564075699 O
   0.7306184903417546    0.2181249049724973    0.7067098717678243 O
   0.1514357329279513    0.3905382394149560   -0.1672632429395286 O
   0.1311525106961197    0.4188836735120509    0.0017590020903511 O
   0.3410309081290808    0.4860583297913098   -0.1425649556854392 O
   0.6761149339099853    0.6543097622612855    0.7108597277691453 O
   0.9606830860933068    0.4378953036310186    0.9271684898667087 O
   0.7108815873752468    0.4875633692884560    0.6624628149293008 O
   0.3680714727492187    0.8975977917936069    0.8142723981237419 O
   0.8315696330551520    0.6539289626736046    0.8523336188174917 O
   0.7950662515428849   -0.1385057849341757    0.7230267328874826 O
   0.8696671920957405   -0.0385608339968236    0.8368209163966537 O
