Li1 Co1 H90 C51 N3 Cl6 O45
1.0
  14.1777725327000006    0.0000000000000000    0.0000000000000000
   0.0000000000000000   13.8365162970999993    0.0000000000000000
   0.0000000000000000    0.0000000000000000   14.3005186044000006
Li Co H C N Cl O
1 1 90 51 3 6 45
direct
   0.7611048023384401    0.7154388746374529    0.2896104271998720 Li
   0.7034328374289929    0.7406547593665538    0.6040248987573283 Co
   0.0220959082519813    0.0473971651836562    1.0207419539112894 H
   0.0186115809441435    0.2943545586943462    0.3070979048863843 H
  -0.0784770129675731    0.0692856227619179    0.9576246625060473 H
   0.0028622804468335   -0.0227628360157399    0.9233468846463564 H
   0.1089247804997689    1.0499804529226004    0.3270293498839316 H
   0.1731548983056284    0.0881993431219228    1.0259641421455694 H
   0.3583130389053120    0.2454860439987998    0.3410596102926881 H
   0.4976706845046476    0.1555183112783240    0.2784017427854003 H
   0.6140386821005157    1.0593216770591334    0.0890197997300820 H
   0.8085128136074712    1.2266304092784706    0.1109966250952336 H
   0.6699445021559498    1.0278144688400117    0.2531844754976920 H
   0.7088476513444325    1.0178661554752630    0.0180685266980806 H
  -0.1784800280201776    0.1748555486475365    0.3040742383190266 H
   0.0101172988048133    0.0270524487857144    0.7739851685374869 H
   0.3303227464186244    0.3333484780028562    0.2559822761304389 H
   0.3731411791872301    0.5712472329582424    1.0095458564529260 H
   0.5744491063258007    0.4173535104143466    0.2138565311372017 H
   0.4067303765665528    0.4785528746052794    0.3032015426955155 H
   0.3898567809824627    0.4550885145721078    1.0621208728420988 H
   0.4826808121879750    0.5515153875906896    1.0540694165848010 H
   0.9646544074223085    0.5020944216974669    0.1487498013915035 H
   0.7544352073945303    0.3954125107088333    0.1567488119983499 H
   0.8782501434820752    0.4673812619911709    0.2304125740716973 H
   0.8976057932759388    0.5088427966493014   -0.0038327769304210 H
   0.7830899201897166    0.5059570991845163   -0.0285060080041135 H
   1.0550480145311916    0.6777595925981387    0.2933074959190254 H
   0.1638755845279129    0.7067191942345694    0.1377390118980684 H
   0.2334422246841977    0.8068715714836349    0.1289638056645414 H
   0.1455172705262117    0.7885584358244004   -0.0146232946919602 H
   0.3178969581226366    0.8360848496904273    0.2831980723380150 H
   0.4030556103167886    0.7061923275115108    0.2083560313178596 H
   0.5530094197107897    0.9128758552575363    0.2673881561906078 H
   0.5857077860395457    0.8795690611119181    0.0431634208014023 H
   0.6504661250439557    0.7961246466936740    0.0960817813821969 H
   0.8162234747672452    0.6938741979809062    0.1300931353375947 H
   0.9060069719325495    0.8984068953183961    0.1214165269269163 H
   0.1622533268744661    0.2072806179616985    0.5432396906088249 H
   0.3649078689312805    0.0940541405478456    0.6036319060166125 H
   0.5557784724593404    0.1048213016454136    0.4568959688070094 H
   0.5989241780762936    0.1891676772027209    0.5787166557479704 H
   0.4250463708033814    0.1986288737343535    0.5837242363806033 H
   0.6491365790975440    0.1085563458494833    0.6582096469776892 H
   0.6789430948266776   -0.6954574507686467   -0.5963434567454141 H
   0.5825881140390261    0.2020972323131714    0.7082833554780003 H
   0.3975688528010658    0.1738213287837548    0.7033324860753887 H
  -0.0562661897036432    0.1825034274725106    0.5215926434937117 H
  -0.0825735662072335    0.2986612785883191    0.5426678232363029 H
   0.1500264414733792    0.3917396208781285    0.4794555702399769 H
   0.0307192656741727    0.4305853092334158    0.5128494836504365 H
   0.3109551060247135    0.5288576612332461    0.4142017129628791 H
   0.0860051011742242    0.4673755813705354    0.6574110745401492 H
   0.5176644458198474    0.4812350526335579    0.3636392110003611 H
   0.3912773144233505   -0.0096995767300277    0.4177966874824872 H
   0.2555409005712154    0.8122847837685579    0.3805183191416373 H
   0.1003218776305992    0.7859175976816624    0.3761744207335832 H
   0.2464393298059645    0.7255671465948510    0.5783582771365525 H
   0.1802857786866487    0.8695506433958162    0.5303089707436652 H
   0.0519997594403217    0.8695535342969029    0.6422535822843575 H
   0.5848840318163020   -0.0237305651545266    0.5918428230704789 H
   0.5621162099137083   -0.0248623529299858    0.4385945346254914 H
   0.4634725057088093   -0.0499214062751310    0.5927022324625424 H
  -0.0760168239696504    0.6869302535705537    0.5409992823490753 H
   0.0739347989031656    0.2373250302309291    0.9713353540847200 H
   0.1680483133443438    0.1428402645624200    0.8158367975976982 H
   0.0612557973473573    0.2664523041303910    0.8634343721213642 H
  -0.0446712794579860    0.2323165440981498    0.9141730914693987 H
   0.2647214682308951    0.0432675129812463    0.9495424381338180 H
   0.2947191282313695    0.1838158965658911    1.0228845335510637 H
   0.3465171097765104    0.2456190254487899    0.8880495633418904 H
   0.4507881436494504   -0.0135538706039255    0.7445002238537139 H
   0.5766530491474203   -0.0174059963020083    0.7343509415783604 H
   0.5101696577806882    0.0888693094487751    0.8007303524416790 H
   0.0268477125177513    0.1382285546037960    0.7319377423822570 H
  -0.0829488014557699    0.1120304862304747    0.8020352002249097 H
   0.1632513679960431    0.6424515721752239    0.8290747790469691 H
   0.2835551742579975    0.3534243405997311    0.8096985586688672 H
   0.3182277576180568    0.4979232127919351    0.8805050817056227 H
   0.3253755659050263    0.4034549975321476    0.9575708183049172 H
   0.4780605518580172    0.3403950494017881    1.0093885195015719 H
   0.5814360995062546    0.4055750398441094    0.9927674439605165 H
   0.5395393912165725    0.3462621331573296    0.8930794508578487 H
   0.3948032561666463    0.3898807714793538    0.7588150893255867 H
   0.4592124571108580    0.5900633854065698    0.8407205105485356 H
   0.5406693289386688    0.4948084836885528    0.8193121960342771 H
   0.5660956079376132    0.5686909536722914    0.9106620299905128 H
  -0.0180112382471247    0.7689537901046644    0.6636304294083452 H
   0.1514490909025106    0.0239671346008897    0.8404680721510296 H
   0.3046663889646564    0.7258591276046119    0.6874659286254940 H
   0.1884090575539298    0.7727517114073708    0.8284146631266209 H
   0.7658805878043045   -0.1252387750132736   -0.2057841942105897 H
  -0.0029700884820149    0.0514198540458567    0.9523332460131715 C
   0.4053514575611230    0.2142411850532999    0.1962368904115518 C
   0.3842980798664567    0.2840687326277208    0.2784793623480684 C
   0.7480223523575137    1.1029966879523492    0.1422919936325886 C
   0.6830100242309272    1.0262403731982810    0.0921707344092017 C
   0.4792348548002883    0.3456001168084658    0.3005394014786028 C
   0.4216255231428523    0.5128125820216146    1.0216999611262014 C
   0.8337410361068122    0.3816612169644767    0.0407404317505480 C
   0.9012572836550231    0.5311153104369367    0.1858820211864288 C
   0.7318301049878714    0.5489612764805537    0.1683246159659813 C
   0.8226835868750361    0.5554260540357789    0.1168873205539340 C
   0.8315707374982662    0.4895646782073128    0.0312617545256330 C
   0.9418405275089451    0.6164847758888419    0.2506691821020432 C
   0.1635574809619544    0.7862608921857128    0.1547747577153595 C
   0.0834729685760181    0.8300999617156011    0.0998515747366430 C
   0.1655154754167232    0.8177847230860833    0.2592954426882882 C
   0.1678987835084609    0.9332603215454208    0.2588912615421429 C
   0.2601297737422262    0.7921214714138091    0.3051483252402712 C
   0.2953003196689522    0.6861142967388209    0.3041392709255864 C
   0.5267978269416942    0.8189085608835539    0.1777165830488167 C
   0.6074784132158599    0.8571718049423900    0.1146258641064700 C
   0.6754954446483958    0.9330803629527711    0.1554048047961155 C
   0.7757537889490645    0.8853132815712731    0.1612395582276678 C
   0.1054862996038763    0.2097870292039032    0.4118675318801224 C
   0.0360127629303110    0.2908666865331929    0.4374694006044742 C
   0.5574212551987504    0.2917281750570418    0.3492677042260008 C
   0.5919400062134981    0.1548606312810903    0.6456730386937882 C
   0.4151266179172617    0.1437870346683278    0.6333308289542271 C
  -0.1441029776848114    0.2396435329024956    0.4190001403415118 C
  -0.0606328841090732    0.2523757840137759    0.4877640801120204 C
   0.0979167043270107    0.3335645728590901    0.6110148550494899 C
   0.0797326066907015    0.3682806812844946    0.5129198963416021 C
   0.4536790067878926    0.4438869955862570    0.3499033455094716 C
   0.3984900130164578    0.4230243742586254    0.4408769693331361 C
   0.0465496790541550    0.7637566726759752    0.5347243350914010 C
   0.0510122982599628    0.7883857044844675    0.6359719919109593 C
   0.5147410176223358    0.0346569640943873    0.4707457462506793 C
   0.5165792288039507    0.0095682790131030    0.5748720399322136 C
   0.0324466174103863    0.2197917151398431    0.9107186712930004 C
   0.1473602962864102    0.0939753634932319    0.8712788428782137 C
   0.2137120449712122    0.1011968344079117    0.9565219052958893 C
   0.5129012504840326    0.0348390908628520    0.7408220355687229 C
  -0.0048173462187006    0.1029602840708239    0.7934809649986179 C
   0.1335400717378727    0.6317581290553677    0.7027849534846762 C
   0.3603761274428476    0.3616959313341696    0.8196898047175273 C
   0.3643196241995524    0.4365673063071552    0.8962786355353837 C
   0.5172407897070027    0.3838330064058911    0.9583519088589733 C
   0.5089619081175795    0.5382788910573545    0.8718060964840851 C
   0.2702336176055414    0.8706217222484538    0.6355279520704709 C
   0.2453305519663043    0.7631806606344420    0.6444695858347637 C
   0.1402477544701679    0.7445553076578396    0.6947048269384650 C
   0.5052638377839589    0.0901839467179707    0.6468597089446685 N
   0.0442996782217658    0.1150767732506283    0.8857559402288162 N
   0.4566867430103243    0.4684138195868277    0.9359604132175861 N
   0.8369799087783893    0.6473039496493191    0.6249535103887914 Cl
   0.6678306299005671    0.7327199586087206    0.4417126033636616 Cl
   0.7422273658876360    0.8917542091925327    0.6639499982384289 Cl
   0.2557433301131890    0.7157098966143348   -0.0694073218781456 Cl
   0.5993967487840368    0.6423923087029456    0.6634982663692076 Cl
   0.7565787034853237   -1.1091815325449101    0.8829140852496902 Cl
   0.3775389080868999    0.2294299793630386    0.1166761394014498 O
   0.4650095595689794    0.1412994142831869    0.2139956869297327 O
   0.8023157893713045    1.1551391481286302    0.0901078721581136 O
   0.7453152980645014    1.1117792454538691    0.2309475197063015 O
   0.8636321913656907    0.3316081555486379   -0.0210510336112828 O
  -0.1235475625568117    0.2141826443062934    0.3326683062204653 O
   1.0334042761165536    0.6133611572646178    0.2542431783614708 O
   0.5187114297494995    0.3734857486911723    0.2105391689273162 O
   0.3672566158817056    0.6590634125449109    0.2531376240499554 O
   0.7935450181014738    0.3375583527104232    0.1183054509421397 O
   0.6917405917241289    0.4638331506786226    0.1755635142789521 O
   0.6966715496611926    0.6261982035402925    0.2003870895506053 O
   0.8406878255106370    0.6506906402724364    0.0841388578614057 O
   0.8913770292161177    0.6717985545572781    0.2977220211363540 O
   0.2131908065338656    0.9773508994698556    0.2023667380363105 O
   0.0135720022772403    0.8670659139117620    0.1369425372865466 O
   0.0863570605520807    0.8237537111049323    0.0068129908358724 O
   0.0886747730082659    0.7741256121488445    0.3066615570746287 O
   0.1132357538814501    0.9759827805305553    0.3232630529061822 O
   0.4829780380032631    0.7464445115180250    0.1459065478616986 O
   0.5002731384454835    0.8627895484792000    0.2560074500426556 O
   0.6475199640794136    0.9565501434254803    0.2479664829154481 O
   0.7924856133208316    0.8195539545511689    0.2136586362161650 O
   0.8418227005386353    0.9241980693637585    0.1068674042163606 O
   0.0964355125564724    0.1705011288856324    0.3360444075588563 O
   0.1793836623654494    0.1926208585508334    0.4697616560656093 O
   0.1150498611356523    0.2451145632091535    0.6258485828231618 O
   0.5636375349279340    0.2029970252764196    0.3546402366582414 O
   0.4204017766086218    0.0507151969059635    0.4403741903641420 O
  -0.2272161745767913    0.2425980338131452    0.4485952908187666 O
   0.2516778113677685    0.6305128734122539    0.3562779395030036 O
   0.0216120522736055    0.3470773672637906    0.3546584178170645 O
   0.1112439036147832    0.5784123313017308    0.6353314557001130 O
   0.3171831647551200    0.4700485807878636    0.4567380724353837 O
   0.0917415453026949    0.3973046054701055    0.6817787222905450 O
   0.4292360275257613    0.3623593931335767    0.4953270226172470 O
   0.6231952685601010    0.3484534361810794    0.3887110290174842 O
   0.1105957058828191    0.7918649039423608    0.4803546984713156 O
   0.2297984929286734    0.9102451352686017    0.5605447273593004 O
  -0.0241031684005246    0.7167766391153424    0.4994035181355329 O
   0.2563823585627641    0.1956881046038659    0.9676851368133030 O
   0.3966815483975719    0.2686754070660951    0.8446637241871411 O
   0.1392243214896673    0.5893197011020056    0.7897706100480167 O
   0.1340352129868813    0.7906362709804957    0.7803765451391632 O
   0.3261852840729206    0.9189069976497503    0.6820409505428020 O
