Li1 Co1 H90 C51 N3 Cl6 O45
1.0
  14.1947218792999994    0.0000000000000000    0.0000000000000000
   0.0000000000000000   13.8530576762000006    0.0000000000000000
   0.0000000000000000    0.0000000000000000   14.3176146923999994
Li Co H C N Cl O
1 1 90 51 3 6 45
direct
   0.9935323533859526    0.8192777799228260    0.3015332818316205 Li
   0.6334851440459106    0.5835377666829612    0.6335788147040442 Co
   0.0825007664368378    0.1035931829379096    1.0653937596390965 H
   0.0350669381642402    0.2151786564219141    1.0392546290618043 H
   0.1604064844497175    0.2165516385060555    1.0381664589765827 H
   0.1229052213375267    1.0600787697094392    0.3092601275651298 H
   0.5197999437495044    0.1680359955549205    0.2004591831713065 H
   0.3617735858487451    0.2465861629933694    0.2953828159969209 H
   0.6216229884199138    1.0522458419518061    0.1098505149069882 H
   0.7247211690284491    1.0580979795733279    0.2987059952430600 H
   0.7916002532452662    1.2601667260861815    0.0874354683440748 H
  -0.1373781453544171    0.2194780682479636    0.2734971872289997 H
   0.0865973595574680    0.3280461573409528    0.2869240047632112 H
   0.3387586932162655    0.4138166801939211    0.9986214640759626 H
   0.9616564206380322    0.5117665358659441    0.1689099335438685 H
   0.3941320923348653    0.5126762267294745    1.0427642918848075 H
   0.5417132156434473    0.4442555919386146    1.0168228199301839 H
   0.4981456836228412    0.3491144302682666    0.9451104556810598 H
   0.6085765897955024    0.5732497852617292    0.9729363197344819 H
   0.3502883308795904    0.3482712951082891    0.2193478043425099 H
   0.5785422570607618    0.4328949953339832    0.1982730648357841 H
   0.4160902541537688    0.4697361182058543    0.2946501520563576 H
   0.7233382606370825    0.4283159340550439    0.1179133104549979 H
   0.8609718132077048    0.4651720283509029    0.2259920675136997 H
   0.1905606504587177    0.7163770317039663    0.1510550041095894 H
   0.2483278971136721    0.8260733915632609    0.1014978666084221 H
   0.5326672476356309    0.6877429200679848    1.0985871378805341 H
   0.3510583353990829    0.8341329840813674    0.2181038820563868 H
   0.4393031076919918    0.7224233502827088    0.2352415132380840 H
   0.8523495942561324    0.6944324179511280    0.1335765340308523 H
   0.6759431791609827    0.8246397730463814    0.1145342559798358 H
   0.7229458612616412    1.0134962739829785    0.0506821395735132 H
   0.6957350428120550    0.8004169618920971    0.2314692368386730 H
   0.9258254966985009    0.8919187826184877    0.1009027954193279 H
   0.3674764098060112    0.1431692832339411    0.7453111133004834 H
   0.1417713887959065    0.2079333245720050    0.5453231221779181 H
   0.3326557205242586    0.1089566197860540    0.5814124436955784 H
   0.4255162930108682    0.0777606188668876    0.5055312286090530 H
   0.4580075953358944    0.2303861293801721    0.7221738794024485 H
   0.4196429831490119    0.1932852948919855    0.5530236367097503 H
   0.5833784208534536    0.1812864998327856    0.6057920633109383 H
   0.6976653377648542    0.0395315136123955    0.5762895233226105 H
   0.6862906872875204   -0.7180247057650664   -0.6340212981578952 H
  -0.0349978372119045    0.2667001339673524    0.5195497229121956 H
   0.2003234342017433    0.3616127540352614    0.4750535960302387 H
   0.1397516239675579    0.4814431942746003    0.6369040892712717 H
   0.1134622747874102    0.4512687728746121    0.4842776883694538 H
   0.5269756954737096    0.4626720315408485    0.3563524690260229 H
   0.4999913696618334    0.4783749907780522    0.4937353391659847 H
  -0.1125942853400109    0.6366437319648297    0.5618014256571446 H
  -0.0487846518930281    0.3826196686675425    0.4756715760632324 H
   0.9298868654586785    0.5915331134568571    0.4010903680239619 H
   0.1919759652617007    0.7678551975117345    0.5592864117547861 H
   0.2344093433244559    0.8024186860347491    0.6713707242940696 H
   0.0770797373631921    0.8892219050862310    0.4878852725313197 H
   0.3684464886928741   -0.0268177373243932    0.6676459418393281 H
   0.3278539357073686    0.8548627035925601    0.3388111393146349 H
   0.1505056212137179    0.7385880126434754    0.3302049571643773 H
   0.4774052983935029   -0.0578441006043517    0.6168371992080471 H
   0.5960543296546250    0.9721530547900080    0.2766806784025815 H
   0.6092712141836265   -0.0203130361886423    0.4542316220908055 H
  -0.0330816320032864    0.8549529363793726    0.6334160780995148 H
  -0.0591892234834990    0.7404496955009942    0.6704089719145123 H
   0.1833297937450206    0.0847107090383457    0.8201671576225104 H
   0.1251891688692693    0.2344639294818097    0.7972862513376181 H
   0.1972370757388919    0.2674126120520252    0.8875959871266637 H
   0.0008788783962152    0.1218909483789275    0.8041232840489371 H
   0.0685808036732035    0.2982664502435979    0.8841973763213435 H
  -0.0264559298021638    0.0520803677400054    0.9112689247829561 H
   0.2986127851212981    0.0031085078187455    0.9275942698227322 H
   0.1297345203420649    0.0089425988829047    0.9063023153631797 H
   0.2463017919004420    0.0821033424306072    1.0153058074622112 H
   0.3496782449565524    0.1851874436722703    0.9539569013161161 H
   0.4793290416152578    0.1118411815148810    0.7864185192926572 H
   0.4736128324010198   -0.0389926667834514    0.7387897756331440 H
   0.5969476194357014    0.1116239009642361    0.7015817621864082 H
   0.6032076927753266   -0.0424908114626045    0.6110017299769642 H
  -0.0471671492610475    0.1841436307944215    0.9026019783211359 H
   0.3511562591211410    0.4008283563014189    0.8292182462838632 H
   0.3138057562716871    0.5316194092480060    0.9546141336974984 H
   0.3672467469758606    0.5276058548905791    0.7970683379444288 H
   0.1628714851941861    0.6945493596428371    0.8210849082592121 H
   0.4589968362748434    0.4292372469015159    0.7737369376255391 H
   0.5783886084004678    0.4209266628636113    0.8964976095503800 H
   0.4983211009378949    0.5927523388722697    0.8198137467989403 H
   0.4145241790880489    0.6341424791143828    0.8964731641376826 H
   0.7736773941598054    0.5161497559043852   -0.0174304630458083 H
   0.8959305819824314    0.5295625348260542   -0.0191828499160401 H
   0.1377410174729270    0.8403814241025703    0.7824276310596939 H
   0.1528367693884669    0.8286547711283974   -0.0320516136003850 H
   0.5765635638367008    0.6954466344749022    0.9424102852385264 H
   0.6450859349173498   -0.2006797146796102   -0.1775597897008260 H
   0.4077596929067435    0.2305030710718813    0.1468881089052040 C
   0.3946139615858560    0.2869173312494492    0.2368178931368936 C
   0.5654145606124261    0.2749741195869259    0.3106870412263030 C
   0.7498903835462061    1.1278825731696480    0.1458949267093213 C
   0.6984825429273530    1.0336434506225087    0.1200477442036740 C
   0.3642364731315867    0.4858867620008617    0.9795351842820905 C
   0.5217841108391796    0.4245204542967858    0.9474111182360792 C
   0.4868954455866258    0.3404816790883260    0.2690537096409508 C
   0.8541615353578110    0.3940907823894619    0.0346082330643402 C
   0.8372587737510558    0.5023982070079068    0.0212449736031423 C
   0.8922411824686325    0.5255822583204036    0.1970815255768700 C
   0.9105099447737370    0.5933695311340682    0.2761009729014685 C
   0.7315448321353148    0.5698880725562369    0.1511248481458681 C
   0.8333326665350158    0.5653591085205359    0.1110329744411861 C
   0.1884316901129663    0.7953437136863423    0.1384998401481358 C
   0.0940015201245916    0.8162279117285581    0.0940224594055161 C
   0.1962669968520290    0.8402976880764081    0.2433427230060469 C
   0.1834298309287058    0.9521690190290352    0.2401445645848466 C
   0.3030024449208935    0.8155580235192610    0.2730054852135979 C
   0.3116683420794271    0.7102686329678966    0.2883432355803938 C
   0.5635487966879760    0.8590018619892303    0.2068946126740231 C
   0.6662938178586143    0.8592112020546355    0.1854923046371503 C
   0.7203329182032718    0.9553185042199441    0.1955784819161530 C
   0.8257559066016747    0.9277404771208181    0.1953933952200146 C
   0.1125894151353963    0.2062253983832150    0.4110382541111328 C
   0.0716544813662921    0.3105792554009059    0.4215923864332026 C
   0.4419963622921929    0.1523123910560941    0.7320882403522055 C
   0.4446853899691397   -0.0145482439047553    0.6712491956709448 C
   0.5698891815694330    0.1086137351961659    0.6310371902238634 C
   0.4073257287859681    0.1176752725790402    0.5656727408999987 C
   0.6193411543497983    0.0290197548798682    0.5777321518919465 C
  -0.0324201185139877    0.3099144202276702    0.4551877869474604 C
  -0.1090986198087010    0.2676010181108900    0.3915971666129651 C
   0.1153573453797568    0.6647429436405856    0.6868844816322878 C
   0.1220753354052649    0.3484553699933869    0.5971795951974155 C
   0.1280634766821965    0.3733928248192274    0.4945349835373392 C
   0.4623079261573821    0.4249965224800094    0.3349299062186292 C
   0.4084226153704602    0.3977932140979589    0.4232993746798533 C
   0.1777636403063104    0.8147625312707207    0.6188738513059331 C
   0.0860492685088265    0.7734655112645982    0.6661889952425551 C
   0.1704489496147363    0.9215880447847838    0.5913972074339044 C
  -0.0150770524015758    0.7800821010559967    0.6228193409153152 C
  -0.0325497441604530    0.7492925086086345    0.5226289788460351 C
   0.1647101968098086    0.0745808154596096    0.8905140709623864 C
   0.2593474860376442    0.0752182198656542    0.9411866177229242 C
   0.1217287276984119    0.2452261744305290    0.8701692016347727 C
   0.0004392783777675    0.1251783092680863    0.8836204645816818 C
   0.0964249561237263    0.1731727676425914    1.0196766472525305 C
   0.4036321023489149    0.4587734698469356    0.8154561773755141 C
   0.4747725592445592    0.5884254962790292    0.8940844980969521 C
   0.5498281333557823    0.6239223527488341    0.9707760436923826 C
   0.4672182724531869    0.0909064531120500    0.6472305300350730 N
   0.0971442375641671    0.1530277565899448    0.9143434592599431 N
   0.4402633237579280    0.4853221213141028    0.9083899536075491 N
   0.5969448014868651    0.5833240954437888    0.4755420153759354 Cl
   0.8106643816093890    0.5715664023909522    0.6493845201139071 Cl
   0.6126922040707771    0.4256693703247140    0.6966388997389668 Cl
   0.2423115763483784    0.7892613019928747   -0.1197107682126550 Cl
   0.5670073357433689    0.7122277672351730    0.7196469221698861 Cl
   0.6950002626530152   -1.1287282582215572    0.8636576421325125 Cl
   0.2333040028934553    1.0002248356985730    0.1832188812562796 O
   0.1236674764977197    0.9855464878021843    0.3028065386129807 O
   0.1121012054995241    0.1666081519363969    0.3305562726668589 O
   0.3575994991351193    0.2470770293536302    0.0763554104288266 O
   0.4801846413306500    0.1666803381658471    0.1402843552750558 O
   0.5663172200733828    0.1826609256415160    0.3019418694438508 O
   0.7844905683315258    1.1561831844255699    0.2209744719474401 O
   0.7636877655354655    1.1842167066325262    0.0712274612852467 O
  -0.0792727448391184    0.2449821849749876    0.3070048636336915 O
   0.9280284282012027    0.6808938906177568    0.2700650512862659 O
   0.5291867285793155    0.3840503997352439    0.1890264128728510 O
   0.7972995547664868    0.3578496858940263    0.0957552899455899 O
   0.6933144247617566    0.6413380024659714    0.1879871336130244 O
   0.8561763687756961    0.6562632272670794    0.0746931223653943 O
   0.6856157885412498    0.4875565738605021    0.1503817075998631 O
   0.9121422416371077    0.5412603854946765    0.3572234241584178 O
   0.0938655540932448    0.8468363167400006    0.0080514351501016 O
   0.1322523576272124    0.8023631026380725    0.3094047047202266 O
   0.0227461613651512    0.8254114438392033    0.1399023083966115 O
   0.3964850796130949    0.6723751936803475    0.2638230897640412 O
   0.5108576198998835    0.6305172866713976    1.0602148243490330 O
   0.5372770596880546    0.9230454847573819    0.2699379351402387 O
   0.5085372221999447    0.7975757119009401    0.1708704556422108 O
   0.6966621479791659    0.9942333786542125    0.2867913010942817 O
   0.8658355928989914    0.9022832814429367    0.2669248634151769 O
   0.8635565767777120    0.9223640467513726    0.1085255735387819 O
   0.1100948259281475    0.2644327645003240    0.6239005265969090 O
   0.1565825278789899    0.1706679054806720    0.4836847125014479 O
   0.6372576730503776    0.3262559388505897    0.3390094963776664 O
   0.5836176647096473    0.0361524762118351    0.4833683190171055 O
   0.3447376761594794    0.3396630872463616    0.4237512655945763 O
  -0.1927085707532648    0.2624743520953420    0.4128968039165083 O
   0.0827712895251132    0.3649015586490091    0.3418479580120315 O
   0.1271617330546115    0.4139797488862489    0.6584279259312693 O
   0.1177892352254000    0.6041635380237456    0.6188193729576357 O
   0.4445275848343124    0.4368102320468992    0.5048874062826363 O
  -0.0759616549565798    0.6662841196393459    0.5065523204818326 O
   0.1066442475782168    0.9444523111008167    0.5231109725403942 O
   0.2144899674885453    0.9846434380717634    0.6320995180156620 O
   0.2501243394967515    0.6543012055506250    0.3182315940251249 O
   0.0030557438721821    0.7958728387482118    0.4561155252813500 O
   0.3095478355801842    0.1537727184778701    0.9042614726231170 O
   0.9206855580212665    0.3500579042871797   -0.0056449803641456 O
   0.1478778839239585    0.6378441889605854    0.7682220525209754 O
   0.0736876314516126    0.8284107816728560    0.7520440783977470 O
