Li1 Co1 H90 C51 N3 Cl6 O45
1.0
  14.0291598120999996    0.0000000000000000    0.0000000000000000
   0.0000000000000000   13.6914806557999995    0.0000000000000000
   0.0000000000000000    0.0000000000000000   14.1506192481999999
Li Co H C N Cl O
1 1 90 51 3 6 45
direct
   0.7839453361643411    0.4254044521790019    0.3312109203062742 Li
   0.5782972404379202    0.5509742895998870    0.4606629229267965 Co
   0.5907612797918083    1.1538046340669470    0.0407572003729351 H
   0.3386349908782504    0.1374543685384944    0.0732716784978784 H
   0.4754230113800102    0.2574727976120434    0.1090983791607832 H
   0.5983084174264284    1.0534093565541596    0.1860625021364286 H
  -0.0104557647759836    0.0659982547261760    1.0055983681357321 H
   0.9773282640329131    0.2152742937011279    0.1337418236548719 H
   0.8363283733413904    1.0808147197455431    0.2122316749128853 H
   0.8239919253774342    0.3088558450476017    0.0679482365566657 H
   0.7174559659886961    1.1169715104130513    0.3479303299554381 H
   1.1279552458552609    0.5706536805126485    0.1527890466259998 H
   1.0586674187138509    0.3995759089490778    0.1218730851174143 H
   1.0267546024086396    0.4543119903737359    0.2369528545209437 H
   0.2440854941324830    0.4121762992455734    0.3716331795704941 H
   0.6920160961190709    0.5873377781455246    0.9587424681662420 H
   0.3133932797036029    0.5170158002524956    0.1003920463961820 H
   0.3494545981842476    0.3349728158113534    0.2822392118711010 H
   0.4083889899136007    0.4319327453743866    0.2121885672587749 H
   0.4120142961102080    0.6941947380887306    0.1788345499029593 H
   0.5964914875217583    0.6271187203016433    1.0214966123082347 H
   0.8580951793433167    0.4151726150591316    0.0173907317965115 H
   0.8498067286051827    0.5154494247421220    0.1657580903675551 H
   0.0436379949476362   -0.1941788648676039    0.9986686360667646 H
   0.1517941511481886   -0.0283217120082432    1.0325123846405890 H
   0.1897907245096412   -0.2359961097948323    1.0025659920080612 H
  -0.0243653646817238   -0.0631849975797561    1.0340508332143337 H
   0.1347304065472091    0.8266983033062352    0.2104967685056535 H
   0.0779664940488172   -0.0607615927754010    0.3260888829785283 H
   0.4197574540366227    0.8329080042244470    0.9820552288457411 H
   0.5274242723087499    0.7920614359051111    1.0512083862331449 H
   0.5013697540841631    0.8643465323735305    0.2789425363559335 H
  -0.0876293100560224   -0.0175339817610087    0.9318807461926011 H
   0.6709884648174753    0.9890598517672706    0.1013135608381495 H
   0.8576069106164830    0.8589957597404065    0.2453482468296663 H
   0.1794251714795462    0.1551471226013928    0.4038706380165636 H
   0.0627945234639202    0.2035063918904683    0.4055157957013032 H
   0.2716145839121074    0.1840234735191087    0.5583643009195556 H
   0.1610926409898602    0.0182254815365270    0.5654193278585851 H
   0.2040945034021536    0.2398947133967290    0.6544003100979429 H
  -0.0394432455265594    0.1028569417218897    0.5502233144383700 H
   0.4258896815650168    0.9941637555565512    0.4006149501069436 H
   0.6141340265843275    0.3355315574253773    0.6276820447437188 H
   0.6521420047627572    0.1180547136233423    0.6225918081444151 H
   0.7210641649598377    0.2598231642969182    0.6122311308179686 H
   0.7543398568938168    1.0108734165312454    0.4018756723189607 H
   0.1129785693675654    0.3747391503435761    0.5796129116500187 H
   0.0509990915053167    0.5546933906438219    0.5207754158912442 H
   0.7125604483012603    0.3531468910816267    0.6966557046861381 H
   0.2544453447540894    0.8537077998900356    0.3188298366994712 H
   0.2467328372733008    0.7243105458940264    0.3299127439029810 H
   0.1844468549547916    0.7917678226648005    0.5348685800490861 H
   0.3772688083883005    0.7596361627618494    0.4820588063640894 H
   0.4721640136486874    0.8286140931802025    0.4456663354080564 H
   0.6698144814698913    0.9813908492218432    0.5073237925621653 H
  -0.2626975274614350    0.8151896868197306    0.5857934185568895 H
  -0.1365431444688390    0.6892989929399685    0.3992093579098016 H
  -0.1183631534062222    0.7853521542496544    0.4890463450905361 H
   0.0142242591625399    0.6490031320415139    0.4359137586777091 H
   0.2081289574078156   -0.0319706964574770    0.9192537369525122 H
   0.1555620175570101    0.0814801449124069    0.9629952855832363 H
   0.1123320588051739    0.0739981199528490    0.7936917407716022 H
   0.2797098655626911    0.3641778382667304    0.0093797749605116 H
   0.3847353995030195    0.2992301512812981   -0.0191362915749744 H
   0.5132189597548138    0.0678534229609747    0.7910331998738401 H
   0.5277962831825228    0.1642695837244773    0.6322889102707021 H
   0.5264850856306826    0.2274709292731366    0.8383293632615402 H
   0.5079866863340855    0.0133604123979469    0.6794006294334378 H
   0.0259227501768377    0.1300358867428843    0.8622484578300026 H
   0.6740656269981190    0.1307268273531676    0.8437100465139488 H
  -0.0123910196567915    0.0354383751544401    0.7895541126598540 H
   0.7309941965416182    0.2469655337436131    0.8314745395751253 H
   0.6762860023033553   -0.0345518635999094    0.6929010986814037 H
   0.7615669468520161    0.1524892654335061    0.7567011334477155 H
   0.4882487972723919    0.2878135628253385    0.7310753997861922 H
   0.6489657632346247    0.6132706928481859    0.7552340598422518 H
   0.5950181277285245    0.5392190233838975    0.8369930259841164 H
   0.6958866058806865    0.7164655214806516    0.9972997913780444 H
   0.4583709567164323    0.6724052759041843    0.9057235870246669 H
   0.5895530819932929    0.3388891197778849    0.8033252414410053 H
   0.5139908235118051    0.6236077778982273    0.7747038791602330 H
   0.9205037634443302    0.3801541965218427   -0.1229140820901704 H
  -0.1527415485816783    0.5159701865340163    0.6368802287748916 H
   0.1022765742366449   -0.1113550981393777    0.7931949427250509 H
   0.0545923216541758   -0.2687237607527425    0.8970525884027792 H
   0.4935247368861214    0.7707080112938621    0.8266259885119818 H
   0.5421151021774239    0.9449908416164656    0.9910795688947636 H
   0.6534528459140668    0.7761340131900507    0.7549429065062928 H
   0.6632895005568471    0.8340225659277157    0.8694403692379041 H
   0.7505142535990487    0.7441330915209692    0.8283785619905703 H
  -0.0194370581454787   -0.1196069448782576    0.8349782731665939 H
  -0.0613205356929516    0.6976457892341729    0.6543642692723751 H
   0.2678281846756980    0.2410355688230107    0.1505142345181060 C
   0.3512750920942231    0.3087886499776799    0.1316839631832389 C
   0.6711196202127124    1.0457849072616152    0.1578778698595950 C
   0.3559311086251390    0.3555089438656183    0.0347249555288900 C
   0.9536689712138432    0.2980929477609904   -0.0072880468402906 C
   0.6964967635889634    1.1451233231855231    0.1235740707476412 C
   0.9154243430831379    0.3062593399000784    0.2329339491287126 C
   0.2576436831151151    0.4475849604552454    0.2350221969630792 C
   0.9880110135351846    0.5522320060173371    0.1340626576707103 C
   0.3455063931069752    0.3854764842883693    0.2232728878279932 C
   1.0037475225604497    0.4443356405958075    0.1618246936006906 C
   0.8853120622581920    0.3534390435595476    0.0542767500579664 C
   0.9112701384992159    0.3892788487885117    0.1595484681270883 C
   0.2667903463307786    0.7748273612325489    0.1879231980917204 C
   0.2832482100298477    0.7838534120379194    0.2945489205096228 C
  -0.0260197759444697   -0.0072063916664998    0.9793655939023912 C
   0.7341554692474683    1.0017239313039530    0.2421808942768300 C
   0.7149269478240161    0.8888625075582748    0.2411258167754055 C
   0.1111930027095824    0.1469456721649543    0.4414760594236649 C
   0.1236356580316384    0.1582578161100571    0.5498571113832875 C
   0.2104163360127926    0.2289273093755730    0.5749658358686274 C
   0.0632963354109142    0.0525497457862756    0.4095672085048307 C
   0.0272114944952542    0.2106451376884690    0.5940107267863362 C
   0.6103540425574678    1.0213171372357279    0.3870883335933697 C
   0.6719621510668984    0.2922572020145175    0.6612925879756342 C
   0.7078381412716647    1.0385234574228877    0.3444301297782409 C
   0.2164480585915757    0.3193601873912528    0.5154391476562264 C
  -0.1302077686380396    0.5343977771170055    0.5072834339043579 C
   0.0717587096079496    0.7175618236540503    0.5562131583111589 C
   0.3317500454293653    0.9053559756993074    0.4633857012960118 C
   0.4439613268663508    0.6890177961799696    0.3155218542586353 C
   0.3944451755569292    0.8180681191084477    0.4320609237562313 C
   0.3885631412009710    0.7822524164589121    0.3325592711922206 C
  -0.1437545528036946    0.7122512219866405    0.4733042778288271 C
  -0.2479354174866539    0.7020602131755598    0.5031993652861346 C
   0.0154709482183531    0.6310459799860969    0.5094532188064501 C
  -0.0869129449896460    0.6322379620960148    0.5347137458357156 C
   0.1498367994344875    0.0019898379572599    0.9589770868738595 C
   0.5492405467043143    0.2715370178991624    0.7770076652651519 C
   0.5600305727662771    0.0446594377388230    0.7277278431055171 C
   0.5919652007839572    0.1342268140386617    0.6697706621783063 C
   0.0480010502424520    0.0577909612401791    0.8373357671684372 C
   0.7023538499077842    0.1868412841686571    0.7933080119817340 C
   0.4115089201579087    0.4510148305460385    0.0171087653376580 C
   0.5897234414468888    0.6108911109155190    0.8060756511098224 C
   0.6474916906403299    0.6538667404177044    0.9696515313876015 C
   0.0564555836278155   -0.1158652020172838    0.8607100092562577 C
   0.0803493879959777   -0.2011379368916831    0.9271247705833668 C
   0.5081773606179220    0.7364005458115940    0.8970773223026787 C
   0.4992406885948500    0.8152692983699640    0.9779098272225958 C
   0.6721603097618762    0.7659641854336191    0.8294124390063666 C
   0.6303851779756859    0.2207287804639138    0.7237647656587733 N
   0.6049224984721064    0.6929655065378777    0.8811974518843869 N
   0.0588726920259074   -0.0187960804656276    0.9096004491631898 N
   0.4606763691882543    0.1185973868510807    0.9785211078915390 Cl
   0.0300505811215001    0.8414037982823910    0.2754522297386960 Cl
   0.6261062332060766    0.4302452726619146    0.3674390168304041 Cl
   0.5222698296358800    0.5132197170306285    0.6085274059787419 Cl
   0.7777190188958858    0.9501210391287592    0.5914369878310863 Cl
   0.7959275220009453    0.4503393740170850    0.8323451728515855 Cl
   0.1939050122341432    0.2659174649863512    0.1855056360472642 O
   0.2764117350531154    0.1531845883309582    0.1064560919686692 O
   0.1149480386993046    0.0056183717330392    0.3511860178650581 O
   0.4332778645630181    0.2569732168747984    0.1628444369594016 O
   0.6490199361152661    1.1898964208081177    0.0538810076595754 O
   0.9924161240926036    0.2226803590164264    0.0222477630539063 O
   0.7630980435311967    1.1896415177711317    0.1590417765205770 O
   0.9596301264875803    0.2186661839697912    0.2049252808825922 O
   1.0683472571231956    0.6044973539362171    0.1297596657710628 O
   0.2318994471924125    0.5071087636499541    0.1709755298806274 O
   0.2207177369473912    0.4559189750785406    0.3167755096421095 O
   0.4492148845267626    0.6548191574957271    0.2292097304867119 O
   0.8770642411805391    0.3158974501466936    0.3087080181777681 O
   0.9112986505416587    0.5897042132166850    0.1146133321555029 O
   0.8334115913994878    0.4471993191843897    0.1926509063867839 O
   0.1873237200372743    0.8062286399406973    0.1564878246852468 O
   0.3223139849829069    0.7381410441988087    0.1308324103438440 O
   0.4342194747646930    0.8537976367769965    0.2723937063454173 O
   0.6321023157318062    0.8566833728776616    0.2367472098103512 O
   0.8301818897917749    1.0139826492775199    0.2301128711744684 O
   0.7935788425047162    0.8370361187374714    0.2336272050087510 O
   0.1261924754377002    0.0676248136470014    0.5977617993767991 O
  -0.0147496783678755    0.0235740630260665    0.4436377316065901 O
   0.3649195300052448    0.9925357358733362    0.4441609595918913 O
   0.5334981927103484    1.0263253610884893    0.3440817351310860 O
   0.0319958152171629    0.2888558167903219    0.6397677349174370 O
  -0.0563915163556454    0.1673700518964144    0.5808023295620398 O
   0.2794945996422477    0.3305043436615510    0.4502192810332590 O
   0.1567352881035330    0.3916350585229449    0.5324119384427888 O
  -0.2904682568007625    0.6373367532169318    0.4580858625621316 O
  -0.1590997340464319    0.4731726604861833    0.5800311972314609 O
  -0.1344047412856259    0.5019027525696401    0.4235347951194690 O
   0.0449531129053122    0.7643522341366898    0.6274665064731666 O
   0.1631063039873859    0.7228271416873823    0.5235244828626383 O
   0.2583686017942243    0.8972918369274917    0.5125276892050183 O
   0.6069639607110140    0.9993655304259355    0.4822274208931181 O
   0.4872707629364963    0.6536293665293936    0.3835238252764340 O
  -0.2997845666689609    0.7548141861137626    0.5633711489420555 O
   0.6424486231332522   -0.0138521301580087    0.7537683996024968 O
   0.9691103805998251    0.3293539932797369   -0.0935726099808975 O
   0.4872982057773476    0.4552233600286105   -0.0287139642988900 O
   0.3762872813272056    0.5299363166266733    0.0665581913823174 O
   0.1777700474157392   -0.2120381458429172    0.9374918080555015 O
   0.5530181784876725    0.8946624646262024    0.9434477311512856 O
  -0.1025681946939492    0.6393767078940156    0.6323101107563301 O
