Li1 Co1 H90 C51 N3 Cl6 O45
1.0
  14.3569482194999996    0.0000000000000000    0.0000000000000000
   0.0000000000000000   14.0113792599000000    0.0000000000000000
   0.0000000000000000    0.0000000000000000   14.4812455301000007
Li Co H C N Cl O
1 1 90 51 3 6 45
direct
   0.5996008674119047    0.6774916982703778    0.3394509646896412 Li
   0.6948739003077241    0.6884192448851636    0.6144846274862208 Co
   0.1670987851402552    0.2133325402485275    0.1054828303218095 H
   0.3261869120235006    0.2556759804620097    0.1667096079603126 H
   0.4089600739678979    0.0830855484179013    0.0100442164866046 H
   0.3684800226983224    0.0590058347978728    0.1244466687174218 H
   0.5538903870252271    0.0860131688354999    0.0534845406419023 H
   0.7758618639211009    0.2690215616879178    0.0209459030626563 H
   0.7136397268525372    0.3599776322046399    0.2887011864007205 H
   0.8560704139830098    1.0365020359889718    0.3652567559955925 H
   0.1328895651520602    0.4814872258299108    0.2514101951750319 H
   0.6345282065882706    0.4141202676960021    0.1436107661303937 H
   0.3666885556256010    0.4968872086579783    0.2346899483221821 H
   0.3694384436516913    0.3137887461574129    0.0089296714727485 H
   0.3541420173748506    0.5589887322738775    0.1090301771224161 H
   0.6861944791595200    0.6296627167283577    0.1684490992179977 H
   0.7153698995619616    0.4207928441972729    0.0535211397036956 H
   0.8821281801795802    0.4490849197058213    0.2420511935809844 H
   0.8612658077992729    0.5753661349366357    0.2326183033150145 H
   0.8043393644141853    0.5864178663277896    0.0587693070551869 H
   0.1117659952008856    0.7410429007239723    0.1614959680256074 H
   0.1987036912151900    0.7617624883259477    0.0554878213638334 H
   0.2693816643112955    0.9474601239217864    0.2671864624529490 H
   0.6941794630326451    0.9938317186055090    0.0215273447613347 H
   0.3252723722620375    0.7832942729135954    0.2563414008404266 H
   0.3465317649500630    0.8324992788742235    0.1489100340587284 H
   0.4198920629672610    0.6703603518021564    0.0897707840391146 H
   0.6636841242387542    0.9523304510133740    0.1705525094486085 H
   0.7154346765595367    1.0534168589770470    0.2228498065578835 H
   0.8923559805278853    0.9638560829304386    0.2258343564648763 H
   0.8829661019869224    0.8073154626734964    0.2746720064121813 H
   0.0878528351928490    0.2270842199672717    0.3199367592704580 H
   0.0327540782769764    0.2730846877331125    0.5864055510590710 H
   0.2303733742876999    0.1273981024129911    0.4143257396353646 H
   0.2776480450341016    0.2391094458122541    0.3957189147293207 H
   0.0229539454180379    0.3086629124569758    0.3854186957536834 H
   0.2006463046155866    0.3068586646715811    0.5659542024934787 H
   0.3421464318669162    0.0615280704282465    0.4846071251615288 H
   0.5554547863430078    0.2738854654290037    0.5156160876894156 H
   0.7185606890876758    0.2956085231204827    0.4910551202463380 H
   0.7063805239629951    0.1527168089742560    0.5636344434692860 H
   0.8115108049199160    0.3141313248508422    0.5805621310421869 H
   0.4550025887066619    0.3200472306630008    0.5723372860347300 H
   0.5323725828737569    0.4022723263248694    0.5101379263092286 H
   0.7019833499233024    0.4376542820056222    0.5721752833951695 H
   0.1903474585280056    1.0175802728218890    0.6095838059475981 H
   0.1752822791672394    0.8418845076629657    0.6104677078173228 H
   0.4509647528717967    0.8781378978951294    0.6239389247505981 H
   0.2825077129059433    0.8926924964265989    0.5706680925976215 H
   0.2819825316567862    0.7661603423028475    0.7128497851682178 H
   0.6449322282310541    0.9340745751816448    0.3408189409427075 H
  -0.1092008810110900   -0.1168062643756943    0.6637200332749020 H
  -0.0709754871732405    0.0063065261642650    0.6689778683030935 H
   0.7247653503177698    0.8774206237557617    0.4080438214252967 H
   0.3702652210293430    1.0149524087610413    0.7127192715327663 H
   0.0676180335094786    0.0296446996541413    0.7972182186334545 H
   0.1069084169096108   -0.0004522659748520    0.9574765330979269 H
   0.6247413077395894    0.3030703152867412    0.7663810921534290 H
   0.5010243469451277    0.2850663775358049    0.7328929506125644 H
   0.4492886306463703    0.9940137135363933    0.8057727314163854 H
   0.5920560885115477    0.2186753404548032    0.6831057967036409 H
  -0.1031257737761461    0.0446525012487932    0.9147122557633016 H
  -0.0898464892732561    0.1063402183512542    0.8051968141043927 H
  -0.1420748590170117    0.2854582019164148    0.8146573263037915 H
   0.7187452687044219    0.3838346696739393    0.6833509413628224 H
  -0.2327396702358776    0.0336871282366079    0.7517822097879187 H
   0.0440259723818947    0.1144693252640887    0.8861076720526669 H
   0.2016332831700368    0.5585969078932677    0.7649848034185980 H
   0.3008152247797414    0.3416896396204017   -0.1820255881595978 H
   0.0468615332112294    0.5284763899791011    0.6711379034972337 H
   0.2548082329106153    0.2949440631963519   -0.0346073294495504 H
   0.0385986351227015    0.4399158723467451    0.9722943192858612 H
   0.5939819852674089    0.4715079998446314    0.7291184134095051 H
   0.4809822742427145    0.4393821632906066    0.7037014008165656 H
   0.5479504756529641    0.5096172901646916    0.6242538147916876 H
  -0.0350883339897944    0.6083785879878351    0.7123498281731547 H
  -0.0549693000304966    0.5619498968552077    0.9262022895213889 H
  -0.1250245781176546    0.4733482555055280    0.8094015629206073 H
  -0.0687131679461025    0.4004403867617559    0.8835049953753286 H
   0.3152298480573342    0.9934398942248991    0.8199282817503617 H
   0.2288472839469796    0.8688461645414690    0.7745551128033766 H
   0.0020372439429902   -0.0773990090471464    0.7200798262432327 H
   0.5228412397284122    0.8878628505548558    0.7220451268066991 H
   0.3227021881647039    0.8395385573185858    0.8847541973146507 H
   0.4425229170340534    0.8503768907319578    0.8803118998709476 H
   0.3752760352288599    0.7465034623561143    0.8326074397425632 H
   0.4700919375493190    0.7699665343279700    0.6956357962553263 H
  -0.2569648742752436   -0.0363045536534588    0.8561724016990949 H
  -0.0214036708569185   -0.1527463378444925    0.8649782740762286 H
  -0.1361244300892284   -0.1381018124059979    0.9174530421077842 H
  -0.1228138018778344   -0.1991000898879323    0.8092800264135203 H
  -0.2420940259072026   -0.0863017728426424    0.7422250208215189 H
   0.2124099466805909    0.1234298992141009    0.0266242820273028 C
   0.3020007134880507    0.1836238304720875    0.0506878198822261 C
   0.3845746687517334    0.1185410157766191    0.0764563215780483 C
   0.4663100056812182    0.1722002584574404    0.1159936665398422 C
   0.7429063922730685    0.3064347235384623    0.1491648463946100 C
   0.2024656327625338    0.6291823928519453    0.1763752130154209 C
   0.4188507553180703    0.6217248829193547    0.2302331493634289 C
   0.3695296886697809    0.6320286508298545    0.1348311345900173 C
   0.6973486602258341    0.4970086099824623    0.2782469751462169 C
   0.7089388671037827    0.4078896890798165    0.1246117097696595 C
   0.8993442344705811    0.4954517325619481    0.0994384607392301 C
   0.7460115089955381    0.4943337840923902    0.1839125480998324 C
   0.8526790247228697    0.5042972571674168    0.1978174293879415 C
   0.2836151906064203    0.6973669721341721    0.1407532771171738 C
   0.2091982613492075    0.8615770728902644    0.1889811728840358 C
   0.2944824026082085    0.7945479829927504    0.1902704266268299 C
   0.8030493966775291    0.9944869003566926    0.1035976333652869 C
   0.7334865630773127    0.9829134501636702    0.1892201026081959 C
   0.7756849460997667    0.9183844710225794    0.2679999283924302 C
   0.7593625357645596    0.8139465015081888    0.2393711754900452 C
   0.0907678000837272    0.2841178627783724    0.3729929690006921 C
   0.2368726663777322    0.1989649325872218    0.4457872599205505 C
   0.1412931616654285    0.2490192482253102    0.4571947731525190 C
   0.0824819166089631    0.1662401028973806    0.5117402746674391 C
   0.3012129416143152    0.1911056063954628    0.5341150213234861 C
   0.7365129722650944    0.2925053311225016    0.5682323214530274 C
   0.1415738619882539    0.3610089368129845    0.3150918721470287 C
   0.5285348592045188    0.3385093674163989    0.5493984442541980 C
   0.6902197078582979    0.3755549708771181    0.6122265344284081 C
   0.2355680715771074    0.8887271480501537    0.6281367680834553 C
   0.7183106359464988    0.9354898534088749    0.3587283120296716 C
   0.7367846177387963    1.0245267695367810    0.4195241875066838 C
   0.3632226379919068    0.2275474149090127   -0.1163882783008349 C
   0.3217758074466948    0.2596720181797411   -0.0233451766422515 C
   0.3786277224582282    0.9795262033323873    0.7791168751091597 C
   0.5747595853687197    0.2890988142397132    0.7094895769665919 C
  -0.0745897650271873    0.0400405355885002    0.8462595803397978 C
   0.0290429831900948    0.0410133163367174    0.8619557440107711 C
   0.1059534785905202    0.4554967795472800    0.8555260484568585 C
   0.0320234216054038    0.5718796830253803    0.7300575591460877 C
   0.5536985635291821    0.4510645963304762    0.6730493412905136 C
   0.0220637840965224    0.5153128036840773    0.8204489551954965 C
  -0.0484254302217030    0.3566139376585301    0.7464691308928696 C
  -0.0569732077941900    0.4398175237135064    0.8184774396970086 C
   0.1027640821185174    0.6513693591907767    0.7340371892048567 C
   0.2759526986674593    0.8431063716695306    0.7156140501561151 C
   0.4592426959404066    0.8534993527814442    0.6947850407057162 C
   0.3788561832668801    0.8194127727852213    0.8449482290502608 C
  -0.0975842061126269   -0.1378812773721028    0.8538121074875952 C
  -0.2183633559353453   -0.0341620094083026    0.7887072103956743 C
  -0.0737037828668057   -0.0609709332859852    0.7063752039724833 C
   0.5856410761710487    0.3611431134679110    0.6362120403213948 N
   0.3745335376007414    0.8742703271874340    0.7568480723787793 N
  -0.1177535342715666   -0.0469194972104903    0.8019436408948039 N
   0.5574994409277566   -0.0282989178113811    0.9954843134960955 Cl
   0.5972278004147189    0.7192548958218640    0.4998124470754705 Cl
   0.8456524618031134    1.6672964664341499    0.5729509072858531 Cl
   0.3319680849253620    0.9576375659390841    0.3967119232360898 Cl
   0.7541922169150997    0.3173972417282023    0.8962497554594239 Cl
   0.6399555438474639    0.6897981241262169    0.7530528187256483 Cl
   0.2684448356904516    0.2369276477584758    0.1307582805059258 O
   0.1376552018983898    0.1673756085249767    0.0612048710352803 O
   0.5517943287585317    0.1462228016169353    0.0902810992592135 O
   0.4605992516444626    0.2420456306971884    0.1685699451767491 O
   0.7726146557200795    0.2479315608736719    0.0873366011556926 O
   0.7416366238152259    0.2786758574921244    0.2326887392452582 O
   0.8109974646273049    1.0772653319790109    0.4022867199503778 O
   0.2132701573473137    0.5451035896058181    0.1969715076766813 O
   0.2245824500098595    0.3539917832425728    0.2935446924274783 O
   0.4623089464643312    0.6814313532448157    0.2712144308952186 O
   0.4257721426826241    0.5293959282887144    0.2606877120654642 O
   0.7181086431583615    0.5779790111796459    0.1368212948935697 O
   0.9671169940517873    0.4491359496570300    0.0779009486963798 O
   0.8645464492893653    0.5572173149466031    0.0361497057702595 O
   0.1156547046359569    0.6654436338458335    0.1712976111028531 O
   0.2531574642627344    0.7177910856130647    0.0439929537673960 O
   0.1351316851003845    0.8441383899834866    0.1428912147645708 O
   0.2160527821356192    0.9496547686765683    0.2256810547343459 O
   0.7660310838805140    1.0077675343719714    0.0230907461934105 O
   0.6830016000532390    0.7789470920350989    0.2264738042237553 O
   0.8881510479003507    1.0005070071881026    0.1133322932539675 O
   0.8740596130837777    0.9363291712077769    0.2877931153392453 O
   0.8367229875137324    0.7600752882608082    0.2491997499523841 O
   0.0860147008207993    0.0813034255064573    0.4951013191646706 O
   0.0222915483783186    0.2020003225521283    0.5741740755529183 O
   0.1513064317421947    0.3260238014521208    0.5195731299121231 O
   0.3059235527390487    0.2540173286213225    0.5937826789295949 O
   0.3504629625233288    0.1106973911083090    0.5378609698254465 O
   0.7167190720813479    0.2052505379060394    0.6099456532755165 O
   0.6766067869915535    1.0534275645612168    0.4744123529167562 O
   0.0910303907083058    0.4404328806915789    0.2953711927754644 O
   0.6664911274670074    0.5755616902741348    0.3083341661336479 O
   0.6964452648940613    0.4194051863772004    0.3286134991088117 O
   0.2012794475273687    0.9776198956445751    0.6604875765153849 O
   0.2102207627732957    0.0425741905086550   -0.0086945031515622 O
   0.0517079670728139   -0.0310145676624202    0.9267443699649310 O
   0.4131489864777526    0.1566650284160295   -0.1261491790262729 O
  -0.0882159199041889    0.2741573872669132    0.7685356029608833 O
   0.1777375363333914    0.4365650958722002    0.8099298323974351 O
   0.0968150462444454    0.4194506494246409    0.9392930143216810 O
  -0.0055799737503539    0.3669954994806628    0.6727689786662102 O
   0.3341140841676071    0.2780763447786230   -0.1939789798509550 O
   0.0014925599418750    0.5839834164876071    0.8974395702418737 O
   0.1946673180867217    0.6282203176878978    0.7492375391707812 O
   0.0810714497262800    0.7336339227729508    0.7197939392322437 O
