Li1 Co1 H110 Cl3 O55
1.0
  12.4693791048999998    0.0000000000000000    0.0000000000000000
   0.0000000000000000   12.4718195222000006    0.0000000000000000
   0.0000000000000000    0.0000000000000000   12.4508952813999993
Li Co H Cl O
1 1 110 3 55
direct
   0.5798813631192414    0.1531769087821927    0.6027530527873933 Li
   0.5250622743539166    0.5599667914427993    0.3748682352001265 Co
   0.1177035793244310    0.1156867896245414    1.1787766910806203 H
   0.0388503347700475    0.0189371038347369    1.1971448481352900 H
   0.0044031504807184    0.2461056108001286    1.2863834108963017 H
   0.5332671736628001    0.1705641071467942    0.1915255961041112 H
   0.6158510771063436    0.1518547280073148    0.0889969047009288 H
   0.4864573048562104    1.2987034275527145    0.3072514107893010 H
   0.4919226932630173    1.0301379633044669    0.1143664859929564 H
   0.4918128241196962    0.2678137504599497    0.0159681883355816 H
  -0.1141588073812450    0.2098326356183807    1.2657262618168919 H
  -0.1265042496606851    1.0166756132679597    0.1633846478364455 H
   0.0778989510566966    0.3696369044704392    1.0657727690171304 H
   0.2936818683426634    0.3670342369172228    1.1546659750866901 H
   0.1363949670863455    0.4448047657701696    0.2885579759205893 H
   0.3151705084542393    0.5630914357603852    1.0494446259073169 H
   0.2205723740903182    0.6409790285266929    1.3043499904027713 H
   0.3898871396643601    0.3771049406967660    1.0645840994744584 H
   0.4282627473008269    0.4409368457835043    0.2196617254411985 H
   0.5530436194605781    0.4548313701302960    0.2084930506706591 H
   0.8047674602063096    0.3804123971530252    0.0157033881002985 H
  -0.1926583053727169    0.4645605038612655    0.2131296650421767 H
   0.7292801410638423    0.6455068361893584    0.1048338381537840 H
  -0.1165061576184751    0.3837254662626647    0.2817279449808031 H
   0.9297704765463521    0.5580737236383804    0.3179438145876751 H
   0.0814037767286361   -0.0254300696169835    0.0367228324121435 H
   1.2518875576142960    0.9518574848015370    0.2272242338289015 H
   0.0507065786741168   -0.3331611102376701    0.0353274307476580 H
   0.2480468776015134    0.7316907324594030    1.2294798723163567 H
   1.3688621068464086    0.9266005445901031    0.1963469361478008 H
   0.4555904912994109    0.9325499571732407    0.0346032257972340 H
   0.5585122157255841   -0.1175622559394896    1.1837000318215527 H
   0.5367332644469849    0.7558219347642701    0.2948747907537759 H
   0.6518408402071904   -0.1281068280258569    1.2756050695026129 H
   0.4135258467339182    0.7135562493875934    0.3128662680682338 H
  -0.0952204145379957    0.9782690279940650    0.2853879227550982 H
   0.9779765656341232    0.6759883548902433    0.2822708778259695 H
   0.9797489072891552    0.8223334809362977    0.1614426188133501 H
   0.6944099204744999    0.7590644448028427    0.1419910055336368 H
   0.8815563678130833    0.7419442483776193    0.1420994314716508 H
   1.2058066745834639    0.1970093262596041    0.5992280050692934 H
   0.2809635125475717    0.0821943229274033    0.4931850282263029 H
   1.2306435166904057    0.2768100320209747    0.5047874067488983 H
   0.4784601143657222    1.1947410507966980    0.3792430210102177 H
   0.4455683403207073    0.0444591713593198    0.4883387903746249 H
   1.3874436254650022    0.2522418445600684    0.6048709727766003 H
   0.5702225020815920    0.0354194318249786    0.4416313057434788 H
   0.9378943774357070    0.1848587334988400    0.5971526523001957 H
   0.8984698001681172    0.1876233661924598    0.4746883663562093 H
   0.7631703609733435    0.2274170786589191    0.5703240594600477 H
   0.7020221679810899    0.3251293649721380    0.5236888587875775 H
   0.0839853006144044    0.5320727059502413    0.3566727564911829 H
   0.2041369126069580    0.4358630071276963    0.4359634402281835 H
   0.2177807354925053    0.4504358607258807    0.5721062606189594 H
   0.3474391560440687    0.5119713887724430    0.4966233351939915 H
   0.3929706933582958    0.6289727611385655    0.5400186082075839 H
   0.7228708403819346    0.6491807187305900    0.6657734205815212 H
   0.6867118627610825    0.5745572848087505    0.4955655799320327 H
   0.7319579006955852    0.5045931550002012    0.3948740254963558 H
   0.2963171238532675   -0.0022531787482957    0.4121852304441629 H
   0.1020877256109544    0.8470371738859573    0.6474687127794673 H
   0.2673493623503666    0.9210680719723603    0.6033706790565250 H
   0.3314543986376894    0.7755784746629917    0.6400571975498874 H
   0.5152542479100065    0.7700091188944641    0.6001524365852499 H
   0.6291091550434428    0.7633597282540381    0.5881099290698272 H
   0.6199547297076100    0.8783317255193626    0.4632940050035814 H
   0.8474167369285980   -0.0122598982793032    0.5107556522702472 H
   0.9530114091992153   -0.2305385540242981    0.5543147689235051 H
   0.7779569833423390    0.6787465731228571    0.5546440625130290 H
   0.7335145138867242    0.9381145020960139    0.4267881964069090 H
   0.9284953529121888   -0.2921839297155893    0.4439676839189066 H
   0.8595825391488855   -0.1378744485228628    0.4832732911816296 H
   1.0597849693580215    0.1158519619954479    0.7118721136495960 H
   1.0696090350929273    0.2315487933544594    0.7234383501928534 H
   0.1951821764440226    0.2911968662499829    0.8540369909531798 H
   0.3037970472091425    1.0498303585931279   -0.1412143319385704 H
   1.4713210977273541    0.2964559224673415    0.6949391947521935 H
   0.3797936138407254    0.1871374707712494   -0.2192143454356561 H
   0.3795281635747454    0.2224033755750430   -0.0968665169806477 H
   0.6624780979955815    0.0527240440041268    0.7708815248923021 H
   0.8656133125632931    0.2798977931877757   -0.0255923652073452 H
   0.1288188079844960    0.5408557066828142    0.7269047675889162 H
   0.1743623747669701    0.4253192368489547    0.7427357576940580 H
   0.2901259575289024    0.5269980654868075    0.7579314521179473 H
   0.2433634046307502    0.6450666438028163    0.9903083161593798 H
   0.1015247464970031    0.3686306359001106    0.8898255820487669 H
   0.3504377014957268    0.5700487205291030    0.8667188099253369 H
   0.4477705349744258    0.4572215586626860    0.7956966079057750 H
   0.5774233417741406    0.4267681032287027    0.7902496100419898 H
   0.3724187478408726    0.6665366465977868    0.7034646861004801 H
   0.4764624206721996    0.3493599914225994   -0.0860399862811748 H
   0.7540768849432946    0.3651251329602887   -0.3029962724717259 H
  -0.2012866419638886    0.5396770494729473    0.7713272759708041 H
  -0.0961851778913910    0.6164076338352836    0.7775693973800254 H
   0.7718692704448965    0.3739666656495421   -0.1677417416175684 H
  -0.0216675140860726    0.4047953670523809    0.9868547492448595 H
   1.0628083757107232    0.6733079119973283    0.8615464911045204 H
   1.0271610514726359    0.7036571324399629    0.7428377583913008 H
   0.1518544377126134   -0.0556912515823096   -0.0592478566824034 H
   0.0733413063237950   -0.2167145887485732   -0.0091600528815287 H
   0.2351063776261305    0.9219179880556657    0.7232415771942354 H
   0.3451158647433321    0.9283565032905171   -0.1104936495012677 H
   0.4936036109593734   -0.2022106906062040    0.8703731656139572 H
   0.4043008485177041   -0.2540202921522998    0.9586077845044689 H
   0.6144508470024134   -0.0137446054599226    0.6804069064379306 H
  -0.0042511697618664    0.8865662898359159    0.6961471400171791 H
   0.9967505557446659   -0.0091391828190835    0.8555067647795919 H
  -0.2233174101111213    0.6959124725827488   -0.1801938582321551 H
  -0.2719196696864877    0.7442734995304516   -0.0685279925592677 H
  -0.2571482846439381   -0.1083246302831109   -0.1472781529163910 H
   0.8870498249791327   -0.0070038889309225    0.7999444952106349 H
  -0.2586591858557392   -0.0035264492580022   -0.0577111800364611 H
   0.1623008279381550    0.2932791606540812    0.1826643859255292 Cl
   0.7995202061570452    0.1445446478832626    1.0880362282893403 Cl
   0.6886518150070203    0.4771063877815291    0.0996807950552811 Cl
   0.1116695980518243    0.0386638662018531    1.1734999620972719 O
   0.5376747708284363    0.1500851385772629    0.1120220762665646 O
   0.5060557145239354    1.2216256604884244    0.3084657812950579 O
  -0.0676721302882199    0.2434203570614590    1.3194814324189488 O
   0.0545245715027486    0.4185487732570389    1.0039378581452889 O
   0.3450236388201064    0.4222667552176872    1.1195199080682230 O
   0.4973656266624301    0.4508608187675334    0.2628746822479079 O
  -0.1478076359612599    0.4590152023215107    0.2804814482711902 O
   0.2797990600212792    0.6820059211215708    1.2759504261940648 O
   1.3121952917583715    0.9071246373603973    0.2523662009666093 O
   0.4624889903566893    0.9588893376794505    0.1068336943438201 O
   0.6066709889049177   -0.1688498807212157    1.2215366684129600 O
  -0.0837876079162146    0.9617678270559281    0.2093700960359279 O
   0.9581520019633580    0.7464993174995608    0.1675867553008107 O
   0.7515073905257731    0.7223889621929634    0.1008525983409288 O
   1.2552076908504193    0.2072211481812810    0.5338270855694357 O
   1.0674036325810097    0.1772712279362749    0.6666183397429342 O
   0.3077796031633909    0.0072845635024050    0.4873926736710656 O
   0.5171035781618182    0.0801306304602227    0.4826018535210391 O
   1.4506705105703068    0.2372849251091450    0.6498452487097151 O
   0.7006179280544107    0.2743388609183830    0.5845374952010397 O
   0.8744670011929553    0.1665125732138298    0.5494123102150791 O
   0.1554528526475132    0.4985403092333404    0.3431845698022401 O
   0.2474438002600727    0.4255196887553947    0.5013627534178484 O
   0.4069673806457500    0.5659250239098204    0.4914887646627059 O
   0.9731407193989001    0.6200093536901966    0.3461899761729691 O
   0.6701472849852065    0.5309597969656867    0.4280973392140411 O
   0.7064586358705184    0.6565693760019666    0.5854643361822854 O
   0.0301689883221348    0.8207747669118207    0.6648192723269980 O
   0.2246688090106365    0.8838802342896205    0.6586157023624037 O
   0.3907556672717807    0.7218846251963605    0.6463009252693016 O
   0.5721800975476250    0.8187518062720286    0.5794623581468877 O
   0.4893042790079586    0.7138280621727260    0.3424785964725044 O
   0.6511711998081171    0.9248125135846588    0.4048194950550779 O
   0.8506727130007381   -0.0652346866671531    0.4511663630479404 O
   0.8945321542286570   -0.2576139939309552    0.5113299081641732 O
   0.1303160757989507    0.3320930642018620    0.8220151972597090 O
   0.3318698162744798    0.1806981537287723   -0.1538792846537032 O
   0.4404870929332490    0.3050793634823882   -0.0270053559684419 O
   0.6274105941269913    0.0585002661401004    0.7031482429924985 O
   0.9597799899994280    0.0028993172355994    0.7851551972655241 O
   1.0420294742257099    0.6367278444949144    0.7876795137335095 O
   0.1805679764532315    0.4910490205858665    0.6973004707356096 O
   0.3158465645697108    0.6199147403903570    0.9970066296633564 O
   0.3618015391662261    0.5483566170217972    0.7896617005114249 O
   0.5053042737407838    0.3968117685226906    0.8031370367188253 O
   0.7471374856939770    0.4122529797795729   -0.2351063753281243 O
  -0.1769622552042615    0.6167676454592498    0.7616372097327373 O
   0.8613228022219260    0.3596824627966311   -0.0402007123092372 O
   0.0806941182985285   -0.0638676046652326   -0.0308946345227592 O
   0.2804109589727676    0.9714616812513642   -0.1396939593410851 O
   0.0969913210935052   -0.2913035449425050   -0.0107386542235030 O
   0.4485668857723655   -0.1903030455560451    0.9364888931496110 O
  -0.2738989181953651    0.7553328321125566   -0.1464107454122789 O
  -0.2360197266152172   -0.0298694378985278   -0.1303187299008071 O
