Li1 Co1 H110 Cl3 O55
1.0
  12.5884343113000003    0.0000000000000000    0.0000000000000000
   0.0000000000000000   11.6487364335999999    0.0000000000000000
   0.0000000000000000    0.0000000000000000   12.8454126903999999
Li Co H Cl O
1 1 110 3 55
direct
   0.4502011144160102    0.8170432279115998    0.4583394856282087 Li
   0.6142231007043726    0.5306138783406048    0.7035141698447521 Co
   1.1639451573852531    1.1648208622578171    0.2076865811554495 H
   0.0609087783865012    0.2980616169480090    0.1297739422919304 H
   0.1151451498935702    0.4183579261646932    0.0985106415573321 H
   0.1274659831413375    0.1015999652448347    0.0235669769820819 H
   0.3252340246971663    0.2329017599689612    0.2635181855799600 H
   0.3272120308085100    0.4030180649687113    0.1807641296674988 H
   0.3016258465353097    0.0442066158621855    0.0310901918704773 H
   1.0484025915639923    1.1189017187482158    0.2123645157184167 H
   0.3970205533196188    0.1025914890951542    0.0736574112490065 H
   0.4687244664257741    0.2873248301116923    0.1119224333115008 H
   0.4160959994046372    0.3891736449391854    0.2704973307550309 H
   0.6602764847602117    0.2304465580538844    0.0635246110706771 H
   0.9841928590419398    0.4027931478701974    0.0030224677194697 H
  -0.0292052081464953    0.4449384915131282    0.2214004262646574 H
   0.7668790984621706    0.2764884616592395    0.0128005109032336 H
   0.7415773022162236    1.1365001940136266    0.1524738747135582 H
   0.7182956142197333    0.4514980012449820    0.1616576979852048 H
   0.8839659389342156    1.0527400363723516    0.2351882277365683 H
   0.7359570639681288    1.0103835110262358    0.1016101137938104 H
  -0.1351139309495552    0.4995238110131843    0.2443969626251254 H
   0.1321623574908410   -0.1016675748439092    0.0038243103887751 H
   0.2951071645474838    0.5178399606845406    0.0565242131724294 H
   0.2428441123099687    0.5788371344166627    0.1600913800719596 H
   0.1988656487211296    0.7446568360650285    0.1342930652970935 H
   0.0627874870022955   -0.1565567899656217    0.0870210924430168 H
   0.2575655618101378    0.7825527917780186    0.2274710759105250 H
   1.0066182054368122    0.6012893550064947    0.3041311275362650 H
   1.0007636250992207   -0.2274837960584759    0.2157447107379547 H
   0.3014336065839260   -0.0089940899424764    0.2823739441170925 H
   1.1171005708848767    0.6772812881269550    0.2924966239510520 H
   0.3475282983979135   -0.0360966003134172    0.1811416963612979 H
   0.5286826773783841    0.6604228072848995    1.0664826561343750 H
   0.4388597516643420    0.8604796987154660    0.2835588028963962 H
   0.5648952824352973    0.7230853977006751    0.2174348082477237 H
   0.5638689435212988    0.8938043431704896    0.3117073730291585 H
   0.6943426751533293    0.9840888135930878    0.2778579350640432 H
   0.6904144662293956    0.5635359040200441    0.2188781250524734 H
   0.6712143024899672    0.6893349559904494    0.1519733069112637 H
   0.8120801128162137    0.6933688699061649    0.0271766702724075 H
   0.9646431681181775    0.9511410340474065    0.2493458110219939 H
   0.7686982285806354    0.8083598826769837    0.0525174131387906 H
   0.9023637789096051   -0.1999855346096154    0.1539958188091816 H
   0.2439006376626141    0.1786314960992663    0.3387512686495477 H
   0.2009342141484143    0.0884665236160314    0.5623563850617755 H
   0.2389302022253942    0.2629110233764230    0.5111295373255578 H
   0.1171541368235253    0.2500718625925457    0.4667502702876026 H
   0.3402589273437344    0.4275254440846601    0.5715588920461050 H
   0.5573272245145056    0.1494300456295973    0.6319812403743961 H
   0.4126666610983438    0.3219603463584370    0.5773383871693315 H
   0.4461124407392688    0.4148227787918658    0.4493611831960734 H
   0.6162058730955027    0.4205143832313621    0.4119805235339004 H
   0.6303823779400969    0.2097610526882580    0.5582451897835212 H
  -0.0191099892449736    0.4560478509477468    0.6495579430807822 H
   0.6685181768908104    1.0335448213999328    0.3820928111455766 H
   0.9770354955627404    0.3933989959273002    0.3768310105612705 H
   0.6956128887163969    0.2431955803059144    0.4312987039599333 H
   0.9856147991782070    0.3904587628646646    0.4948793782196536 H
   0.7188048117769107    0.4286122572400752    0.3412813547420163 H
   0.9280540269581412    1.0684670640241725    0.4049850301102320 H
   0.7819786728253918    0.1552787486531702    0.4679732749803004 H
   0.9504396543547939    1.1961461482302485    0.4518928262645988 H
   0.8803594538958621    0.0523567702193701    0.5849325378868795 H
   0.3248034707564642    0.9825092431302411    0.5402099576283770 H
   0.1643649324874878   -0.0162782276241612    0.6444222575570853 H
   0.3012405722525780    0.5988504638733713    0.5642403260906290 H
   0.0053268066577435    0.6888361894475613    0.4372385676170211 H
   0.0062382782288904    0.7607778978703529    0.5487009265547015 H
   0.4287075757193731    0.6038055077383445    0.6476187294019086 H
   0.4389542828801050    0.9907418957056212    0.5697652556285518 H
   0.5193344139573832    0.7078846073824004    0.6386707880028830 H
   0.4754361827449480    0.5252527818512149    0.3849117162966008 H
   0.5886178513120268   -0.1247147097439329    0.5962501968445126 H
   0.6552345551261962   -0.2189790109631381    0.5321930879113798 H
   0.8081050354743810    0.5216377974930372    0.6059906390565023 H
   0.7148225850153983    0.5017077388705113    0.5159016689399677 H
  -0.0157484115496431    0.9165535916843135    0.6629331458976137 H
  -0.0277039094517851    0.5682213907516837    0.5764890567302906 H
   0.8274942616453355   -0.0726618537576798    0.5719442436201886 H
   0.7553399350993681    0.8579892998498584    0.4236414957120808 H
   0.8491720964937121    0.7714803462183469    0.4859034112516037 H
   0.2305383722815248    0.2353887249857366    0.7980280659150072 H
   0.1782006483273565    0.1390194744323467    0.7287683214877305 H
   0.1491446123696785    0.1138033489174163   -0.0902174326922238 H
   0.0195714693032828    0.4085233831090568    0.8174910451143321 H
   0.0856154251631234    0.3216324137949547    0.7479510449968128 H
   0.5170338895804951    0.3538719620189794    0.7906223093003446 H
   0.5897307776421443    0.3109934916503578    0.6989755846388779 H
   0.3617000369627213    0.4628408624001953   -0.1063103372163807 H
   0.4863946543537778    0.2557978055203647   -0.0062275270345953 H
  -0.3276700455589881    0.0197100533700584    0.8001011795347744 H
   0.7786669027538289    0.1709147793109357    0.8342051830851934 H
   0.9118566194841260    0.3491135059996539   -0.0855075801200901 H
   0.7168220393857806    0.2935074749342039    0.8256106752510850 H
  -0.2354711293714403    0.0048141888280898    0.7346030892609772 H
   0.0681543180417485    0.6737324053587985    0.8485137930481388 H
   0.2342600424147157    0.5707727404340642    0.8458591488711179 H
   0.0510318550991953    0.7932758432190062    0.9073674879990993 H
   0.0444569310098903    0.8235400699022647    0.7372024607879780 H
   0.1517295247738201    0.5091145508017292    0.7768531915411165 H
   0.2598096852095539    0.5757312181478698    0.6844715741807912 H
   0.3888344677865277    0.5885351819812163   -0.0506943739757514 H
   0.5079668366668899    0.9283660316673404    0.8701635451193849 H
   0.5971351932902706    0.6317930926458043    0.8961183359879700 H
   0.4596296102134151    0.9434234587968677    0.9812304321386118 H
   0.6410135650035960    0.9231208275760400    0.9677625892463946 H
   0.5093260207859699    0.7547317485389242    0.9730563078398674 H
   0.7566490732806911    0.9675805853319244    0.9314383378388309 H
   0.9063197911322924    0.6809048571072136    0.8760489146144811 H
   0.8755375675119841    0.5559402304030512    0.9138912176775259 H
   0.7233597864927519    0.6296031555530207    0.8659441400051758 H
   0.3332207208591942    0.6593265510451957    0.4221935079791604 Cl
   0.3855473234938609    0.3012473702021524    0.8718917885425481 Cl
   0.5426923624304554    0.9856426301896923    0.7110577188404507 Cl
   0.0470760811904972    0.3823677565536158    0.1154092811909367 O
   1.1006489618222550    1.1630438454871146    0.1656443351789068 O
   0.2721344903571432    0.1711439887204901    0.2704747546022058 O
   0.3852645242265363    0.3485889855905239    0.2131951624447748 O
   0.5027954230986781    0.2272410601689554    0.0672980203933861 O
   0.3697804699605479    0.0253663063358264    0.0611975546560288 O
   0.7260678277913746    0.2739242350437380    0.0806926854109288 O
   0.7537321100514324    1.0547402533171519    0.1705044359405317 O
   0.9469841015096754    1.0333817135803995    0.2772943097314441 O
  -0.0625862458203222    0.4905503055522409    0.2753745582532818 O
   0.2564637567995219    0.5014107109465196    0.1266724459865782 O
   0.1177205297381389   -0.1761932545129879    0.0327110506549958 O
   0.2191120108736663    0.7153497947437670    0.2024450212598831 O
   1.0397438499520861    0.6793330128042395    0.3179570749215701 O
   0.3180480635392486   -0.0819478394623603    0.2407116002984343 O
   0.5964432883412825    0.6613911526556011    0.1752096175844947 O
   0.5129340945842522    0.8316817254835893    0.2951738442808980 O
   0.7419506607994895    0.5022734654656287    0.2182374294050575 O
   0.9664622982366422   -0.1610036242034182    0.1799062358601448 O
   0.7914794571995567    0.7371985164013267    0.0917853613283394 O
   0.1854922620205388    0.2129991721370936    0.4793711182048641 O
   0.2128276709753371    0.0507995197739333    0.6308493187810270 O
   1.0078812695802004    0.3438528495886081    0.4325263795808019 O
   0.3575525791686148    0.3553407908569851    0.5377670621950951 O
   0.4967096781914476    0.4416823443579231    0.3953302215813720 O
   0.5708173850698623    0.2299151699470897    0.6105463509990026 O
   0.6957955961082078    0.4079619488249797    0.4129100382398719 O
   0.7047371369874386    0.1641269186317355    0.4602919336035660 O
   0.9178939072135284    1.1225673523766695    0.4692468813948477 O
  -0.0587350917529350    0.4967681473252833    0.5958290348211202 O
   0.3154417028760684    0.5544576661697164    0.6294752874108095 O
   0.5022131425847765    0.6318059695789253    0.6663164548692654 O
   0.3968815368258496    0.9689712941089959    0.5107706543444415 O
   0.5799535490403699   -0.1980127884554732    0.5523582633123683 O
   0.7255729290735565    0.5157848021584239    0.5978087298774732 O
   0.8546056554501743   -0.0187278495348855    0.6238289137404482 O
   0.6683092549601745    0.9609017493531489    0.3493418197886068 O
  -0.0268473295361779    0.6966782417182701    0.5113895523270607 O
   0.7877061523686802    0.8254862037279567    0.4872050432351752 O
   0.0514916422225872    0.4004040475451419    0.7487373179055492 O
   0.1589544105499931    0.0511775865303668   -0.0342425086216754 O
   0.1630685043855951    0.2014674492961051    0.7798083320971199 O
   0.5790725816598559    0.3791648340553111    0.7489568515295726 O
   0.7788782078243580    0.2521690857668578    0.8559016444381469 O
   0.9513929103120680    0.4212809899831675   -0.0672465864366948 O
  -0.2486808737993657    0.0248546371059512    0.8072227880190521 O
   0.1754783081893747    0.5888665483935308    0.7978490136684633 O
   0.0246581225292937    0.7412547503344519    0.8491755078723229 O
   0.3302497397923567    0.5417670193478349   -0.0763969347231180 O
   0.0477231831094935    0.8629520698747043    0.6677224042486495 O
   0.5212353652121805    0.9050330288520300    0.9462607499005543 O
   0.5075926837036598    0.6701234302360771    0.9917478054029966 O
   0.6480239681893822    0.6025736144697658    0.8451118003638041 O
   0.8455020610582070    0.6278613357328491    0.8962740335936603 O
   0.7195682109226943    0.9409081645272259    0.9946749203899755 O
