Li1 Co1 H90 C51 N3 Cl6 O45
1.0
  13.3151818026999997    0.0000000000000000    0.0000000000000000
   0.0000000000000000   12.9700740159999999    0.0000000000000000
   0.0000000000000000    0.0000000000000000   13.0127516769000007
Li Co H C N Cl O
1 1 90 51 3 6 45
direct
   0.7675203052299064    0.7514713100770636    0.5703101098574073 Li
   0.1368837788628927    0.3707047860072906    0.7065987322821530 Co
   0.0506296054675949    1.0534927168298436    0.0259333188536180 H
   0.2721361566888431    0.2114042301699691    0.1594623404735818 H
   0.0503674986445929    0.2279955001761804    0.2632482293872582 H
   0.0266171657774987    0.0184986232386972    0.2866460477395817 H
   0.4430558657639770    0.2607724912307856    0.1662087998066868 H
   0.5351181461116198    0.0477074002690102    1.0225188468031849 H
   0.5788664785513526    0.0979615467909139    1.1824796338590922 H
   0.4984131647420904   -0.0698671022449160    1.1533789479010079 H
  -0.0731103497514846    0.2473369472404405    0.2109149476257305 H
   0.7069165514128636    0.1112806689321518    1.1427593646313670 H
   0.6825030657529018    0.0350004565926141    1.2485056382994288 H
   0.7813286033608954   -0.0852687105744887    1.1723026933250551 H
   0.2973382158850574    0.5955955612181142    0.0022988095940617 H
   0.0987318401565816    0.3788334982929677    0.2058898767088636 H
   0.0223138073368065    0.4941397022633614    0.2119739088925056 H
   0.3202504077364774    0.5014343406658320    0.0951592614034262 H
   0.5954678290455063    0.5249363653747094    1.0475220135490448 H
   0.5410060116444887    0.6101945526939081    0.3047144782943107 H
   0.5691207610746535    0.3512253289364729    0.3518251905572871 H
  -0.0198891462785960    0.3822983975637476    0.1471136840179872 H
   0.8255660766998294   -0.4717082940199622    1.0363552746756710 H
  -0.1564828501385911    0.4265602883819349    0.2412613347546727 H
  -0.1281858275681897    0.4895049561604599    0.3580498540267199 H
   0.2522828791356673    0.9583860891823611    0.1457258146073952 H
   0.2613311971973530    0.9162105395806248    0.2748245664864601 H
   0.5936871548984066   -0.0477461799089243    0.9507477085236531 H
   0.5715533977806301   -0.1748163876785080    1.0941962308921895 H
   0.4042417505939384    0.7416594925158830    0.1285296054153584 H
   0.5938696533453679   -0.1345375119099089    1.2243754613932325 H
   0.8399774458304475   -0.1891092899218811    1.0301267688213807 H
   0.0619572765602581    0.7702506940419915    0.1926275011341141 H
   0.7307397334542591   -0.2299594808572911    0.8990146072768942 H
   0.7304152917707724   -0.2350118807062944    1.0883757863097840 H
   0.7876875101527524   -0.0100756161637004    1.0474935799010980 H
  -0.0288706233453042    0.8399642514885091    0.2573847500944468 H
   0.2514552524338098    0.1033678382209781    0.4114830568776056 H
  -0.0102475205086822    0.1814653108144607    0.4335479519228018 H
   0.2583766750148603    0.0609108715667641   -0.3706338429681742 H
   0.2743727014421383    0.2220371687198859    0.4421710320203950 H
   0.4339120176510423    0.1575633654888157    0.6412681995010552 H
   0.4182385553512124    0.2673761543937206    0.5647209768434338 H
   0.5107382311536299    0.1305797106871344    0.3777751209320781 H
   0.8962921106326923    0.0364615122486283    0.6282394409256522 H
   0.8801391205205793    0.0433458214584178    0.3464604528190018 H
  -0.1398987731599934    0.1996571884944901    0.3947169642465368 H
   0.7247533337804796    0.1526690217925739    0.5160056846638925 H
   0.3340909998313319    0.5959240096136087    0.3782415864537998 H
   0.0132361994009171    0.3387196177277390    0.4668686523223728 H
   0.1119963980587640    0.3437219022112326    0.3752360730181267 H
   0.0556757250771954    0.4578995081503474    0.4178294470993295 H
   0.6390571700398822    0.5222961182984200    0.3249600041093980 H
   0.3998918287634865    0.5403909417905978    0.5514207922016847 H
   0.6061240860987317    0.3946784348558956    0.4826976333952729 H
   0.5025464443935062    0.6119732626666917    0.5805285481479070 H
   0.6181569672395292    0.4719912550266205    0.6606376615685926 H
   0.0245015356330956    0.6337742176690443    0.4826257039507373 H
  -0.1812718470062922    0.3675290138452206    0.3647225395705576 H
   0.1809147210375701    0.7027005783742477    0.6838656465102070 H
   0.1998111960334263    0.8310707016245912    0.6395352839302439 H
   0.1330287808042412    0.9058883162968682    0.3938870091172791 H
   0.5800493388557313    0.0128579460991721    0.5804878188684157 H
   0.4088635425387934   -0.1445798601524342    0.4744264696420244 H
   0.6618086430943900    0.8121764378218026    0.4240010088100293 H
   0.3553239055617420    0.3006535280977999   -0.1199297581594812 H
   0.6613617847571802    0.0646379127494410    0.9798161184489327 H
   0.8288548038572100    0.0738583689976068    0.7351768538995933 H
   0.8976394448460608    0.1785223823506051    0.9632815679293876 H
   0.6796048702515701    0.1798184428032489    0.6710451451940901 H
   0.0907597372162766    0.4739808350373566   -0.0449932632341970 H
   0.1039829888856077    0.6782018746962254    0.8464062107595569 H
   0.3430259135082804    0.4974519424207425   -0.2286269833982372 H
   0.4734852662786467    0.3509215527209217   -0.0721112786057211 H
   0.9770180080276525    0.5100649699021733    0.7272284965830077 H
   0.7546372667147871    0.4611954800890783    0.9014460684148305 H
   0.8319820611952626    0.3853870460903930    0.8195894383608745 H
   0.8904649277109941    0.4581491597711481    0.6517909546722828 H
   0.1478464530616334    0.7440588620153639    0.9570046480258904 H
   0.0630665366679199    0.8141733423859592    0.8850644448126208 H
   0.1314749154266161    0.9474231602257034    0.8416239785656952 H
   0.2447313487480303    0.9211164483612151    0.9115177276037671 H
   0.2506103522163965    0.9535464868853684    0.7866986239791802 H
   0.0878217375269244    0.8044841147188716    0.6974638465215174 H
   0.2974854162784912    0.6675326988820171    0.7907484976191692 H
   0.3098645187528244    0.7194869128031351    0.9082501635208007 H
   0.4473492356065433    0.7426517767529756    0.7638256753984149 H
   0.4802722558473265    0.9171426853791056    0.8206468626737066 H
   0.3679673679263236    0.8390066625044617    0.7137655485186875 H
   0.9558038778576294   -0.0429119746512941    0.8036120336456921 H
   0.8292813845892019    0.7062518302748289    0.7621903564029887 H
   0.6391698234022040   -0.0753504942373029    0.6778277229448573 H
   0.3388554860351279    0.1759973389345383    0.3012978296788664 C
  -0.0271380146327951    0.2549020544155390    0.2790427365832153 C
   0.3771508700227956    0.2889465787147286    0.0370539491086998 C
   0.6059536040104180    0.0138988036905278    1.0052680757461692 C
   0.6508271933352623    0.0578407271750761    1.1758330765322866 C
   0.0263633202010670    0.4110939155800111    0.2130367125441384 C
   0.3475921297943901    0.5270611026711970    0.0182347165527812 C
   0.4494451889636609    0.5599316167078996    0.0564095785907497 C
  -0.1291336178565237    0.4158610433484207    0.3169232719410859 C
   0.0601533207182786    0.9444062152220181    0.1175496064460675 C
   0.2662804349153567    0.7990670292100822    0.1605966124835673 C
   0.1136636678211264    0.9125390108028202    0.2250987270893504 C
   0.2284461786907930    0.8995360009671051    0.2001939253958469 C
   0.0557020108617371    0.8183629869425720    0.2576606333272278 C
   0.5709686517279385   -0.1094459049076255    1.1475162370851681 C
   0.7597569865211046   -0.1711070796251653    1.0411982165502840 C
   0.7472186672946899   -0.0709295479937221    1.0967445005297993 C
   0.2873008013021863    0.2108668392505803    0.6377747031884575 C
   0.3168332557460500    0.1549087931280469    0.4123200051473042 C
   0.3872431092419965    0.1868608081657998    0.5786519273834188 C
   0.4005181814579957    0.1217871625598594    0.4866990622469764 C
   0.6367920864347990    0.0061625332670731    0.6434084078667799 C
  -0.0629790573666787    0.1810520518004113    0.3654787209105479 C
   0.7408770340183888    0.0322734097032619    0.6013465893067879 C
   0.0422271666832207    0.3792984146837733    0.3984164123875059 C
   0.6536517886398773    0.6659837485849548    0.4041315756248111 C
   0.4513708855391894    0.4567630458617115    0.3726977935811469 C
   0.5891727591589649    0.5816337287893547    0.3678195017658433 C
   0.5199427618777352    0.5221332433605135    0.4448285790833571 C
   0.4540780960402651    0.5891567390574249    0.5156448847257569 C
   0.4014532043652664    0.6862804716163927    0.4789246958015160 C
   0.9369599744308567    0.6135661602842776    0.6042522007361614 C
   0.0926861097119791    0.7709260949679378    0.3530455319880845 C
   0.3806183405150601    0.0066729389896490    0.5103472350270867 C
   0.7440087974909345   -0.0242783107491559    0.5003520392968177 C
   0.6043163751446747    0.0691475246396929    0.7358292908484264 C
   0.3921818326461836    0.3462885799309536   -0.0615939027732942 C
   0.8322298985923707    0.0155371906398842    0.6762523451532106 C
   0.2287518448138928    0.4190776788085216   -0.0846689607975731 C
   0.3444092967975920    0.4487167540771573   -0.0723725607760429 C
   0.8229660370974425    0.4645527469748558    0.8483335510041665 C
   0.8254459131133527    0.5518483937539929    0.7672100479810547 C
   0.9117616703467198    0.4813165680395451    0.9203144834969273 C
   0.7252512616419418    0.5487938236758941    0.7054698396109682 C
   0.9091646348339950    0.5337801082753667    0.6871270627774013 C
   0.1226368836412643    0.7528976704800325    0.8788028944485544 C
   0.2043684000505502    0.9094125830006367    0.8385831151893316 C
   0.1677725797891107    0.7838227060276477    0.6985082067258334 C
   0.3075018022337288    0.7429725150922376    0.8298109505592605 C
   0.3937214285979146    0.8035242127179546    0.7841634184500864 C
   0.8524286464566666   -0.0951954079735299    0.7149420867621075 C
   0.6447994874286314   -0.0316653156252890    1.1022229728598716 N
  -0.0219026373744940    0.3674349511591870    0.3058641198437269 N
   0.2027221589158212    0.7986252429879734    0.8097229625233378 N
   0.8285551459134340    0.2399846376173525    0.0104415915844456 Cl
   1.7153609120656939    1.5622662205014204    1.1198710465111710 Cl
   0.0085941298508441    1.2762848147342447    0.6717267842678416 Cl
   0.6680496393670169    1.2734590791251195    0.3925060559994309 Cl
   0.2092462906390835    0.5269345035478632    0.6776125493928274 Cl
   0.9812042069715300    1.0827053488882727   -0.1023854288993390 Cl
   0.2929101877233958    0.2500323828992403    0.0586827334725499 O
   0.2599973813874630    0.1992053791992794    0.2460773799352820 O
   0.0950608425897223    1.0389369016689503    0.0895232512941891 O
   0.4268865784654481    0.1757521591463523    0.2680043333640878 O
   0.4565192192995365    0.2721055028865920    0.0900388993420891 O
  -0.0658351956127437    0.0881165759879346    0.3130555273433506 O
   0.5218237726195428    0.4977350556855912    0.0250326638429791 O
   0.4666332381687864    0.6353686572978768    0.1074748733492448 O
   0.4985202455180894    0.3848889764577886    0.3200694166625498 O
   0.3610872515781245    0.4767041810997172    0.3589305286360989 O
   0.8919594623177964    0.5101790093439047    1.0107826664939037 O
   0.1029315575039377    0.9971892601881048    0.2906720985934532 O
   0.2186596055946918    0.7195431962136306    0.1503451296832915 O
   0.3644330564390815    0.8096683565294466    0.1332027138792622 O
   0.7058936588829818   -0.1793591528105586    0.9466271350022829 O
  -0.0018510899036318    0.8905877097039382    0.0732015688957591 O
   0.2719611684660366    0.3015825898737878    0.6557032709343670 O
   0.2240707220982149    0.1318950462803589    0.6596209665352519 O
   0.5010555394780377    0.1387161330290438    0.4529088070482581 O
   0.7502730754584411    0.1440013765762615    0.5843985981765568 O
   0.3386587181622726    0.6742111495904050    0.4026069173132858 O
   1.0066676219683306    0.5813813015483102    0.5362343808333032 O
   0.5674090307852947    0.4534888162815555    0.5134030837043952 O
   0.8929605751976294    0.6941316218777082    0.5879889225875680 O
   0.0595908049290851    0.6887530866500801    0.3823329578502517 O
   0.1450256128690958    0.8358648145898138    0.4175492603955078 O
   0.3259716964975932   -0.0165643994887747    0.5839106152996322 O
   0.4175123166754446    0.7683455391469989    0.5233528624456463 O
   0.7393269237528410    0.6509475969207915    0.4457949388750623 O
   0.4258636859355663   -0.0589442655806661    0.4478647547501944 O
   0.7296815428708499   -0.1249839812325093    0.5021029372287629 O
   0.7555978243841841    0.0288925500454137    0.4219198194757184 O
   0.6179098808648368    0.7599539139438015    0.3900208014734869 O
   0.5535487619031547    0.0335949133414722    0.8084503646584760 O
   0.6321575271088806    0.1676535160799810    0.7324771942985911 O
   0.1888402605881154    0.3531566980226553   -0.1427235536121783 O
   0.1697898259970861    0.4716777641402166   -0.0230232750949853 O
   0.3869074022222776    0.5018461347691974   -0.1618978225289459 O
   0.6807389140989427    0.4590456080092735    0.7023728774156824 O
   1.0015771920362171    0.4591762163618481    0.8987295023204547 O
   0.8294743973499799    0.6471958835581714    0.8158600196180156 O
   0.4307467585787664    0.8764544056245731    0.8572117654563094 O
   0.6966838710019680    0.6233240074518323    0.6562442787223276 O
   0.8016354984530203   -0.1741725979831139    0.7001435257212596 O
   0.9392025273634758   -0.1083749780969639    0.7694294094748475 O
