Li1 Co1 H90 C51 N3 Cl6 O45
1.0
  13.5804169368000007    0.0000000000000000    0.0000000000000000
   0.0000000000000000   12.8571247305000007    0.0000000000000000
   0.0000000000000000    0.0000000000000000   13.5689339993000004
Li Co H C N Cl O
1 1 90 51 3 6 45
direct
   0.6129574671483881    0.6431336351263999    0.6998623841850732 Li
   0.4080403417795013    0.4688748450032002    0.7749626094535115 Co
   0.0975889013251669    0.2979343706694392    1.0432018093927082 H
   0.2392495004770891    0.2236440437089995    1.1215019912680724 H
   0.2247065007356881    0.0956543077071146    1.0726307976994243 H
   0.0999886803711023    0.2364260617297276    0.2352960446093044 H
  -0.0042776324077785    0.2597407612666234    0.3066620045329031 H
   0.3330006721771240    0.1667098523292186    1.0456522598114160 H
   0.4513249480427395   -0.0278429775166441    0.2474362761122727 H
   0.6694630960676736    0.1011415376655080    0.1916338085021376 H
   0.9562525236769357    0.0053487359453598    0.2025882430957223 H
   0.2895911065692723    0.6263437225662528    0.2621876191441075 H
   0.1633063240047017    0.4565878054580953    0.2093559081167724 H
   0.1576349222827640    0.6399548528670159    0.2546335990563623 H
   0.0078626428700178    0.4054553000355992    0.2253755895457788 H
   0.3867074179563050    0.3142179491823979    1.0011933509515805 H
   0.4672216617448793    0.5575353366678610    0.2905936825843073 H
   0.6068707615351010    0.4119108646925326    0.9881422151726655 H
   0.4814162922114623    0.6289547262473764    0.1352218604419961 H
   0.6280262239437314    0.3177249541267488    0.2578195530894670 H
   0.9053277248862618    0.5680979626706905    0.3271345044370467 H
   0.7670418380287618    0.4860316358583684    1.0845963655184125 H
   0.1810090205506775    0.8610672757134765    0.0829922600889719 H
   0.1910499493847911    0.8851581985669530    0.2367213592287872 H
   0.1854669101929277    0.7434002209316903    0.0169752833650663 H
   0.4399564458297007    0.8966638814549065    0.0967332068729727 H
   0.6124059376898409    0.6845698046562946    0.9666526862225622 H
   0.7037028401170611   -0.0162221833552896    0.2464818901597234 H
   0.9282261382006084    0.7320920938778164    0.2011408191491534 H
   0.7683120493985804   -0.1533679322657793    0.1197386986836119 H
   0.2213884877313968    0.3234797400179115    0.5585120761874851 H
   0.2116862819292348    0.2295248297778035    0.3666726140650894 H
   0.1453738848805327    0.2265739367285980    0.6309697209848377 H
   0.0198556472643570    0.1414950390023363    0.5399804804104719 H
   0.1098985381189390    0.0881954083022964    0.4607820702733573 H
   0.2314839067923896    0.1793262034497146    0.5341076535543525 H
  -0.0045140021757274    0.1495528281403881    0.4033851516915308 H
   0.5369555295935015    0.1803046492736209    0.7398839510987317 H
   0.4368508710747965    0.1852419895678634    0.3158779090399522 H
   0.4930330415892007    0.1785865357402274    0.5541844702014121 H
   0.0003569822946204    0.3046263801041686    0.5838775912690498 H
   0.8142708739990767    0.0705398278550207    0.6246678257877344 H
   0.8170454574434108    0.3124803911771462    0.3214022929011948 H
   0.6636517870064516    0.1616962897052918    0.5807410147331041 H
   0.0893918039519377    0.6275228353397361    0.5610921609606742 H
   0.1745769647156832    0.3588593454534038    0.4081592923869857 H
   0.3233441203488338    0.5900772936582502    0.5026198152302778 H
   0.3210997120849456    0.4960244610578642    0.5909791071290997 H
   0.0645052337109185    0.4113811972791143    0.5295191575086637 H
   0.5693650647387243    0.4077139698866515    0.4778911519456520 H
   0.6000226654543401    0.5603584406480142    0.2913350820192606 H
  -0.0274411333123482    0.3530960039946235    0.4520611935997657 H
   0.7490188273112666    0.5986264834891033    0.3842163651078965 H
   0.8224053812468365    0.5913994399667227    0.4876338480194054 H
   0.7038265476591652    0.4224863240467884    0.2828893190723768 H
   0.9501172186721076    0.8534411538506774    0.6620318515856456 H
   0.1526026761950306    0.7766759345121218    0.6345632236138958 H
   0.2817091688866417    0.7739194861814986    0.6621033384098907 H
   0.2081900711559603    0.8148882106079215    0.3847138249673334 H
   0.4131197145499410    0.7369057673310405    0.5265813438232220 H
   0.5716772176090027   -0.0965799633143724    0.5551502056085322 H
   0.4199140567582401    0.0634114844717925    0.5722724791793217 H
   0.5167549715932076    0.0646170417270029    0.4838416562376004 H
   0.6750807439171493    0.7800297170182298    0.4078232306152772 H
   0.9703868467167429    0.8238505565768184    0.3840756023921151 H
   0.8570766289847538    0.8681396190177529    0.4374168597110275 H
   0.7528581792429965   -0.0173048515483561    0.7149696873829939 H
   0.6900611381824183    0.0285024352552695    0.5386299690142969 H
   0.1825634647255685    0.1973706733341549    0.8192416957863800 H
   0.1844006689966974    0.0821193997360357    0.8829607764484720 H
   0.0550290887148633    0.2481650782799801    0.9300927029530148 H
   0.0824266275188282    0.1579699511183800    1.0275579865241653 H
   0.2040826862163383    0.3629387956492611    0.8867223099633843 H
   0.4579564086539349    0.0572398091039893    0.7491742903403039 H
   0.2961203611873484    0.1434285972839190    0.8641206818608510 H
   0.5882733943721226    0.0618045933174281    0.7919543642967359 H
   0.3807915465678282    0.2953544781432888    0.8710106851584440 H
   0.6534665327065499    0.0057539587388854   -0.0425526058590739 H
   0.7717081159711040    0.0707506059299640   -0.0419129093287165 H
   0.8096568772203617    0.1860687685112755    0.7424014664762670 H
   0.7940594179534071    0.2348751706543149    0.0618211054489081 H
   0.3529352589618941    0.4935379019966333    0.9682622452344291 H
   0.2308130879182419    0.3767420373319835    1.0096722778890934 H
   0.9209288659253029    0.3853559383651808    0.7870468306611950 H
   0.8854063924810028    0.6065111390497294    0.9821771187248403 H
   0.8453008491435141    0.6204411586889677    0.8577443519292246 H
   0.0322529102337862    0.8179223259966801   -0.0300004038947349 H
   0.1108337082288924    0.7068477249537095    0.7713595261160494 H
   0.7913061887871743    0.8533618204054958    0.9457564242159353 H
   0.6037640822485709   -0.1010148584557982    0.6821727115834980 H
   0.4727505788870722   -0.0834285003283379    0.6403595521982973 H
   0.7188886772647530    0.7194749649784461    1.0165143776446668 H
   0.2544346012703635    0.1736468621093619    1.0581742456954040 C
   0.0726169139717425    0.2891353582641515    0.2974262016314765 C
   0.7042227063356652    0.0577150319962045    0.0006003787475435 C
   0.6739821031265586    0.0155446392089429    0.1755065283479789 C
   0.5695401698191550   -0.0261443084551088    0.1689606935753591 C
   0.6615237227404946    0.1738304179237036    0.0169480151949935 C
   0.8471336352881392    0.0411133419236451    0.1096546345996493 C
   0.7419387795890605   -0.0021544968552952    0.0860676674866461 C
   0.2402605150920229    0.5630161110615975    0.1281476127520189 C
   0.2255695081127474    0.6415111883945490    0.2099373834191364 C
   0.4640786065501352    0.3320283076256650    0.3206896355914534 C
   0.5361964954601629    0.5117389387684762    0.2736535161709503 C
   0.5368463282334178    0.4948945816871260    0.1609998618692301 C
   0.1698451512302026    0.7774093799906143    0.0859578578287852 C
   0.2403989497224727    0.7520475664564837    0.1755448511815948 C
   0.0574583219374903    0.7553795711541106    0.1014395456320303 C
   0.3558990854914707    0.7842048340156296    0.1558668130974111 C
   0.8063027828496235    0.7503582307414405    0.2912665431052938 C
   0.0244490261193878    0.3362578691442679    0.5106988139199062 C
   0.1456676902930299    0.2827949048806189    0.3834167444449498 C
   0.0487796487753560    0.1491896054060763    0.4652160221227143 C
   0.1809059309322574    0.2455509634833592    0.5553249429902692 C
   0.5354430576203957    0.0917693022298396    0.7349270399660318 C
   0.6984761964631643    0.3116575011281057    0.4069816022308669 C
   0.6671428432988050    0.0752329455827239    0.6023396163634989 C
   0.7503913919450880    0.0633407065942285    0.6774037297310298 C
   0.2278728247300184    0.6307436176583338    0.6150008910081293 C
   0.3243750165330344    0.5796213011390914    0.5806967960789320 C
   0.4180554982090098    0.6187393785119351    0.6211207527455572 C
   0.5490366019761480    0.4150173135166039    0.3395400478650480 C
   0.6500137668438951    0.3729441430886335    0.3195510052465201 C
   0.7780230914537499    0.6493729772562697    0.4438844274657625 C
   0.2262565267840754    0.7513211209878602    0.6082383848300659 C
   0.2536511201703711    0.7894221747046308    0.5087422121705448 C
   0.4948678306178408    0.0934913046576048    0.5574205387092452 C
   0.9407375361047169    0.7900552867083348    0.5366273061668395 C
   0.9087863815842547    0.8013603026467115    0.4319220286503233 C
   0.8590161865198854    0.7102932853669884    0.3823274915971755 C
   0.7086548235733104    0.6963624879488759    0.5126798833245761 C
   0.1017632945167619    0.2300840527884463    0.9918020457829820 C
   0.2218626999761291    0.1563755044260049    0.8778070923047060 C
   0.2437132809546775    0.3273561899275688    0.9454218363993659 C
   0.2148054792408588    0.5974094151065528    0.7288020193856172 C
   0.3513712421795783    0.3368342032901460    0.9317509024844711 C
   0.6546851992671583    0.5139455752128359    0.8896790639723633 C
   0.8368209916740470    0.5707509664110277    0.9239934765875341 C
   0.7277772114358138    0.5755467509501424    0.9561441230585468 C
   0.8778609687670719    0.4621538244164582    0.9035747760459666 C
   0.7015961301292056    0.7679912556013606    0.8658201521362012 C
   0.5511899968340594   -0.0710454828701407    0.6268920240925944 C
   0.6890464417953982    0.6916188145943414    0.9513051283369728 C
   0.0980343957476250    0.2547839765005226    0.4772841035216250 N
   0.5622427502729660    0.0519602461050419    0.6333317340952009 N
   0.2058484641089904    0.2177414798317142    0.9650519709415297 N
   1.0881534813821474    1.0122659333253483    1.2289916437400530 Cl
  -0.1536176717775777    0.4242052153590562    0.2287708452086316 Cl
   0.3233264478428189    0.1073132130333112    0.2984542853409795 Cl
   0.9515641551020749    1.2315357980185226    0.7343160855608863 Cl
   0.3672286345558350    0.3236570736012585    0.6907142816144216 Cl
   0.0452260023575332    0.8365944634327043    0.8151116734866997 Cl
   0.5748165173962186    0.1959877824955974   -0.0006060535337871 O
   0.5201109804854309   -0.0186154089516010    0.2564200326849179 O
   0.8967572958234684    0.1112238852134390    0.0711320800624273 O
   0.0678122013989505    0.4002729593959429    0.2634736450029480 O
   0.1952655784237542    0.4711092481533735    0.1428142033633570 O
   0.2893142373083727    0.5815120038046986    0.0544763869909113 O
   0.3811391058527872    0.3610005706944323    0.2953339223115635 O
   0.5175902184087353    0.5709655556024552    0.0974524969808400 O
   0.5648838326614460    0.4108188631529742    0.1241760406297888 O
   0.7350398750535068    0.5494822142030552    1.0586378045866423 O
   0.2084006685193041    0.8163527682282836    0.2622509992150876 O
   0.3647051479677955    0.8692821761841427    0.1013452125031297 O
   0.0235226922624419    0.7055356119927159    0.1711753111718151 O
   0.5316745429836087   -0.0569334629743094    0.0887539507276053 O
   0.4217777697883913    0.7301826467413379    0.1931534562505210 O
   0.8787998206491118   -0.0028086088886061    0.1970572264363538 O
   0.9356257637399167    0.6345461785749298    0.3636554278954086 O
   0.8505392744680875    0.7574632407584388    0.2039921853656886 O
   0.7474555468833682   -0.1097812041483640    0.0596101727402998 O
   0.7174748767835635    0.7857728362262776    0.2957996921355104 O
  -0.0007033680662717    0.7999945229433892    0.0363135747896938 O
   0.4928304999431820    0.2340561694996461    0.3252647923431335 O
   0.7875529903222669    0.2722987789715446    0.3790339388389186 O
   0.1516895967175958    0.5881383687024346    0.5560806397900716 O
   0.4565533589472380    0.7050557224272548    0.5865778770838301 O
   0.5396123699665114    0.4605433554792719    0.4333641463583915 O
   0.6699962166657888    0.2942943655375779    0.4930800459302960 O
   0.6942428949181864    0.6588027683286385    0.5963133507774022 O
   0.3390851687271593    0.7951544050084379    0.4701441174324453 O
   0.1757131595815557    0.8091917581323336    0.4473742373507869 O
   0.6578971772353603    0.7790582712041925    0.4820189633126237 O
   0.9195717647342446    0.8722128469826157    0.5943706779041050 O
   0.9897816857136421    0.7167301833309380    0.5684822035391974 O
   0.7556806257244542    0.1351623634075469    0.7543478728784473 O
   0.7235961910544632    0.2478563000668713    0.0529449476014152 O
   0.2743522519035360    0.5450687857585609    0.7729970902755586 O
   0.1306269149655435    0.6302839503436051    0.7703977703878048 O
   0.3695901231720716    0.4429209084120427    0.9099223638523810 O
   0.4690351554037716    0.5720933349702327    0.6868186181818536 O
   0.6330812970184007    0.4138685341192195    0.9167652005855238 O
   0.6353765137370815    0.5439734397698429    0.8034136285254529 O
   0.8717749995082021    0.3823824897286198    0.9589637992395919 O
   0.9014935274354529    0.4636512043053171    0.8050733020120483 O
   0.6468444974318956    0.7749282653815037    0.7921312389134247 O
   0.7810443536278748    0.8324481242536547    0.8712885257021591 O
