Li1 Co1 H110 Cl3 O55
1.0
  12.5957378775999995    0.0000000000000000    0.0000000000000000
   0.0000000000000000   11.6554948053000000    0.0000000000000000
   0.0000000000000000    0.0000000000000000   12.8528653506000001
Li Co H Cl O
1 1 110 3 55
direct
   0.4215075758476818    0.7385890128650290    0.5660431333282718 Li
   0.5435964931420622    0.2322304156035640    0.7083553687796930 Co
   0.0568487488195044    0.0952099778891744    0.2190932604120484 H
   0.1484922087912154    0.0642397783369548    0.2783920999478116 H
   0.0589919340987096    0.0935203027334663    1.0482749027376246 H
   0.3573207844221645    0.4688673019883295    0.2441522640827719 H
   0.3659967350541906    0.1541882547863006    0.0188137951113533 H
   0.3644096902780724    0.0886165212162707    0.1774286210190121 H
   0.4671881072775430    0.1567492786208638    0.1564231881730673 H
   0.3871578613486659    0.2573627677596302    0.2507554609330399 H
   0.5838990149103800    0.4667000838288298    0.0472509560112718 H
   0.6125396553798479    0.1747648157994757    0.2504885943701034 H
   0.6081326090805821    0.2369046058383043    0.1322239149747776 H
   0.6692016792275519    0.4645912072508210    0.2016854689276729 H
   0.6912710492558338    0.3851582860865471    0.0589022101024857 H
   0.8454922643110118    0.3974391889903784    0.0264407558960489 H
  -0.0696744462077690    0.4366189928192425    1.1657739940923395 H
   0.7569829597483462    0.4535800917088501    0.2947884438175591 H
  -0.0334134502710208    0.0064949969061439    1.0615248664892523 H
   0.9461850551839879    0.4513656855054975    0.3308333246563965 H
   0.8944453312922284    0.3202146682784212    0.3279950470424249 H
   0.2557221315734250    0.6058430397557238    0.0043432474998576 H
   0.1989116448076949    0.8007674113033736    1.0350327193522635 H
   0.1055703883108569    0.9086761720218017    0.1294400999246706 H
   0.1917536679685342    0.8731332794273473    0.2107387031152207 H
   1.0564922093580105    0.7376589794189096    0.1971619639804056 H
   0.2393745382842549    0.5216372624468352    0.3279086849768682 H
   0.2950767136405497    0.5249798918804894    0.1413759598139083 H
   0.3573136391480349    0.7849825816523543    0.2870244163203488 H
   0.3819608652984057    0.6632391444406832    0.2572769639375109 H
   0.4746390403560172    0.7685439831028638    0.1192314813465669 H
   0.5932386821171109    0.7812358509704325    0.0725714577922080 H
   0.9888820377050683    0.6169339459900278    0.3007124146927730 H
   0.6879350001566598    0.9331109990932785    0.1248278988019666 H
  -0.0338595535525119    0.5583435548133726    1.1203833372943388 H
   0.7660320524738069    0.8909935250434615    0.0395265305783573 H
   0.8103208432870922    0.8476431561024326    0.2057678271076371 H
   0.9340301499701956    0.7483457844049459    0.2263173304903727 H
   0.8809328239938127    0.8834374322759582    0.3048383429238288 H
   0.7427074959567592    0.7202646084902888    0.3329246871087967 H
   0.2443103348691109    0.2837537537399189    0.3558806577777205 H
   0.1341508496937666    0.2199477967708653    0.3628324150367218 H
   0.2254968280858821    0.2295235378152736    0.5114537494935422 H
   0.2004780476807721    0.4353646488171886    0.4023380027908405 H
   0.1873831419592641    0.1809687566194844    0.6245281465525727 H
   0.2626276420600066    0.3339892872613059    0.6556721746802239 H
   0.4282939984321035    0.3311228280883493    0.3491475288108042 H
   0.3802896650714278    0.1609893388521572    0.5929172964489393 H
   0.5770379639072715    0.3749056111039576    0.5604474939094987 H
   0.5999758817019732    0.2873735056856548    0.4079523150886529 H
   0.4804878441907662    0.0854915573594434    0.5575920994897410 H
   0.6136209735314603    0.4154032483029689    0.3925230707458152 H
   0.6286498667840459    0.0836732733351253    0.4255203821181157 H
  -0.0567629358555873    0.2059526809285223    0.6455600326438232 H
  -0.1107851778720791    0.3365348677360626    0.6484831162500984 H
   0.7339727952930007    0.1609146959464262    0.3958888571926467 H
   0.8524073018297662    0.2170882013133782    0.4898756816903925 H
   0.8963269201463556    0.1212844607898750    0.4073578951059023 H
   0.9980518061713846    1.0012762733499083    0.3569418997364533 H
   1.0846604678155771    0.5590702506887076    0.3850640336062465 H
   0.2368594017906367    0.8454870914805709    0.5572902212786059 H
   0.0535133348558086    0.8563000172383596    0.6200225364477180 H
   0.3103898300196237    0.8867448851678310    0.4524225545573421 H
   0.3067020746494040    0.5491925061636405    0.5257486164347432 H
   0.3674908912666242    0.5260206027385548    0.6334981308210703 H
   0.4814302264565253    0.7473496876974323    0.3831687363837589 H
   0.5832567341580640    0.7165762193898577    0.4231660432859122 H
   0.5521628829041012   -0.0942096080554803    0.4702170302451562 H
   0.6158772923177175   -0.0474016424466829    0.5638498480777822 H
  -0.1116767492995833    0.5281106040990223    0.6186127340802519 H
   0.6802339824836497    0.6043930798627886    0.3378924509698738 H
   0.9516789770703002    0.9222234304297589    0.4497834543197895 H
   0.8752245438836125    0.8874758708653345    0.5883175439122615 H
   0.9343715352897207    0.6048023288976585    0.4604075444565173 H
   0.9108635834033467    0.7668563670617966    0.5510137998115254 H
   0.8128502703289695    0.6325051424970584    0.4796343855739701 H
   1.0385972672601087    0.4803623094709012    0.7298315137847532 H
   0.0319044062924379    0.4136941831510594   -0.0007717986946418 H
   0.2039046035855878    0.4888973396572443   -0.0058593801962209 H
   0.1164655023036663    0.2688654969221052   -0.0396958040703494 H
   0.2606817457387131    0.1568496604596054   -0.0455363694191878 H
   0.2285303939135699    0.4427131141917390    0.7272717732831177 H
   0.1087384440760506    0.1447352026559099   -0.0990700353552337 H
   0.0823492794848188    0.4411584826378937   -0.1275500660732799 H
   0.4044954720644591    0.2356236649388059    0.8724775269490017 H
   0.3733682761978915    1.0114860501108134    0.9246837845963423 H
   0.5801858541210329    0.4512455704847810    0.6689485916771571 H
   0.3793123503543684    0.3350643166967188    0.7865620544159878 H
   0.6600334985999312    0.0387445501236596    0.7367459252856760 H
   0.8940324932314072    0.1877226526414880    0.8161243340816859 H
   0.8596796030550004    1.0279589672376515    0.9353117649162032 H
   0.7930673880221587    0.4452818597062054   -0.0720923933632234 H
   0.6779435251654400    0.1415041085986352    0.8185907101881252 H
   0.8164252891518112    0.2279105646799374    0.9100878174806327 H
  -0.1485225462278717    0.4959489493377382    0.7317836076809854 H
   0.1396828797087701    0.7397910210366280    0.8638568811258640 H
   0.1307028579665622    0.7658945889316306    0.7424707187844707 H
   1.0954260141708367    0.5890475280018184    0.7804303477614618 H
   0.2800247967268798    0.8092947198098136    0.9403301011580116 H
   0.1280090896197041    0.9369804186892181    0.6784258558262221 H
   0.5427668474236812    0.5529735554229100    0.8271102112497999 H
   0.4142972003315707    0.8158152495058536    0.7573366646096232 H
   0.4334123964669381    0.8980717316213997    0.9440413358670700 H
   0.5157378632301113    0.6323043788195750    0.7361538394128052 H
   0.5310946451733106    0.8086152119783314    0.7003019116573737 H
   0.4302081379794877    0.5372831018595967   -0.0155646868805532 H
   0.5093857145288996    0.6417213964437508   -0.0099474958472222 H
   0.7139279196014381    0.5740417300565892    0.8032135942992722 H
   0.8724299477795924    0.8929582635966103    0.9157208026574843 H
   0.9558311752589437    0.7521697318859000   -0.1974971148811967 H
   0.8080811968071374    0.6391818217200299    0.8414183048136539 H
   0.8394981732356277    0.7888837459323405   -0.2337964136969444 H
   0.2964438427573459    0.9884754439992611    0.3060077319736642 Cl
   0.0438263279344444    0.1085230978031776    0.7427173563951147 Cl
   0.7070700442757205    0.8868306816112000    0.6695103341215891 Cl
   0.0859591513670259    0.1061920942332866    0.2885532582916904 O
   0.0365831714884654    0.0264328119780815    1.0926463315547310 O
   0.3699202844706871    0.3171148427795010    0.3035086783289063 O
   0.3890330988480112    0.1626314827782389    0.1468906834235111 O
   0.6202390852141625    0.4050278844063619    0.0901917310793180 O
   0.6034246673485254    0.1696942459963708    0.1738130848150302 O
   0.6832119739569961    0.4845654772315460    0.2749531780580762 O
  -0.0542247757008849    0.4804781346694493    1.0994697127703372 O
   0.8964221904680835    0.3958450910725833    0.2923998713737836 O
   0.2697197235933055    0.5250905692924354    0.0187855523818063 O
   0.1389088083447304    0.8378735150960105    0.1589432488067444 O
   0.3020219200945179    0.5267155539298433    0.2229282029447421 O
   0.5188881352019158    0.7682170986536282    0.0545792829975654 O
   0.4142749705898342    0.7400638537265413    0.2593045273865269 O
   0.9893980852810949    0.6947358767658581    0.1983064558581886 O
   0.7272887883044367    0.8649517305876844    0.1003661160458497 O
   0.8369417529359273    0.8192179364498662    0.2713765436854261 O
   0.1780458565105763    0.2798688907841729    0.3956359952889897 O
   0.2509840209061545    0.2087462131246153    0.5809331982888500 O
   0.5668400698856411    0.3599787458866279    0.4293981166652743 O
   0.4579889637953607    0.1541547941733868    0.5953797823722453 O
   0.6555415029304580    0.1466476053786037    0.3755782110542886 O
   0.5944891050897905    0.3730412543895504    0.6441743494117829 O
  -0.1091409709029241    0.2558724835383115    0.6121775931413375 O
   0.8564959864705911    0.1925675777985326    0.4168974021850981 O
   0.2153918226279365    0.5212717695980834    0.4068117133940031 O
   0.1259329905253823    0.8641709829530270    0.6374777881663184 O
   0.3068838821800348    0.8324245829776484    0.5172610148747605 O
   1.0049509653031843    0.5704485750082976    0.3670929436041859 O
   0.3662087115200353    0.5726226568832667    0.5723141085389657 O
   0.5717115590033308   -0.0178402204945814    0.5024028494158743 O
   0.5156703800855539    0.7534815595050111    0.4499351714619837 O
   0.9323470409530017    0.9744648847971118    0.3911700650520935 O
   0.7004368481254113    0.6727316629350237    0.3836573433852870 O
   0.9364119080133946    0.8494620407018543    0.5565121846519688 O
   0.8847198192824991    0.6305455517305116    0.5194574122717567 O
   0.0935436216797888    0.4081251360119810   -0.0546433659376362 O
   0.1301121819718488    0.1817134697479268   -0.0328994207256875 O
   0.2920566444417734    0.4018782969702878    0.6940387168129462 O
   0.3358682897270711    0.1447429243358130   -0.0536350304695146 O
   0.6309506450537761    0.1090925287978173    0.7715257185696017 O
   0.4366761989054684    0.2873022946376586    0.8164588898311399 O
   0.7913009174734529    0.3799693171915930   -0.0227458093370870 O
   0.8268764434453684    0.1734152377452821    0.8543570539146267 O
  -0.0947599158380885    0.4767253982364914    0.6774587562993123 O
   0.0958017664805458    0.7226677668690531    0.8051765807082771 O
   0.2207372815962227    0.7607819788712750    0.9704634597076615 O
   1.0969662177054387    0.5069755082395155    0.7746682085045885 O
   0.3754634293565589    0.9228583241106890    0.9051550652677544 O
   0.5622377194268330    0.5672252026309261    0.7553091011606073 O
   0.4616806887623192    0.7711075808307281    0.7079235584519095 O
   0.5015592575989476    0.5658215728174102   -0.0417293584013904 O
   0.8625059559329299    0.9534447561717194    0.9693897691629024 O
   0.8867125568453090    0.7749238066317788   -0.1740455348811051 O
   0.7774597275650758    0.5633849538257321    0.8420407341149634 O
