Li1 Co1 H90 C51 N3 Cl6 O45
1.0
  13.6247282494000004    0.0000000000000000    0.0000000000000000
   0.0000000000000000   12.8380549056000000    0.0000000000000000
   0.0000000000000000    0.0000000000000000   14.6481894540000006
Li Co H C N Cl O
1 1 90 51 3 6 45
direct
  -0.0243478159143914    0.3270722070964501    0.4934696366195701 Li
   0.2046094111875418    0.3241395198415002    0.4808658946636259 Co
   1.0675858893068604    0.0856088372328577    0.1165351344178484 H
   1.0142306966972745    0.2476754443083911    0.2052177667717923 H
   0.4916546225422876    0.1701341027796391    0.1277679219590465 H
   0.5163643263864598    0.2324831117132935    0.2308024986717242 H
   0.3611754696771076    0.1636066342015567    0.2466058169403029 H
   0.3579842133669558    0.0659999477358833    0.1592414362420083 H
   0.6164950574386610    0.1536674338368395    0.1679128150768386 H
   0.5965100716821934    0.0314004696010575    0.3485139745790182 H
   0.3520626273710257    0.0322292555875825    0.2833707701579813 H
   0.5401698654080754    0.1491379314762727    0.3569150128360976 H
   0.8901812500542248    0.2603627245231650    0.1765698576689094 H
   0.9351149902942886    0.1553639525197826   -0.0339817609925896 H
   0.7156412550928776    0.2838880951669888    0.3032626483259301 H
   0.8787615727474974    0.9768404205320617    0.2863254015228959 H
   1.0493800216037064    0.6372827513949342    0.1662320612828414 H
   0.5636896005641958    0.4141549706630973    0.1413593627732991 H
   0.3108838244085000    0.5222996008433585    0.0977771847843551 H
   0.3317781861006341    0.3942817654247625    0.0583197486407933 H
   0.6394511116273949    0.5218680712977430    0.2429828435915040 H
   1.0578895491243823    0.3999517053444187    0.0449310632598540 H
   0.8468181833430762    0.6311759072836972    0.2097766919693200 H
   0.7798040027086693    0.6485297822778615    0.1019572235660955 H
   0.8118758350418568    0.3551794244789369    0.3216014335282640 H
   1.0200370510371113    0.6169198535944296    0.0514124103436108 H
   0.2706276086543141    0.9479061308182851    1.0692344454026064 H
   1.0858893736358768    0.7370120335497813    0.0936381066962134 H
   0.3955865046289897   -0.1322816470008414    0.1937590127375751 H
   0.5066318753920086   -0.1756807447689126    0.1511906119151973 H
   0.5233665944870513    0.0151332078129105    0.1099773273727075 H
   0.6095987731032918   -0.0241663592718137    0.1959804476870743 H
   0.5234363206483815   -0.2288071727998826    0.2871050200577232 H
   0.8884138753543983    0.5631570363238064    0.1098435224402853 H
   0.9790307285789293    0.7434226619981842    0.2548778290125466 H
   0.9837787131857304    0.8556008705032595    0.1926100652821335 H
   0.8183119267124457    0.8234682769730621    0.0586160309911568 H
   0.8838449768882772    0.7448660270668223   -0.0129361566216127 H
   0.7905763276544138    0.8528333172982564    0.2038353433628385 H
   0.8130861344106333    0.7589935566134428    0.2973294918581683 H
   0.6121397412140888    1.0189932235835539    0.5279975898241820 H
   0.4672572919008755    0.0312181989987578    0.3735068244564499 H
   0.7159054805463400    0.1929623273163765    0.5251067206056359 H
   0.3414495716569518    0.6315490167644731    0.5753395498785443 H
   0.1697727530677072    0.6339356711467218    0.5455691812354135 H
   0.3131627689446135    0.6464975429556400    0.4377263652368378 H
   0.4734407546795706    0.4399686708253737    0.4685763212275831 H
   0.7530673226566439    0.4723787207168494    0.6453397368108617 H
   0.7254491571334842    0.4936581124945583    0.4713441035618653 H
   0.8002102812714909    0.5252361827692976    0.3728145887346331 H
   0.1210407719341209    0.7669324539580509    0.5137166610679748 H
   0.1608015649630649    0.7376538753288194    0.6294128537832604 H
   0.3299366814819196    0.7317495541090265    0.6619028759456950 H
   0.2239668614920360    0.7358381797136033    0.3955354854737940 H
   0.2134683034744624    0.9266848475317367    0.5155700607720990 H
   0.2998861738677197    0.9015938191502106    0.6053764361013567 H
   0.3440066868787937    0.9002088741464123    0.4945608294970377 H
   0.6145317155275166    0.9081734763195497    0.5992098036800828 H
   0.4744157466028469    0.7120705605342446    0.5003907650169309 H
   0.3524097902584917    0.7728297647700629    0.4086278885043699 H
   0.4740334270508786    0.8364733623405638    0.5626119700922868 H
   0.7415500287240541    0.7912725897728381    0.6401568437141815 H
   0.8018382036486565    0.9407773250394534    0.3958010473039585 H
   0.7139883780895515    0.6752433305935339    0.5111836142285329 H
   0.2117244154816104    1.0523020077525225    0.8887049671142244 H
   1.2035372247092067    0.2831870543889132   -0.0518788533822850 H
   0.4850789317571195    0.2159229706667504   -0.0877467674101534 H
   0.4396987092174715    1.0574094792879027    0.7722837530552873 H
   0.6335654896515194    1.2251451694554747    0.7704965014579337 H
   0.7822517579511614    0.1108540945855604   -0.0345333649997179 H
   0.9485611300371541    0.2854498582337018   -0.0704477011469980 H
   0.7779001115245540    1.1489506051548259    0.6934726478586135 H
   0.1115117745388358    0.5752414214694352   -0.1353424106935366 H
   0.4296620466509339    0.6171356183672374   -0.0310332737317148 H
   0.3273780983408918    0.4442493816031433   -0.1889633720052785 H
   0.4502783550908744    0.4647464897659396   -0.1437550544804689 H
   0.6454314143907611    0.5837964557645520    0.7999827394231352 H
   0.8846119646629113    0.4820165514404139    0.7009527531879504 H
   0.9265093140669360    0.4367695880747550    0.8207095330622693 H
   0.7792227067110520    0.4271708598479232    0.9357974765445711 H
   0.2292888025005250    0.9345201466280292    0.8348416550320239 H
   0.0533506145146059    0.9038589597975930    0.8453132563505140 H
   0.3074158653318058    0.7960388881295549    0.9494694733895677 H
   0.5109734665721927    0.7221748949489086    0.6850217740909893 H
   0.4366039098770255    0.8368698398472755    0.9740704659649058 H
   0.5482889264253012    0.8386099788452988    0.8465448078713796 H
   0.8068430741129906    0.9481382532092480    0.7067691716789560 H
   0.6998002051982124    0.9181212449604436    0.7659682967806050 H
   0.9546478569414982    0.7310866811066461    0.7321354465463619 H
   0.9513509104499616    0.8521696653616780    0.0413169647280014 H
   0.7552787429102058    0.6480468430751872    0.8402163807103911 H
   0.7423449069632202    0.9471474489095677    0.9082896400801834 H
   1.0957743414337431    0.2223483988649129    0.0305552251631876 C
   0.5364244696052456    0.1661716645151158    0.1877480309519760 C
   0.3829824367271171    0.0845526024605570    0.2304734477664819 C
   0.5263853702928594    0.0710941773898998    0.3347511815298780 C
   0.9923095255346019    0.2579698386673334    0.0637777610628110 C
   0.9562119248340771    0.2197085908683591    0.1598121552394826 C
   0.9404097747978384    0.1034923874815680    0.1766190105012278 C
   0.8215024490630045    0.2471379797118664    0.0129844529658279 C
   0.4644512909810639    0.4895189340605401    0.0760202297012153 C
   0.3574337436722425    0.4717801876792123    0.0509154205946140 C
   0.8505833960549158    0.6361369391898795    0.1352650942440493 C
   1.0299080736027117    0.6772444125478411    0.1055631299592283 C
   0.5291824903015963   -0.0192450530097225    0.1777891209816954 C
   0.4786289682502238   -0.1203327964056406    0.1988681765857778 C
   0.8942488541183601    0.7959017957107312    0.0442217605823710 C
   0.9360052832805384    0.7974285067385404    0.2101385114294412 C
   0.8409288915692360    0.8276238909186552    0.2555495843875641 C
   0.6614713673351160    0.9766986545080508    0.5742235757814497 C
   0.6868671032108197    1.0449971628449741    0.6589748690316195 C
   0.7664371306018425    0.2860270484743175    0.4366688966637665 C
   0.5721000435398232    0.3996921644696912    0.3824929179537631 C
   0.6606852966110653    0.6136864977391050    0.3906673070395966 C
   0.7439097088153921    0.3369171564232261    0.3494888390866657 C
   0.6721673604831936    0.4299948857822714    0.3451797741200897 C
   0.7233683816874675    0.5208982982214051    0.3958119701555848 C
   0.1694542146043664    0.7198801548020075    0.5557753572593845 C
   0.2820355426075541    0.8795468656139287    0.5342853293628625 C
   0.2917010564871282    0.7295755487627941    0.4354919594010324 C
   0.3494387218262253    0.7156996149620829    0.5867126960631404 C
   0.4552364282915619    0.7507251701031391    0.5642393384489605 C
   0.7473607868214485    0.9317074152395500    0.5264546687641442 C
   0.3947468548546536    1.0417303128191415    0.9020062696821534 C
   0.5897899376491325    1.0888589475265751    0.7049969390025886 C
   0.3793234279683776    0.3254738341224375   -0.0943933226247580 C
   0.9239441252895718    0.2379512297822837   -0.0167059057891401 C
   0.7874944313236117    1.0466469454760454    0.8075577370259754 C
   0.2209370762923336    0.5311794506989836   -0.0474298393792470 C
   0.3320093833724138    0.5050945022809858   -0.0482736296673788 C
   0.3748859082693948    0.4345528192410600   -0.1265788702981094 C
   0.9385154250884314    0.5986398258390075    0.7867531180690039 C
   0.7243430800269066    0.4048719989920527    0.7638294658965297 C
   0.7744064638621063    0.4909108894721193    0.8128143593711332 C
   0.8838794729891459    0.4916187848711361    0.7768891003722267 C
   0.7248913478428413    0.5989957987674304    0.7860738532334932 C
   0.2280873106468639    0.9693821255875343    0.9025455854812020 C
   0.1455865826011871    0.9267144470312555    0.9581340254421316 C
   0.3307359634786435    0.9587520105893137    0.9482078840267298 C
   0.3698009628134697    0.8474617870698009    0.9312781466841887 C
   0.3971101313479971    0.8138959546155378    0.8345617569591000 C
   0.7327564588409060    0.6492277073191457    0.6897889161476433 C
   0.7421452699539375    0.9867640422128217    0.7335636093965009 C
   0.4952949887273662    0.0750714154041825    0.2372046550811903 N
   0.9236175132707085    0.7243450056241517    0.1200550233544242 N
   0.2708140343909236    0.7616949004116278    0.5285197703997419 N
   0.1099220180605036    0.3435362276629770    0.3650696042533585 Cl
   0.2584915867848663    0.1701551340029814    0.4633130086358043 Cl
   0.1024789338283857    0.3350889978608443    0.5980977208488800 Cl
   0.3335749191841786    0.4305399060405153    0.5084945310402181 Cl
   1.0096155587767977    0.8583692026424604    0.7350873471983700 Cl
   0.6505199562486915   -0.1448372873361767    0.9380523627271758 Cl
   1.1288898643081073    0.1350844006784492    0.0386292605497045 O
   1.0211585412951407    0.0486047892292323    0.1615727823859971 O
   0.8609623186588383    0.0690338964365552    0.2051843155386868 O
   0.7867839584376349    0.3306389467884596    0.0361989260628524 O
   0.1773655650567871    0.5402119716573898    0.0246917018745435 O
   0.4938782265250926    0.4068116230381485    0.1232881874358095 O
   0.5106087620504552    0.5732551392648876    0.0705642653138776 O
   0.6001828054853212    0.6265607221613658    0.3277271052559394 O
   0.6749035618457156    0.4523999932627302    0.2484988836627863 O
   1.0007948323887104    0.3693597657641724    0.0773405293915446 O
   0.3302170540464270    0.9792403167956740    1.0408125027927426 O
   0.1621535185332810    0.8992344274648870    1.0386204230069893 O
   0.5153074979685693   -0.1514208391765051    0.2877160170705694 O
   0.8698138713498297    0.9061677207600554    0.3205159751479003 O
   0.5180472957330968    0.3386199065797521    0.3410249944327352 O
   0.7509564548673163    0.9691990760510368    0.4404686836732662 O
   0.7513689401585549    1.1213903553660776    0.6311434430878026 O
   0.6964247250302299    0.2303223482484247    0.4697504595095879 O
   0.8498641156538237    0.2928279229558494    0.4740769327709433 O
   0.5424634891360478    0.4560297487313467    0.4512861297813741 O
   0.7621141085993601    0.6058138098013153    0.6193085333507046 O
   0.5147868270333298    0.6898989775263047    0.6266097769846608 O
   0.6769916768876616    0.6888372902146190    0.4504624785009283 O
   0.7929073833216266    0.8560129266939285    0.5537778407682247 O
   1.1356048606240177    0.2984923324427007   -0.0205193463631727 O
   0.3045343399698795    0.2728124298075911   -0.0749540601210741 O
   0.4593873367694972    1.0889586511039016    0.9431806415657245 O
   0.3822858356774472    1.0463221299155370    0.8107670073694282 O
   0.4716439482000668    0.2938335270052890   -0.0839155772022281 O
   0.5838933062793628    1.1636405251923025    0.7639796551063913 O
   0.5140418580464844    1.0395251501049945    0.6853699399865777 O
   0.7589221183296154    0.1614653440916345    0.0122983613480509 O
   0.8254364724812228    1.1339249644780707    0.7955705900443359 O
   0.8005831327447099    1.0029837890148992    0.8882701010838522 O
   0.9964659387094844    0.6158527137433589    0.8521379905822728 O
   0.1832394436791753    0.5516256944586595   -0.1289825803341224 O
   0.3720865129859197    0.6049748976702181   -0.0739634940142139 O
   0.9197774366803879    0.6617888001938661    0.7193632196040820 O
   0.6904957994383703    0.3298888331559185    0.8073945769298077 O
   0.7198497793988596    0.4067188519751831    0.6706568588459491 O
   0.7554923251517546    0.4897364124885832    0.9036146595841263 O
   0.0556875418585624    0.9128198188097957    0.9203109209731551 O
   0.3297744764118775    0.7965085854508656    0.7759429083500984 O
   0.4912477153439555    0.8040548999597512    0.8124238674254929 O
   0.7151355569333342    0.7494952330047153    0.6929838502483366 O
