Li1 Co1 H90 C51 N3 Cl6 O45
1.0
  14.9939281362999992    0.0000000000000000    0.0000000000000000
   0.0000000000000000   14.6053099835999998    0.0000000000000000
   0.0000000000000000    0.0000000000000000   14.6533683422000003
Li Co H C N Cl O
1 1 90 51 3 6 45
direct
   0.9351955965596768    0.7401634408950362    0.4376406859596618 Li
   0.2302642467547519    0.1195213586538150    0.3102694252083072 Co
   0.2500355833454816    0.1815659164904875    1.0177654601058719 H
   0.0863920085800578    0.0853057206042880    0.1822162734564225 H
   0.0543050200586681    0.2636435992884612    0.1102942432864110 H
   0.1252737475546894    0.3250890599467907    0.1867340060660200 H
   0.4254032372449394    0.1612274231388536    1.0640885978410481 H
   0.5275223741436335    0.1121404814166289    0.2275369113119161 H
   0.4647152837374774   -0.0149701380830335    1.1107829812770733 H
   0.3565567021264422   -0.0220120974878998    1.0496994147483951 H
  -0.0347977145853356    0.0950727163175032    0.2001773315458479 H
  -0.0505020715663412    0.2915409873245602    0.2853563819083126 H
   0.1976877267421294    0.5852321177981027    0.1168838544764825 H
   0.2606538815361042    0.6268252096723680    0.2089323151785557 H
   0.0518026737983066    0.6610661809740077    0.1730900441228656 H
   0.5142998884682470    0.5573326072462861    0.2987068959629281 H
   0.4242387658775110    0.5967779186191295    0.0438460398930734 H
   0.6575972272622290    0.5947067540882864    1.0716001813506915 H
   0.2662341403741759   -0.1733460987848170    0.2778004399969133 H
   0.2839386403282158    0.8099366946735784    0.1288770014373685 H
   0.0492829871853946    0.7831142581460492    0.1823670920223925 H
   0.5528722355371798   -0.1251752622335900    0.9340406828840495 H
   0.6048452070571233   -0.0469187924097104    1.0236705870350027 H
   0.4306253511091800   -0.1217771830380284    1.0573249652287036 H
   0.1540827425074018    0.2422191995084250    0.6917039097222510 H
   0.2384628988279460    0.2471927331124064    0.4815062249258034 H
   0.0990157852368071    0.2625700171448705    0.5832496647400082 H
   0.2668110405647977    0.1933417706279980    0.5859268648952123 H
   0.0970523237787835    0.3487948217819570    0.6657945084751246 H
   0.1501111348367054    0.3673004201091060    0.4826076235682931 H
   0.3387721697760156   -0.0001892124989544    0.4682009632653483 H
   0.3397525666317542    0.2745896182486554    0.5498356408401293 H
   0.5578642562618082    0.0913500976219020    0.3814899101936260 H
   0.4751538425045480    0.1048588831404254    0.4685289424635617 H
  -0.1882751741997223    0.0350616654747493    0.5831800561710991 H
  -0.0868881336469768    0.2412339414059843    0.6621257274314395 H
  -0.0850513901498991    0.1192064047086289    0.6341560490319905 H
  -0.2790185729696560    0.1399748786636907    0.3473059609266553 H
  -0.2165799650551977    0.3358337822550616    0.5801343400628461 H
  -0.3029749369547804    0.0797365132344112    0.5764819375059632 H
  -0.0802441108735968    0.1967781920429736    0.5455827620108619 H
  -0.2060490355639641    0.2615272457133088    0.4867872669492364 H
  -0.1568657933010744    0.1218540718956603    0.4338533656177460 H
   0.1547430097775932    0.4556890952861186    0.5682626668790762 H
   0.3123888233704606    0.5658836068580874    0.5741712059929576 H
   0.1658895217843689    0.6848602668503242    0.3985378676438305 H
   0.2902318544307668    0.4120252496905040    0.4028945451332067 H
   0.2268128496605699    0.5064107849203568    0.4376281291197802 H
   0.3330251767788047    0.4045800122993016    0.6440766349754524 H
   0.3891292205192454    0.5154904552696274    0.4723484738295218 H
   0.5852579449780833    0.5333597507719521    0.5768736563153151 H
   0.7071452838653152    0.5234470546249639    0.3703498094203527 H
   0.8946191715915541    0.6032796635397527    0.5383268876264172 H
   0.6961014801005693    0.5126674203565516    0.4880607861541182 H
   0.3769002703513378   -0.1144586119073899    0.4612536868697346 H
   1.0707618058626911    0.8622621845713031    0.5327274924509268 H
   0.5659174494545693    0.7218009412081999    0.3252714366821412 H
   0.5222845205747700   -0.0170789601508010   -0.7228548126095709 H
   0.6049159023405983    0.7565403613622211    0.4746332044947290 H
   0.5679729481684378   -0.0025671147851090    0.6119058747112479 H
  -0.0218191276379380   -0.0388135210985965    0.3923665903041644 H
  -0.2177671122682690    0.0190599510118295    0.4353087306575084 H
   0.6808373012996911    0.7048125992778603    0.3188237723776886 H
   0.6542892215449067    0.6982827823751662    0.5934288942875544 H
   1.1933307539924840    1.0253001483443298    0.7557813271509752 H
   0.3075935489536163    0.1230714373620534    0.9022732428573483 H
   0.2885865217483809    0.3297579098429290    0.7222641187842425 H
   0.4292294527288664    0.2150201876116516    0.9530622479939150 H
   0.5045319878441653    0.0929693717096520    0.8821529542578376 H
   0.5509039054417093    0.1060646090044963    0.9965403060841650 H
  -0.2330332918790568    0.2467785002062378    0.7402279066214682 H
  -0.3079636229962261    0.1588659532324478    0.7022134387536410 H
  -0.2004534371832516    0.1190277025788603    0.7258953657956727 H
  -0.3095909483894250    0.2585618858511332    0.5382187213698280 H
   0.2218515080212230    0.4328327505474692    0.6907259775727717 H
   0.9777408184789154    0.3710408405494350    0.9005234745173170 H
   0.5566454962521642    0.5377168647306052    0.8102780122373823 H
   0.6622210989634781    0.5000678178690567    0.8396705716777694 H
   0.9576353466332707    0.6330229555676378    0.7151872476118066 H
   0.8641841851189159    0.4729485714823141    0.8111174096859932 H
   1.1789782775737794    0.6924006751075719    0.7317063164256913 H
   0.1255345197795831    0.8499741879316206   -0.0434901936686266 H
   1.0388435523103503    0.7987914331089295    0.7749264133488071 H
   1.2376753709571533    0.7722928513989503    0.6715290261667329 H
   0.5993796613205394   -0.0170111765843370    0.9045266496665464 H
   0.3615754003165330   -0.0196643212312847    0.8682414770302477 H
   0.4806089840296016   -0.0438117032722011    0.8251114617845439 H
   0.4087858440084873   -0.1269150404394981    0.8976981855439433 H
   0.6196705415511470    0.7814511643789689    0.8245907623916250 H
   0.9997944122399428    0.8795011202928125    0.6941347501384726 H
   0.7486267418492457    0.6709050683486241    0.9148130218152567 H
   0.7613338855855645    0.7440866715600710    0.8173098425711122 H
   0.1768873069211924    0.2018003381037120    0.1267205006750833 C
   0.0426029498336405    0.2114885953306306    0.2426399234543634 C
   0.1043052597013400    0.2552110497473495    0.1653819187715962 C
   0.0481485279666113    0.0487039640787320    0.3080549173052644 C
   0.0309002126719764    0.1060803567017556    0.2301697530653642 C
   0.0814193290178895    0.2452372799222948    0.3359311018425509 C
   0.2367602095948163    0.6432753911659332    0.1405159636211578 C
   0.3255488170830017    0.6599638421658566    0.0944385031880141 C
   0.1412915647548768    0.7465515285223966    0.0412937256997359 C
   0.0927885978612752    0.7208855207196918    0.1962144201766738 C
   0.0979073365468495    0.7188465362658569    0.2950701894558972 C
   0.1758668938672603    0.7258645317835896    0.1444140434800733 C
   0.6079511309735689    0.6191033605553936    0.2452652584013606 C
   0.4246676061348171   -0.0462478035699663    1.0528843479944663 C
   0.1357413180654501    0.2927412357287149    0.6392081297735086 C
   0.2693053835855205    0.2581948960367425    0.5487994285751123 C
   0.4307700763593129    0.1328815680721092    0.3267666560397890 C
   0.4878751919912255    0.0858185477889496    0.3985194418461781 C
  -0.1069229102091465    0.1855274893749363    0.6118157930338360 C
  -0.2397026582446259    0.2663159150451159    0.5517855679376221 C
  -0.2311325224648696    0.0939491523521764    0.5587986312552246 C
  -0.2242297282765056    0.0957081016677916    0.4548171462875683 C
   0.1944884316965659    0.4060650886191027    0.5260214575171700 C
   1.2166001732419549    0.6584678109262229    0.5871040686341180 C
   0.2649122719605201    0.4505827332791674    0.4647251753911487 C
   0.6188408723752701    0.6248848194970261    0.4255057286005470 C
   0.5362877889705736    0.5736071676812856    0.4529382608765798 C
   0.7909398698189625    0.6127152729280330    0.4532142383791964 C
   0.7066837637128179    0.5621731755107998    0.4352768608519392 C
   0.3734622119898869   -0.0484059227769802    0.4265209218075012 C
   0.3197604740143242   -0.0630649748779222    0.3368148576929178 C
   1.1850140541346192    0.7224479661608105    0.6605486156397808 C
   1.0247044956153435    0.7004251538849208    0.6236608511765525 C
   1.1005578670375076    0.7782098774735109    0.6351565016008227 C
   0.6195171461247390    0.6676096915264926    0.3341035356902093 C
   0.4673264740569250   -0.0154103889238045    0.4022025540658152 C
   0.5310886177266305   -0.0516855519018523    0.4829607573924868 C
   0.4896431076274106    0.0887736374137822    0.9578597797530495 C
   0.4150096967008364    0.1527750178055454    0.9905464623515222 C
  -0.2383421075060498    0.1815700245854246    0.7060214369351445 C
   0.2697448948290115    0.3770906950269654    0.6671730311143069 C
   0.6163672043902806    0.5570665396308528    0.8551926001075720 C
   0.5996704456940782    0.5711280008549288    0.9546666572635772 C
   0.6466434599434182    0.6358438474245216    0.7091115114451532 C
   0.8180701852574611    0.6104701990448481    0.7974502448865358 C
   1.0631580612693057    0.8402564893576518    0.7155468918845043 C
   1.1218464844764044    0.9047953455037000    0.7692253350677530 C
   0.6551935876240779    0.6468220464617240    0.8138601237884059 C
   0.4300257750729153   -0.0536416897744535    0.8828128707885748 C
   0.5664277226751990   -0.0542647508399303    0.9577417181606839 C
   0.7478297525685601    0.6728392963815601    0.8421464529326967 C
   0.2170128827230025    0.3301755661615453    0.5958529103342750 N
  -0.2053354133628482    0.1860772894140328    0.6075539742805224 N
   0.4741593732857780   -0.0151570564026765    0.9663636265881241 N
   0.6237115106320453    0.0692417000348205    0.2087098407328263 Cl
   0.9315807999895384    0.8996191458828161    0.4892941544540163 Cl
   1.2798924600512058    1.1260443298544931    0.7674578233670193 Cl
   1.0128990502116497    0.3701623929153618   -0.0155246098908782 Cl
  -0.0786127838605786    1.3813350429024716    0.7734496197888117 Cl
   0.5962130461701672    2.0104418547618121    0.7225357286903784 Cl
   0.1961517716681389    0.2229967386147330    0.0412329888111778 O
   0.2288976935864468    0.1490914260118477    0.1695127096304925 O
   0.1199896085832489    0.0416216084069831    0.3497845719293831 O
   0.4576278814881144    0.1381796411761302    0.2444818207826570 O
  -0.0442181945767020    0.2519957807764936    0.2319850353526043 O
  -0.0207340217302599   -0.0046040451914753    0.3268792581365538 O
   0.1808982638534457    0.6955906108263150    0.3332095432855910 O
   0.5240669087359684    0.5786071984976120    0.9914670697971941 O
   0.3747220552963429    0.5850828570153840    0.0915572543847331 O
   0.5472354204723280    0.5516426218852553    0.2407154512551089 O
   0.6723972181640634    0.5769614271975171    1.0072886880480865 O
   0.2992668450462033   -0.0021412422766183    0.2751908010997682 O
   0.2257424163588960    0.8087802659487540    0.1654433380971043 O
   0.3440843200861914    0.7348420885863710    0.0581703914754678 O
   0.6486656118254588    0.6453547718866507    0.1772317539729633 O
   0.1661522948191723    0.2360892371796192    0.3520946210054386 O
   0.0319379660784589    0.2940982764229730    0.3851068260291043 O
   0.3563779631078450    0.1673169892007769    0.3476321657887984 O
  -0.2958720617754492    0.1401542654759488    0.4126370150326951 O
   1.2808061632432888    0.6074356862512296    0.6199149547575071 O
   1.1915433638065114    0.6536654479446252    0.5067162033671520 O
   0.3407516377133165    0.4881902883818502    0.5117153270013430 O
   0.4704380669347814    0.5700639357979426    0.4012635208224910 O
   0.5425359848501571    0.5168837841358310    0.5223541095910800 O
   0.8448463573419482    0.5638272999372671    0.5148343368380355 O
   0.0305040523098615    0.7332330847359640    0.3434522394694956 O
   0.2864783350402245   -0.1495342111637727    0.3354636325317391 O
   1.1238392911464365    0.8362716372685588    0.5627765562373007 O
   0.5562234587485509   -0.1321665551342307    0.4920511246643164 O
   0.6366787596566215    0.7008236390938302    0.4937243099298087 O
   0.5453568600481382    0.0129245112231073    0.5439856548165657 O
   0.4900916892091587   -0.0617777717975966    0.3143572225393478 O
   0.8176393441902454    0.6793033837652590    0.4124179527717162 O
   0.9840080220526407    0.6868835036068999    0.5526361573522147 O
   0.3261537286123588    0.1244277933738220    0.9697437368019212 O
   1.0207015419227290    0.6494464344441112    0.6970910670062634 O
   0.6271869174451433    0.5605798508894032    0.6726059116739754 O
   0.8229108113655913    0.5302260274855999    0.8380081552673494 O
   1.1629277804784006    0.9702968652300340    0.7209238126142653 O
   1.1361015881461718    0.9000196851391941    0.8539082537675022 O
   0.1154737806171221    0.6847466095570613   -0.0074698065689630 O
   0.1426681219727302    0.8357458011165960    0.0199975982352195 O
   0.6027250154895090    0.7209745294433314    0.8406710242466016 O
   0.8642008585348298    0.6397287358701426    0.7320243320444334 O
   0.6585142651374947    0.7113513170529185    0.6609089423494285 O
