Li1 Co1 H90 C51 N3 Cl6 O45
1.0
  14.1741887954999992    0.0000000000000000    0.0000000000000000
   0.0000000000000000   13.8330188196999995    0.0000000000000000
   0.0000000000000000    0.0000000000000000   14.2969038405000006
Li Co H C N Cl O
1 1 90 51 3 6 45
direct
   0.6489372354995172    0.7344559450342985    0.3266932457829732 Li
   0.7402616857855865    0.6291990940910727    0.5556812166418096 Co
   0.1536221172030176    0.1628019840971228    0.2015430720137814 H
   0.2670741124600960    0.3061539180347798    0.1065721597695738 H
   0.3079928562674407    0.1297990650705223    0.1547644122800939 H
   0.1153179851053579    0.3469671351176612    1.0296916090739514 H
   0.3519318787388873    0.0800362469198181    0.0492492590112696 H
   0.4924122990809785    0.1180901241581212    0.0743616892273103 H
   0.6453610167309275    0.2955575325378374    0.2118110294427283 H
   0.5782965085806064    0.3602577987389796    0.0243550578632011 H
   0.7722712777661902    0.9550310804960292    0.3423504819578351 H
   0.9637383196657310    1.0427631956487737    0.2133757038820031 H
   0.7620315383289619    1.0185197528854049    0.1629158275305671 H
   0.1716725329052007    0.5513426251570301    0.1950388665552136 H
   0.5236102043988752    0.5490618504099395    0.1252160565862344 H
   0.4090758897074125    0.6063725510121089    0.2040806843810988 H
  -0.0510463856548679    0.6149997351109293    1.0328552311074068 H
   0.7701434664018054    0.4381653049779809    0.1942687697480426 H
   0.7102310430347901    0.5395587186847959    0.2221321452343862 H
   0.6610656191749610    0.6088579087238354    0.0303878325787778 H
   0.1892213325994004    0.7414471883240331    0.1553232745407021 H
   0.2905364780880734    0.8483341968123267    0.2757626381406870 H
   0.6456446308451459    0.9511787037520530    0.0149390331419149 H
   0.4004891549209647    0.7341291906172828    0.1601424997917541 H
   0.6985781715806976    0.9072721633275550    0.1741014661684225 H
   0.9733903711498649    0.7675427213891597    0.2139324677861884 H
   0.9309554911946214    0.9228558911320022    0.0991111037822049 H
   0.2474849843621162    0.0355376448414795    0.4314173186803983 H
   0.1716330244713792    0.1797100793616872    0.5149815654102147 H
   0.2935779219845795    0.2113091110479233    0.4981281961291372 H
   0.5007318580837088    0.1965617878020764    0.5637295326467087 H
   0.4077445965891784    0.2840871512661780    0.6082779892290204 H
   0.4836510216779694    0.3405889178138323    0.4247109715530998 H
   0.6350415549183095    0.2440366021256675    0.4951929452196975 H
   0.6672077696187055    0.3642258407633155    0.4877792421422700 H
  -0.0937747568327851    0.2250255674825654    0.3681532714369801 H
  -0.0451349362443308    0.1648579344555144    0.5854059042203992 H
   0.7856872130795657    0.2739548727066783    0.5800541860544522 H
   0.1148840978410686    0.3273741595327500    0.3351887914867870 H
   0.2612952985059596    0.4349922448837164    0.3941896779311978 H
   0.0665427070295157    0.4142695809636932    0.4146367623671924 H
   0.5303390550848686    0.4437585164821692    0.4606805776816122 H
   0.4200613508330210    0.3984707157377771    0.5173086776557172 H
   0.5982091119804995    0.3834754350471593    0.7040092059504259 H
   0.4823336270623474    0.4323925954168345    0.6701032634185324 H
   0.5920606119670335    0.4776739984254068    0.6101294390460791 H
   0.7306011682084909    0.3716819138984953    0.6440283870565632 H
   0.2720147832110200    0.7751990400409619    0.3707846103911829 H
   0.1694050310069471    0.8696476934425869    0.4257489585302495 H
   0.3787009591761720    0.6383503864915225    0.3829767606598459 H
   0.3655418286826361    0.9149848688035324    0.6461064593672854 H
  -0.1607852936404751   -0.1498470519788503    0.6038595500547250 H
  -0.2070602522616160   -0.0363786890380963    0.6323608258936027 H
   0.8933625109057481    0.9244274931288879    0.3465513915162994 H
  -0.1036638589198479   -0.0386515117971621    0.5660217772029856 H
   0.1583962881256939    0.2081095202299763   -0.0922338217009287 H
   0.2709812143619405    0.2566159242727745   -0.0848105361291704 H
   0.0441209653280860    0.0745580500787873    0.6800760520440041 H
   0.6526446787090139    1.1048725595698612    0.7221061311928741 H
   0.5005693090988432    0.2413329261972622    0.6751190347211875 H
   0.5089284682514020    1.0507426541775804    0.7618727832136740 H
   0.0005967814117648    0.1518470362310657    0.7594198045554099 H
  -0.0251168594362893    0.0121537396927828    0.8247416399974632 H
   0.7072770820988886    0.2619531540533671    0.7466205298284142 H
   0.7641233687982593    0.2853254926740277   -0.0421614418355715 H
  -0.1419898617576587    0.0362706735557583    0.7878028729824694 H
   0.1900298444772469    0.5685818122866237    0.8663037856640468 H
   0.1918888573900963    0.6291615028749559    0.9782671882201640 H
   0.1281610481283222    0.4238598231031076    0.6704865631917656 H
   0.4037542447732103    0.7136774003257015    0.7534143084733298 H
  -0.0948238468522945    0.4103368891406670    0.7914351279503522 H
  -0.0742794612651313    0.4950682854668826    0.9198776229469318 H
  -0.0406549620520751    0.5945161368672492    0.8517593778454147 H
   0.6829913889303818    0.4135909872219835   -0.0072482882207296 H
   0.0431565362381941   -0.0767480406075978    0.6366729483424758 H
   0.0200843163942038   -0.1968729404330458    0.6601920265814633 H
   0.1542161547258332    0.0320763613267189   -0.0966585559444926 H
   0.0515111589759409   -0.1243934612197194    0.7590595867028277 H
   0.0197527277532022    0.7168206043194733    0.9596065045521209 H
   0.3114830030909193    0.8531458724752855    0.7355537980545180 H
   0.5259206011681348    1.0483209123700516    0.6279871516563271 H
   0.3509357018003889    0.9751004524544217    0.7578138624398199 H
   0.3909909041256358    0.8351996813194937    0.8834928220275596 H
   0.5329870373109777    0.7208645516840452    0.7473262770386191 H
   0.4767673825923254    0.9326100888063263    0.8837495209632832 H
   0.5153651378426075    0.8095284952516864    0.8812748592886501 H
   0.6046666243870690    0.8826036506588647    0.7403800178269794 H
   0.4599743227965106    0.7439549561838292    0.6442606051673542 H
   0.5385372667551471    0.8754504759766266    0.6251326874691656 H
  -0.2160907514208086   -0.1165499093953351    0.7901810102616532 H
  -0.1092931052316602   -0.1399504414280834    0.8472052449557775 H
  -0.1390965744879830   -0.2164471204098986    0.7509739199536025 H
   0.2307108321739159    0.1881767778840088    0.0418483559080213 C
   0.1514068228780282    0.1172942024476468    0.0701013262368665 C
   0.3272757940033042    0.1482643041719276    0.0839518775316897 C
   0.4114181754268281    0.2246879694455159    0.0893033858619943 C
   0.8420565765420914    0.9640681534321242    0.3080752286955273 C
   0.7009218683156068    0.2936295368958436    0.0814387459893051 C
   0.8719313020808424    1.0707072044756469    0.3079437316930312 C
   0.1025377122718600    0.4868272788228628    1.0238896535648836 C
   0.2595287071079426    0.5975465672126704    0.2959187504860521 C
   0.5696083217801670    0.4229375370738404    0.2063441115091691 C
   0.6321567337415956    0.4563305372584536    0.1253517503015761 C
   0.6501725795641848    0.3797510130195807    0.0526024325749189 C
   0.7786631779523061    0.5527183190853069    0.0944968180084473 C
   0.7279209442783523    0.4961182370493468    0.1646245891108748 C
   0.2490371014051024    0.7843604531534432    0.3008121176640434 C
   0.1437915722589403    0.8032081105880374    0.3065895923481783 C
   0.2842842684358261    0.6909990533871982    0.2401367427942309 C
   0.3879706254615339    0.6850748223087809    0.2206863776590706 C
   0.4548725140762148    0.7108826379890130    0.2965874267327874 C
   0.7653128548593843    0.9432440655193856    0.1527157169592911 C
   0.7807169110032758    0.9231544521369303    0.0447342954415250 C
   0.8483934471239563    0.9125587895479902    0.2103939394051910 C
   0.8379357057929629    0.8010401094892974    0.2273752384828457 C
   0.2232042297478371    0.1659567546189304    0.3759025017064148 C
   0.2221537287128341    0.2167909224289653    0.4676090708088721 C
   0.0195594186305757    0.2708796220651180    0.4283698057023383 C
   0.4842441420407141    0.2594598443536158    0.6050031543051561 C
   0.6424451532133539    0.3091619382321312    0.5362389651514842 C
   0.4894912853568531    0.3880875881014977    0.4870517419704820 C
   0.7140055094802340    0.2988489326720698    0.6159586731886433 C
   0.1997496247050747    0.3264098002577519    0.4668711488001842 C
   0.1012706203585857    0.3441615291609390    0.4113332499055497 C
   0.1987393376116401    0.3509648163700893    0.5746355303186177 C
   0.5573511829409300    0.4178574456696472    0.6446250197327821 C
  -0.1398493512538314   -0.0765261078509078    0.6214507713992762 C
   0.2300695256320639    0.1933607511681249   -0.0668898728262381 C
   0.2653731332825325    0.1073390363486979   -0.1216164072373863 C
  -0.0719872665957394    0.0186215975888903    0.7587021666588092 C
  -0.0257419392999646    0.0992706601356146    0.7052227554149506 C
   0.0614743393764188    0.5641800254609394    0.9599219574676834 C
   0.1491491980882300    0.6160602411502263    0.9164307227963970 C
   0.0296954484290226    0.4678010920280335    0.8078058053089693 C
  -0.0095822843592376    0.5308401590144913    0.8878042450242918 C
   0.1289505112970047    0.7097115270253722    0.8672256635858010 C
   0.0151126033024202   -0.1227213750105211    0.6894284266204650 C
   0.5450548884217450    1.0179327515875800    0.6997642309070827 C
   0.5390212450694601    0.9074702401201707    0.7014513094710214 C
   0.4614172272402903    0.8577211572215093    0.8547054702630390 C
   0.3649950601788568    0.9059890016235658    0.7215801431828900 C
   0.4635736116684210    0.7524064736381036    0.7214689302924810 C
  -0.1422537216549664   -0.1438816151443047    0.7784316131982030 C
   0.5446713744105780    0.3421446158346688    0.5669618408804041 N
   0.4579890239969818    0.8604588098260202    0.7515831427683582 N
  -0.0899262120739261   -0.0807984941441900    0.7112401421834267 N
   0.5161222386654361   -0.0208462877018087    1.0536604350395609 Cl
   0.2408722602512481    0.9286651798380623    0.5142231914209258 Cl
   0.8456638376515409    0.5889063707698093    0.4557778378449324 Cl
   0.6309369108473577    0.7091346464395788    0.4918196973796034 Cl
   0.7665721861874435    0.3645836802244281    0.8386404534900110 Cl
   0.7432092971517668    1.6001961103657385    0.7012659546536733 Cl
   0.1142992319189615    0.0545262693365119    0.0220895323787080 O
   0.1186747909646890    0.1200643859122588    0.1589877043070680 O
   0.2070177655127312    0.2782034030358863    0.0822424164992411 O
   0.2013229069804653    0.2060065808514386    0.3026467806297196 O
   0.2539340306757240    0.0772863048792690    0.3733285178277687 O
   0.4957900585203899    0.1872384432970916    0.0830167100192577 O
   0.4001744984658865    0.3154736479997532    0.0960796782033865 O
   0.5898820040448783    0.3413241152521180    0.2521966966082568 O
   0.7467481240097753    0.2440980493058585    0.0160175883432389 O
   0.7022524559260941    0.2532789809344005    0.1584169513600640 O
   0.9410181481873999    1.1015262184274581    0.2539614143598394 O
   0.0188334511591062    0.6360284059883038    1.0191019036601736 O
   0.1436144898144905    0.5088285501264610    1.0970215716126330 O
   0.1886872632350638    0.5452492336060868    0.2654044513855594 O
   0.5817572357310429    0.5337662014443879    0.0831433108567672 O
   0.5067229593188609    0.4835150589381656    0.2351741298542869 O
   0.7353527628832691    0.6167730284404421    0.0386001001655125 O
   0.8691092710935946    0.5430074958911175    0.0899021168946359 O
   0.2416229204938560    0.6915643674449558    0.1508761578286283 O
   0.0854347934736453    0.7846684119624006    0.2463940416470482 O
   0.5279962755100301    0.7513886191709394    0.2777420876995371 O
   0.8579114521361958    0.8990555909740110    0.0070841855991988 O
   0.9369734722749271    0.9377210483822154    0.1724185843173294 O
   0.9088752152426487    0.7428901126965188    0.2181228855625386 O
   0.7592370221438399    0.7718331803824980    0.2556016296303353 O
   0.0179628545995403    0.2111132029793142    0.4932113973044246 O
   0.2631811207131879    0.3224648912894879    0.6289349093072960 O
   0.8275139453570572    1.1285022534393219    0.3600501183842315 O
  -0.0816470786650882    0.1257370450058942    0.6299938798486738 O
   0.2952196385114109    0.5757675178289630    0.3722996237284513 O
   0.1274583624124975    0.4023094295205110    0.6015548552503395 O
   0.2760897959566056    0.3744549889951163    0.4295036176227963 O
  -0.0534853259355967    0.2827150718779124    0.3722170883758208 O
   0.1164891279650657    0.8461025798093890    0.3846974129265495 O
   0.4397958135268441    0.6786568450648285    0.3839266166672376 O
   0.3458489909458749    0.1096704146559457   -0.1489908656772153 O
   0.6410764681845387    1.0350418152767691    0.7241121599330798 O
   0.6839783942681718    0.2285670937855754    0.6881365385161555 O
   0.1103251067811699    0.4593355935329957    0.7840167385435804 O
   0.0836562084439325    0.3988628210381961    0.9914224840868965 O
  -0.0316167023076675    0.4170078841854060    0.7570262793291255 O
   0.2096986949506165    0.0240614803058020   -0.1343793104530533 O
   0.1746145002094064    0.7450848613913419    0.8031698365188428 O
   0.0488365791077769    0.7503143778795996    0.8990633261369454 O
   0.7057454247805599    0.9262065697224189   -0.0114540939441804 O
