Li1 Co1 H90 C51 N3 Cl6 O45
1.0
  13.4203127058000007    0.0000000000000000    0.0000000000000000
   0.0000000000000000   12.7055476413000008    0.0000000000000000
   0.0000000000000000    0.0000000000000000   13.4089651445999998
Li Co H C N Cl O
1 1 90 51 3 6 45
direct
   0.6702664870850926    0.6350124409021132    0.7114957768491238 Li
   0.3560450458680399    0.3979805486119624    0.7996740954031222 Co
   0.3272253001230063    0.2900969658890574    1.0658415409525877 H
   0.1455864625312045    0.0647457979714309    1.1045395310214907 H
   0.1520706631536231    0.1872962022482736    0.2806646174194575 H
   0.0222107978729272    0.2806026880030821    0.2805080057810981 H
   0.2503120401544883    0.2655982186655845    0.3319795393824773 H
   0.2429947739958868    0.1327475893457378    0.3571701485277347 H
   0.2660434172563615    0.0413859233419236    1.0385940989568765 H
   0.1626076754498332   -0.0185257012090442    0.9988371159047811 H
   0.4324925193726330    0.2172256480884445    0.2289081997902056 H
   0.5225855765543379    0.0752860756344484    0.1846862935054541 H
   0.6099415142064714    0.2459217744021856    0.0815895977431624 H
   0.8587404858248425    0.1002358069604384    0.2036019963404447 H
   0.1643766357207619    0.6094307021863828    0.2464971783173801 H
   0.0935079442938504    0.4414993339182072    0.2065194474321686 H
   0.0677127182369801    0.6268419941861794    0.1741373810073883 H
   0.4207998708151831    0.4763035007659697    0.2361444032521167 H
   0.4946120480509555    0.5819689972799503    0.2786361238178500 H
   0.4575782984733318    0.6164961197924842    0.0960642419761041 H
   0.6673202070045314    0.4322435345367044    1.0153014737145938 H
   0.6946526550660040    0.3963261531782958    0.2920577412252512 H
   0.1107102260186442    0.8017813248432072    0.2256730508035241 H
   0.1590630486558956    0.8337004527272930    0.0019578000253489 H
   0.4444571437088905   -0.0553922742387191    0.2771266859319479 H
   0.6148445296162064   -0.0029608467389251    0.2431852150509318 H
   0.4084715440744435    0.8091749455396219    0.0475452106426531 H
   0.8947903164514353    0.8136399242718725    0.1882644965571134 H
   0.7332247816138663   -0.1090231777808099    0.1284112572246801 H
   0.7971040680949852    0.7137009026847573    1.0134169136663354 H
   0.0220274936494021    0.1312175490398159    0.3724957159957625 H
   0.0593530024494699    0.3494529276540268    0.4964992973362375 H
   0.1789292027347627    0.2310392990191211    0.5810002478407069 H
   0.1130998871765500    0.0601218335695321    0.4454962786375561 H
   0.0267054770448909    0.1486799997946972    0.5107387481768486 H
   0.2674994190968816    0.1632295497408250    0.5082360941958652 H
   0.2566054851621816    0.3087203268554793    0.5051200819197929 H
   0.5884122096117185    0.1462054901641322    0.5094936856518913 H
   0.5946050608382091    0.2152147154847251    0.6707118689112145 H
   0.4541862761711744    0.0899513230728450    0.6565705837370664 H
  -0.0622961748677199    0.3264322749236205    0.3680807593334401 H
   0.7136872338869282    0.0862277527604394    0.5240834767275124 H
   0.7873084692231954    0.3288839598788400    0.5321936477084397 H
   0.8725732484489034    0.2196206648841854    0.6471753769749150 H
   0.1549752154434631    0.3829107534795104    0.4078131319852219 H
   0.2092533843631177    0.5837666372278545    0.4707795123803576 H
   0.0325138364854509    0.4969933606147108    0.3324568319946201 H
   0.5175453065186951    0.4176680116841489    0.4735764470875154 H
   0.4284542379116818    0.5743502780611622    0.5596562442644684 H
   0.3757480144796225    0.4612855727405960    0.6185654137254770 H
   0.6711770470897576    0.5131259985604946    0.3599212929749150 H
   0.8462035201304973    0.6213380991968214    0.3872380915533281 H
   0.9202673681040567    0.6754617009032677    0.4902018911539263 H
   1.0031901750755401    0.7404238751677648    0.3736031840098754 H
   0.1985002817221016    0.7224096969157376    0.5828848078889651 H
   0.3575345789689609    0.8675266215893874    0.4545646145373604 H
   0.6087500367535585    0.0045059703301496    0.4891508033296227 H
   0.4778776019226668    0.7228803574625182    0.6721474755961757 H
   0.6764898890155040    0.7165713023739019    0.4021430449069049 H
   0.6552578949296393   -0.1051453441453792    0.6399936147015765 H
   0.7565997958089099    0.8999101135580895    0.4704369057772038 H
   0.8435679630629846    0.9724595247305532    0.3912063321614729 H
   0.1652901762819071    0.2589404969846208    1.0809157840295338 H
   0.1504321022286980    0.1783142989709172    0.8101558886276053 H
   0.2680165456461759    0.1623700826553997    0.8495384952870512 H
   0.1398101440728055    0.3033801398823928    0.9604068571605019 H
   0.0298052557841763    0.0757299762170307    0.9138939463374642 H
   0.3407123181953777    0.2205273554358428    0.9488712913407717 H
   0.0201489979278304    0.2143521001682177    0.9164422414244837 H
   0.6195381609332157    0.1365443560308033    0.7715787132511509 H
   0.5071327771638756   -0.0137860393148766    0.7335437124513026 H
   0.7566303465128307   -0.0215472159901317    0.6494290930278774 H
   0.6906795732780546    0.1027905964835981   -0.0453993221054166 H
   0.0112810972604662    0.1446762369159808    1.0298327964452274 H
   0.7942472047088266    0.1137716264981158    0.7286633954921408 H
   0.7599857079702832    0.2319452025130080    0.7891497933053699 H
   0.2787376073050311    0.4354539431827205    0.9780748872765626 H
   0.0816579968681641    0.5512721701135068    0.7250203104760183 H
   0.8673200176527588    0.4736391528011514    1.0205188785810815 H
   0.6850232222179788    0.6524977163323399    1.0198626012393848 H
   1.0077772514983865    0.3843943573769708    0.7621096752880585 H
   0.9435954385345391    0.6162143531106322    0.9269948827710818 H
   0.8771409512546292    0.6192712854913940    0.8078044767430949 H
   0.1949206333895230    0.0545211304743982    0.8273085918764929 H
  -0.0010569162888336    0.8306679191374179   -0.0901708606638390 H
   0.1309303211795209    0.7106502667661599   -0.0290431009030427 H
   0.2652356864502593    0.7121559082811952    0.6999370921684930 H
   0.4966479469602404   -0.0325723212397995    0.5968180233150070 H
   0.6682225704788762   -0.0414904728377424    0.7521007000574794 H
   0.6057262622045153   -0.0110392076957061   -0.0511909696458888 H
   0.9530296449331189    0.8618495738905115    0.6526620047054396 H
   0.6750033364710629    0.8507882639833991    0.9841998938758283 H
   0.2003579135483128    0.2019079297582736    0.3424404510551792 C
   0.1864647946555302    0.0573010185199312    1.0330276738677593 C
   0.5376225585102640    0.1429108663366686   -0.0131350872942592 C
   0.6562921480282278    0.0286111886683544    0.0945175156048783 C
   0.6230976905095537    0.0623240212114917   -0.0110588644314373 C
   0.7286302537998196    0.1154732453980145    0.1437935031903998 C
   0.1770447459002308    0.5249467641221301    0.1086438853848969 C
   0.1485394488638458    0.6228752230226782    0.1686365836524407 C
   0.5251183789371996    0.3107454264990683    0.2797823718566995 C
   0.5400305500905223    0.4217512673976895    0.3279322471854462 C
   0.5004772131723303    0.4994705462416957    0.2475569170702787 C
   0.5517538983797171    0.5068040357244415    0.1497067111930272 C
   0.3014375254573362    0.7248975865284019    0.1008006253819165 C
   0.1887866481535141    0.7249125406260420    0.1233564301542036 C
   0.1259758911705045    0.7608645525263541    0.0330168709908453 C
   0.0193136969742874    0.7952550418099228    0.0584438891330549 C
   0.5755697368781649    0.0069623776319923    0.1727159439468501 C
   0.5052113614289907   -0.0842174780268281    0.1527524346742644 C
   0.0131290422781171    0.3379485042221027    0.3398354774704677 C
   0.2101654346460228    0.2310416601924327    0.5098094445456122 C
   0.0931085497255195    0.3353779735435322    0.4220767233912316 C
   0.0672306132263269    0.1368048721528507    0.4377882266823593 C
   0.6309544373910501    0.0745139719615527    0.5297190346684197 C
   0.2855064510712975    0.5871298137871317    0.6005341937623638 C
   0.6518570799858655    0.4321947369549311    0.3496192302496919 C
   0.3889623116340664    0.5484933052430755    0.6277801442186620 C
   0.6786902848369245    0.3814916883192341    0.4476376071957531 C
   0.2674986739577616    0.7054281384586538    0.6182290715878576 C
   0.3430401328063218    0.7742437475676950    0.5711141008807840 C
   0.7633023221934944    0.6746038079333835    0.5130797192854686 C
   0.8523904102440277    0.6828820815638807    0.4457602065366771 C
   0.7897011109375814    0.7862030903909888    0.2948588522427652 C
   0.8341479143076853    0.9007853217989255    0.4417977083552721 C
   0.8624482980860646    0.7914700809914156    0.3845175236641132 C
   0.9014451539323385    0.9220146310435918    0.5349389751519096 C
   0.2989636635788681    0.2759732141967896    0.9918149483486278 C
   0.1964653067853256    0.1294191220341412    0.8582453566101278 C
   0.0437795948410411    0.1444897042243638    0.9576437803980180 C
   0.1855221936687042    0.2523362952320536    1.0037703825131026 C
   0.5068779768417845    0.0206005146798394    0.6588421982629844 C
   0.6368313496306519    0.1507609805399943    0.6997096324080186 C
   0.7524270167367950    0.1844045519993244    0.7140105122993520 C
   0.2105767514402741    0.5332962586102832    0.6719334396904179 C
   0.4360271613023624    0.5801691535702886    0.7189064904223497 C
   0.7058662536831929    0.4987046603251872    0.8889524242741688 C
   0.8880408463022893    0.5758083025810801    0.8776980136337792 C
   0.7896936595463812    0.5664663990794806    0.9404187374876026 C
   0.9356135082808794    0.4694054903476614    0.8516945155084656 C
   0.7073170395498728    0.7427433344175342    0.8861535505657742 C
   0.7471879435839307    0.6714831238732084    0.9678242826610859 C
   0.6815732280922839   -0.0335899869371025    0.6717723534338197 C
   0.1356112851314898    0.2245972311672843    0.4277611292479129 N
   0.6138616911168994    0.0559622332522496    0.6388570616689110 N
   0.1556331732864412    0.1440434424684699    0.9658368063933344 N
   0.9902441280043037    1.1468644431613870    1.1935061281552315 Cl
   0.4203490616475706    0.0077722600778738    0.4089384984722902 Cl
   1.0136794984680690    1.2535013263757631    0.6955370509003000 Cl
   0.0799687664830776    0.6084744269951816    0.4208737968546901 Cl
   0.4192008022636190    0.2791789004961825    0.6857913323761060 Cl
   0.0396053254906861    0.8642249142419890    0.7772659530327167 Cl
   0.5477256762968862    0.2328204107538440    0.0370850447396576 O
   0.5849383710341829    0.2397370744413140    0.2770073627789121 O
   0.7226221970750942    0.2097596180771404    0.1206798626776706 O
   0.7901087020362326    0.0750074571836787    0.2073211498666274 O
   0.1548902695837807    0.4372696854593470    0.1555102910488030 O
   0.0180722952003332    0.4382928605610438    0.2849833697896448 O
   0.2136929232402000    0.5252289243328674    0.0227871479271501 O
   0.4323615239153334    0.2873359672300173    0.2451868609431063 O
   0.5200184232580433    0.5725077758203376    0.0832772745889117 O
   0.6148266462773259    0.4389783878791806    0.1271397198751430 O
   0.8204686503423487    0.5302481570177070    1.0336563577303162 O
   0.1774791620072028    0.8085854392694904    0.1985277792575999 O
   0.3291283854355387    0.7988629146300597    0.0375138623208798 O
   0.3601448013063928    0.6592821543143600    0.1325331263923584 O
   0.4363190322956744   -0.1003073000298947    0.2178984016135392 O
   0.5117003607473422   -0.1489214973425893    0.0806215886641600 O
  -0.0131199735028457    0.8067752063972577    0.1458287087193656 O
   0.8173547139597829    0.8166630131685010    0.2059705609282041 O
   0.7095278673189737   -0.0661419092686992    0.0703873909822259 O
   0.6151165053950138    0.3701344446904002    0.5160510149499997 O
   0.7785672422062347    0.3617255194699940    0.4647791238990435 O
   0.8007999581302870    0.2324835500280546    0.6325359176368427 O
   0.2698443719075862    0.5531515853637696    0.5028111714508543 O
   0.1240683350232520    0.5796619735429553    0.6694194500098962 O
   0.4823340554577735    0.4440879669255000    0.4113980469642394 O
   0.7797855446674684    0.6438880913804471    0.5998070682985522 O
   0.3083181400916056    0.8155390946721757    0.4865010089855522 O
   0.4317248770511879    0.7903697742282063    0.5935605012371314 O
   0.6731419789492517    0.6888589982733307    0.4811228161703487 O
   0.9274512543601746    1.0120949669969734    0.5526424293290276 O
   0.9636739572626120    0.8021260561467018    0.3594290849686426 O
   0.9226167917494814    0.8362355658061892    0.5906452874545269 O
   0.7016428051509166    0.7671452735352311    0.3132942793867869 O
   0.4634616934232778    0.1203947176371759   -0.0599455602301797 O
   0.2326783228792028    0.4644291601818937    0.7338509695703694 O
   0.3048472820705501    0.3766536442037496    0.9373715224669524 O
   0.5046063308177076    0.6620022259693322    0.7163663988021014 O
   0.4296624809947950    0.5374067307815289    0.7989402580119523 O
   0.6612741481846850    0.4238267387385928    0.9433302224216746 O
   0.9927328926651722    0.4646101834691170    0.7732492373936511 O
   0.6850955007126209    0.5129557579647277    0.7993936859934883 O
   0.9325725955320756    0.4029649854727667    0.9178614411759025 O
  -0.0383012049248192    0.8234797205191129   -0.0184121537372648 O
   0.7276027069533114    0.7238059374006685    0.7960742650299751 O
   0.6537445173768776    0.8246634554059991    0.9166115311478531 O
