Li1 Co1 H110 Cl3 O55
1.0
  12.4647198041999996    0.0000000000000000    0.0000000000000000
   0.0000000000000000   11.5342569319999999    0.0000000000000000
   0.0000000000000000    0.0000000000000000   12.7191726941999992
Li Co H Cl O
1 1 110 3 55
direct
   0.3969555657747547    0.7348268307155132    0.5799952579041538 Li
   0.5267282381981616    0.2385998059714455    0.6846294217760602 Co
   0.0330772378823209    0.0956576979778345    0.1842910622770998 H
   0.0912916551655317    0.0508646954423505    1.0226600550074638 H
   0.1423024287719913    0.0736532462393044    0.2524558730588071 H
   0.0645046109924654    0.4054384685177221    0.0151604865926485 H
   0.2223379222023251    0.4857609379634721    0.0013411915625439 H
   0.3654145439005583    0.4576802387117139    0.2337494677193704 H
   0.3843166936240211    0.0756097658602079    0.1558253743974864 H
   0.4934727774648744    0.1313766005849886    0.1332500067298285 H
   0.3883264107123394    0.2581372587374578    0.2241387797494098 H
   0.5433960817809749    0.3983318121909858    0.0685663972073974 H
   0.6211298788674940    0.2102772185758347    0.1325888002030993 H
   0.6390516615877706    0.1389184821741406    0.2380343376012655 H
   0.4272482643617515    0.3222879018488644    0.3312589543674725 H
   0.6590111956894654    0.4651215503199092    0.2348517406688047 H
   0.6628099172607312    0.3967539038690802    0.0601767792215783 H
  -0.0723177184934607    0.4020034834784968    1.1559155772611147 H
  -0.0274500432640860    0.0125588034716062    1.0322047009462172 H
   0.8442861185338477    0.4182255948033185    0.0224850510309065 H
   0.7552764963820396    0.4212808414661731    0.3128190757968363 H
   0.9360170212706048    0.4327458192952278    0.3227348150538016 H
   0.9723515724770744    1.0210325238487588    0.3274866964420904 H
   0.2666750600346399    0.6239622984323512    0.0011642146432018 H
   0.1919770311478399    0.8021991811479096    1.0335255415703610 H
   0.1044588985996519    0.9052123190556997    0.1264720501698619 H
   0.2022981616682910    0.8560422681938571    0.1902914525410674 H
   1.0318474946999001    0.7303705401800217    0.1992165613299249 H
   0.3093667537396757    0.5417732154607426    0.1506630889581243 H
   0.6610433312206198    0.9900725754008198    0.0980286907865137 H
   0.4022168152075660    0.7999554301934636    0.2253149568766235 H
   0.4120975026144744    0.6701317225347898    0.2524440798389487 H
   0.5412885334034214    0.7391409361055146    0.1185540823569141 H
   0.6282018388782035    0.7842309668778583    0.0351681558112640 H
  -0.0498612971380699    0.5320621434202676    1.1279656461966432 H
   0.9987300234302365    0.6041101309845522    0.3174962667926884 H
   0.7746463662060407    0.9722820925626317    0.0340554262068886 H
   0.7804403191495850    0.8582010548540466    0.1952249495151760 H
   0.9096706608903783    0.7142307922016732    0.2085764468242297 H
   0.8382210002489965    0.8734798891161027    0.2913766434502446 H
   0.1193721098807722    0.2342536222254495    0.3526612897665456 H
   0.2333867064640936    0.2842299669001339    0.3339855467987408 H
   0.2219383945692753    0.2502719926405745    0.5226707748163126 H
   0.2033058056584726    0.4471741436321248    0.4361274102072330 H
   0.1696524218207825    0.1802648821036337    0.6314435726438696 H
   0.5668542905969866    0.4574227448811611    0.6555040997990321 H
   0.3524539637561442    0.1530901796630795    0.5782789513074242 H
   0.5488017387919969    0.3873662163363364    0.5368753150284592 H
   0.5916619080049453    0.2754222907230796    0.4144522583221017 H
   0.4577519584658006    0.0761151300145149    0.5486213620074524 H
   0.5757209158991261    0.4034998954365238    0.3683030303721058 H
   0.6220725394474809    0.1028412556606989    0.4264656182845525 H
   0.8814470019934120    0.3047367062067454    0.3553737303339837 H
  -0.1153656175580830    0.3314562427852114    0.6541321552221684 H
   0.7232059800544041    0.1783869978040472    0.3916984199272529 H
   0.8677683952795613    0.2329800247941971    0.5129382235744816 H
   0.8882261355260830    0.1316080849377077    0.4105015296695287 H
   0.2566283039127892    0.5313841630314049    0.3502263829731091 H
   1.0731881752843422    0.5561139745555999    0.4109095750766303 H
   0.2124596415883869    0.8577042738274248    0.5873597305984128 H
   0.0347098538030689    0.8708685375416085    0.6240452927193498 H
   0.2826200634620760    0.8854156384939458    0.4793920165798578 H
   0.2985602533035718    0.5665689176621160    0.5297066097838501 H
   0.3183633458622049    0.5373498702638402    0.6514433010944473 H
   0.6105095037544174   -0.0426629592960415    0.5289502712835963 H
   0.4939525315302635    0.7800876570589644    0.3860604746202677 H
   0.5975056013365401    0.7526944750046080    0.4468159984722539 H
   0.5376382307319831   -0.0804497887874863    0.4469897519115014 H
  -0.1225731602394458    0.5290233694267077    0.6367033487007281 H
   0.6903259790244648    0.5976779871163008    0.3698825356184777 H
   0.7290103624341525    0.7344566291476815    0.3500872229787796 H
   0.9443365023041904    0.9652682033735018    0.4366801191112646 H
   0.8699986900985938    0.8809662838192097    0.5873841032527869 H
   0.9257159473582385    0.5932676466583153    0.4897189461025535 H
   0.9211671086446002    0.7642002010156019    0.5407191184876491 H
   0.8050529863269592    0.6410661310557323    0.5074048448169077 H
   0.2386094472093822    0.3381710229792547    0.6860964983264486 H
   0.1236722466541588    0.1435342975070117   -0.1147291720919419 H
   0.1113342236246976    0.4294174731151204   -0.0912685267202448 H
   0.1447533462799570    0.2454472345024402   -0.0340056042400645 H
   0.2942528961512747    0.1330472760445007   -0.0736887669846165 H
   0.1942137440814596    0.4497048658253350    0.7461743051439038 H
   0.3962744433641940    0.2202769958202627    0.8463907288568436 H
   0.6618215276143110    0.0724107734831929    0.7300356768749754 H
   0.3960064870801807    0.1199705775723568   -0.0098912213808819 H
   0.3752414795977994    0.3420273615593844    0.7760654001970726 H
   0.8598500464076722    1.0708320040741746    0.9042325411891412 H
   0.7941109032202019    0.2746368044925046    0.9167962514116519 H
   0.8375069850011768    0.2393037958381418    0.8148871075416994 H
   0.7887774499982851    0.4745560549127535   -0.0812356414793524 H
   0.6736846101643236    0.1697310435810223    0.8157204950783615 H
  -0.0710886495500226    0.1937377916214430    0.6675607015676305 H
   0.9901939310293350    0.4933184252393243    0.7626855991603587 H
   0.1518493742203681    0.7277999367874667    0.8688764680535774 H
   0.1286206130008469    0.7622208797524642    0.7505778934390405 H
   1.0849172796923481    0.5698591166080677    0.7932410455988855 H
   0.2986011687840649    0.8062792012374084    0.9621372506940171 H
   0.0957175067583939    0.9491509969426091    0.6880926973411516 H
   0.5323023707170963    0.5206509185120690    0.8189596994661427 H
   0.4827087970379104    0.8009403224207629    0.7719299111000509 H
   0.4716190972956488    0.8070152694600995    0.9560676735402133 H
   0.5570931405742638    0.6397032344172512    0.7463048167770039 H
   0.4185605440037285    0.9303634841207992    0.9137457385416056 H
   0.5898255249686987    0.8274266406813210    0.7087017421510813 H
   0.5246527803935439    0.5818416830460110   -0.0128605968983023 H
   0.4142965091248946    0.5100035052695843   -0.0185745691626416 H
  -0.1721571067467510    0.5017212205447688    0.7520190249057404 H
   0.6952583000846851    0.5969185103635595    0.8258548020100362 H
   0.8689798144078846    0.9277018475558266    0.9122519306928715 H
   0.9801335364139866    0.7744956193247386   -0.1612204034178323 H
   0.7958229352863225    0.6684255007889051    0.8574527690840481 H
   0.8760958989563807    0.8248204910023933   -0.2206543004310174 H
   0.3190051573209194    0.9639503898299323    0.3001287850145118 Cl
   0.0661117068850862    0.1165303906375648    0.7460162759978011 Cl
   0.7349495252202310    0.9295311808301236    0.6738661431186028 Cl
   0.0381024932417630    0.0205728784610015    1.0747231896091320 O
   0.0671911535322115    0.1053377320414280    0.2572737964783031 O
   0.4134260523340132    0.1427600820501646    0.1251716511268061 O
   0.6234885359782695    0.1282147150630162    0.1610592053706562 O
   0.6058146529339214    0.3792209148614447    0.1134657010953316 O
   0.3655918443160283    0.3188269073318055    0.2780581671567945 O
  -0.0571661544818602    0.4565982444338357    1.0963126440966255 O
   0.8872393504083096    0.3772684700587351    0.2966450678683325 O
   0.6798395820533948    0.4641297222318543    0.3090994942534885 O
   0.2851038738073008    0.5414983819783008    0.0156420430702009 O
   0.1400552864021675    0.8296521850012833    0.1441760318213323 O
   0.3315942890836025    0.5377001312319994    0.2280415493078918 O
   0.5559202301334631    0.7496470311851033    0.0419449330492447 O
   0.4529536155475870    0.7413864210251494    0.2469279978038338 O
   0.7223515685499905    0.9339961411915598    0.0882233360674233 O
   0.9758895581432375    0.6710429212415605    0.1966157632438132 O
   0.8049254262995397    0.8102447796244392    0.2536045326730179 O
   0.1768856369604939    0.2834106683483752    0.3880700392841436 O
   0.2277026637328541    0.2197091222208956    0.5952226633853546 O
   0.5387654121063504    0.3493932456818624    0.4182874134200621 O
   0.4273477451378521    0.1296903194387763    0.5968925833173079 O
   0.6477754838403462    0.1689646309675253    0.3765551394143756 O
   0.5620158344626033    0.3812262456024159    0.6171957906255756 O
  -0.1300855633636979    0.2450380187178580    0.6430826944294797 O
   0.8653054438067446    0.2139627615848570    0.4292747632548298 O
   0.1041327781521926    0.8699495359914876    0.6605971983485581 O
   0.2131800749507938    0.5283462560204394    0.4183408760167536 O
   0.2827989684061927    0.8499222380596091    0.5497684491923487 O
   0.5702398460417051   -0.0067514998546592    0.4736557944407190 O
   0.3455929992624872    0.5869950275874434    0.5947595829522471 O
   0.5235272035478234    0.7769145007632642    0.4572482807590183 O
   0.9991391782351671    0.5601731870628318    0.3838417768575690 O
   0.9111548498886554    0.9967570112040574    0.3745502920384431 O
   0.7176206158349419    0.6708573869663474    0.4037251455388767 O
   0.9339712472459526    0.8543976022121786    0.5488076948812155 O
   0.8771388425767916    0.6259095413394941    0.5452264871175398 O
   1.0686152686410020    0.4836637070674888    0.7923282503818432 O
   0.1292014523709834    0.3906806907949326   -0.0237205799585990 O
   0.1566348809094075    0.1579825624435812   -0.0408080906973365 O
   0.2616689306566675    0.4061493942451740    0.7306221930092679 O
   0.6245980675375221    0.1381642073169660    0.7618522116236965 O
   0.3719874955021173    0.1117817535712235   -0.0807930026273328 O
   0.4272827617276573    0.2798413010070097    0.7976650754751100 O
   0.7817078967805460    0.4075010201099273   -0.0291350830599999 O
   0.7918677721719951    0.2093764236601973    0.8691437810370352 O
  -0.1195815165775132    0.4715658319444830    0.7017099352043484 O
   0.1022064612852936    0.7082832916037214    0.8069691397287516 O
   0.2304335714896839    0.7589246119283516    0.9730105994034866 O
   0.4176154766307715    0.8433643817151619    0.9040281253782618 O
   0.5830303461495598    0.5590859908893869    0.7603827764293366 O
   0.5226687807217930    0.7801275382583093    0.7101735359894129 O
   0.4921041145291660    0.5055888298986263   -0.0368410874013589 O
   0.8948769067670111    0.7934071106575553   -0.1525382349580584 O
   0.7714268794762645    0.5913507481419784    0.8484191626724931 O
   0.8480647834970287    0.9988464392566905    0.9471834479135318 O
