Li1 Co1 H110 Cl3 O55
1.0
  12.6632630551999998    0.0000000000000000    0.0000000000000000
   0.0000000000000000   11.7179793825999994    0.0000000000000000
   0.0000000000000000    0.0000000000000000   12.9217689768999993
Li Co H Cl O
1 1 110 3 55
direct
   0.3773001877062042    0.7085729049608304    0.5095670724550950 Li
   0.6839304758929068    0.5792093047610445    0.7522389547341948 Co
   0.2443589392569188    0.1326604733328250    0.1234101918515008 H
   0.2277289443589194    0.2360989553803211    0.2085974446160275 H
   0.3106214812527936    0.2722126901961016    0.0283931704053742 H
   0.0357562759082121    0.4698184312881486    1.0668266870537384 H
   0.0568792201946897    0.2541114465367245    0.3141518777929638 H
   0.1634271923973165    0.4285997207724768    0.3323630066578026 H
   0.3986390794927914    0.2086053074158615    0.2171303320401186 H
   0.4279380049263624    0.3957143582523647    0.2674609021936816 H
   0.5731604481452801    0.2883485779482822    0.2138954808309130 H
   0.4467499019043832    0.2338784360270752    0.3306372367543268 H
   0.6245231970011458    1.0423309593407000    0.2942056923704604 H
   0.6635494730759417    1.1377911034045312    0.2169902583394329 H
   0.5670040570429103    0.0146394430130784    0.1411291280443168 H
   0.3373468204110154    0.4798585581870488    0.2926880982983905 H
   0.6896320079297344    0.3341542567666815    0.2438851827589356 H
   0.6987118161512644    0.3417553966127082    0.0630026732373379 H
   0.8861034852381324    0.1400439988686757    0.1331255799090048 H
   0.8113486613137194    0.0595258507141385    0.2131448096172935 H
  -0.0873249230849635    0.1581025730554693    0.3084173688311904 H
   0.9325449117043153    0.2889382700593864    0.0218022771497953 H
   0.1357613373587814   -0.0301670874353054    1.1008158413858697 H
   0.2535879981093295   -0.0588554806321033    1.1071539828699350 H
   0.0949484759543290    0.6260441712581581    0.1529425260607098 H
   1.0409371952742565   -0.0959335455282712    0.2171396186943077 H
   0.0181846911571058    0.6092861625957100    0.2519011130998330 H
   0.0791948744433755    0.7699290463675645    0.3028260291214989 H
   0.1668915443426854    0.5621406623381884    0.2982871768865729 H
   0.4711472470952133   -0.0660504070991350    0.1184859434677269 H
   0.3539878709113022   -0.1829058781057904    0.2476106788644656 H
   0.3826124046053371   -0.2363434187904764    0.1417923499309888 H
   0.5053122169070299    0.6460996767618601    0.1135856856072748 H
   0.6025888820627902    0.8165889680270856    1.1173151303285163 H
   0.4310517363420427    0.5696428090078214    0.1828207881384631 H
   0.3614203943919979    0.5767831185499461    0.0230481591980489 H
   0.6451513714978236    0.7716051032506448    1.2277257097585066 H
   0.9681676416463234   -0.0024133263659767    0.1615558978211065 H
   0.8339763204526754    0.5358110375858069    0.2826585117741551 H
  -0.0260842304909999    0.8306084499391240    1.0592812805250891 H
   0.8283379632860618    0.6165621610606503    0.1874285163919583 H
   0.7339799771341956    0.7090951793052526    0.0836722890211727 H
   0.8491145987277430    0.7101491152780653    0.0354009570452592 H
   0.1540931053231747    0.2200236582792091    0.3670563989326077 H
   0.2500557331784805    0.1421783258873030    0.5543326150858356 H
   0.0581133412843233    0.1213308749724511    0.5382798594321153 H
   0.2326715882672995    0.0309264745710443    0.4876722374285772 H
   0.3823296970611287    0.4800394767508029    0.5791326250978457 H
   0.3960962909666715    0.3614721065040971    0.6398340663170939 H
   0.4645991717975159    1.2291635119948621    0.5149115419409260 H
   0.5014222242735932    1.1309383861076192    0.4337593404215662 H
   0.6274245029157309    0.2618295007376300    0.4750841776752429 H
   0.8557953412528901    0.3568202806030426    0.3345585264856772 H
   0.8595779366069628    1.3069584944091195    0.6539768667592547 H
  -0.0601534114058542    0.1788740723091226    0.4241058633919896 H
   0.7608640431538305    0.3881567412683732    0.4006199149477382 H
   0.9004125933416391    1.1847019215628432    0.6032547093540509 H
   0.7271768332980085    0.2766673831338202    0.5490074927962320 H
  -0.0244765090126373    0.0189089504397845    0.5225142161704083 H
   0.1495476734112660    0.8432445875500051    0.3819057589809897 H
   0.2560115440679201    0.5485768903933419    0.4561432725687102 H
   0.2104687801305338    0.5936614551250798    0.5575628229679468 H
   0.4679221699707806    0.9616856561578638    0.4088463427835888 H
   0.5949676236573297    0.9735136339580132    0.4434445468529556 H
   0.4166020641523094    0.8455606865218380    0.6661377404198902 H
   0.6599761444794535    0.7852584810879167    0.6468756718559842 H
   0.4780372563779449    0.5810099565040687    0.3778049272686499 H
   0.5640909058401601    0.6686419591277289    0.3999907441264262 H
  -0.2484611161108276    0.6833526864956203    0.3427586421346586 H
   0.9890548331108794    0.8618689589432560    0.4461314854650039 H
  -0.0457732315733565    0.7905298677308836    0.6047699817625735 H
  -0.2887730007944816    0.7928963166803652    0.4049799990895239 H
   0.8677353917233660    0.8773776054484590    0.5012098575727479 H
   0.0066664908824850    0.4359124149838389    0.9604558021960097 H
   0.3210200648900439    0.4631833283014126   -0.0364269793355278 H
   0.2684735769035405    0.2387632372484355    0.6974856155230695 H
   0.1159936835630081    0.3382291913984068    0.8213572002001701 H
   1.0646514621808960    0.1658914585808635    0.8343430383079379 H
   0.2197128430146204    0.2788768084241944    0.8631935773220968 H
   0.6047755222580777    0.0293360382516500   -0.1519716081451808 H
   0.5105194055844319    0.4509073210391365    0.6918648680751126 H
   0.5485009272430612    0.4042934824100055    0.8057478822839796 H
   0.6026023067227106    0.2933409062405530   -0.0711196751112688 H
   0.5310757186662411    0.2028611430166692   -0.1191339989324987 H
   0.3358187782377104    0.1206259752853715    0.6864522964585614 H
   0.4011068478605319    0.3205589094121232   -0.0500884989243380 H
   0.5476701776997450    0.0088439899078407   -0.0423655625231069 H
   0.7873532662346269    0.2907286811289905   -0.0100737764103896 H
   0.9127790741860605    0.1822065581178948   -0.0373014726050020 H
   0.9460011590599308    0.1800406556895558    0.7793853927046525 H
   0.7112978296696799    0.4775578202253459    0.9308778086037043 H
   0.9522159869172485    0.4336116770221360    0.8028001434667873 H
   0.7500887793529282    1.1485694121791261    0.7548632084304666 H
   0.7357386075837823    1.0280366860252237    0.7038454258669096 H
   0.1814304510365961    0.5800720814966831   -0.0086869693848164 H
   0.0706402862990887    0.6577655105661919   -0.0120188661302981 H
   0.0759022791764014    0.6602207120186473    0.6698067427124365 H
   0.2635648894879004    0.7606535564173608    0.8290960786910925 H
   0.1837418616005566    0.6238518137568173    0.7293473521580462 H
   1.1496690437715991   -0.1137053808593036    0.8581865229384700 H
   0.3043189982630536    0.6305671353520103    0.8510203214558758 H
   0.3318300748695641   -0.0440853573583757    0.7815422181400725 H
   1.0553568594006382    0.5031586503860008    0.7703061404591022 H
   1.2253525382881600   -0.0601637266615137    0.9377034994326978 H
   0.3789403652741392    0.7270411060844257    0.7133472208780642 H
   0.5436238272625282    0.7367185424663660    0.6820086324290737 H
   0.4478057119228374   -0.0026718180308876    0.7942107622297124 H
  -0.0169936825415336    0.9838993835848396    0.8138737046994481 H
  -0.0210811756129774    0.8427095123638078    0.9364420622386774 H
  -0.0099657941045596    0.8512348729859934    0.7684921473408300 H
   0.7528574180400638    0.6078746564426474    0.9608891793915014 H
  -0.0941770274455666    0.6920009351988463    0.6749817307593162 H
   0.3111718923095344    0.8834571519021576    0.4231439207955680 Cl
   0.8239394129474010    0.5199857835940344    0.6491717971042408 Cl
   0.7191607319537097    0.9041586732207739    0.5245356112322371 Cl
   0.2737826350591627    0.2032647962273093    0.1556077958129835 O
   0.1338929405721977    0.2708276391160409    0.3097987586418200 O
   0.0025151911921249    0.4058184893601401    1.0291770431954008 O
   0.4477575410842990    0.2631326264303305    0.2544495257868938 O
   0.6464946271757521    0.2993171925705996    0.1882441941849015 O
   0.6652299246236384    1.0584856216608172    0.2318311056214748 O
   0.4187942321487407    0.4807768052370459    0.2830787328762122 O
   0.8812390202316422    0.0865138654284835    0.1979696427844438 O
   0.7938579088090522    0.4079545231576707    0.3275099559561451 O
   0.8847768129636351    0.2181590023273097    0.0233095785134722 O
   0.2057275061209612   -0.0022743945632448    1.0812287399253451 O
   0.0878440669558081    0.6390037434712221    0.2287216242438222 O
   0.1161413548221337    0.6098860953802341    0.0271326386601373 O
   1.0181705514208295   -0.0689510778453620    0.1492998359550327 O
   0.5405006196163158   -0.0399824315526356    0.0876821115224593 O
   0.3680300651881542   -0.1624296516024150    0.1742894484900702 O
   0.4344797627370384    0.6217319943588685    0.1200878913153478 O
   0.6254423913627618    0.7431300574167644    1.1562726446518197 O
   0.8547924401882404    0.6140497825149331    0.2595556378152044 O
   0.7935957330976634    0.6560954274092733    0.0578329476278319 O
   0.1970528067546797    0.1061928555061085    0.5101536794447069 O
   0.3212238038464846    0.1978423596513967    0.6574740659493025 O
   0.5007565190787114    1.2135550189238136    0.4524905219209949 O
   0.4328909147511523    0.4253329459514832    0.6082772414946596 O
   0.5353337049186754    1.0028872988845021    0.4010757348908536 O
  -0.0644753622143803    0.2212158433431924    0.3566089129698625 O
   0.6989084479348059    0.2972835655072695    0.4788290209770003 O
  -0.0216792836967299    0.1050858387094019    0.5268193542749083 O
   0.0831261676482148    0.8434289196715659    0.3419065916128081 O
   0.2023468608786261    0.5011378241644459    0.3435851543574891 O
   0.2785073256653041    0.5835667113012728    0.5235133053835863 O
   0.4215462874324449    0.7606655038696841    0.6582231893872238 O
   0.4865611257415901    0.6528260924199247    0.4161773823780396 O
  -0.3064627541403236    0.7338511539087541    0.3551091183183217 O
  -0.0304097348859755    0.7404470009807133    0.6654706490939726 O
   0.9475647370977313    0.8800222593591851    0.5073243454684256 O
   1.0242274421026119    0.4435493971868358    0.8204594902952231 O
   0.1679860489691457    0.2757329216842413    0.8094625439596225 O
   0.3228276558640465    0.3200665036985094   -0.0331884908534315 O
   0.5333026328412902    0.0216752976863187   -0.1191548939044242 O
   0.5667418813315217    0.4594864451967772    0.7545668093842642 O
   0.5344200383582032    0.2832751776581027   -0.0992551417528663 O
   0.7210212318815166    0.3425558759183749   -0.0102968882772829 O
   0.9898603127061100    0.1377705693694262    0.8318124250414064 O
   0.7205418925537665    1.0719777088917235    0.7643642295537720 O
   0.8727262064702845    1.2257584880826977    0.6668048317458076 O
   0.3104351153856618    0.5477567831302869   -0.0305629989366011 O
   1.2254078162995974   -0.1037685140840555    0.8716831270266386 O
   0.2942891979306784    0.6938664445401974    0.7959783220770391 O
   0.1242761459538475    0.5918778711710890    0.6843573820510688 O
   0.0082796611934035    0.9040391986975402    0.8245920514093757 O
   0.3897969667204422   -0.0247213533273622    0.7396323216724822 O
   0.6256279675440158    0.7262867098091493    0.6891988244349898 O
  -0.0399110774290093    0.7881113620248502    0.9957683047500887 O
   0.7179035520364478    0.5580076972237495    0.9019034475336908 O
