Li1 Co1 H110 Cl3 O55
1.0
  12.8221401756999995    0.0000000000000000    0.0000000000000000
   0.0000000000000000   11.8649966887999998    0.0000000000000000
   0.0000000000000000    0.0000000000000000   13.0838893905999996
Li Co H Cl O
1 1 110 3 55
direct
   0.3273330372533435    0.6871971023891316    0.6814623640662804 Li
   0.6680944031507856    0.3294355191931641    0.6567365359625651 Co
   0.1794131132772779    0.1899892097338619    0.1886838172962260 H
   0.2742521950012938    0.1124873760529456    0.2335015303243785 H
   0.0650290104751939    0.2902564100713885    0.1078557876157104 H
   0.3239794629349554    0.3006483219474693    0.1237352401085805 H
   0.3321551651627839    0.3230747925971558    0.0056627041920141 H
   0.0064650742125797    0.2626457828969841    0.2066761736187373 H
   0.1167089945433625    0.4804283974036670    0.0681455008279547 H
   0.5397156787378672    0.1977919932009143    0.1029758931062176 H
   0.5073817630015758    1.0589570038616460    0.2345256906180009 H
   0.4988636842328700    0.3011186128498905    0.0498724175831692 H
   0.6131558367065497    1.1165297127225609    0.2642118174572456 H
   0.4816621876825518    0.2111986551808670    0.3331821345441756 H
   0.9811466662672949    0.0933643197259111    0.1202744954746087 H
   0.8893835141041447    0.4037524383737947    0.3145317170180756 H
   0.7677922681314430    0.4850411251974862    0.0208584150440823 H
   1.1326346373379246    0.8395966392307114    1.0803781485232942 H
   0.2429243515605189    0.7081579173411290    0.2688526393250630 H
   0.1790746362414220    0.8942793346428768    0.2738030021771469 H
   0.0870975572327988    0.8316193930095350    0.3141434532649710 H
   0.3287407585660623    0.5842859906521510    0.1899066952587602 H
   0.3730640924410933    0.5001932575339161    0.1014446206075068 H
   0.3339793536117862    0.6662278592847609    0.3282913869927652 H
   0.5052510734578929    0.6158831338990505    0.1756785101646746 H
   0.6026981441402088    0.6945228524318642    0.1918411353357440 H
   0.9675139967125450   -0.0314096721115640    0.0666881360161045 H
   0.7564517276282612    0.5379943637426833    0.3128074590909023 H
   0.6804987286238003    0.8048709658229030    1.0539945564816184 H
   0.8622507581653720   -0.0508267023933735    0.1970353094816081 H
   0.7746850332072370   -0.0358671533386699    0.2764123180297042 H
   0.7646289896580983    0.6164916465003910    0.0594837033595795 H
   0.7392845467221312    0.8070209874932907    1.1593760649030047 H
   0.8069417387441049    0.5334743456249686    0.1985730785194949 H
   0.9158923492394964    0.8712704786642065    0.3199612951717275 H
   1.0056511558216565    0.4132012399993212    0.3470610351202124 H
   0.2291240032898497    0.2289137886539686    0.3498056318473750 H
   0.1734944445558251    0.4120937807774906    0.3992060800401246 H
   0.2038411725332204    0.2240962567574821    0.4591446790750127 H
   0.1200060260389406    0.1718315982611705    0.6182235231300031 H
   0.0785405614039796    0.0809974389042326    0.5361225539203619 H
   0.2495464909878290    0.0416189786943752    0.5752546487214569 H
   0.0147622850168744    0.4490428007813335    0.6282220790711734 H
   0.4655073182799724    0.1440456655174048   -0.5092890657947107 H
   0.3757773680349705    0.2673023370831436    0.4026194381530482 H
   0.5540642974145427    0.3144165516642297    0.4730602659899255 H
   0.4131065497036516    0.0677712236665888   -0.4121956127644001 H
   0.6276947512282687    0.4236740621381841    0.4721377574269388 H
   0.5436502793044411    0.1571623990557215    0.6443747683587973 H
  -0.2088847786328136    0.0890172472948933    0.6481267108075975 H
   0.7698270298515998    0.1303819448900713    0.3453230198159606 H
   0.9118368640172595    0.2379791093465172    0.4073733762323999 H
   0.8825515813066843    0.3336040833569187    0.6540584332246151 H
   0.9076098005740819    0.1212508003274884    0.4641859934755600 H
   0.8321777754404776    0.2738754531189549    0.5507818034962408 H
   0.6868471227986094    0.0476204637236308    0.4001652749419873 H
   0.1896953281176567    0.5381620839749087    0.3510323313035422 H
   0.1104343010134575    0.6365666626379717    0.6476750102601865 H
   0.0827739420452919    0.5291271046309034    0.4805939585378629 H
   0.3031888619629576    0.8150698730096386    0.5773236053743195 H
   0.4143668697265622    0.8333151372670108    0.3411163196248429 H
   0.4877992286852020    0.7264824062308086    0.3350462591383136 H
   0.3641147284170226    0.7534339518896336    0.4891502827819694 H
   0.5986457785219891    0.5774945854698754    0.3449943713635295 H
   0.5797940114466222   -0.0045795761284359    0.5337631637513974 H
   0.6629462766215577    0.6162581866796550    0.4372307059863995 H
  -0.0165326466015200    0.5924292714750783    0.5196908955975350 H
   0.6970529073405691    0.7081090340573649    0.5840968206893059 H
   0.6744638546527103    0.8058747587705437    0.5144951928542177 H
   0.9018853272026939    0.9867530224809614    0.5627514858532712 H
   0.9724273730394858    0.9439801491872795    0.4621384371870417 H
   0.9452868180906703    0.7636615147944381    0.3966548508907876 H
   0.8670549483517140    0.6057364812570279    0.3852278206296318 H
   0.6942281059030803   -0.0289105563698807    0.5585600716366851 H
   0.8216873270319571    0.6855114719145036    0.4647729748975764 H
   0.0272616804223104    0.3547722308572955    0.7258490126126396 H
   0.0758754057020662    0.4400575475363297   -0.0293463046986514 H
   0.2831321478359839    0.0243600021121651    0.7000424661095347 H
   0.0808439210300093    1.1758049083628497    0.8138901115252906 H
   0.2148580541196275    0.3591624554284638    0.8726417546377939 H
   0.2555852644639404    0.2302091956737201    0.8896626872788170 H
   1.3540485324519678    1.3137990471682601    0.7792085282090936 H
   0.5437524463360013    0.1467047475911302   -0.0463907777404533 H
   0.4141874924955786    0.4786930408300377    0.7250579634306252 H
   0.5454674486444050    0.0279482037035054   -0.1114012631249521 H
   0.5735446646993563    0.1754262052483144    0.7730605092524527 H
   1.4608247789474367    1.2992014872579827    0.7041391072840243 H
  -0.1194675686905266    1.1184260470065173    0.9826931282786077 H
  -0.1958331353262496    1.1323914954888092    0.8941414778165987 H
  -0.0262516949267109    1.2048567495930611    0.8460059440163455 H
   0.7914396464821049    0.3152779088367646   -0.0334073295524822 H
   0.7075269778280000    0.4311532045541079    0.8280067090052950 H
   0.6778283475851582    0.3334751326256097   -0.0000997260570651 H
   0.2304451555910937    0.5400853883464591    0.8878207273477499 H
   0.1479300695366520    0.5360786447082687    0.7981402076665765 H
   0.1106809057110096    0.6994103379930477    0.7612459795369191 H
   1.1414085236360330    0.9285650584968076    0.9806295217168313 H
   0.0343987884827441    0.8017795195324353   -0.0948129235631754 H
   0.3171763864746532   -0.1358659170231120    0.8164505122593466 H
   0.3396024398526183    0.6890445533893237    0.8921084432038855 H
   0.4325853571864566   -0.1658406409381821    0.8362076343415400 H
   0.4058448914528350    0.5711818993423941    0.8005645632273006 H
   0.5469071458982989    0.6097929509942199    0.7037256216729424 H
   0.6635179440576922    0.5299682342377426    0.7520438228688491 H
   0.6223391710319033    0.6960829034361323    0.7720157128932126 H
   0.3552059192451744    0.6201663209350798    0.9907717658185994 H
  -0.0474897251048620    0.7091322117554639   -0.1538450643083351 H
   0.9371758476461968    0.5181140379249222   -0.1843321762130397 H
   0.8678348493559903    0.5583289669733565   -0.0949604332174061 H
  -0.1941649270781026   -0.0233623036626431    0.7177764894624606 H
  -0.2214988974759786    0.8813910040338722    0.8524566252687135 H
  -0.0895209299283250    0.8647159045636159    0.8194694922293529 H
   0.3563570531274862    0.9762684009287761    0.2881190816247896 Cl
   0.2208976074967432    0.0497682687899445    0.8437665487474547 Cl
   0.5998515054746003    0.8257222147940495    0.8847253175050851 Cl
   0.2478041921442757    0.1884637141543237    0.2256567681947215 O
   0.0437680200114769    0.2235399987008549    0.1524323643956257 O
   0.0835080628606172    0.4140280417471262    0.0425215452906307 O
   0.3677935214541940    0.3459723969645007    0.0721916982864898 O
   0.5407482676675289    1.1315992491657341    0.2377051733205899 O
   0.5550009585206784    0.2456900259527024    0.0424444199061311 O
   0.9349609287940520    0.0314490896362601    0.0964633800868690 O
   0.7174286009782919    0.0733814232937690    0.3317865250694333 O
   1.1056656606100499    0.8695224798620174    1.0127300682333544 O
   0.1458017196959820    0.8189206958289260    0.2656815639084665 O
   0.2737148432093475    0.6361258702688565    0.2915194466593613 O
   0.3769363009273251    0.5791616740092823    0.1290471162583385 O
   0.5627835906423517    0.6387040420797998    0.2293643813173799 O
   0.8238250356846785    0.5193993311618260    0.2724410218463743 O
   0.6994113279775007    0.7586535066543187    1.1125398389379442 O
   0.8101915862289243    0.5520744350972498    0.0431363701152565 O
   0.8172645084367062   -0.0976273897061789    0.2356965962671274 O
   0.1340049371052986    0.4831329915002074    0.3749013805347570 O
   0.2462740263738856    0.2686719118437787    0.4135160450979546 O
   0.1313665320078318    0.1411017118934672    0.5505777357362430 O
   0.2978535591927034    0.0031762625298981    0.6253162153127015 O
   0.4829381057255478    0.0953230223374287   -0.4451934459859328 O
   0.4547938181842288    0.2572778926505317    0.3960747481573104 O
   0.6182829059086623    0.3476091441553643    0.5063347753504815 O
   0.9483284320073478    0.3546407516802745    0.3441704573362721 O
   0.9666483065977983    1.0021849694761797    0.5183885305674361 O
   0.8643798879070463    0.1882833516935385    0.4413028896016384 O
   0.8170375572444617    0.2990495014422848    0.6221413184024720 O
  -0.2069631025582768    0.0091455014481740    0.6434369738212790 O
   0.0422423620688915    0.5527807142661189    0.5450166982016186 O
   0.3120399584604894    0.7398300711441493    0.5443441153222248 O
   0.4329542503614794    0.7595991453505849    0.3766554461122670 O
   0.6492356169663803    0.5470234433800275    0.3978662643724230 O
   0.6434955455749066   -0.0371317976022594    0.5076310259907678 O
   0.9663753412463016    0.8409881271875167    0.3726115415499117 O
   0.7089549765668299    0.7361461257418501    0.5145754442205090 O
   0.8908185319520131    0.6542126852616135    0.4438892764923983 O
   0.1742860440751655    0.4918064031074051    0.8564004066978863 O
   0.0288368464806472    1.2326949368815403    0.7958939337091464 O
   0.2765388647458320    0.3084013793155202    0.8843584541163249 O
   1.3974500233399443    1.3388896567830957    0.7159910876371606 O
   0.5466201423287254    0.1109845522032911   -0.1145410022937587 O
   0.5815191524680814    0.2070064921904675    0.7020571575528097 O
   0.7351073969432271    0.3723702130124104   -0.0289014064099069 O
  -0.1394072976668589    1.1707817295484588    0.9252866509248920 O
   0.6850931254399920    0.4436732249044064    0.7599825937418759 O
  -0.0240414554805919    0.4094397555951891    0.6894691575259732 O
   0.1538502980601134    0.6500441210978587    0.7117545797957060 O
   0.0001031877503966    0.7814921139550517   -0.1640690883738477 O
   0.3404065177880272    0.6082640841537325    0.9193327638448034 O
   0.3618350777815230   -0.2004188216794608    0.8085476634264692 O
   0.4227305280964213    0.5673125345878858    0.7269121521413178 O
   0.6208043258554876    0.6389063177367551    0.7146023568509577 O
   0.8930178527840723    0.5831203771789458   -0.1634568850938540 O
  -0.1555122534051646    0.9132005367205746    0.8256832408764799 O
