Li1 Co1 H90 C51 N3 Cl6 O45
1.0
  14.5016637755000009    0.0000000000000000    0.0000000000000000
   0.0000000000000000   14.1526115405000006    0.0000000000000000
   0.0000000000000000    0.0000000000000000   14.6272139815000006
Li Co H C N Cl O
1 1 90 51 3 6 45
direct
   0.8738132795430290    0.6315575923723984    0.3210718730675458 Li
   0.5145546054588983    0.7563140724713089    0.6781302989992085 Co
   0.0957977239030355    0.1956020104401310    0.2802096828544300 H
   0.2185277794023835    0.9854555274402219    0.2485235394380423 H
   0.4771665161752391    0.2232923062472718    0.0134849323356773 H
   0.4373868047620836    0.1967134660859661    0.2470365850509999 H
   0.6036511753423393    0.2025865870829029    0.2664921013482201 H
   0.4052284257498851    0.2600212165626917    0.1410362214847729 H
   0.8295073288640804    1.1541219246750369    0.1277213140631459 H
   0.7977406290473128    0.3346696301771500    0.1670275005130853 H
   0.7368751991446280    1.0005961959583114    0.3639686270764493 H
   1.0431035098231995    0.4020017262551812    0.1323127557474572 H
   1.0975848446707770    0.3739118575505708    0.2943142143298658 H
   0.3885358583488281    0.5941962899380832    1.0012861649063036 H
   0.5068579368746653    0.4899924830449351    1.0459310303486176 H
   0.4007199775461378    0.4276954294250453    0.1802125130687177 H
   0.6290689484824623    0.3870818650411752    0.1990657273820370 H
   0.4520010589111868    0.4739498184561225    0.2746973549359366 H
   0.4843867911465080    0.6473935389295863    1.0631933743820987 H
   0.9661426853772803    0.3493121574172270    0.2024600853276305 H
   0.9107269749842641    0.6083526878174899    0.1334086582221372 H
   0.1483668643686932    0.6979213159376406    0.1384513136514820 H
   0.2261406989755511    0.7479989993370509    0.0565888344729826 H
   0.1063199648239562    0.8642771855425251    0.2301509361289027 H
   0.1558611768615542    0.7212209026645402    0.2936346590835576 H
   0.4359635197984045    0.8062490260293596    1.0151206517919087 H
   0.3331056668587978    0.8053714494800098    0.2725855378777416 H
   0.3559637337076530    0.7535160023139618    0.1649040612826698 H
   0.5876695608470734    0.9596793659907208    0.2898273721955395 H
   0.6397042798753033    0.7709488272942822    0.3064402418990482 H
   0.6988885233722471    0.7720779475244440    0.1915222539537031 H
   0.7034700666371135    0.9497660012665844    0.1459209521033560 H
   0.8173942359997449    0.9074261123856358    0.1390351568912679 H
   0.2226810959412593    0.1133182568963057    0.5084508369267271 H
   0.2043363043284895    0.2909928855543578    0.4581545740204430 H
   0.0349950454207454    0.1011127357099383    0.5055940933217693 H
  -0.0009959972678723    0.0855919253371384    0.3897329319178661 H
   0.0887543941457588    0.3289130954367693    0.4740956821696032 H
   0.5572581537956234    0.3355479133098728    0.5504453548695765 H
   0.6005177417788905    0.4294483921152883    0.6576636537187995 H
   0.5808722718238283    0.2069758829963980    0.5558081669607383 H
   0.6983823745527991    0.3855923872907490    0.5233267251358696 H
   0.7041030974494474    0.3844894106453907    0.7083814459749517 H
  -0.1367983459147329    0.1410474147889652    0.3481125658816561 H
   0.8269352102039431    0.2736321320780902    0.5592873667635420 H
   0.6952213579474186    0.2750933464935937    0.4595766493402070 H
   0.3131989854966418    0.5109382285811351    0.3342062949911593 H
   0.0845452219469712    0.3572598071974898    0.6399289025674120 H
   0.0895970560767743    0.6367099983288063    0.5037384426124593 H
  -0.0171610389919842    0.4734214071464077    0.5233367065308355 H
  -0.1273987348004350    0.6678611394972316    0.6060584744307481 H
  -0.1206946764589191    0.5538998401720456    0.6447644098683550 H
   0.1377701492345567    0.7043137757137820    0.5900827732278020 H
   0.9125757283697410    0.8474032680103009    0.4050625770767869 H
  -0.0153867598197233    0.7963102243037926    0.6534940285203756 H
   0.1602275723993529    0.0758933619584144    0.7423216071449388 H
   0.1710780515192617    0.2271848740495005    0.8093897447438527 H
   0.1460726448560185    0.2412437634234238    0.9277861804690930 H
   0.1073019211167271    0.0424853934964117    0.9860023247790757 H
   0.2859207361782210   -0.0239927965752675    0.9536291058872959 H
   0.2412775828116565    0.1660668254459111    0.8982330474837731 H
   0.0315609567002404    0.2150775679519895    0.7655427072416210 H
   0.0336269265409297    0.1442489440523339    0.9988297846246285 H
   0.0017354134594210    0.0357905160365975    0.9337859559636605 H
   0.4767998685903611    0.2842513735919211    0.7710577697888722 H
   0.4691529529180126    0.2092221115393794    0.6683423790179274 H
   0.4506494898565302    0.3284594689112600    0.6642746187407308 H
   0.5930523914800578    0.3961148268824697    0.7735079971558423 H
   0.6161338809685604    0.2002908977038067    0.7884691510896524 H
  -0.0189091142744099    0.1068162766973389    0.7772667443834099 H
  -0.0307381018068481    0.1936461876634803    0.8736986419261675 H
   0.6271215857220795    0.1327139704870076    0.6805654859080109 H
   0.7132006742545925    0.2075206587770330    0.7226021991725929 H
   0.1399154203207998    0.5935349279008919    0.7719704521367811 H
   0.4853185463029631    0.6043336415914820    0.8129974037325529 H
   0.6003260396374648    0.5455890065380262    0.9794474196466788 H
   0.4574456755580983    0.7229053974259331    0.7896491433986341 H
   0.4752692855935673    0.4235157767983393    0.9187352429380332 H
   0.3708392682214549    0.6360670074593149    0.8313659050985559 H
   0.3307721415113704    0.7465688745899624    0.9509833525641446 H
   0.6127191003774075    0.6823856673140062    0.8793128347658882 H
   0.9439535072952705    0.4309538386499459   -0.0126560676171236 H
   0.8254388301791447    0.4432178649396032    0.0067967140513388 H
   0.0634945339206951    0.0011566254223227    0.7764176421541195 H
   0.2408665954868731   -0.0562384353885743    0.8039348440292726 H
   0.0552168630369719    0.6881676390558173    0.7538596895311988 H
   0.1551495343797147   -0.0775511096704082    0.8824850041249120 H
   0.0933593829962673    0.7734091505993030   -0.0639672743137138 H
   0.5645780035482659    0.7953598696670169    0.8561361723865200 H
   0.5882832835300553    0.7528447481095476    0.9748272643604109 H
   0.4143604813574447    0.8248547794089720    0.9035621552754952 H
   0.7908090106098599   -0.0731420294224672   -0.2200947503244126 H
   0.5323376339439252    0.1915688325466619    0.1367086714755872 C
   0.4605084965342017    0.2410692373302762    0.1904577997097376 C
   0.8090317472620815    1.0429445638397368    0.1977045659178525 C
   0.8702743752631833    0.3082052565222812    0.0365234959627776 C
   1.0258420421822998    0.4838063456137295    0.2496816547169618 C
   0.4617583531217349    0.6203653117430097    0.9972341287444643 C
   0.4986157791574293    0.3334627857759507    0.2376103197229350 C
   0.4215093162501104    0.4076886625333146    0.2504897375148856 C
   0.9882856618640544    0.4223509741078376    0.1789723589270649 C
   0.8880033754648264    0.4123543032040164    0.0340719012814286 C
   0.8174431958991738    0.4779339735951682    0.1891178316184257 C
   0.9085954954189870    0.4671389835989542    0.1256792300382742 C
   0.2728477534546601    0.6678455946630241    0.2593000277152608 C
   0.0806201550800808    0.8102447550040560    0.0696295953616422 C
   0.1722517099534583    0.7616720941892794    0.1023302860471659 C
   0.2207557996144220    0.8203460709054285    0.1772324513799279 C
   0.2592231098924639    0.9176157512086417    0.1405385190508570 C
   0.3004183830175576    0.7641628005793423    0.2166514412661257 C
   0.5703091390432437    0.8460996216869915    0.2122158734210078 C
   0.8289591159056865    0.8480151692113773    0.3169070334694481 C
   0.6674845405568822    0.8135904272755305    0.2479280740260359 C
   0.7690411634933577    0.9428859989630265    0.1844409327854339 C
   0.7359759919776524    0.8924868201288704    0.2752791472041541 C
   0.1752630885563590    0.1109547355133950    0.3895114269884860 C
   0.1504997230860671    0.2430130481895847    0.5801307755210540 C
   0.1363096271642696    0.2703302679757459    0.4824110045648203 C
   0.1074232865012269    0.1881185859359735    0.4136629845200026 C
   0.0170750326537248    0.1391799149339479    0.4420689407414340 C
   0.6039897571820516    0.2805206133821249    0.5749545334768916 C
   0.6270236659232218    0.3822304636016940    0.7083322226573115 C
  -0.0616462794434894    0.2055379858322057    0.4446430467911316 C
   0.6971418272419179    0.3035163692586055    0.5332913021349034 C
   0.5505954010594003    0.3147128893882326    0.3289298288030243 C
   0.3408737410428317    0.3773818884957050    0.3098263959583683 C
   0.0188037998067982    0.6221791112616739    0.6372715270720399 C
  -0.0962167954726210    0.5765253463610389    0.5030138343573667 C
  -0.0824714761019733    0.6054097680686638    0.6025362725907285 C
   0.0708571373883319    0.6825566604902886    0.5629087672617501 C
   0.0157310489355994    0.7667404167242924    0.5266653650205233 C
   0.1278733537894388    0.0372043893661055    0.8009759757133557 C
   0.1721786148923392    0.1910558530178149    0.8768161187100358 C
   0.0575200470382744    0.0836996950640638    0.9535990249709604 C
   0.0108481609376284    0.1630504210262860    0.8183750511847259 C
   0.6408648363645824    0.1967876573401382    0.7209593709463571 C
   0.4904054108960195    0.2741048363546724    0.6988252857808922 C
   0.0662128427030707    0.5322068827188269    0.6684483458822913 C
   0.5249377244120756    0.5334612095226963    0.9817185288300144 C
   0.4405457526393193    0.6632513895713393    0.8315983485429672 C
   0.1967337283960463   -0.0234480207946325    0.8531198768666896 C
   0.5638921512106326    0.7344382512411403    0.9058496722313776 C
   0.4037706619837912    0.7722348090332649    0.9553519220046968 C
   0.0978554188311453    0.1185201236888284    0.8647926397192701 N
   0.5939040178997012    0.2818348584560304    0.6791872330140902 N
   0.4649572274521667    0.6938330245410722    0.9254214102508035 N
   0.4886443026262811    0.6202805217382416    0.6010985415213261 Cl
   0.6660578077129615    0.7770035402180973    0.6641084900436957 Cl
   0.3940890142657411    0.2901414525898115    0.9473825301473388 Cl
   0.1768029118721999    0.6830887177702085   -0.1537348815737635 Cl
   0.4334693232317245    0.8857191645816302    0.6735634689737173 Cl
   0.8633193112400884   -0.0260510739410130    0.7958663218794452 Cl
   0.1685700634316158    0.0779177233222527    0.3121658708606484 O
   0.0945068375406288    0.2401669303628690    0.3304236197619613 O
   0.5305634926868740    0.1890894314905682    0.0483391431679522 O
   0.6016638171711554    0.1544180919575208    0.1785758377571869 O
   0.8352177081200044    0.2724429522612177    0.1118919154987409 O
   0.8137118999018541    1.0878147277796399    0.1181624192403287 O
   0.8353025259739446    1.0731771466231743    0.2739446483703579 O
   1.0950106572824947    0.4409958722063180    0.2955393280133508 O
   0.3297674292090058    0.6011420044953363    0.2554175385364037 O
   0.5613001038026997    0.3799425466397016    0.1778559467367015 O
   1.0002884225606627    0.5620248423789485    0.2720010109807663 O
   0.7698700339034074    0.3974453233739557    0.2032702190971226 O
   0.9458546684604175    0.5635362242139398    0.0944162704221529 O
   0.7971979326973053    0.5591483414671908    0.2147310482209752 O
   0.0490617072298981    0.7952849718294717   -0.0184418584113950 O
   0.2554490601801500    0.9912798941844170    0.1953541525005412 O
   0.1613136546754162    0.8440003624856081    0.2575532835962293 O
   0.3016513449919076    0.9225469965692795    0.0651420695701265 O
   0.0287440385429587    0.8487090340837296    0.1258521953072038 O
   0.1886236244920586    0.6587158308996193    0.2965080702507941 O
   0.5411213846894916    0.9269405319830130    0.2491989927412138 O
   0.5222977100942233    0.7981996282433750    0.1603597919444301 O
   0.6904405272045951    0.9589939801188454    0.3342630385378833 O
   0.8526874277274888    0.7697554079771712    0.2916561551773043 O
   0.1177441712160457    0.2956372580655302    0.6482291845044613 O
   0.2420292207042971    0.0900066582520640    0.4471859097072716 O
   0.1836717788892581    0.1660597596121804    0.6000792086518639 O
   0.6043972966265935    0.2408728071525634    0.3291506500752150 O
   0.3253706923250821    0.2909999513880884    0.3279050266760467 O
  -0.1360832555526518    0.1924697263473230    0.3936509712705743 O
  -0.0608787813017379    0.2713590533669322    0.4994893764486219 O
   0.7683019379695865    0.2583543863856255    0.5882533065888477 O
   0.0493161607917187    0.4580580235491273    0.6234917327615906 O
   0.2940604918522854    0.4418986737820863    0.3483190303528684 O
   0.5470293964408567    0.3714819173305917    0.3903789879618915 O
  -0.1527916832028196    0.6183826387981824    0.4532000420028175 O
  -0.0543022945291565    0.4996448358710605    0.4741725252376968 O
   0.0042268517219078    0.7860767773116566    0.4439989049872368 O
  -0.0225183553111816    0.8238203413508013    0.5922896186353298 O
   0.8668278741738091    0.8935763716901405    0.3845179948767812 O
   0.2554366478112807    0.0239835078726402    0.9204854053430119 O
   0.9025196408574671    0.2542131012360771   -0.0231310630737969 O
   0.1290732161134706    0.5352954999591794    0.7285794139799089 O
   0.5041926564904036    0.4816885739279717    0.8986240993961355 O
  -0.0004533009178647    0.6791488088819843    0.7185693054120581 O
