Li1 Co1 H110 Cl3 O55
1.0
  12.7354412174000000    0.0000000000000000    0.0000000000000000
   0.0000000000000000   11.7847696097999997    0.0000000000000000
   0.0000000000000000    0.0000000000000000   12.9954205730000005
Li Co H Cl O
1 1 110 3 55
direct
   0.4098664914387358    0.6944817824944222    0.4957695482349973 Li
   0.6631038897311223    0.5658352284931234    0.8006061618518423 Co
   0.2585933657485283    0.1288720827971939    0.0907077827899707 H
   0.1975652484864336    0.2449770254735591    0.1256322392514230 H
   0.0570729035839710    0.4488749445301863    1.0522563475175957 H
   0.3456692652850814    0.2274323464644708    0.2034265664392977 H
   0.4050515816956622    0.4346854435440199    0.2485293775955426 H
   0.5263838522956645    0.2813867317475948    0.2173276171198218 H
   0.6550060155986505    1.0484216674567373    0.2872945716244808 H
   0.6487416075865433    1.1574861670232939    0.2136370863108656 H
   0.6473761268228112    0.3323601508206720    0.2333286383127817 H
   0.6114268422880530    0.0184198598774036    0.1361898044513561 H
   0.3968916759471265    0.2386671863793639    0.3204601007875361 H
   0.6746472667912862    0.3279290077666258    0.0684585605831320 H
   0.8887599899747153    0.1386508059980419    0.1300376372667012 H
   0.8200478044240169    0.0806839536438029    0.2152945932671817 H
  -0.0755010662674397    0.2025985983565206    0.2934413522962786 H
   0.9522599493554001    0.2741604555606439    0.0196624484113185 H
   0.8006955106327921    0.4988411313540959    0.2884665229218203 H
   0.9927532460694092    0.0041177559262292    0.1727088226188799 H
   0.7866410309375419    0.3149054184151319    0.0123363292245486 H
   0.1791096648919781   -0.0200071111194172    1.0885229690826721 H
   0.2994894753617867   -0.0452675964625034    1.1085607969111166 H
   0.0964263104620343    0.5915735339537380    0.1610624123199741 H
   0.1853473757528680    0.5894988222020828    0.0120040583314487 H
   1.0662096724334884   -0.0931585624030398    0.2237275638959038 H
   0.0776815339030690    0.6600525986041750    0.0296033425343148 H
   0.0853092240899844    0.7277340235627693    0.3008085628811299 H
   0.0384693313986353    0.8603721702347370    1.0585893476338821 H
   0.3089881647228371    0.5000070429887684    0.3010902005533730 H
   0.0093508820516791    0.5579071990879235    0.2526600634551083 H
   0.1535793362249373    0.5397558047813165    0.3041066477533539 H
   0.3694226629755116   -0.1038350545336428    0.2433498607325142 H
   0.3776092658752646   -0.1948542289015501    0.1410438220374478 H
   0.5084205955780693   -0.0482650245981052    0.1183465958612650 H
   0.3549284654955059    0.5801800146533400    0.0104425082541728 H
   0.4972494082142879    0.7029707053425029    0.1114764834629412 H
   0.6086000851003386    0.8316792037028491    1.1184412004947275 H
   0.4115735386959833    0.6380487742965396    0.1784393027970069 H
   0.6285334345357049    0.7450606244858962    1.2064722106166190 H
   0.8133444638374842    0.5886137815652828    0.1935446238520133 H
   0.7902639913997959    0.7589930139543728    0.0908132045416026 H
   0.8977192398391102    0.7504497837230175    0.0327136073982298 H
   0.0597241662629481    0.2861046856695589    0.3642509113121568 H
   1.0859812685408907    0.4943947143485038    0.6617126193257831 H
   0.1886193471976474    0.4158518127350281    0.3492917956061291 H
   0.1593098012126984    0.2106182714709960    0.3697913245366115 H
   0.2469918831239503    0.1313065809630420    0.5068411406618660 H
   0.2548486976851365    0.0214686254612570    0.4401268704210640 H
   0.0478228353696834    0.1086704150614052    0.5202466321595361 H
   0.4205351441913680    0.1961614763327759    0.5790488845150822 H
   0.5220110159683363    1.1439517488478750    0.4321355938466248 H
   0.5268322073940492    1.2793807858884292    0.4678635641259904 H
   0.5563765312676445    0.4839702424184086    0.4686907786004749 H
   0.3577332367939826    0.4838463537003138    0.6060730195191968 H
   0.6286786984467401    0.4316654439022446    0.5549196154207452 H
   0.8188715593497958    0.3297211514146812    0.3528684401432493 H
   0.8376506496001787    1.2778194486192900    0.6414777990271358 H
   0.8812926397371696    1.1565867009878115    0.6089855839712190 H
  -0.0715019900571537    0.1741610462365952    0.4095245518761558 H
   0.7131696855771944    0.3950800871854309    0.4007245288713135 H
  -0.0335179899944720    0.0068353313273951    0.5217871748366693 H
   0.0963404869729739    0.6875355287524800    0.6590339834321267 H
   0.1469474497784273    0.8109414202677984    0.3744229560918882 H
   0.2563900655627708    0.5519953312867861    0.4533138233971029 H
   0.2529374957421096    0.6071538130834473    0.5655510527970043 H
   0.4192505400916177    0.8383157356495544    0.6550641234564375 H
   0.5172440040553880    0.9724931572162062    0.4038263907751714 H
   0.6256242302633487    0.9851450804134158    0.4532668837850624 H
   0.4590834749181636    0.5717258824726693    0.3698259521192643 H
   0.5663424207749976    0.6287579689922976    0.3846696425497825 H
  -0.2484758350559948    0.6508771964893911    0.3416475643600549 H
   0.9950067997162816    0.8320194734011779    0.4357314759296632 H
  -0.0687835918949683    0.7728380024778921    0.6103129746395781 H
  -0.2800742691526625    0.7387736963190198    0.4221643890462798 H
   0.8785444035824472    0.8218351419314991    0.4604301763831803 H
   0.2922592586438771    0.2794537283241713   -0.0069942494657576 H
   0.0870695086076005    0.3645873400297146    0.9519133080080270 H
   1.0313306295784119    0.1716535725244722    0.8233988062557797 H
   0.1929694124254079    0.3347691924006102    0.8400354359658784 H
   0.0853969320838365    0.3739002077084119    0.7759505535011822 H
   0.3053510704746445    0.4649762351181845   -0.0429894677330194 H
   0.5315725221557803    0.3993160630808347    0.8351721843577459 H
   0.3732725492231127    0.3611617321191086    0.6705357273857273 H
   0.3865182622785445    0.1427306481665318    0.6811702427693334 H
   0.6059028876170611    0.2717352914762962   -0.0553892203300837 H
   0.4795020843374208    0.4773634098219314    0.7507616803776682 H
   0.5512734493334900    0.1767381012835386   -0.1221050295745592 H
   0.3929978179210499    0.3095985688057859   -0.0715133618169204 H
   0.6367867803135010    0.0219171705049891   -0.1619098205849194 H
   0.5793164510562770    0.0041541588440803   -0.0501750758844025 H
   0.4773474671921185    0.0114771700574888    0.7701585131761167 H
   0.9029722969462795    0.1747406078424768   -0.0403433817670566 H
   0.9225083299547059    0.1586936246377530    0.7703278035801974 H
   0.7605429952019683    1.0824062096464253    0.7337803138447145 H
   0.7326405461282373    0.4877199975229337    0.9705121674017868 H
   0.9605596225426617    0.4778046573110360    0.6701786785334847 H
   0.2916373720625799    0.7747268811524051    0.8408280228577101 H
   0.2089963404694188    0.6565743804160219    0.7154246170313613 H
   1.1720403207001966   -0.0906188436820975    0.8415975246944399 H
   0.3182724916638191    0.6328267799735598    0.8565027752718966 H
   1.2545423700649618   -0.0435711695774691    0.9110450654593062 H
   0.0248024079659241    0.8213429812705747    0.9412864876427882 H
   0.3562491892704325   -0.0255264383658244    0.7694213304165296 H
   0.3715992660100518    0.7277722084416339    0.7051648490422427 H
   0.5423770162954888    0.7282406096223758    0.7113347147691425 H
   0.6537638128567159    0.7646715297180030    0.6763800938356903 H
  -0.0124292035586275    0.8343682677277959    0.7561728172935523 H
   0.7739936481535096    0.6268979411151492    0.9731823387752393 H
   0.7407494132053281    0.9635663810904754    0.6933214462731341 H
  -0.1173307909629738    0.6691117489766372    0.6804392160244401 H
  -0.0003130155627866    0.9678770296378815    0.8073469979415956 H
   0.3660957268076377    0.8856861992635202    0.3880777661846589 Cl
   0.7678336731152818    0.5096737572116130    0.6662903857524889 Cl
   0.7254770722883710    0.8480783363459928    0.5555413729048229 Cl
   0.2687822549895789    0.2155195128115113    0.1098896937254206 O
   0.0492206432426982    0.3701173590422039    1.0229306325198222 O
   0.3979140197966833    0.2714408436326052    0.2488379478320713 O
   0.6017514806027704    0.2824949417875382    0.1911668631765181 O
   0.6806235026123124    1.0751510826621098    0.2208719425797994 O
   0.8948532221348997    0.0953033315107007    0.1981285462934128 O
   0.8943506875237505    0.2139454472494171    0.0291784851802195 O
   0.7189818124392672    0.3555214012343432    0.0099233253649312 O
   0.2483039695852477   -0.0029861589377815    1.0570349539236878 O
   0.0719646530540155    0.6046981010960077    0.2397578261586594 O
   0.1166553701076486    0.5925934944958605    0.0479885035729963 O
   1.0504190926987835   -0.0537415847801838    0.1565338940108191 O
   0.0204985131055629    0.7914628892824229    1.0107109433525525 O
   0.0840896354055516    0.8089795660470104    0.3236504554026179 O
   0.3796712282016362   -0.1087498727199767    0.1667521089007544 O
   0.3853828481414793    0.5130925766993096    0.2661925227558389 O
   0.5706759965858299   -0.0254163810594073    0.0817503966595172 O
   0.4236626369354420    0.6766401099830519    0.1147260897194512 O
   0.6246756961848045    0.7519822701947922    1.1310456405803619 O
   0.8262022829899353    0.5762469721302638    0.2673006054007299 O
   0.8278904851992647    0.7124923170256613    0.0417734680882806 O
   0.1349722070368071    0.2873596953549160    0.3474596117328753 O
   0.2046203633007709    0.0885263640650591    0.4539263468591399 O
   0.3699856587820648    0.2074540178423981    0.6376626089206294 O
   0.4860782208505064    1.2131851769941080    0.4611850576850122 O
   0.5742911049447846    1.0246876438600938    0.4087311954824873 O
   0.5969357856493670    0.4153893514243319    0.4892341691356509 O
  -0.0755285486289869    0.2420045447921490    0.3617377183133972 O
   0.7529429444186663    0.3729294632323818    0.3366765824947803 O
   0.8360252642172429    1.1963074605358586    0.6581151982390713 O
  -0.0277817929713025    0.0905619575296994    0.5197356829399475 O
   0.1567303852789090    0.6308818968100451    0.6621581608892497 O
   0.2051064084949918    0.5026468909476228    0.3521735799846822 O
   0.3029232001345298    0.5783335636220102    0.5133772892630490 O
   0.4233823168476603    0.7543565211073202    0.6506294843713636 O
   0.5039331185425726    0.6077953190483762    0.4243336147240211 O
  -0.3089393860908764    0.7073534808833204    0.3542573909585465 O
   0.9415575325585813    0.8587734966395965    0.4868225503793397 O
   0.3143048238667299    0.3297058774631353   -0.0643877748088023 O
   1.0254729605172037    0.4349196441343908    0.6789686980144495 O
   0.1159059653687723    0.3350695801143467    0.8414128442536247 O
   0.3886351893280107    0.4449885724146115    0.6716445795324549 O
   0.5448402211004499    0.2622153768988652   -0.1007282685502048 O
   0.5258797472638554    0.4820796666381683    0.8128104609823773 O
   0.5713300767906537    0.0368135705036802   -0.1197819035294719 O
   0.7465835259566388    1.0081493485473094    0.7563921253170204 O
   0.9625933172971562    0.1306565894694764    0.8271385851822867 O
   0.3045132510526192    0.5538163257322061   -0.0414328424674986 O
   1.2482371311156988   -0.0914266660083044    0.8502621153760177 O
   0.3006178226058827    0.6947219229548387    0.8120409591456474 O
   0.0282675411518640    0.8884779381849702    0.8052154778538541 O
   0.4162800894135278   -0.0055670324726114    0.7246963446621190 O
   0.6170081173131291    0.7225451228014723    0.7332524355847179 O
   0.7418447816155674    0.5574048557926353    0.9327065421632507 O
  -0.0569716729019716    0.7285180864087936    0.6722571029944919 O
