Li1 Co1 H90 C51 N3 Cl6 O45
1.0
  15.1453289564000002    0.0000000000000000    0.0000000000000000
   0.0000000000000000   14.7807838253000003    0.0000000000000000
   0.0000000000000000    0.0000000000000000   15.2764517847000008
Li Co H C N Cl O
1 1 90 51 3 6 45
direct
   0.9167406674605678    0.3712168094366020    0.4320876330072236 Li
   0.4550774695116480    0.7721157110129350    0.4881520262361398 Co
   0.2667547854543476    1.1013824168603985    0.2014876187075562 H
   0.6603810986999765    1.0632863316557581    0.1450032981230989 H
   0.6027705969728884    0.2082579279274130    0.2680888173588685 H
   0.4192308397314093    0.2779314995168479    0.1607261900213707 H
  -0.0283751528168953    0.1193702197024175    1.0006005391716148 H
   0.8066823118580884    1.2081717467535960    0.0717690146803635 H
   0.8499213858910938    1.0071377532170800    0.2730245184668651 H
   0.3567099131324616    0.3853324343226703    0.1704071029770950 H
   1.0073930398159285    0.4782212429425429    0.1583192174783862 H
   1.0052722539226366    0.3665898558996091    0.1422565870025215 H
   0.1312397361669762    0.6346737441990562    0.1260303059594155 H
   0.5386467339128123    0.4068279790620611    0.1438354876752652 H
   0.5775112578656754    0.4500154045426610    0.2435562881248649 H
   0.5510917590781687    0.5366493080713874    0.0630320381964868 H
   0.4072594919632657    0.4893210331795921    0.3142880270933467 H
   0.7344547621528874    0.4452469158865075    0.0198001405472272 H
   0.8134170615814938    0.5179130216015202    0.1407621300224742 H
   0.8092316127092716    0.3833487776812807    0.2973619762247172 H
   0.0558891113449411   -0.0889110214270607    1.0313864838810418 H
   0.0808109866694450    0.0845628640113496    1.0295444330961740 H
   0.2845246206804272    0.6889908906703939    0.2715994493273282 H
   0.2283951036229075    0.7787723268705858    0.3047720739094016 H
   0.2956442206894342    0.8888659470218143    0.1131503517152589 H
   0.6956876939901394    0.9732789263838661    0.0683205699274556 H
   0.4035864122856868   -0.2561822588135406    1.0430711343820682 H
   0.4032813677393914    0.6872467341828420    0.1947249226668781 H
   0.4066659096101929    0.9181979503258543    0.1472917876554007 H
   0.4973090381914235    0.8913637847844372    0.2619453750646314 H
   0.7689762969115671    0.9521839693311626    0.3438983061277124 H
  -0.0498471195821058   -0.0401463545109358    1.0491137679268847 H
   0.7111366816399670    0.8000283038007283    0.2943062928331882 H
   0.8230134196677660    0.8522812836919570    0.2061071469196426 H
   0.1249031290007485    0.0801300815030329    0.4210863872749967 H
   0.1384228089356946    0.1995046708925227    0.4469411476320829 H
   0.2799337662856392    0.0383440701994366    0.3781431692263507 H
   0.5229775463578125    0.1688642119457654    0.5341875199431498 H
   0.5882776796759520    0.2274740942252944    0.6892599172109898 H
   0.4421864322445111    0.2594033887456695    0.5500914093687905 H
   0.3802538058419904    0.1391168044200975    0.6143243224712143 H
   0.6124924062794984    0.2668637508823008    0.5786118410855563 H
   0.7808037059111124    1.2042544984747263    0.3641052235683950 H
  -0.0403980016123356    0.1000126535961970    0.4992572228086783 H
  -0.0252613214741914    0.1171315021627319    0.6181766568240736 H
   0.0282918236793353    0.6120633059469281    0.4582963368111392 H
   0.3328358856325699    0.3519120145507186    0.3562316674772832 H
   0.4193998687440751    0.3382219421978816    0.7304108342472095 H
   0.4670651259384355    0.4795344750572549    0.6247383899681794 H
   0.4515031661633457    0.3793469601390504    0.5611100675213719 H
   0.5451270157398059    0.4551260942660774    0.5436753252295294 H
  -0.0051996905334118    0.4925732964268035    0.7050875454722960 H
  -0.0424309716513910    0.3464941692627760    0.6077154579637429 H
  -0.0885059035336147    0.6346568303463841    0.4655753176613500 H
   0.6789465587708310    0.3871022998662839    0.6272108227380605 H
  -0.1436073808539440    0.6157748817773043    0.6346595419566140 H
   0.0834619690360600    0.6999767762580078    0.5954776685454412 H
   0.0797076762000518   -0.1058343458567056    0.5065188763368296 H
  -0.1004019805695556    0.7173858665363969    0.6567942630793985 H
  -0.0881097417851791    0.7709560972737325    0.3927866219830992 H
   0.0671698171316453    0.1348903709143810    0.9283154290188790 H
   0.0811549871210033    0.1352726239847715    0.7299899249882650 H
   0.1928303429266808    0.1641526891454117    0.6075989387598671 H
   0.5198170867773176    0.3092491891245981    0.7877330457359421 H
  -0.0607871262651553    0.0813735879514893    0.8404664953192297 H
  -0.1200965016234515    0.0037051764809833    0.9083539874290583 H
   0.4894950778383214    0.4220602565015446    0.7737585964980759 H
   0.6271437882758090    0.4695883448832676    0.6948207634858480 H
   0.5574305451340128   -0.3457512570241703    0.8749345777915849 H
   0.5729081224566859   -0.3196633306626485    0.7565157181312673 H
   0.9967785460361769    0.4205573592085082   -0.0297139750772901 H
   0.9796207807114303    0.6086223517593062   -0.1102300541599928 H
   0.9074381293377188    0.4858944219390362   -0.0695897268935659 H
   0.6623275734239569    0.3680667735149411    0.7460100063166469 H
   0.1898426230738955    0.0820115784742827    0.8445649601252199 H
   0.1606646500320316    0.0166253302601841    0.7489727361859828 H
   0.1513839008053465   -0.0269494901020187    0.9310012621284426 H
   0.0807634472596327   -0.0857454247609414    0.8397058474826922 H
   0.5992883352041393   -0.1522574590088982    0.7153137421180682 H
   0.5797275187403405   -0.1956922326709755    0.9540249331324817 H
   0.6467511537450491   -0.2774598854751035    0.8267990545455081 H
   0.5304916782943070   -0.0939432308740783    0.9205885038360153 H
   0.5193409597799603   -0.0806827703791139    0.7610697861164571 H
   0.3348048095222950   -0.2952397274040660    0.9263051454508872 H
   0.4861071025656999   -0.1743570989103274    0.6956900752990335 H
   0.4021747559220945   -0.1642189356186416    0.8449812871682816 H
   0.4068461632057312   -0.2650045243673333    0.7883869934026382 H
   0.4403026831306998   -0.3569617585752703    0.9076136322628588 H
  -0.0515757053444465   -0.0229388773563988    0.8112790893506153 H
   0.6326167628304470   -0.1273846238233435    0.8687040733955755 H
  -0.0421094203655775   -0.1267703126942910    0.9639833974502472 H
  -0.1297186102233719    0.7352496011746132    0.8047029549565924 H
   0.0331804596550308    0.0924366007072882    0.9751129452271913 C
   0.3137336263925852    0.2787048008610185    0.2585741733794614 C
   0.5217976446170550    0.3037251248418744    0.3006795005238321 C
   0.7108917216255176    1.0154160692689365    0.1256231433481192 C
   0.7844642404666575    1.0731112503959557    0.0899067343488475 C
   0.7419521232420315    1.0915629105530558    0.3060433115157318 C
   0.7766644759095409    0.9953291778354928    0.2837829067573059 C
   0.3915404540549211    0.3288651988996490    0.2049013695402090 C
   0.4601652427928904    0.3766130049931243    0.2609320507522735 C
   0.5162481184072276    0.4396355084685848    0.2029500001764241 C
   0.4793178806018846    0.5320216103248769    0.1800749238874400 C
   0.9637287521729355    0.4204840207433218    0.1524114320009765 C
   0.8373478722653280    0.3645737246610890    0.0546727672218030 C
   0.9179595251065881    0.4010129288579657    0.2372210473658210 C
   0.9013425205684562    0.4427419743057623    0.0745104889827892 C
   0.2971582188380390    0.9755873289965611    0.2186820565064615 C
   0.1932119787443404    0.7354370066622207    0.1726589347823348 C
   0.2607285049910611    0.7547445077645316    0.2446854770388296 C
   0.3403649396615889    0.8088295961772075    0.2254630814106706 C
   0.3382012362455497    0.8959731479146512    0.1689525767354546 C
   0.3942231293614110    0.8193845167987351    0.3132308444289682 C
   0.6519679437023654    0.8964372640319749    0.2247292722671607 C
  -0.0068114085799640   -0.0710378150313479    1.0000454364475326 C
   0.7364322695471618    0.9509763202503712    0.1999650138299434 C
   0.1488887420597829    0.1277398705587035    0.4686649749106382 C
   0.0958591906837719    0.1076238872986638    0.5476897391041847 C
   0.2448622269662147    0.1099275540326104    0.4866946197445160 C
  -0.0046800583733804    0.1330799121243542    0.5515233518321516 C
   0.0937555717995788    0.0066779552266401    0.5634510561556447 C
   0.5638630234433619    0.2613200665304774    0.6271394710907432 C
   0.4879503111272547    0.2116819682623628    0.5875622179091156 C
  -0.0186289135357984    0.2360007056343779    0.5417387498770233 C
   0.5016512350621102    0.4197783748098397    0.5926504413457810 C
  -0.0830798081192082    0.6446055584881418    0.6574835592686187 C
  -0.0112028615613728    0.6165441237968337    0.5904758526082792 C
  -0.0218807412208741    0.5094711824220295    0.5785660189267288 C
   0.0081885957549699    0.7476819594427494    0.4831423550717502 C
  -0.0232316527830396    0.6527127063509561    0.4933007349224576 C
   1.0107425873989517    0.5568788171105625    0.0067846836333949 C
   0.4897433392006743    0.3565098762611155    0.7423226317355668 C
   0.6365962075934828    0.3994264094773182    0.6832696518476905 C
   0.9497323576007053    0.4735914208161367   -0.0091823749112009 C
  -0.0629825226210694    0.6223591063455183    0.7537644247948071 C
   0.1373115752313327    0.0502771315366908    0.8118060441771323 C
   0.0964157979403240   -0.0186502008728488    0.8804201448055121 C
   0.5698220224363723   -0.1524333630766885    0.9000785055448021 C
   0.5774226496879419   -0.2961530754483621    0.8265725621604462 C
   0.5316950196051802   -0.1522297202905158    0.7436148166145037 C
   0.4096490075759132   -0.2879870673782487    0.9189997841292371 C
   0.4328753106171127   -0.2298913662199530    0.8399297214586783 C
  -0.0612994954597987    0.0167491396617442    0.8686314125437203 C
   0.5478331966433696    0.3568657437213375    0.6584235681268527 N
   0.0140042502220048    0.0026700486974478    0.9301987197466914 N
   0.5259109260241041   -0.2060090062468793    0.8260704822201500 N
   0.6082930917460809    0.5143916251305896    0.9715761291679730 Cl
  -0.1752382553882050    0.7377751776556185    0.3165824080460693 Cl
   0.5862618766459955    0.7239098777890980    0.5115915627886412 Cl
   0.7630556595811968    1.3327794821598484    0.4068114755956756 Cl
   0.3677615053746539    0.7976454802362761    0.6095352522714659 Cl
   0.7941576581812964    0.8179826966892674    0.8067472778425703 Cl
   0.2658871912252736    0.2212714461733641    0.2216277667168043 O
   0.2756380523934356    1.0434402934843658    0.1645680507379266 O
   0.5669505760567529    0.2533732619909951    0.2381027966221169 O
   0.6635120970517793    1.1184484942065962    0.2953680577134496 O
   0.7607163244566845    1.1606505862859275    0.0906955300829504 O
   0.8666189433180743    0.2877983646116724    0.0548750393229132 O
   0.8003021268995327    1.1428220324612692    0.3471968469610274 O
   1.0617206811876467    0.5644508106748299    0.0698353195778407 O
   0.5190068435640255    0.5754157230851303    0.1158662965291950 O
   0.4191727360083053    0.5710316524725095    0.2208219513237083 O
   0.7561083030527975    0.3804429777922056    0.0223838557028323 O
   0.8470835472331333    0.5225719761477688    0.0877138167478145 O
   0.8257449549232295    0.3987728582100664    0.2357141529426634 O
   0.9579520536111636    0.3795668402237883    0.3050312964079118 O
   0.2818558110351326    0.9766934949613195    0.2987824631483714 O
   0.1799821571553330    0.6441407658167111    0.1660657807293187 O
   0.1518883467650212    0.7893881373617331    0.1285295774223241 O
   0.4475801744494620   -0.2584554806126774    0.9969956444764243 O
   0.3930848246042393    0.7503083424856806    0.1689119913947788 O
   0.5772404813106197    0.9219338821040783    0.1989392520744752 O
   0.6515348068574092    0.8319271533862936    0.2858579959499251 O
   0.8006837627171923    0.8943913644127518    0.1627973516003762 O
   0.2813322172576169    0.1441923133299558    0.5527263144218287 O
   0.2978752716027075    0.0760274573988766    0.4317910981793824 O
  -0.0493156025696213    0.2757117254921551    0.6125496957200499 O
   0.4377791327931649    0.1541417180258204    0.6421717575952569 O
   0.5336885055233082    0.2910810051382830    0.3769223359947309 O
  -0.0076968300877176    0.2703324437883050    0.4681825330384109 O
   0.2904749701419302    0.3062486716605589    0.3374177436649583 O
   0.0724130178721907    0.6390185746734778    0.6236118194632906 O
   0.4195834236875169    0.4248806752623307    0.3287887765554608 O
  -0.0111566426907220    0.4554016547538120    0.6444851220137796 O
  -0.0474721299002343    0.4770132420536159    0.5093534547199702 O
   0.0845507535746772   -0.0379752923819388    0.4891043416170301 O
   0.3811346054626789    0.7669353362165094    0.3753008861745045 O
   0.0966019939620887   -0.0349490658618380    0.6327971985014083 O
   0.0639001621678900    0.7862881664439818    0.5271813773186438 O
   0.4558348647476989    0.8825868483558059    0.3151566843042634 O
  -0.0272870285478588    0.7921843354854927    0.4184136462108124 O
   0.0738702328368530    0.1123184962463453    0.7921987424148217 O
   0.1279720620119630    0.1556382557102521    0.6243200991183107 O
   0.8498573397417633    1.0473988115637556    0.0469458420389394 O
   1.0127333001848406    0.6208422720378800   -0.0527435375017500 O
  -0.0253042389969386    0.5508378654901780    0.7785515943114382 O
  -0.0834112634487327    0.6751377687777975    0.8150587628516197 O
