Li1 Co1 H110 Cl3 O55
1.0
  12.5001649488000002    0.0000000000000000    0.0000000000000000
   0.0000000000000000   12.5026113913000003    0.0000000000000000
   0.0000000000000000    0.0000000000000000   12.4816354902000004
Li Co H Cl O
1 1 110 3 55
direct
   0.7269362853705641    0.1704940375242966    0.7236900366375993 Li
   0.5130447078632874    0.5404183561525107    0.3987662713838991 Co
   0.0968873994351782    0.1576111289095346    0.1395830896173754 H
   0.0309153899954815    0.0644533906141196    0.1814910591627686 H
   1.1910765606200493    1.0202261188871284    0.2318386278362334 H
   0.3195840607514144    1.2820994105962749    0.1650749412460999 H
   0.1534406531638711    0.3030719405017040    0.3175381341901767 H
   0.4301834012931341    1.2257751773652859    0.1441329741292720 H
   0.4687908918323953    1.0351829942267976    0.1311995728833578 H
   0.5605264812983634    0.2028784720498505    0.0419986023155047 H
  -0.2259647402389804    0.2367082046363019    1.1572838556727105 H
  -0.1519369171030278    1.0365986984701778    0.2036524177617423 H
  -0.1053503318551345    1.0303600018044337    0.3222554647071775 H
   0.8752087287816350    0.3200859860752570    0.0438789648704302 H
   0.1595133730288428    0.5055520401200587    0.1252580438218636 H
   0.1499174996550666    0.6341179812416490    0.2637791536041119 H
   0.1137515768971114    0.6259708832625116    0.0827128981623110 H
   0.3009667064242348    0.6038595025798833    1.0860351799123715 H
   0.4161539864239460    0.5453477263513545    1.0645716465308415 H
   0.5529193816809196    0.4185262207974551    0.2334529996079311 H
   0.4469799796470986    0.3705618410985635    0.2751871137317568 H
   0.6743281795820777    0.6219925143887408    0.1061587839382392 H
  -0.2579171185984630    0.3547907358607242    1.1438160693291675 H
  -0.1674439124742056    0.3764438122882921    0.3148509863379314 H
   0.1137987762742730   -0.0279717007395234    1.0213721795680899 H
   1.3075790232647366    0.9840096849095771    0.2049823716778804 H
   0.4080332935838291    0.9523043085211020    0.0620372422995340 H
   0.5019472543042192   -0.1093467005821933    1.2041126547078147 H
   0.5902692888151306   -0.1002086096326896    1.2901110001043603 H
   0.6466437449032201    0.7361534648757088    0.1716526048915782 H
   0.5043840221488646    0.7384985749557039    0.2911481630795301 H
  -0.0303834011115557   -0.2637200502444125    0.0595222673970345 H
  -0.2287975028581168   -0.0366914790792599    0.0197380916461976 H
   0.9032003594067646    0.7113834396139863    0.3070659488661759 H
   0.8219294318501226    0.7545408235486313    0.1695823633739270 H
   0.8763287140024175    0.8580040089196594    0.2073947157992611 H
   0.1887089877663135    0.2395212169662279    0.4203299518976686 H
   0.2810285695259753    0.0678426825527211    0.3960975506039858 H
   0.2640031941911938    0.0979552716924571    0.5230336401287899 H
   0.5231325747447644    0.2232622136558113    0.3710976216888208 H
   0.4275826356125884    0.1665388638047959    0.4251137801104763 H
   0.5734039113690323    1.0341672064363494    0.4180922643749133 H
   0.5838165739645363    0.1994967785238548    0.5659791339641824 H
   0.6029539214299364    0.2916015367986990    0.6361502265816263 H
   0.8469691014290467    0.1034544428534389    0.5683025474321346 H
   0.8866085783503146    0.2938474675983669    0.5989299440020911 H
   0.7715100971788226    0.0191709546268700    0.4359969692651872 H
   0.0814372833134274    0.6621865174071573    0.3626492096131121 H
   1.2287800630882504    0.4133720975520632    0.4327730327841392 H
   1.2127962740087965    0.5447926423146845    0.4113775994525317 H
   0.4987536964461021    0.4330911780132504    0.6646617145416307 H
   0.3367638340487752    0.5046394307744670    0.5032285432571427 H
   0.4000805985268296    0.5984398348097444    0.5836194504253445 H
   0.8933044899917074    0.6079906395386742    0.3787953308612637 H
   0.9811273310899272    0.3615917150592913    0.5711523342271365 H
   0.6942111172087415    0.6038890963974002    0.5010036745673142 H
   0.7235387302043759    0.5084698305606529    0.4060145202268519 H
  -0.1410922602080792    0.3812516078854445    0.4389388914218494 H
   0.7821659565651251    0.5958051852178262    0.6405198462554922 H
   0.2686879323718385    0.8917489592180892    1.3589641564615349 H
   0.1080884516271688    0.8245150051511063    0.6496460541221966 H
   0.2489649926338579    0.7692009608802246    1.3844095398209002 H
   0.2265756880809714    0.9366435802242722    0.6334077975123850 H
   0.2390219238416391    0.8578680373256624    0.5276484199823777 H
   0.3563835751485552    0.7941917400239655    0.6450641225279834 H
   0.6053042904146929    0.9245821000038332    0.4781004260127115 H
   0.4042453435692538    0.7145131857746347    0.3525832210574740 H
   0.5344452254641116    0.8339130417950160    0.6228578980137665 H
   0.6583859899536816    0.8153113279033218    0.6389607557007906 H
   0.7760132377558119    0.7128519328291538    0.5842996497475139 H
   0.8630008898751054   -0.0553299852846239    0.4784160897735299 H
   0.9251440698396682   -0.1985152722596084    0.5942478652756387 H
   0.8859445871122792   -0.2445664516476716    0.4836613959716962 H
   1.1887725910230109    0.0849604664541646    0.6993334528999398 H
   0.1798083052188660    0.2852980536675797    0.9514855048062056 H
   1.1072296670556077    0.1890165679583102    0.8054982260212519 H
   1.0512624055942170    0.0705476374570647    0.8200451978618061 H
   0.3317583001013206    0.2745427005824176    0.8549116222451884 H
   1.3089710048962806    0.0511456907430529    0.6881313952761788 H
   0.4564310549316165    0.2189391167996128   -0.0313551661645047 H
   0.4463871874695273    0.3100400847775969    0.8033654926930834 H
   0.4422336422793109    0.1385583092589327   -0.2010373365549864 H
   0.5263509322756275    0.0410709154774911   -0.2299702436474537 H
   0.8234254121093108    0.2494623401532197    0.9154004901177353 H
   0.7292050554320922    0.1599634374856826    0.9339477390084566 H
   0.9794873527309241    0.2907609124146353   -0.0107456875267114 H
   0.9116642477181069    0.1253098770061906    0.6801524729564081 H
   0.1554566265612797    0.5440935883549588    0.8358516200374017 H
   0.2609824340528545    0.5115835800631841    0.9043202114067774 H
   1.0036390340276564    0.6465017941231515    0.8625308160659555 H
   0.1665580800675650    0.3727989737362669    0.8669933722785395 H
   0.5653792172621254    0.4495125474035576    0.7698242151634916 H
   0.6700674358064436    0.4884180196106261   -0.0799009677524255 H
   0.7452376438675944    0.4906031631094483   -0.1798974787048536 H
  -0.0826970307859207    0.5403303745328656    0.7588392765224256 H
  -0.1248428746334113    0.4557240497505025    0.6673793071220767 H
   1.0443984961697068    0.6744151627049220    0.7451695935602879 H
   0.2178670029999437   -0.0717953454847537    0.9414387444999573 H
   1.0237427687407030   -0.0698085605465859    0.9006588322521080 H
   0.0139650936699646    0.8462864568487422    0.7407334761906151 H
   0.0636171184666120   -0.2224462728030788   -0.0105793631694883 H
  -0.3511686880597046    0.6735497435007765   -0.1347759879801653 H
   0.3958086548989876   -0.3030534330561186    0.9243576496252197 H
   0.4000525988963100    0.9848895011060281   -0.1103561112549305 H
   0.4311401886674598    0.7403749829528624    0.7394884470426161 H
   0.3783664850641863    0.8617152336028714   -0.0755329504326755 H
   0.5153814770275058   -0.2557033250289311    0.9109219103639931 H
   0.6560780204094262   -0.0394756174412841    0.7159763039239982 H
   0.7154852364775061   -0.0014710770193816    0.8226722574347077 H
   0.8994884083893138   -0.0821307862943367    0.8757021668980705 H
  -0.2768616686079998   -0.1157637599859454   -0.0592006356362647 H
  -0.3267282105738992    0.7196897043413907   -0.0224903022540920 H
   0.1488191141492563    0.3306949697386456    0.1304913323641613 Cl
   0.6930695322729867    0.0873540464082552    1.1099342915499619 Cl
   0.6291703754801256    0.4723941671745336    0.0878212030835741 Cl
   0.0752872044692774    0.0844609708044521    0.1193766030397131 O
   0.4846802821575260    0.1858132371703223    0.0340604599079818 O
   0.3824560310989294    1.2536653507927864    0.2030747691029859 O
  -0.1969635229362598    0.3124547803204022    1.1721537018676043 O
  -0.0894881411710800    1.0464766348576064    0.2449402762643096 O
   0.1625997323015421    0.5860600210927712    0.1358952716197948 O
   0.3655722538956326    0.6014440072041720    1.0431001013787320 O
   0.5097151517997895    0.4116148646578786    0.3010274773806741 O
   0.0300716411295105   -0.2878126170348676    0.0151258499215294 O
   1.2547797199992738    0.9951273623010957    0.2689379326800235 O
   0.4229626965768604    0.9735078788555740    0.1363367201787057 O
   0.5523969885743689   -0.1570295390982205    1.2435465894983679 O
   0.4583094301447576    0.6716477408506303    0.3192382319070713 O
   0.6907455629398630    0.6989044466166860    0.1160765547381631 O
   0.8903525289455019    0.7859518614277480    0.1951767656660645 O
   0.1506350901858109    0.3044964429070490    0.3989873962518835 O
   0.2845749227286389    0.1266959874320540    0.4525244507929060 O
   1.2439958623020246    0.0616613339063272    0.6479812081958503 O
   0.5076551789829931    0.1741132814233341    0.4281975106063893 O
   0.6349470992510332    0.2204795949763081    0.6234507690366232 O
   0.8576329607097833    0.1538679109100880    0.6300380468067964 O
   0.8486090797880497    0.0216000391636519    0.4587023270864850 O
   0.1591389779693241    0.6607476180095069    0.3372094344931521 O
   1.2568996920243265    0.4880500964739284    0.4444197436750427 O
   0.4190483482302254    0.5369038903641413    0.5347708840272377 O
   0.6727690001568597    0.5671319753754842    0.4232798858249099 O
   0.9044883424106644    0.3689237833073527    0.5761524802455811 O
  -0.1705030721058288    0.4220806782311176    0.3791847029114101 O
   0.7349961790129814    0.6470128873499990    0.6029358292916638 O
   0.2865892961471606    0.8324493475772836    1.4131958315117692 O
   0.2213237573849446    0.8564923247275752    0.6109628222349095 O
   0.6227696599433533    0.9723721161292463    0.4153001623280812 O
   0.4262610530520650    0.7675597037573902    0.6647818911003178 O
   0.6067754710011350    0.8691296846402368    0.6269126551038718 O
   0.9145362098199707    0.6813169208496280    0.3770912272590794 O
   0.8685208170346764   -0.1922597791028409    0.5416145384559437 O
   0.1766459469490421    0.2953255588084048    0.8734508593653305 O
   1.0867819368818921    0.1205540705479193    0.7692946371282102 O
   0.4471239777469135    0.0615851898136889   -0.2196719137450204 O
   0.4112940505551931    0.2589403600877159    0.8521315378542250 O
   0.7604694428702370    0.2091587600266998    0.8816469006677962 O
   0.9069203103186494    0.3216600572339985   -0.0316715509846751 O
   0.6807664946226906    0.0260752402435586    0.7565807583961646 O
   0.2121390785850844    0.4953613690664371    0.8417803302659692 O
   1.0383425760830469    0.6117754488492257    0.7944307661432206 O
   0.5287093011548181    0.3934674558567154    0.7234528882284567 O
   0.6772081415783757    0.5178174777314931   -0.1510567069740464 O
  -0.1475113755020500    0.5126673536506307    0.7219570906613303 O
   0.1429359917823743   -0.0873009061978458    0.9724843554941455 O
   0.0371257880436651    0.7968551836004949    0.6817692482592796 O
   0.3553195891888117    0.9382752393522360   -0.0584488912028235 O
   0.4376473028002064   -0.2493494524247423    0.8917176962857818 O
  -0.3570070110177553    0.7431560019665538   -0.0918529271023944 O
   0.9681275026344155   -0.0650559534199381    0.8439915789458134 O
  -0.2192600287137101   -0.0685128312390851   -0.0524128232484954 O
