Li1 Co1 H110 Cl3 O55
1.0
  12.5355789653999992    0.0000000000000000    0.0000000000000000
   0.0000000000000000   12.5380323388000008    0.0000000000000000
   0.0000000000000000    0.0000000000000000   12.5169970113000009
Li Co H Cl O
1 1 110 3 55
direct
   0.7661497334274533    0.2503527734321049    0.6290938632158527 Li
   0.4410367082334107    0.5438501820017335    0.5079146379886936 Co
   0.1985142042157440    0.1000271921072452    0.1296721573261306 H
   0.0966179133842146    0.0430224739276456    0.1699286181645491 H
   0.2811701392036608    0.3109707379948555    0.1921280322691580 H
   0.3712457554250270    0.2522127143997027    0.2635141641978735 H
   0.6518255363596021    0.0352342502764896    0.1851559126847868 H
   0.4922285998701065    1.0569681758109393    0.2715632194072856 H
   0.9825442061109447    0.2614007589737706    0.1339862911356418 H
  -0.0541431328519690    1.0832242892986403    0.1885089533511791 H
  -0.0398107274245132    1.0494630109288230    0.2939583673606593 H
   0.9060180239020651    0.1991206516252250    0.0584081792973177 H
   0.7460629069079120    0.2549994355578444    0.3160267596236460 H
  -0.2797173969370080    0.0808315963792607    0.0156584207476490 H
  -0.1762782176554610    0.3187127821511470    1.1800095496041016 H
   0.1732812252785077    0.5795128751514622    0.2167753178538301 H
   0.0739553781487761    0.5714238866037020    0.2957495318052749 H
   0.1467256109810888    0.6591067039942672    0.0529907457117074 H
   0.1940588854662746    0.5472454515982446    0.0438365532247589 H
   0.4784765425877248    0.4982584986694898    0.3149154707108626 H
   0.6111740434045067    0.6389735608360034    0.1580048316632612 H
   0.3848988942606881    0.4079149767043508    0.3301970913605534 H
  -0.2801561481119781    0.3776933287008280    1.1956602683686062 H
  -0.1163176843546351    0.4854111877320691    0.2802450142420926 H
   0.3181121904067361    0.6792972724311187    1.0617942940868104 H
   1.2435532914536254    0.9353143182690480    0.2004734844495568 H
   1.3038775893649719    0.8334243274411676    0.1828598348017247 H
   0.1214862502085803   -0.0228779782065432    1.0128288753488583 H
   0.3783088516126369    0.9994073097596819    0.2707786861848893 H
   0.6480012215726806   -0.0267576140764771    0.2944616829717689 H
   0.4319697157703009    0.7305676777570572    1.1000303022577744 H
   0.5995255985737544    0.7526110090016830    0.2111733352108130 H
   0.6563869531204733    0.7748880292272293    0.0735412020046809 H
  -0.0213126587960092   -0.2241116273009178    0.0454017049925761 H
   0.8448720646994107    0.8127105509105149    0.1035660553829088 H
   0.8832907130386127    0.7549917653431407    0.2653788286999844 H
   0.9042949283785460    0.8954356525829891    0.1756736063542148 H
   0.7018000929181081    0.8907379457651714    0.0351901502654631 H
   0.7111742112036971   -0.2008200938203182    1.3059742677051445 H
   1.1712949615830914    0.3135381264917240    0.4979921302268178 H
   1.3261980582298158    0.0273231126019561    0.5924876389284818 H
   1.2223895302318848    0.0723266733483949    0.6537491379372092 H
   0.4252209249698514    0.0754393627198546    0.4211885647124921 H
   0.4363061728378238    0.1268206307364003    0.5409481203508545 H
   0.5611237025521423    0.2955911317863700    0.5654819601946101 H
   0.3766136766184341    0.3090095052164151    0.5524093358381227 H
   0.6517569316304250    0.2859452801302261    0.4807779374131997 H
   0.6904555829921987    0.1474020100969753    0.3386775599509166 H
   0.9820496138773420    0.2327295934921217    0.6285466073529795 H
   0.8343260819119471    0.1297237975983454    0.3783907594948041 H
   0.9209196092628685    0.1872144771979953    0.5262912501898745 H
   0.8938366958260764    0.0226208117618514    0.4273138358083295 H
   0.7060129019272303    0.0658593906194240    0.6462129853029278 H
   1.2056053034657550    0.3614978049924058    0.3907203941396534 H
   0.2466085125571507    0.4722600013621206    0.5747213967699798 H
   0.2736587190881723    0.5591635896251801    0.6640990645116940 H
   1.0538133515142734    0.4497947538345362    0.5128551201142524 H
   0.5762781681356103    0.5560793736210203    0.6612173829096741 H
   0.6299294595403659    0.4791310954598286    0.5758222998050737 H
   0.9576231393726418    0.3865902590153877    0.5586864005309614 H
  -0.0659825541032446    0.5076028676130472    0.3961026755238529 H
   0.2383536086324402    0.8032920076487816    1.3439785909122643 H
   0.1781393973795405    0.6892549752529277    1.3595494183099261 H
   0.0494697918948662    0.8488095166628491    0.6307476145094987 H
   0.2134285532470920    0.8814701438597314    0.6103002180797524 H
   0.1818735687432408    0.7895841151058557    0.5316759283150791 H
   0.3305224668231183    0.7224188712107679    0.4474728244037732 H
   0.6153988183547645   -0.1517398248138581    1.3682655664324754 H
   0.5989631993403837    0.8581570758996613    0.5392520266327819 H
   0.5076519002644199    0.9352425366708131    0.4978275540111217 H
   0.4486901241837078    0.7566523129823083    0.4801276216870993 H
   0.8746592808328368    0.6668966025493818    0.3602290550704303 H
   0.7485653840640598    0.8706470739925350    0.5793071612267566 H
   0.9077251648374034   -0.1074665301691956    0.5352350887079259 H
   0.8653737105116509   -0.1700010634048182    0.4335189982710098 H
   0.1767170458432283    0.2748263105636392    0.9371318052653053 H
   1.1518383412966890    0.2235423464913675    0.7337331787655468 H
   1.0575626797367452    0.1270726639035362    0.7303497793797543 H
  -0.3922658483403438    0.0454462992280442   -0.0061393315210210 H
   0.4609799434593254    0.3113168848130105    0.8279442742012504 H
   0.4095040601530126    0.2619415136804735    0.6748899914311509 H
   0.4452255853602618    0.0260564305923036   -0.1219624797323051 H
   0.3425570126878442    0.2700528342810180    0.8164878521959928 H
   0.4822529936101040    0.1391495190199022   -0.1526040145711926 H
   0.6849496546110282    0.1254448167702313    0.7618221844338070 H
   0.8119593447413792    0.2982797514269241    0.8153637806645146 H
   0.9376878814408176    0.0526895410339345    0.8208099751421883 H
   0.1646162884375523    0.5400641014814991    0.8250921524049625 H
   0.0458181855250012    0.5033884902233444    0.8429159163475911 H
   0.1645030108614691    0.3707584287380224    0.8567451119480798 H
   0.5941536887333021    0.3883576814785939   -0.0600562573931562 H
   0.5792808216312240    0.5584314173231840    0.8261307401739189 H
   0.6363184743773399    0.3777523491260434   -0.1687812174431912 H
   0.8153273583063317    0.4156179397682700    0.7675511943501042 H
  -0.1019856777918838    0.5885900570349230    0.7741741886613723 H
  -0.0546172234397594    0.5125645711977066    0.6801764031751391 H
   0.0804078922467094   -0.1929807457197528   -0.0191492411545368 H
   0.1866280360210988   -0.0646496043953879    0.9090020549999553 H
   0.3031372139403012    0.9671933236184835   -0.2237704452410904 H
   0.2846067574977904    0.6676343578645738    0.8076167148217683 H
   0.2117389623587525    0.7014203610071167    0.7100541765470094 H
   1.0530395539875079   -0.0014739019728648    0.8489876602276439 H
   0.6361270193191711    0.6736241334506200    0.7834272067691054 H
   0.4592329160535353   -0.3063302699191791    0.8375871621791764 H
   0.3867855243130596   -0.2555607406342575    0.9270894604531653 H
   0.3626893097837005    0.8707986129221420   -0.1568270722225030 H
  -0.0245044539345055    0.9200248378450131    0.7150162293416156 H
   0.9517279190398613    0.7360127107698317    0.8655810971208934 H
  -0.3070332473612388    0.7956392917036269   -0.1149280448817966 H
   0.9285219705309872    0.7526756124400944    0.7401404663863395 H
  -0.2247666043249318    0.7431980487531458   -0.1964340162484896 H
   0.7018591248943767    0.8677678343300015    0.6949810723647784 H
   0.1462118732416693    0.3092511699304726    0.1155585484596815 Cl
   0.5789146638324763    0.4469242874784537    0.1283028192984450 Cl
   0.8186020375304269    0.1638663160121215    0.9072364557927295 Cl
   0.1638967365106013    0.0283730221606724    0.1277116231838083 O
   0.3318363271598015    0.3200495150249437    0.2583515840724917 O
   0.6442407251384823    0.0480151233568774    0.2656392745558920 O
   0.4146430330060263    1.0668022547691214    0.2896570161698429 O
  -0.3347080760195361    0.0341625510148425    0.0442725204136200 O
  -0.0319124085456419    1.0181742098315412    0.2180751503923625 O
   0.9162449149259141    0.2245369204135778    0.1331889752945506 O
   0.2029416024358970    0.6154427553612876    0.0826796558923614 O
   0.1528681274306705    0.5809158066102977    0.2948595419786461 O
  -0.2127719449306577    0.3645572962238403    1.2324102971162942 O
  -0.0686421839529725    0.5347857612912923    0.3216423237990263 O
   1.2850352207235278    0.8865905645338213    0.2383667586567653 O
   0.3601756644158262    0.7477091234155526    1.0712773993310507 O
   0.5703701841322854    0.7050118336388032    0.1575174943255201 O
   0.6470583054111994   -0.1597386875771678    1.2943101281460956 O
   0.9092966917732055    0.8233669279551437    0.1437546085595109 O
   0.7172194046653763    0.8130200093562387    0.0293124625154715 O
   0.8453427250507424    0.7394677983648718    0.3331546697610738 O
   1.2709632739481225    0.0061309595734666    0.6475016330501022 O
   0.4304819504224477    0.0601616863808627    0.5001404090812207 O
   0.4248603512769669    0.2653997915687686    0.5931331611725715 O
   0.6346137266302287    0.3234192622754156    0.5491625506896313 O
   0.7279361015463738    0.2033717173873589    0.3742268214549573 O
   0.9048453616707812    0.0941158179779379    0.3965964041709413 O
   0.9159816642209321    0.2418338928682489    0.5817885870808940 O
   1.1913897653967229    0.3807695689718506    0.4663144043599792 O
   0.3056851616727641    0.5205179722821341    0.5986752252904566 O
   0.4264342714009960    0.4690489712010791    0.3681303112511833 O
   0.5771963546854114    0.5422446669212128    0.5818373208146681 O
   0.9792495836516236    0.4616490859963741    0.5393039560212297 O
   0.2179349266787396    0.7440020026533767    1.3998945585655400 O
   0.1758594867285140    0.8123612137991051    0.6062073833563958 O
   0.4055696587076442    0.6939415160443533    0.4666211872086555 O
   0.5368248647528878    0.8629504915151256    0.4878099755227030 O
  -0.0220312534476693    0.8604859899757271    0.6608626652408921 O
   0.6857274407848389    0.8940638264833888    0.6208482752440073 O
   0.8539342707860663   -0.1074114976105488    0.4801475945288101 O
   1.0023358727491425    0.0272762631455082    0.7858311379974052 O
   0.1915915084041245    0.2974805829665755    0.8636157694965606 O
   1.1023950725246014    0.1836580977921126    0.6846758849557255 O
   0.4145481032063509    0.2593039387319976    0.7877053894635373 O
   0.5082517927800154    0.0752236988958244   -0.1165897853121268 O
   0.7085153790833780    0.1349646518428072    0.6850489776388814 O
   0.1177903698565138    0.4976914240434341    0.8706941445988327 O
   0.2250634366778906    0.6430340065761579    0.7603330093558571 O
   0.5718579494801386    0.4040738636254697   -0.1348561474270646 O
   0.5727769337593487    0.6215689159839799    0.7751520589915281 O
   0.7757551932416629    0.3485428216576327    0.7665309815955216 O
  -0.0871654608308021    0.5117550342842796    0.7532770038363010 O
   0.1154522249586275   -0.0619793289410494    0.9430996903684624 O
   0.3203011599051325    0.9399242920223564   -0.1504485454937739 O
   0.0348811557812278   -0.2545932842047137   -0.0047628831616864 O
   0.3926911151281575   -0.2619006509050271    0.8465030387188328 O
   0.9034652897931480    0.7174667385058731    0.8086481123677089 O
  -0.3000379581733970    0.7704176308038220   -0.1935307639774222 O
