Li1 Co1 H110 Cl3 O55
1.0
  12.0507715633999997    0.0000000000000000    0.0000000000000000
   0.0000000000000000   12.2069456963000000    0.0000000000000000
   0.0000000000000000    0.0000000000000000   12.5351434309999998
Li Co H Cl O
1 1 110 3 55
direct
   0.8158556263368493    0.4976779613299508    0.5192156556744548 Li
   0.6286385682314460    0.8769669427991948    0.5396924855897168 Co
   0.0035202544066839    1.0075401459292064    1.0152490703877610 H
   0.1205930901647582    0.1497162266195671    0.2219186984825814 H
   0.1516865349312344    0.1183496579851169    1.0655795674796216 H
   0.0250751398041392    0.2056532330573828    0.2923742145970504 H
   0.1789860317534264    0.0065929553716614    1.1297272179972395 H
   0.1449052264008996    0.3251860004098477    0.2756077530757374 H
   0.5782476039014681    0.0480691782202206    0.1960059515094032 H
   0.5391247977375961    0.1352441379910786    0.2907252506171982 H
   0.6183977301779877    1.0747150167282586    0.0267963360251079 H
   0.6051869578085641    0.3007073136495247    0.3282278131197875 H
   0.8561269066815809    0.2663604745276728    0.0164595655913879 H
   0.7222981313608260    0.2598199358879211    0.0468351015472318 H
   0.8501687819571800    0.2119570212378548    0.1835585470693287 H
   0.8832372039999896    0.1010791625438289    0.2517268935029867 H
   0.1407610934101395    0.4553594311380307    0.2469746543022225 H
   0.1144922359901349    0.5412179272823755    0.0963225289081257 H
   0.2909962871050070    0.3838411314978006    0.2350617471367010 H
   0.4214676010559950    0.3567524552452121    0.2570710684913901 H
   0.3829588634570333    0.3427890933821652    1.0827233681216264 H
   0.4189963899934231    0.5383220349863432    0.1907479342906292 H
   0.4874467788884615    0.5964569704284742    0.0968607756411718 H
   0.5227316565216438    0.6370789255298475    0.2671722692233150 H
  -0.0033751547015903    0.5320960713513091    0.1520184213279466 H
  -0.1600337545321359    0.4391489879261814    0.1278096835763283 H
  -0.1703277012182352    0.5164295807517838    0.2230602889301714 H
   0.8229838006241200    0.6163538394768570    0.0522535477240843 H
   0.0899128969460189    0.6904657444945236    1.2165471260414173 H
   0.2267597362810699    0.8453456011791532    0.1872170612500748 H
   0.0518480313408013    0.8091178656749277    1.2666781838517280 H
   0.3198575096557954    0.9173701699676005    0.2357254810656981 H
   0.4423882532045840   -0.0039884466607202    0.3140101856166786 H
   0.5063741976682469    0.9310754820220901    1.0079176823979974 H
   0.3842484074433450    0.8826686147596998    1.0039927173371008 H
   0.6892056444688509    0.9686524493824867    0.0724069669003854 H
  -0.2063129489443691    0.7889924382246799    1.0661140647541747 H
  -0.1541611015133916    0.8799488516980797    1.1404490737733466 H
   0.1919047066433250    0.0957256530234410    0.3805957819119589 H
   0.2459128667495790    0.1296686237147572    0.4956459213809215 H
   0.2001124798534989    1.2897647159167858    0.6223369328353718 H
   0.3683116685391504    0.2506522044353333    0.5726454392015963 H
   0.5034490737610724    0.2865285006764760    0.4042125838759379 H
  -0.4301484092556722    0.2229982762211430    0.5835874759445344 H
   0.5726214081310730    1.0624842750083825    0.6231107572477844 H
   0.6332092299281034    0.0075350419743310    0.3690450564817315 H
   0.8398043003683546    0.1775675834174474    0.4166703591586530 H
   0.7746673922566772    0.1440833679413441    0.5201482337549808 H
   0.9383457085887723    1.0336564249666917    0.5394850687369052 H
   0.8700181334067159    0.2803926496730016    0.5547174433045384 H
   0.1368916316288190    0.4381585681847661    0.5972913478583713 H
   0.1716578702713674    0.5656441848752456    0.4769792023850039 H
   0.1929627301842179    0.4470494080967430    0.4136604215215063 H
   0.0209686807496587    0.3756318707627116    0.6165252721710162 H
   0.3745751679012364    0.5765002993609656    0.6179109762992229 H
   0.3567356462682045    0.5164828291249781    0.4857768679727204 H
   0.4541335592420728    0.3488938145674644    0.5578542243247507 H
   0.6302608709941484    0.6042574474985789    0.3390725234933293 H
   0.4660448297565644    0.5766829822413093    0.4440916648574725 H
   0.8475797361159363    0.3643202778847444    0.6529444804962280 H
   0.6759508915130217    0.5850446152443084    0.6529149634825586 H
   0.9868571252166932    0.6556798110952533    0.5236950619380591 H
   0.9195668280159045    0.6328944226025114    0.6342275028013599 H
   0.3277482907148939   -0.0017497048263657    0.3855993146074756 H
   0.1025909233442635    0.7071365813330689    0.3991899050093924 H
   0.1963666616075455    0.9301743557064930    0.5306834143635576 H
   0.1224693185772749    0.7513556688451573    0.5194350388841594 H
   0.1871813576278251    0.8468693238582536    0.6360057034356562 H
   1.0176186410291639    0.9399966325465009    0.5751248683498211 H
   0.4678978231423007    0.8540209899811284    0.4194545315290857 H
   0.5327940827623240    0.7321911697296325    0.4392117845165166 H
   0.7592078012238658   -0.0237105299721067    0.3789204919469421 H
   0.8222618551491576    0.9134134062363881    0.6267293835722206 H
   0.7937375404866851    0.7131241560973406    0.5059752806509390 H
   0.7642539511471360    0.7890817316504981    0.3973678277331552 H
   0.2536625780032251    1.1735276132621819    0.6733519055415107 H
   0.2946151425260532    0.0368618702331402    0.7770858601753482 H
   0.2175478779850290    0.1692174192948286    0.8927773963737743 H
   0.1643147719863781    0.0564473591791971    0.7740200795393675 H
   0.2687794523910260    0.2513460716983431    0.9757042496421038 H
   0.6160875046581086    0.2381224526198272   -0.0992742756674405 H
  -0.3370390183675565    0.2096738948364285    0.6725118672876237 H
   0.5116385908787759    0.2430753705326451   -0.0208936009341783 H
  -0.0179189537503004    1.0235228499449323    0.7164634983984014 H
   0.7778696768404464    0.3164098493016739    0.8267789493233761 H
   0.9303379225733867    0.1727064165476720    0.8489167095753833 H
   0.9852472697897660    0.2843248372319705    0.8750113451733348 H
   0.1270814713931830    0.5040284442376856    0.9214806977743947 H
   1.1160770670110800    0.4083632361624206   -0.2226753367334485 H
   0.1213490583575060    0.6338291363535080    0.9529522164029238 H
   0.2805786968835406    0.5443391011573071    0.9044565607013196 H
   1.1379594833039004    0.3423704792482833   -0.1155804313269369 H
   0.3655649564447540    0.5565034872121257    0.7477810499015741 H
   0.4135859480431316    0.5543694562556437    0.8995423768039372 H
   0.3737710700101578    0.3949045050361080    0.9612568680866497 H
   0.5885689347262729    0.6549695597174147   -0.0274103193466682 H
   0.6993128811183220    0.3872834340233814    0.7631115485957298 H
   0.7868002253479676    0.6638210777538019   -0.0667800324031250 H
   0.7730965384818456    0.5453835884776582    0.7162457107029493 H
   1.0714741138165753    0.8461074625187035    0.9259401601098440 H
   0.1848313006334653    0.7792586356047490    0.7981729742921521 H
   0.2770760165963964    0.7204429401914715    0.7195141216489843 H
   1.0193944609330938    0.7536322416006520    0.8510945865299051 H
   0.0041858549417037    0.9985124986584071    0.8360329319872782 H
   0.3488813773940466    0.8724367350489662    0.7605044783073133 H
   0.4293202102853829    0.9286260568551490    0.8391202520656663 H
   0.5698597592337462    0.6897554931166848    0.7998426799572854 H
   0.4972652373479478    0.6813594534725448    0.7063782528090006 H
   0.5045967181195469    0.9715852059368844    0.6809824524535989 H
   0.4941351473116747    0.7450617111335825   -0.0447001095427673 H
   0.7733977640076058    0.8145926176450504    0.6961190961660884 H
  -0.0829574449271151    0.9081786815485107    0.9944116542514575 H
   0.9023729081984134    0.8973651657613462    0.3025575843129736 Cl
   0.7476384175319998    0.4446589657431866    0.3621141425693193 Cl
   0.8569982201858456    0.6888519091838634    0.7914917583602399 Cl
   0.1054571298621020    0.1996533702069894    0.2791737274298445 O
   0.1237090732204859    0.0635823135049462    1.1159659075703161 O
   0.5496237105527938    0.0555559814119233    0.2734242918213323 O
   0.6138718788901211    1.0073599206660870    0.0715867130232281 O
   0.3892157242400392    0.3284112134139436    1.0041682239048646 O
   0.5285926920269979    0.2767070430422097    0.3286147253259938 O
   0.8777022886919460    0.1825393430623187    0.2521409294514837 O
   0.7994276325807264    0.2785518943719593    0.0729426608106276 O
   0.0747644893075876    0.5534175391840767    0.1622911398420041 O
   0.1818655154294251    0.3953919324522718    0.2836204256512747 O
   0.3665142732532100    0.3877864263486328    0.2031745970454225 O
   0.4560537682409952    0.6054903521394639    0.1697541577575906 O
   0.7719098924712756    0.6611136027783036    0.0120232142798845 O
  -0.1347308103682878    0.5101266117770532    0.1519625783291127 O
   0.1122010963851112    0.7528843067587063    1.2646439031799221 O
   0.2780618455897931    0.9071710584865249    0.1685024768265853 O
  -0.1980321513643140    0.8732559407904180    1.0719616244892094 O
   0.2301620080596274    0.0687904959268005    0.4431351540631606 O
   0.2487359225033968    1.2203861816732280    0.5988477720115846 O
   0.4534008260761054    0.2700944142972103    0.5478742826760081 O
  -0.3653907299739463    0.1735575713130405    0.6072824581068809 O
   0.8479448579653422    0.1682679598404859    0.4920065533712041 O
   0.1025668584950981    0.3821289914981663    0.6379649949375996 O
   0.2074066186177723    0.4956004555696288    0.4752791819490749 O
   0.4367155873806280    0.5281778102899448    0.4991927495639998 O
   0.5585799835542503    0.6461819397288606    0.3400617423298154 O
   0.8954853824027968    0.3536222701071245    0.5903069842185039 O
   0.7235329070697268    0.5173470911822099    0.6605104090810942 O
   0.9137497730969560    0.6213567289399035    0.5559140789938362 O
   0.0993222529696932    0.6826841091564725    0.4773022940211142 O
   0.1500957654191624    0.8755579089238977    0.5685058774737525 O
   0.3829497354107981   -0.0511808741796377    0.3434266818881205 O
   0.5253414479225128    0.9909512296648064    0.6072401769791923 O
   0.5091947639549096    0.8054666656852768    0.4740522314889817 O
   0.7548802774860174    0.8789985730379956    0.6563860047386481 O
   0.6952235164049728   -0.0053587976409060    0.4193707670308348 O
   0.9411505082501197    0.9687753302437045    0.5833433622639176 O
   0.7341994440066975    0.7507986089409701    0.4617340637033513 O
   0.0208393114398350    1.0532436342448055    0.7805034517039824 O
   0.1967699552866623    0.2171827346625763    0.9554491962079250 O
   0.2380851521917415    0.0945664768992866    0.7747021618822671 O
   0.5862777951212491    0.2086171194299556   -0.0337082927551545 O
   0.9156251716870878    0.2440993777094599    0.8834276828547284 O
   0.7133899880577003    0.3075018060691264    0.7776602453062111 O
   0.1648840301424977    0.5665813562434665    0.9592624752711535 O
   1.0940950720320579    0.3976857085283371   -0.1522421578185131 O
   0.3482789263425264    0.5006426669082650    0.8841376866970451 O
   0.3562701159102116    0.6081994655264452    0.6874586448040779 O
   0.5106535917077644    0.6597684669508396   -0.0487988261057497 O
   1.0848010613199006    0.7765093811364366    0.8885971490324944 O
   0.2446017473812568    0.7871385756317744    0.7454085202082600 O
   0.3932710662356028    0.9372113330255645    0.7674657069905210 O
   0.5731856873528826    0.7090240313613740    0.7228192294228245 O
   0.4595348731461292    0.8724449271063807    0.9750580663698829 O
  -0.0168790560197634    0.9478118553199516    0.9694498337727078 O
