Li1 Co1 H90 C51 N3 Cl6 O45
1.0
  14.0644610341000007    0.0000000000000000    0.0000000000000000
   0.0000000000000000   13.7259321841999995    0.0000000000000000
   0.0000000000000000    0.0000000000000000   14.1862260955000004
Li Co H C N Cl O
1 1 90 51 3 6 45
direct
   0.8645183761339965    0.4851380950115127    0.4144860661402532 Li
   0.5326994753823092    0.8092557534916456    0.6117499459883045 Co
   0.0906152757158642    0.0574692910845075    1.0555078529623734 H
   0.1750742533560275    0.2162963908212721    1.0016612559282045 H
   0.0135195379288964    0.1337111073747425    0.3218123704618069 H
   0.3098600795177129    0.2568794268238259    0.3265310320388443 H
   0.3434148669251920    0.1639626046448495    0.1349846699755780 H
   0.4348659361756609    0.3284723785310453    0.0958022971402599 H
  -0.0200146301317556    0.1307080326511584    1.0465590318209799 H
   0.8346658279999423    0.2753182473427946    0.1765432914180357 H
   1.1385786469580645    0.3589664822744550    0.2561733489397000 H
   1.0127714798216934    0.4679475904371415    0.1750552282884980 H
   0.3037183582110402    0.3731819102236477    0.2701051725740839 H
   0.5445474231704246    0.4142826524121740    0.0213653050261298 H
   0.5726107097082480    0.6364062910171755    1.0092679301256664 H
   0.4017832607093291    0.4276990818049972    0.1738822595307761 H
   0.5235259990800759    0.3660479685222078    0.3306773074192049 H
   0.9898825828195624    0.3436400186742517    0.1946171609781249 H
   0.8670275373392811    0.5214617481746775    0.0979797613786029 H
   0.7594528498818872    0.4543804026133256    0.1154396551045720 H
   0.8837242311856105    0.5829629262856780    0.2361236191465013 H
   0.2597692869667645   -0.0187258981357834    1.0222312086439986 H
   0.2128033919780790    0.6866353021144048    0.1515458045873071 H
   0.2663233952099816    0.7581648701484192    0.0663765712854876 H
   0.1563618406043475    0.8307683178870824    0.2785394100657558 H
   0.2138123179486935    0.9985026450790965    0.2737608312144358 H
   0.4101248530188781    0.8162913412174222    0.2972011738229243 H
   0.4262939759912147    0.7715737954971733    0.1777381123581430 H
   0.6481097990388296    0.8811226392347864    0.0472382889704946 H
   0.4073959891180897    0.8495422704712740    1.0460162518068898 H
   0.7259712967062427    0.9819019510830784    0.1715870754711954 H
   0.7501577905345693    0.9362015941541650    0.2928716220741697 H
   0.7630050656318452    0.7715023977963215    0.0762079386316094 H
   0.8789497858771703    0.8122996269014308    0.0388089858425872 H
   0.9674110498376925    0.9224028956425974    0.1655840694971814 H
   0.1434527074665899    0.2591976664576067    0.4857986191187305 H
   0.1797150284160707    0.0479384265687563    0.5482075356297144 H
   0.0311618776814398    0.2799161135680588    0.5192021118313072 H
   0.5554689934764302    0.2238725611392126    0.3486052607936880 H
   0.5288750842542320    0.0882402430557100    0.6192537034558219 H
   0.5961860176561374    0.1527742935021808    0.5322754619070423 H
   0.4685000725178269    0.2749787439897645    0.5870661437111733 H
   0.6522670859663724    0.0829451564251886    0.6250551054246024 H
  -0.0001361577663984    0.0171980736122046    0.5595157580505375 H
  -0.0547148578060847    0.0173984243033705    0.4468110126702865 H
  -0.1256944707169239    0.1857403605005930    0.4441440595465095 H
   0.7257331076997904    0.2615800183125606    0.6225569075415699 H
   0.6894188828772618    0.3105202280546177    0.4132863108363815 H
   0.1551189916990379    0.6026716059126543    0.5361741027173381 H
   0.0433927054097778    0.5454856902701789    0.5097839128613654 H
   0.5669682609995778    0.3827965577557046    0.5302876182190762 H
   0.6868798591696758    0.4170869063953247    0.5299914859022979 H
   0.2539802275920331    0.7156322397838298    0.3447578668756316 H
   0.0994538653851451    0.7658372087981192    0.5950732062826652 H
   0.6493860655062383    0.8433386845248114    0.3613542469428210 H
   0.9195251053733373    0.7643713702867531    0.3639024933726074 H
  -0.0792326832075659    0.7097375581757466    0.6305851173863380 H
   0.1200035330403262    0.0891443710838438    0.7926232792290547 H
   0.2657161909965179    0.1002889693484400    0.9114392341315831 H
   0.1529212537320403    0.2422509121768476    0.8819662793664939 H
   0.0669556417495710    0.2728987395414790    0.9712049529557704 H
   0.0849492214101366    0.3271201935026679    0.6705302018778190 H
   0.5724327434147704    0.1332193374964263    0.7975386104475610 H
   0.5935908240037462    0.2687831720709486    0.8097990945840131 H
   0.4716289517470633    0.3258751050255681    0.7048381282229649 H
   0.4436284475652690    0.2001320970580116    0.6807986128716497 H
  -0.0095065843814296    0.0119984267654750    0.9953473850370298 H
   0.6864134353242048    0.1895309955774508    0.7705673781110505 H
  -0.0159099580892201    0.1951837992601992    0.8004794912511761 H
  -0.0694790211463323    0.2109575913126782    0.9173357988301067 H
  -0.0778390997668298    0.0953435857424991    0.8675727402655788 H
   0.1407601051757391    0.5643711106934555    0.7995631094092059 H
   0.5391497758794306    0.5325434727496460    0.8582756940242365 H
   0.6482562675024988    0.5695051882230762    0.8200569319412055 H
   0.4267319593583032    0.6245885144302621    0.9292727296854324 H
   0.6563248312195770    0.3616876089344711    0.6758846914713619 H
   0.5392172509143929    0.5867003773608810    0.7444194796140945 H
   0.6805212792153374    0.6639964025606322    0.9356754191243672 H
   0.8881559687295434    0.4532388408024611   -0.0564707588126005 H
  -0.1733699556412496    0.5296082258418711    0.7398305213131515 H
  -0.0747988126277545    0.6486262260823564    0.7396698020362521 H
   0.2529442831669553   -0.0008021610301029    0.8396576346318390 H
   0.0744539738750827   -0.0063893953957424    0.8486127999552154 H
   0.1089892467747941    0.6976145199902932    0.7569358457571892 H
   0.3308960793532325    0.7698332944019181    0.9289731433140191 H
   0.1077001820921132    0.7447668730191831   -0.0037632948989115 H
   0.4160205641875432    0.6798772911643890    0.8145071825244123 H
   0.4220456795328482    0.8525992577444808    0.8882413802566621 H
   0.5463513316130223    0.7803462415783659    0.7438125528710666 H
   0.5795363928015307    0.8434406812403141    0.8543119901031609 H
   0.6050530478038008    0.7586610113145427    0.9787376116967653 H
   0.6570685497292760    0.7491971732118359    0.7959116802235092 H
   0.0275307396039707    0.0758884408083436    1.0116561621876625 C
   0.2587802693310176    0.2653691962934826    0.1827260492148977 C
   0.3223710459581172    0.2951347520690165    0.2604859828698336 C
   0.4839378485885609    0.2050556242249163    0.2297420769808426 C
   0.4335775825049396    0.3016210146270147    0.2529307670373439 C
   1.0274538767865915    0.4111526646325859    0.3188200312932197 C
   0.4525451774489054    0.3682438120973855    0.1668232997111687 C
   0.5534932334432070    0.3932483069028510    0.1575579743797408 C
   0.9789038471520082    0.4168153037129007    0.2230383913522760 C
   0.8203837307682759    0.3602829684524065    0.2826497350815467 C
   0.8800603865580018    0.3684397915007440    0.0559192446503892 C
   0.8407044525724789    0.4500913678716440    0.1173591226089450 C
   0.8717266153800080    0.4396310947132736    0.2206043401981813 C
   0.1274101446230548    0.8082627426114309    0.1188295630107526 C
   0.2251024768545347    0.7663326214162748    0.1350593903411540 C
   0.2789310592768859    0.8227878034469709    0.2110704444961452 C
   0.2959597957083298    0.9339991936472765    0.1761245754071663 C
   0.3613373453898017    0.6715550877273436    0.2725399286372878 C
   0.3775121564578149    0.7751036104015316    0.2382171992008486 C
   0.6502414128935882    0.8531609682277131    0.2207650594750807 C
   0.7379788666792790    0.9160922131448571    0.2178756370364378 C
   0.8105731877502774    0.8366775704545231    0.0699631488331371 C
   0.8279958248073169    0.8671039192369202    0.1742819429956970 C
   0.8714692290506475    0.7845397636814589    0.2347589151110749 C
   0.0461500097889485    0.1340593533033871    0.4542621134273462 C
   0.0836445144643454    0.2199420448525226    0.5133184808051193 C
   0.1199978449446498    0.2000024155197298    0.6182477981569823 C
   0.1275423928475328    0.0716679624304391    0.4191758264438131 C
   0.4863119175215292    0.2620156899973503    0.6573335984443389 C
   0.5912210211425353    0.1325563588456594    0.6070002684104620 C
   0.6569419896004745    0.3039516395762494    0.6263408596397976 C
  -0.0270564925792303    0.0630579825460828    0.5007340923428044 C
  -0.1137572909278839    0.1068393441276114    0.5473464891528169 C
   0.0451325516748192    0.6147064897939947    0.6531386843354431 C
   0.0733504833138468    0.6084825045044318    0.5455379743422333 C
   0.6390785251285082    0.3542484056344913    0.5329886889437387 C
  -0.0643796433723734    0.6382138185254754    0.6617082643760829 C
  -0.1340218427872817    0.5663236192473625    0.6134812027605189 C
   0.0435789905431823    0.7002715344291363    0.4878644257541749 C
   0.1172469396731150    0.0600891495769889    0.8615979306559333 C
   0.2171071473692910    0.0360405097053765    0.9001367214745445 C
   0.1188573817615167    0.2208381588530099    0.9455427368350586 C
   0.6121610343635145    0.2011345790618087    0.7669406207441760 C
  -0.0318245387800345    0.1601537558687948    0.8724803174838839 C
   0.0788274084383316    0.5122325753724235    0.6892117030900453 C
   0.5705115891000413    0.5831181070028356    0.8127505490242662 C
   0.6064665395794046    0.6801271831173704    0.9542194630602981 C
   0.4486764191745516    0.6890635524913350    0.8834198019496804 C
   0.4082435153738843    0.7840938923251191    0.9262909641534832 C
   0.5858321192986440    0.7742992934449968    0.8120301319146560 C
   0.7770176893308387    0.9102951569644694   -0.0011135415573992 C
   0.5881245640586549    0.2237086378464405    0.6645363597222247 N
   0.0597431364318021    0.1289500464046741    0.9228763844284805 N
   0.5527428314210882    0.6806094818721041    0.8661438895012146 N
   0.6567848559574119    0.8338398761196468    0.5233962857856385 Cl
   0.4637576227475668    0.6672398981136153    0.6086257888162953 Cl
   0.4295184152278159    0.9275187594730212    0.6091579951937471 Cl
   0.4580471301943667    0.3954747494926794    0.9026335095393587 Cl
   0.8302106270613440    0.5451425441773093    0.8710810729021063 Cl
   0.1623798458300569    0.6840744560073214   -0.1156267312573229 Cl
   0.2845025489919922    0.1981213046666744    0.1179745082612835 O
   0.1773246062080325    0.3021827251102470    0.1705198430798547 O
   0.2657666728456466    1.0061589556735033    0.2272629116437586 O
   0.4610530754557953    0.1470588346941951    0.1684664428447322 O
   0.5490504041127052    0.1745476780701171    0.2956933732383287 O
   0.8064080796911794    0.2731384318229102    0.2425058662212691 O
   0.8851796726668284    0.2809404520108922    0.0797522216327065 O
   1.1169617503515850    0.3893877312210770    0.3188961614770141 O
   0.4073860349506559    0.5980424121247715    0.2451654882903103 O
   0.5982131127528409    0.4141759201348801    0.0746317618634207 O
   0.6055799076658341    0.3946063203149714    0.2299479104407313 O
   0.8504446054064808    0.5321667405954573    0.2684458165310086 O
   0.0750291825503661    0.7837485605883460    0.0479791484442720 O
   0.0988736796261448    0.8766755824388724    0.1763896212322284 O
   0.2253854596144393    0.8254688599687537    0.2997346171614173 O
   0.3402565518008299    0.9540954607931627    0.1010045263662138 O
   0.6101965083192523    0.8309132989326897    0.1467002593706124 O
   0.6169532549709438    0.8210531307354585    0.3030878697939189 O
   0.4391959990093766    0.7918762417179683    1.0191838865648932 O
   0.8670765971644905    0.7994261843090653    0.3276525424315940 O
   0.8982196320051448    0.9468857501030638    0.1669501833508262 O
   0.9018301507357867    0.7105455178721209    0.1957090651882878 O
   0.1760910004581972    0.1297011793595541    0.6286141915169928 O
   0.0068630439635028    0.1803891756765452    0.3703735589951355 O
   0.1810958136415347    0.0218411098114771    0.4797762986351242 O
   0.1431448392881008    0.0604599804926377    0.3340235109606145 O
   0.6432969590845731    0.2880088243952232    0.4591235190989981 O
  -0.1470063431927525    0.0755256239203414    0.6206106534910469 O
  -0.1678901864689265    0.1683404493838152    0.4944421441249262 O
   0.3013378901704358    0.6605277856855755    0.3490937628063691 O
   0.0510474601663926    0.4356033172728722    0.6456849754146793 O
   0.4608893294015088    0.3335117448248422    0.3421010644430272 O
   0.9902949697561066    0.4363067303358563    0.3912445079005614 O
   0.7850279500672331    0.3798393815540967    0.3590188830640155 O
  -0.1536343966797638    0.5639405388444408    0.5294967806894558 O
   0.0729117889347987    0.7811389017674147    0.5264992251934604 O
  -0.0045031932220112    0.7018670544787843    0.4150189774268144 O
   0.0955049049617531    0.2562929457096859    0.6890770654501865 O
   0.1276191821391652    0.5013357562717019    0.7642619661291863 O
  -0.1727855038104919    0.5007705487582238    0.6741181892436869 O
   0.9113747752809098    0.3872166582768071   -0.0317418423524801 O
   0.2060189158599647   -0.0293080573691794    0.9760152527170046 O
   0.1094186979983678    0.6868851940673864    0.6848899053414920 O
   0.6829792475595338    0.9263538112723879   -0.0022491501323330 O
   0.8313134066106205    0.9522493202425654   -0.0570847346467205 O
