Li1 Co1 H90 C51 N3 Cl6 O45
1.0
  13.6017594132999999    0.0000000000000000    0.0000000000000000
   0.0000000000000000   12.8164122588999998    0.0000000000000000
   0.0000000000000000    0.0000000000000000   14.6234952466999992
Li Co H C N Cl O
1 1 90 51 3 6 45
direct
  -0.0016583732085383    0.3157833524502560    0.4782200496819067 Li
   0.2062492888866189    0.4082707799810661    0.4594209872578917 Co
   1.0421485026958663    0.0547414998306410    0.1144166695563139 H
   1.0404568097831466    0.2489112838333278    0.2108224861013112 H
   0.3352546584628687    0.1075901431418490    0.2295526183562390 H
   0.3754467382805315    0.0814010667279784    0.1158383542937361 H
   0.4293472652434715    0.1864117337393650    0.1943407903142257 H
   0.5747280898790282    0.1428948751416946    0.1729143122585975 H
   0.5700323738279454    0.0218290129755870    0.1107725339306654 H
   0.6336403214258138    0.0189444303597050    0.2149582962465395 H
   0.9125196843625604    0.2710906577686976    0.2141602654199057 H
   0.7303631026502477    0.2757573303750244    0.3134969818131914 H
   0.8790534256111449    0.1416152658665941    0.0150594382317522 H
   1.0415375523219115    0.3848292743606948    0.0517845843708869 H
   0.9803226774884511    0.5562960589496460    0.1510570206461748 H
   0.3864181865664113    0.4985513496620627    0.0929895076696432 H
   0.3695369881109026    0.3686909046030921    0.0690013985286934 H
   0.6262567178089318    0.3503748583291446    0.0656342144752701 H
   0.6613117416122325    0.5199957285138076    0.2508621613035943 H
   0.7919639569618384    0.5836040132296716    0.1103957430262308 H
   0.7648498176219393    0.6539240046433491    0.2129710832369440 H
   0.7588748553004816    0.7173145997325343    0.1064329421347628 H
   0.9447890391322690    0.6173544881100048    0.2584725169759234 H
   0.8358193128665107    0.3603874107820270    0.3205513828479426 H
   0.2370813295996706    0.9168696661844550    1.0626113224816494 H
   1.0487858793216962    0.6699152193343152    0.1943742980353097 H
   0.4247980743542770   -0.0897045403405801    0.1362479755891204 H
   0.5011119517328921   -0.2402864630358196    0.2067748901605694 H
   0.5931411489833605   -0.1486929674235964    0.1944310560118398 H
   0.3810410880766024   -0.0932858858117454    0.2444013256137602 H
   0.8693282131602722    0.9731685730410864    0.2987624743397730 H
   0.9770672162900489    0.8252207728536147    0.3236990571367134 H
   0.8668314773360233    0.8619869122755720    0.1488933792276062 H
   0.9913469865828597    0.8286429474149506    0.1695628563191524 H
   0.8697935941310465    0.7426493028804080    0.3173681493449602 H
   0.2160046444967361    0.9812379139697993    0.4576648407575675 H
   0.5380600394566457    0.1156282740882425    0.3358650952143849 H
   0.4269805126034768    0.0375151500893797    0.3639992719662010 H
   0.6165351813530889    1.0459642963022602    0.5222542555360313 H
   0.7751705412676417    1.1498818336829055    0.6821263627552393 H
   0.7224273645798878    0.1895537987093831    0.5238327427315059 H
   0.4697529938922670    0.4082231847580288    0.4386312242859643 H
   0.3907339517712127    0.6578314944297535    0.6117334790681265 H
   0.6987899813391857    0.4805261804233331    0.4867687583107970 H
   0.8872876544779255    0.5016793701400369    0.6675915339462399 H
   0.7808190752304519    0.5362569095518376    0.4060405206299728 H
   0.2376047912919160    0.6595628681989291    0.5105282695725391 H
   0.1035860996940076    0.7187705454077402    0.4637748027394790 H
   0.1959572380021491    0.7474532994089407    0.3305708752831088 H
   0.2283765733690740    0.7549600804063443    0.6004858260805742 H
   0.0888453596244583    0.8557730047957548    0.4305599664909693 H
   0.0943549409751417    0.8336076753524289    0.5420244264235448 H
   0.2456008156807648    0.9216564972227120    0.5726662116083225 H
   0.2656217550111371    0.8616194147337596    0.3329006876450125 H
   0.3380690002576933    0.9246760630121259    0.4794387733659057 H
   0.5422190602333760   -0.0246192432114447    0.3407544871684826 H
   0.5570222922184320   -0.2492304637190372    0.3438734405534671 H
   0.4054249188680583    0.8212664680937311    0.6571275513334285 H
   0.3232415067054405    0.7450142392906699    0.3727023896444948 H
   0.4250264271655290    0.6984629901619839    0.4977077299657506 H
   0.5782710138887618    0.9348512974978488    0.5933821892107608 H
   0.6545258547871982    0.6321971754516125    0.5377103415255285 H
   0.7944459888059680    0.7894135601384248    0.6703576305132783 H
   0.7939445830839015    0.9233590017582420    0.4243432584833187 H
   1.1710965267496511    0.2627248220079491   -0.0659711211529750 H
   0.4239445818282551    0.1731326665119655   -0.0876588226668501 H
   0.4294442379923580    1.0523178684529573    0.7939717165785045 H
   0.6550316717033003    1.2647657786010733    0.7013057720051100 H
   0.8972834201629925    0.2523240953999678   -0.0466337469322795 H
   0.7196578699244268    0.9550207485718412    0.9210904367367029 H
   1.0387121825419974    0.7126580703704614    0.7329842450503650 H
   0.1348783749847919    0.5806312624137369   -0.1086449135310882 H
   0.2996085346587741    0.4226914615467403   -0.1769767304560121 H
   0.4637125253393781    0.5740451758947593   -0.0683070879942614 H
   0.4318225332567462    0.4194519434069294   -0.1587328020723239 H
   0.6492074251780650    0.4208247925042095    0.8872278073416034 H
   0.9510823426233084    0.6456151271003339    0.0170110920271360 H
   0.6737248416289042    0.5881942213793155    0.8383003800795431 H
   0.8005216733912425    0.3804051813419465   -0.0302368461944679 H
   0.9220427170867934    0.4069903124314518    0.7456453768028291 H
   0.9113514531420860    0.4917478856162296    0.8950809230340311 H
   0.7964244093310132    0.6586757244514966    0.8608845840901764 H
   0.2365865406686579    0.8807402104018160    0.8290707124985003 H
   0.0835975091198976    0.8077876569794865    0.8275108938904868 H
   0.2066235051806539    0.9947908487920527    0.8811676966426925 H
   0.3411700696648434    0.7438867786793771    0.9642442785066729 H
   0.4458067616363491    0.8136496719086511    1.0006548623662432 H
   0.5801090114036682    0.7954433287225567    0.9044432538373248 H
   0.7579543861450164    0.9263075648378790    0.7270581652357901 H
   0.8613483631495547    0.7497963888315790    0.0151332919843455 H
   0.9910102654381289    0.7706906917449423    0.0521429118371732 H
   0.6373442540178531    0.9475748270399608    0.7811998041971505 H
   1.0690479639260244    0.2091794158414577    0.0310070619746208 C
   0.3990919146306968    0.1075199206816301    0.1877130998500139 C
   0.5700603113901720    0.0554686924186859    0.1774289648013881 C
   0.4972848733073540    0.0441542935783005    0.3230637780982020 C
   0.9779678350723532    0.2556003632939598    0.0815394406935018 C
   0.9715017598149124    0.2244036452169216    0.1782146866692564 C
   0.9504875666274848    0.1140810392147521    0.2065567480580019 C
   0.7824887121729930    0.2580409839113466    0.0571916364241806 C
   0.8846115300962217    0.2242241878185843    0.0219182635883395 C
   0.4040362014656956    0.4441640542225020    0.0367813312977538 C
   0.5136131285904781    0.4329787086590078    0.0190133493196672 C
   0.7955679024890667    0.6584814423115576    0.1463625205391985 C
   0.4478068183329408   -0.0824240317149931    0.2077657613411970 C
   0.5249168868270532   -0.1670951532487458    0.2329526262997038 C
   0.9748792640483044    0.6307225037870149    0.1888427887322753 C
   0.9139503816281636    0.8130449785012104    0.1838227850490542 C
   0.8978943705369473    0.8206656759340802    0.2921635047793475 C
   0.9266847636104411    0.7176352823008675    0.0492113281578423 C
   0.6745173861573319    1.0525230740867082    0.6593260681351660 C
   0.7841995202598678    0.2800448016961690    0.4377566043825670 C
   0.5827689614072407    0.3833030282003143    0.3569346134658118 C
   0.6423436072583986    0.6064489400380052    0.4074198078427581 C
   0.6890316849330448    0.4255018268246665    0.3495362454166674 C
   0.7646270523231325    0.3377091452792796    0.3506303750847172 C
   0.7044502784860914    0.5111055650500912    0.4197992012056994 C
   0.2709541534013835    0.7282396540434837    0.5392118977287185 C
   0.1201493980993380    0.8028993934986911    0.4765588873133901 C
   0.2592534612214895    0.9208395759354984    0.4956126768007479 C
   0.2566927630837219    0.7893558216711337    0.3697475557097177 C
   0.3809449975665231    0.7172451575218733    0.5606847395290303 C
   0.6389896293931974    0.9904089672743914    0.5776270639063646 C
   0.7259680829926036    0.9275208529005505    0.5380178603453548 C
   0.5826880895165848    1.1226230351250330    0.6885830954588182 C
   0.3862057140536881    1.0002806846820569    0.9165128717379994 C
   0.3496895557459375    0.2956521336046050   -0.1080718631174471 C
   0.7022829118165138    0.9846351205452796    0.7487260356494319 C
   0.7431026310255670    1.0652489443774942    0.8199880685916017 C
   0.2330811118082284    0.5081281327368086   -0.0340895502880883 C
   0.3584590094890588    0.4068529104842901   -0.1254568997117162 C
   0.3474207316135370    0.4819345308755017   -0.0476273534370773 C
   0.9795815968904409    0.5737947157866451    0.7749365956786078 C
   0.7369210777834337    0.4074668888614709    0.7775173740331203 C
   0.8044946888194642    0.4957128017701019    0.8068537257577062 C
   0.8964019165548432    0.4936605113577258    0.7421838240655364 C
   0.7495488559098465    0.6018876011220067    0.8156730947132302 C
   0.7539468163635146    0.6647289005223683    0.7276626718773878 C
   0.2248990820708711    0.9134389088779813    0.8940907356844460 C
   0.1397939155386575    0.8662384921170492    0.9488040573973623 C
   0.3220335747386440    0.9130152333679937    0.9550180300808427 C
   0.3913911461626426    0.8138853072751636    0.9450894871743332 C
   0.4356496852021849    0.7916489751220607    0.8530889102053215 C
   0.4759658666120542    0.0283651635228533    0.2256328988204505 N
   0.9019166442985684    0.7010362532042287    0.1496585861641986 N
   0.2298778497392495    0.8142894765462014    0.4664256737758509 N
   0.1532083566014503    0.2513128919728152    0.4148366393300508 Cl
   0.3555270358532802    0.3585490647984512    0.5030206868675920 Cl
   0.1190223380231974    0.4191061524078203    0.5842304783685666 Cl
   0.1715993597356037    0.5555025451491721    0.3876071710475035 Cl
   1.1081531990531728    0.8364587072373173    0.7032690509282169 Cl
   0.6888339164004408   -0.1633148441402935    0.9859463404724410 Cl
   1.1179975137430114    0.1309320889186211    0.0562978692515924 O
   0.9948156554929910    0.0356729808829698    0.1664466382583380 O
   0.7209577017669687    0.2136939397839769    0.1011961640110594 O
   0.8965636603361551    0.0986258559701238    0.2722941100075628 O
   0.1870576540349724    0.5052084388908171    0.0369222004925152 O
   0.5524809679586012    0.3104987221940026    0.3114030911609610 O
   0.5535661216914020    0.3579180769809062    0.0701098886486364 O
   0.7109560544898541    0.4689680316210322    0.2599126651514940 O
   0.9849831039872479    0.3639560381853971    0.0873225998201876 O
   0.7618480000805942    0.3562928951765728    0.0247773611771622 O
   0.1257494089277548    0.8705368869320056    1.0341885690298853 O
   0.3064076550659158    0.9381088394024490    1.0465727492101242 O
   0.5363573185588364   -0.1729337606911708    0.3309558721600538 O
   0.8382123856309189    0.9011398350954150    0.3166713255126209 O
   0.7541703168613272    1.1139841120189888    0.6265425241251807 O
   0.7080358440381708    0.2194108282953557    0.4628592213566340 O
   0.8633098740974626    0.2921456920910065    0.4792191952181490 O
   0.6147743797338087    0.6320192785523912    0.3335099811039076 O
   0.5277981317314203    0.4473556650394524    0.4073958737562695 O
   0.7053207541091511    0.6344895486529815    0.6651215362206174 O
   0.6282321975379532    0.6624599348077389    0.4817891006590853 O
   0.4221479760173844    0.8136621559015790    0.5910400678900917 O
   0.7817483667739886    0.8614110881017768    0.5760675872138724 O
   0.7344331643472565    0.9491634151400244    0.4517384874105757 O
   1.0933521726651345    0.2666284105465636   -0.0405421800054121 O
   0.2736273369870633    0.2414653623014474   -0.0951337797927579 O
   0.4427756236234472    1.0586987493381841    0.9555493668008894 O
   0.3816207189729032    1.0033135147139567    0.8222775349219960 O
   0.5873580736024590    1.2240679616564141    0.7013331252468114 O
   0.5045851053569599    1.0803374103298680    0.7079662863593633 O
   0.4344455027503188    0.2490556300015556   -0.1035503722642312 O
   0.7537490478309107    1.0319697402301857    0.9071758426832792 O
   0.7626890677434153    1.1577514307247734    0.7971009274291271 O
   1.0055355921989311    0.6401471381979532    0.7103159298215004 O
   0.1989612611405121    0.5443995939390014   -0.1101431873452739 O
   0.5639287516804442    0.4803226913386098   -0.0372618424943903 O
   0.3924045444724614    0.5833636963658112   -0.0758292294621039 O
   0.6645355892533783    0.3782568422089820    0.8339751487355337 O
   1.0166282748008941    0.5664767551822747    0.8551390356708298 O
   0.7370717935796559    0.3671092607240944    0.7021769727532947 O
   0.8440807440965120    0.4664795036807849    0.8916542456799076 O
   0.0701793920620750    0.8129786572887814    0.9011451367191973 O
   0.3838274923092004    0.7876213269037261    0.7812380987355323 O
   0.5305742431779350    0.7708217736706843    0.8482514894104562 O
   0.8027552079713568    0.7510143583915985    0.7292108653576782 O
