Li1 Co1 H90 C51 N3 Cl6 O45
1.0
  13.3372087377999993    0.0000000000000000    0.0000000000000000
   0.0000000000000000   12.9915300487999996    0.0000000000000000
   0.0000000000000000    0.0000000000000000   13.0342783101999995
Li Co H C N Cl O
1 1 90 51 3 6 45
direct
   0.8240604226093063    0.7400149551043849    0.4832514470840196 Li
   0.2018545200743466    0.3900076824490745    0.5374553150071957 Co
   0.1865829588350945    0.0359008156889943    0.0478827550131100 H
   0.0887378980240226    0.2478596834787317    0.2222997764926150 H
   0.2771738781011073    0.1370259329819609    0.2094897078393059 H
   0.4246567614142511    0.2640471532540431    0.0272533044520015 H
   0.5547774661372294    0.1399524550973072    1.1207921764005853 H
   0.3663522079437722    0.3510245913044884    0.1189300334247822 H
   0.6669983235463253    0.2143185995291742    1.1333904957008181 H
   0.7679137419415849    0.0741334178639690    1.0356750741263605 H
  -0.0919760764951743    0.1827449512784134    0.2861598522245125 H
  -0.0374054377424621    0.2175645605392782    0.1551092516965734 H
  -0.1658161144941933    0.2535056697270393    0.1958863463197620 H
   0.7388281958107392    0.0667293630960793    1.1611081791353723 H
   0.1425092690881526    0.4303416537389612    0.2404680244281132 H
   0.2259540154274514    0.3437406147717365    0.3094423073614815 H
   0.5228192049763332    0.4101969903300371    0.2745144050131224 H
   0.6052125319162898    0.5723338588965354    0.2729270520728520 H
   0.6989292926398065   -0.3569066504701875    0.9920002356387924 H
   0.5364374967471764    0.6738410712915688    0.3052073202999575 H
  -0.0005768921557172    0.3875914928330639    0.1212025029313464 H
  -0.0029904406449725    0.4858960801451616    0.2221294563607929 H
  -0.1163957287929551    0.4370183115055352    0.1752039584203844 H
   0.0624692831370826    0.7158484405506200    0.1959170346318021 H
   0.2706492745119493    0.8764984942517835    0.3043572540564487 H
   0.2317385841117026    0.7529764769087820    0.3479630438419269 H
   0.5228620925108425   -0.0293186001009313    1.1354151570876589 H
   0.4123288445890458    0.7268771646086637    0.1403727242549515 H
   0.5752002551446489   -0.1596373534456447    1.1263897245166863 H
  -0.0449632410266167    0.9514581022688509    0.2006207856597375 H
   0.6178786004558953   -0.0771566913546559    1.2234062197844322 H
   0.7192431383121874   -0.1876525293820325    1.0441220320153786 H
   0.7924391135114952   -0.1130285246375298    1.1231313929858364 H
  -0.0324006424129253    0.7995167995442862    0.2497504716124210 H
   0.0672843836024438    0.2517483709397337    0.3568787656973563 H
   1.0791287856288050    0.1145636056884213    0.6195875953316270 H
   0.2676059090823477    0.0832170284592353    0.4755842254993927 H
   0.5246602948537381    0.2119886199281343    0.5636297599500371 H
   0.4763149466871052    0.2207512521640899    0.4433275872725579 H
   0.5049905869592756    0.0406639190161283    0.3879376391052687 H
   0.6627350626858388    0.0837727751628860    0.5061606019212557 H
  -0.1591520514396729    0.4237827650106955    0.3277724361429908 H
  -0.1229758162554294    0.3154090788696972    0.4045039571522774 H
   0.9029037563737184    0.1703799719883230    0.6217311739276229 H
   0.9237342018935977    0.1085289046404688    0.4981870112454552 H
   0.1152104536345034    0.5012422325422317    0.3923268349347939 H
   0.3033907580250903    0.6410035226427547    0.5283927495786548 H
   0.4324266030683223    0.5620319160539861    0.5557780785938154 H
   0.5548358741606259    0.6208188331554513    0.5524075812824591 H
   0.6097284693349864    0.4186286376870871    0.3904441069911381 H
   0.6840536163344865    0.4777370719604566    0.5429149958814572 H
  -0.0066456282451961    0.6410343119338158    0.5314609670164169 H
  -0.0456305470705550    0.4305833496737900    0.3987782853334090 H
   0.1789396803947501    0.8747050180474812    0.6912823971273439 H
   0.2120620532003863    0.7450035899885405    0.6707902767626144 H
   0.0355985932464544    0.8879159331094723    0.4057100078154506 H
   0.3343627558486873   -0.0302761470529279    0.4405280460067063 H
   0.4603822276169040   -0.1034053317164198    0.5648787742500662 H
   0.5937423657812703    0.7780189467932318    0.4538604297309368 H
   0.8235145812610062   -0.0570204950007736    0.4263727551951225 H
   0.1767533158732625    0.2586574878538181   -0.1041317986771738 H
   0.3049345593110104    0.1983759046177976   -0.1110512458343994 H
   0.6603230137607272    0.3096337775989334    0.7254707111555382 H
   0.6077602913964045    0.2671360888797362    0.9642058314241380 H
   0.5620508770815349    0.0263415105468358    0.9545390131315289 H
   0.3677303073918154    0.2044560198700650   -0.3051801373450160 H
   0.6661698143569412    0.0480333358315744    0.7116655739843311 H
   0.8878533808456595    0.1664797385431730    0.8798827892239492 H
   0.7894924699691612    0.0286668717542165    0.7615801135174383 H
   0.1444189640251309    0.5276031768431404   -0.0716167648629621 H
   0.0893722136567999    0.6999596268986001    0.7625368216452861 H
   0.3162952572635412    0.4197547560076424   -0.1798905001947915 H
   0.1111728771776410    0.7797716271868783    0.9769714020249891 H
   0.6723262749488255    0.5037497893794657    0.8885353588036354 H
   0.4918178156955201    0.5602403641803753    1.0553301707801983 H
   0.0096118964185265    0.5923649098214445    0.9775046114466845 H
   0.7618817451736263    0.4146352666364777    0.8859675142936859 H
   0.8896461097794307    0.4596573693297648    0.7200097260280151 H
   0.9393926506819196    0.5695044000212588    0.7981061097152818 H
   0.2759239913873488    0.6482112956801307    0.8170676505170148 H
   0.0562123517475717    0.8279853477915469    0.7962732502786911 H
   0.2558770681325431    0.9549065028676809    0.8492819388732343 H
   0.2530256469133328    0.8720733033940439    0.9642035298007350 H
   0.1413126169014948    0.9143739406504509    0.8999130504924762 H
   0.2593035722008553    0.7070019074965231    0.9421102467553171 H
   0.3114846554906110    0.8196560748272746    0.6958925488035571 H
  -0.0178818623738013    0.7587902647933719    0.9294965832990641 H
   0.5567721113829474   -0.1089843512566698    0.9594882706557845 H
   0.6668708605941124   -0.0501791145270233    0.9041188836575622 H
   0.3593657385983602    0.7431100485882902    0.8560763311588967 H
   0.7499729565265799    0.6978952049329612    0.7426385201185314 H
   0.7984321216117183   -0.0828280787680889    0.9900929570455045 H
   0.2336812694598420    0.1796175290388941    0.0298449324037819 C
   0.0675865457773956    0.2956839195514789    0.2872607954189485 C
   0.3572318588219014    0.0876406798524219    0.3305121352003644 C
   0.3914279195544136    0.3396125405727353    0.0357831207835275 C
   0.6280718877225699    0.1554517842174057    1.0798209782037433 C
  -0.0912502874496325    0.2379555382766902    0.2233876771544341 C
   0.7028491533113899    0.0663383390996048    1.0864343094483695 C
   0.1504449625365149    0.3778459124799865    0.3077559846148819 C
   0.4743779596827118    0.4187718078905206    0.0228771511550933 C
   0.5861268292775839    0.6183433741541483    0.3395582823819640 C
  -0.0385668501717434    0.4189503857786743    0.1916536608816410 C
   0.2730140871665349    0.7674004900385755    0.1887275303286243 C
   0.1169949349654843    0.8480307157367993    0.2771651079655799 C
   0.1081152658886745    0.9320231320188823    0.1825300257121404 C
   0.2262471802175411    0.8066676123931992    0.2854148934497407 C
   0.0421861785296471    0.7629345033701801    0.2624485279267840 C
   0.5905430456807258   -0.0784552297051529    1.1431984802288113 C
   0.7498334970612175   -0.1101912914662603    1.0520242723656861 C
   0.3720130625861697    0.2570148791757147    0.5574924044251516 C
   0.3379399661134395    0.0554989691815860    0.4481541682694337 C
   0.4563110609232232    0.1942486001510729    0.5241434924520321 C
   0.4304933649742881    0.0777811791224189    0.5112301576287083 C
   0.4207076592418660    0.0343982982852184    0.6243051560999804 C
   0.9695991210101672    0.0180938292038752    0.6309806311764876 C
   0.8956848545860359    0.0968312832341251    0.5786516886936311 C
   0.7825277443038327    0.0638113080357747    0.5930867034694598 C
   0.4379191316355916    0.5160012716453827    0.3344563505053091 C
   0.5252520228648349    0.5483804832101401    0.4124430234770329 C
   0.4850724762644121    0.6055658183638407    0.5056005402265252 C
   0.9056232159482849    0.6059160465496594    0.6365751104613850 C
  -0.0969021447071679    0.3796147572514399    0.3592831949456926 C
   0.6787061705981183    0.6706867084223712    0.3840693773726231 C
   0.0286128736831143    0.7001866979201747    0.3589970264359194 C
   0.4295062018985026    0.7092379797598272    0.4878050325290652 C
   0.7623691035203227   -0.0569643045445873    0.5740929399400849 C
   0.2530788814404335    0.2477411447081469   -0.0632304163902231 C
   0.3108210983570320    0.3468156952164521   -0.0401574089829273 C
   0.7401823022324836    0.1882100504417378    0.7377000035034897 C
   0.7433906197178901    0.0738794062127159    0.7063181356113559 C
   0.2304399615632745    0.4307680854201558   -0.0035569936283867 C
   0.0597018375099184    0.7331951271343774    0.9287685030959145 C
   0.7542954501707416    0.4973708640574514    0.8832976311462035 C
   0.7713994787935725    0.5527855840554625    0.7803605932781350 C
   0.8835308872014977    0.5449628719023711    0.7363543210205344 C
   0.8099652694407724    0.5487522638997016    0.9670736541842788 C
   0.7019374183120315    0.4891124834358471    0.6993135283882193 C
   0.1002028156845393    0.7639828787308065    0.8191721015151598 C
   0.2805156567953014    0.7199387978680714    0.8635159452052008 C
   0.2169851222840925    0.8914313004163599    0.8924028533284800 C
   0.2290701097180214    0.8142410082619244    0.7128071791922201 C
   0.6059405703080472   -0.0425872450836616    0.9599186742321459 C
  -0.0416664492567330    0.3345800309488178    0.2663474779714697 N
   0.6603680006850376   -0.0389810493681441    1.0610995734437236 N
   0.2112297951006430    0.7961084250238354    0.8199132242509264 N
   0.6456460297044450    1.3356576523796584    0.2868610801546271 Cl
   0.8474153843650732    0.9697723423241996    0.2726462540176857 Cl
   0.0885039660176083    1.2565969107932682    0.5814780822325178 Cl
   0.2600353595029719    0.5211698545411442    0.6243074577233835 Cl
   0.9571504892713955    0.1227543268429191   -0.0586010845189847 Cl
   1.5228940528863888    1.6966697873924406    1.0101822933147087 Cl
   0.1799511364096632    0.1007384442697637   -0.0000546900183789 O
   0.2705383067653168    0.1194006033141016    0.2900549662301932 O
   0.2776642355760912    0.1887326986574979    0.1129358388755635 O
   0.4456754022341624    0.0781421835601089    0.2940689974450290 O
   0.2000190535624804    0.4524729961535953    0.0806026333101890 O
   0.4423196026152248    0.5041300371240688    0.0635967051932069 O
   0.4526594722769445    0.4402548817818657    0.2715506812778566 O
   0.7632718411348189    0.6258390270629445    1.0203930619382271 O
   0.7669570200179161    0.6481581841530505    0.3637943768155769 O
   0.0198426727887933    0.9656273340151148    0.1543320701941597 O
   0.2301250530931013    0.7377881196283993    0.1143812583726489 O
   0.1833468994130299    0.9686031189961588    0.1407064596483868 O
   0.3742774044431287    0.7642084102878282    0.1985148002459905 O
   0.3530278307450905    0.2680235901945690    0.6577554162236120 O
   0.3187260507404489    0.3087508946777597    0.4951774084836895 O
   0.5132831016956269    0.0281257499638198    0.4650653462229921 O
   0.7211723275830336    0.1227804977403209    0.5268403813141098 O
   0.0524154553357702    0.6040525247081934    0.3572869202474888 O
   0.1430138724225014    0.4320250582277204    0.4043152240332313 O
   0.3605166540786357    0.5662508956348449    0.3321723728817300 O
   0.5886520952955435    0.4687416726840800    0.4486273053203108 O
   0.9866251722975264    0.5854768835717369    0.5824723835426148 O
   0.7291792503282208    0.5046282078534355    0.6020929558454073 O
   0.1003580205734103    0.9032151318376743    0.3704882648793082 O
   0.3300972456419853    0.7081257166202491    0.5014668245947332 O
   0.4717238061266028    0.7952039895989190    0.4703033040427644 O
   0.4349667897495115   -0.0680823175467080    0.6336351701679502 O
  -0.0086820363523155    0.7417468527265652    0.4381315189987203 O
   0.6677466060540224    0.7567258428277330    0.4394880191116697 O
   0.7179317694685380   -0.1164623003231059    0.6313565629989781 O
   0.8039122787748022   -0.1001339695411905    0.4827012440095319 O
   0.8612773553092647    0.6861575574482383    0.6212409281427835 O
   1.0706045132540478    0.0361055644745498    0.6291845977143451 O
   0.6630207296552102    0.2374182651476761    0.6985854481850696 O
   0.3978258099734305    0.0849774061756469    0.7022987339419132 O
   0.6109296202140754    0.1894477799423892    0.9791686851670551 O
   0.7964654432372800    0.2340937914453665    0.7963653152148111 O
   0.1898857488615530    0.4677121557642284   -0.0900980335812686 O
   0.0667302946513535    0.6288840879488755    0.9421409350673572 O
   0.3584630009838640    0.3796755661012854   -0.1341465022679242 O
   0.6296396820347889    0.4415338689325389    0.7336545167688129 O
   0.5587156964695729    0.3998202295102096   -0.0127765297730124 O
   0.8970614544699356    0.5264192516286180    0.9875657745490081 O
   0.7355531477209389    0.6520384045590107    0.7996850233697413 O
   0.9383924413980841   -0.0593766454992152    0.6737501644588751 O
