Li1 Co1 H90 C51 N3 Cl6 O45
1.0
  14.0237772352000007    0.0000000000000000    0.0000000000000000
   0.0000000000000000   13.6862276365000000    0.0000000000000000
   0.0000000000000000    0.0000000000000000   14.1451900708000000
Li Co H C N Cl O
1 1 90 51 3 6 45
direct
   0.8171645145172308    0.6243654237863663    0.5324130674600451 Li
   0.5561546639890540    0.7848347699298477    0.5523661397473260 Co
   0.2266923570434668    0.2055772703061310    1.0324855984472474 H
   0.1050026031791141    0.2921336269197454    0.9857326034934938 H
   0.1890698255991076    0.0825397142516686    1.0214486311658901 H
   0.1718654735936860    0.2596776418376797    0.2799145869077790 H
   0.3281507570263662    0.9948005893157716    0.3070743492069838 H
   0.4098035086920032    0.1994587106690932    0.1223430032921520 H
   0.5215448158818170    0.2015301361015032    0.1743338211121353 H
   0.6990650914999498    1.1806516556254125    0.1332548396992587 H
   0.8411979824158810    1.2767175720283805    0.1279618744138678 H
   0.7885595250573936    1.1080779686767124    0.1735795010961727 H
   0.3155314750004223    0.6653825699941989    0.1129702059429184 H
   0.9662249256276606    0.4824491812989143    0.2510058201854332 H
   0.3684095254402633    0.4222376298117625    0.2701098406084488 H
   0.3766483899103857    0.3992800984638218    0.0976080935278598 H
   0.7170802093788810    0.5433992123926048    0.2470200130158013 H
   0.8121031106736329    0.5327721788620420    0.0635908765380858 H
   0.7697236582598965    0.3586442845075500    0.3089074811670505 H
   0.9275591659749071    0.3913918035393624    0.3300065260371574 H
   0.8868861011911691    0.6577544636399267    0.3468306195140816 H
   0.8154445784689415    0.6008351999326327    0.2045447972715975 H
   0.1316345150910173    0.8145135105432747    0.1679874942299457 H
   0.2171899242990622    0.6823682585399617    0.1887995157387772 H
   0.0717276878568197    0.6786930310531812    0.0948467308452450 H
   0.3500899246871118    0.9246278561486939    0.1591880366491710 H
   0.3806872447103487    0.8044135762391461    0.1878995631799015 H
   0.6994765355712030    0.8654442723655484    0.1142052547413126 H
   0.7516522074838613    0.9532500601923626    0.1940797558505155 H
   0.8332122594454031    0.7910526995347189    0.0167530470933147 H
   0.1634283743717293    0.1560727597868783    0.5398136042839436 H
   0.0402568513911472    0.1954320349872547    0.5498899623453478 H
   0.5871145824702325    0.0803784174512915    0.5462070850040571 H
   0.5438794404802326    0.2303386588348596    0.6935152505055867 H
   0.5010044011869103    0.3324705272448360    0.3701183942524362 H
   0.4368810922582103    0.2190170584556023    0.4413454329106038 H
   0.6276164380312531    0.1918759053295687    0.5059008751089394 H
   0.8032659765747732    0.0806494928782489    0.6471751167414508 H
   0.7086702069935059    0.0922100195772233    0.5132300618841679 H
  -0.0361341224551171    0.1379728124106304    0.4063356523759268 H
   0.7810765197129705    0.2523016137106321    0.5883105842867866 H
   0.1147909788569201    0.4683825513177961    0.5222108715702984 H
   0.0210894048828480    0.5259538646794596    0.6316122293643178 H
   1.0474726508938663    0.6198791620032982    0.3315879823405392 H
   0.0574704733669784    0.6468413030549260    0.6096846342986081 H
   0.3109521096181196    0.3334057740009153    0.3423824643684052 H
   0.4412914589492010    0.5573462257749435    0.6350664070569076 H
   0.5744170761555253    0.5733915529339296    0.6304803958633279 H
   0.6664861370330163    0.3037599131562567    0.6054895687178001 H
   0.1954197553296286   -0.1853500284428065    0.4031303225236545 H
   0.0688140648496430   -0.0572504493210648    0.6415717986097548 H
   0.0555658509851456   -0.0268987694401776    0.3871453835537103 H
   0.1671313710130090   -0.0177866895221577    0.4425423768834494 H
   0.4978175279750468    0.6761408303352240    0.6251273394801332 H
  -0.0447074189346290   -0.0981389990999365    0.5697082184873202 H
   0.1362302811901985    0.1115104438442825    0.7649112511916972 H
   0.1997288654207615    0.0412069222636592    0.8393923995344721 H
   0.1603778410323504    0.2655119741402527    0.7805992694430809 H
   0.0487096382553354    0.2745239534289109    0.8741773686679530 H
   0.0356225792610343    0.1837502184746012    0.9679930044676739 H
  -0.0135645968065242    0.0743855315971019    0.8754788711509776 H
   0.2768756983927251    0.1982545804706410    0.8016898308640861 H
   0.2896432999452213    0.1216980575317936    0.9584363990545693 H
   0.6149786160644902    0.1744130948058998    0.7821701214350854 H
   0.5581961253956242    0.0910234252554477    0.7073369099545886 H
   0.7549081063215434    0.1237073767343078    0.7615631166128791 H
   0.8011745286354562    0.2527553545196362    0.7748969777385313 H
   0.7414438308390394    1.0588708373994318   -0.0431768651777090 H
   0.6995692352752982    0.0207009064750916    0.6944378255954005 H
   0.2380986990950573    0.3091573098649739    0.8719349102887277 H
   0.1508297715105451    0.5395363510253859    0.9067333115499532 H
   0.1890926439878080    0.6475814631829795    0.7595928355590011 H
   0.3704539104528858    0.5784082749864614    0.7930211597902963 H
   0.6119694410546308    0.3867009565284020    0.9863009945833100 H
   0.5358934322798962    0.4544997703904003    0.7694428269202074 H
   0.4975797175803103    0.4979120981537827    0.9368997496016312 H
   0.5927741846351031    0.5778179004716864    0.9401623427353402 H
   0.6462405216586252    0.5223367978503227    0.7786523178742326 H
   0.4381567828014896    0.6455852958879726    0.8798096719174133 H
   0.6850724277041033    0.3784722463979602    0.8280662880295639 H
   0.7919879879596221    0.3757439562517100    0.7268375316231102 H
  -0.1897731858732028    0.5878966455914976    0.8622008593985785 H
   0.1708792913570424    0.9172459827294208   -0.0232534849622842 H
   0.0448683051325598   -0.0363864093836855    0.8383454005244996 H
   0.0008252495676380   -0.0076648353721835    1.0086025683635877 H
   0.5430696729112288    1.0292563950004852   -0.0096552230062947 H
   0.6508170347423404    0.6959278751800557    0.7540015356468659 H
   0.5946181956719506    0.7094049270674646    0.8606342491311249 H
   0.5523265227472458    0.7728131958065874    0.7578070695230860 H
   0.3849464395761996    0.6983134850695862    0.7761560629760470 H
  -0.0434944789602757    0.7226065195587469    0.7630957930839259 H
  -0.0438303371189591    0.6454165130749615    0.8612118306241346 H
   0.2220559456894132    0.1474933321229068    0.9856725123956896 C
   0.4049168081368926    0.1724731884485633    0.3053331212788528 C
   0.4590090820854513    0.2461509049663541    0.1609907695832897 C
   0.4294094961081374    0.2768452651039610    0.2622541667402421 C
   0.4986455502550109    0.3258587710762719    0.0976582872683784 C
   0.7483428280476627    1.1212649479374310    0.1131822921704617 C
   0.1888337978909883    0.6462998828625395    0.0319023663267381 C
   0.2629835781220896    0.3393796626553721    0.2052036784851656 C
   0.3442341556868828    0.3442071433721035    0.2775710340934248 C
   0.8107389988741398    0.4450884115104350    0.1720425829005751 C
   0.7938997410879238    0.5284055263711381    0.2352174144530124 C
   0.8400734636977415    0.5182518884446877    0.3374337857257264 C
   0.9453796144752384    0.4719761054589559    0.3252869005202254 C
   0.2743492749188076    0.8629066848781549    0.2754763291193880 C
   0.2511173029232575    0.8047803683262960    0.1041898361226226 C
   0.2432913086736822    0.6980650601500026    0.1107814760746707 C
   0.2854233241849492    0.8345036792929424    0.0086527671093413 C
   0.3208431680450771    0.8514309149164502    0.1810654379743621 C
   0.5942837636625610    1.0320511753458004    0.1192274566095398 C
   0.8430747948864853    0.9265984502902141    0.0786405152445638 C
   0.7443189478152843    0.9293946919585858    0.1196537499269020 C
   0.6953207365291507    1.0255957807442684    0.0803852779431540 C
   0.0926535764443401    0.1822143679423522    0.4116081159926551 C
   0.0923334059278882    0.1449469766971752    0.5159917681464712 C
   0.0550702641055597    0.0361514751501335    0.5339921908149239 C
   0.6489680321829646    0.1278231931225850    0.5461553359645366 C
   0.7225359435022068    0.2661381510699090    0.6388811313363212 C
  -0.0520798977087847    0.0322102868670929    0.5331270910927745 C
   0.0709889425226457    0.5830910847206119    0.6527247063621691 C
   1.0162050407025565    0.4957144874754547    0.3949445010945720 C
   0.1652809423043394    0.5485651355291924    0.6249541357276394 C
   0.7756257771121730    0.4598665523810864    0.4039807882961035 C
   0.0841986503562113   -0.1452513237759050    0.4853480229701658 C
   0.0923890257503454   -0.0358522958065809    0.4549480072865533 C
   0.2164797019507636    0.2437974441840638    0.8310708429197617 C
   0.1352911618802494    0.0872714783082075    0.8399077690674025 C
   0.0798225112482711    0.2386587016563248    0.9331818780327957 C
   0.0512168087137871    0.0297201923790317    0.8789061845880785 C
   0.5886704400422734    0.1661653874757251    0.7078939897789359 C
   0.7370163503565234    0.0918103477213051    0.6902081192640936 C
   0.8204453709675538    1.1664285983177247    0.0429004511330458 C
   0.0644250903980589    0.4982645692749800    0.8003077356145950 C
   0.0587019532821508    0.6019019657637856    0.7564454759422574 C
   0.5073547587622194    0.6010748569138781    0.6570449028172277 C
   0.5685213036676060    0.5126659810616983    0.9103331217854560 C
   0.4231023508564296    0.6340415744041465    0.8059654892113605 C
   0.5696965933006037    0.5210962076416140    0.8009234926285627 C
   0.7554051193504229    0.3047594581268165    0.7326055700581983 C
  -0.0406371888502030    0.6442671824911232    0.7853478800777770 C
  -0.1244270252325578    0.5894171522316548    0.7427192552956501 C
   0.5825016312720616    0.7029648763580245    0.7822641463292962 C
   0.6732660507756095    0.1619297425968252    0.6449800242863769 N
   0.1637250134248339    0.1772992078422383    0.8977705475739700 N
   0.5198550785448233    0.6129371468239937    0.7634280615070772 N
   0.7773571223548125    0.6544884066089310    0.9990770689305229 Cl
   0.0066125634017658    0.7151435427098451    0.2444502348920675 Cl
   0.4761907583171020    1.3334753595379454    0.5173226869892560 Cl
   0.4787399288722552    0.7361040299689451    0.4222067717370895 Cl
   0.5075286776685949   -0.0809837970796344    0.6221058176917319 Cl
   0.7192878884856404    0.7591257133990605    0.5596170850853973 Cl
   0.1827170435699991    0.2989645815467655    0.2208075691996236 O
   0.5119366840825045    0.3167401152044985    0.3030376413427416 O
   0.3651136944223556    0.1103486920144652    0.2580244604089353 O
   0.5781652104219529    0.3209384963454608    0.0589617411449057 O
   0.9036269546761148    0.9898773919388477    0.0874385589171549 O
   0.8674041887635930    1.2452991263163404    0.0669015425500379 O
   0.0952577250547683    0.6479840576850106    0.0356668968656330 O
   0.2745952856719833    0.3776787479783491    0.1263231548290494 O
   0.4441744197465616    0.4003101850862599    0.0780509155319932 O
   0.8217253399587144    0.4605614845605451    0.0778861952286012 O
   0.8106377422742820    0.3588890561194927    0.2067589774871504 O
   0.2894243860286273    0.9401456456843290    0.3316190883205788 O
   0.2285000012733232    0.7935815190837742    0.3045879916660837 O
   0.1604448700491577    0.8457412535964582    0.1115739716115911 O
   0.5250648233072127    1.0445111463859731    0.0563156119792562 O
   0.3615026844105243    0.8086419145027641   -0.0183415679323796 O
   0.5768136487362449    1.0309303405615617    0.2045978188284834 O
   0.1619166561203307    0.2256755769619703    0.3784710568471862 O
   0.0864362785981399    0.0089036454409846    0.6250750248773391 O
   0.0157734333903119    0.1693744529075223    0.3599311857894360 O
   0.4266976732260294    0.1553143331206203    0.3986270249588169 O
  -0.1027124760855813    0.0907048568291582    0.4843568733334465 O
   0.1782517701311982    0.4855611418136155    0.5565274836179546 O
   1.0726933880795819    0.5700896934880526    0.3833702487034382 O
   1.0284784815247605    0.4374957422402800    0.4621178649902939 O
   0.7493610986434162    0.4892291357512670    0.4820384880847606 O
   0.8425763557083118    0.6125900825981049    0.3757853382523952 O
  -0.1341355365499125    0.5726258196523897    0.6520891546336308 O
   0.7489161400637592    0.3761158629695572    0.3734142142284602 O
   0.1528506250598204   -0.2091052960472217    0.4613781082286226 O
   0.0216249239426595   -0.1735768792391297    0.5443069337960869 O
  -0.0983085270664126   -0.0465309140410336    0.5708753996929007 O
   0.8321276729074893    1.1359183648852209   -0.0385145029422138 O
   0.2362518357596223    0.5850200311550254    0.6657015556714565 O
   0.1158021187062046    0.4827659961375362    0.8762706597338061 O
   0.2298719568939321    0.6098698297286647   -0.0341851160839617 O
   0.0308471183508379    0.4215505887768083    0.7621322146567872 O
   0.1310191316707546    0.6589549405307381    0.8011688056984212 O
   0.6711175568645417    0.3221893888817169    0.7861552216506256 O
   0.6325815767975213    0.4354440446691310    0.9271713543442166 O
  -0.1971164285868362    0.5666723895207222    0.7946139273591470 O
   0.0640977891351381    0.0014260553615190    0.9751791928109352 O
   0.2348050073010903    0.8964988486365515   -0.0475401858323681 O
   0.6843529353853951    1.0163368378590829   -0.0215525534173863 O
   0.8695476911521328    0.8549497808361987    0.0169941184386223 O
