Li1 Co1 H90 C51 N3 Cl6 O45
1.0
  14.2759744558000001    0.0000000000000000    0.0000000000000000
   0.0000000000000000   13.9323545190000004    0.0000000000000000
   0.0000000000000000    0.0000000000000000   14.3995707246000002
Li Co H C N Cl O
1 1 90 51 3 6 45
direct
   0.6244478619095737    0.6338900397241607    0.2327968955750324 Li
   0.7299614998516772    0.7301989585196256    0.6384048204017110 Co
   0.0980788898113461    0.2142308936676578    0.1978430757962152 H
   0.3550329780494114    0.0986000433470595    0.0433856935215931 H
   0.4052221964609716    0.1713379282909130    0.1430490812327476 H
   0.5019217950960155    0.0529164513072494    0.0019511249909695 H
   0.6672666552530747    1.0192470152933810    0.1949068771546981 H
   0.6748563298028201    0.2891040960813208    0.2199819302174366 H
   0.7771736885598300    1.0855904318881480    0.2967710249166965 H
   0.9921341460404212    0.3830358143860264    0.2079274041958060 H
   0.2535071589547191    0.3687295462151884    0.1460220865270557 H
   0.3010576783326945    0.5893699265477326    0.2726376665932904 H
   0.4233953867257241    0.3517209350951630    0.0704684453243093 H
   0.6369219666056388    0.3647546258293716    0.0651384253210823 H
   0.3310815482497397    0.6522982706983469    0.0946497217428584 H
   0.7424762322472241    0.4116428957990399    0.0163071085097589 H
   0.8372396408109296    0.3904078633717115    0.2504245044013400 H
   0.8260319995745729    0.5130787297833618    0.2543301763880695 H
   0.7681487354542539    0.5649950084721929    0.0891196957772953 H
   0.0714376261149488    0.7579372707677795    0.1966263728586708 H
   0.1936394418579876    0.7556813706643807    0.0356146285266602 H
   0.2317237072567052    0.7749020989077516    0.3110777014100489 H
   0.2260610465220359    0.9796600237875412    0.3114374343561950 H
   0.3016341713787896    0.8555446061356429    0.2482709679804922 H
   0.6130910189492579    0.9204654347555653    0.0115653004860411 H
   0.3773656041680069    0.7730366568559753    0.1157024326741713 H
   0.6127323744296945    0.9060651408406786    0.1785994465728380 H
   0.8409612781789775    0.9740242211747870    0.1947707619858861 H
   0.8847551363100415    0.8431166995844659    0.3119652278679151 H
   0.2410274504380358    0.2456419519638840    0.3407063624416680 H
   0.2293399820612475    0.1299436327887774    0.3895258733454923 H
   0.0475870650864043    0.1418619341622856    0.4099507877839171 H
   0.1545990245662933    0.0768750721953977    0.6854576119715667 H
   0.4575740693446023    0.2726567684105024    0.6448320953371985 H
   0.3891189174370588    0.1101953555234536    0.4077264159180752 H
   0.5757486994003872    0.2585306564362770    0.4649033287404448 H
   0.6167398066492693    0.1846780998854943    0.6127012763809373 H
   0.6142461064741800    0.3901997147780158    0.4466432705047640 H
  -0.0077205429822845    0.2486213478688181    0.4540025871140406 H
   0.7448396435929409    0.2341643514059937    0.5637348860985224 H
   0.7901010022483903    0.3474668084922853    0.6164027756144488 H
   0.1270576471831011    0.3056031020236774    0.6168652894023510 H
   0.2154200916456924    0.3637842227304867    0.4826774697127695 H
   0.5191794751768247    0.3629731609688449    0.5170951832320569 H
   0.5547087346028901    0.4387070219297511    0.6417660317131924 H
   0.6448485708700521    0.4821482794124411    0.5711176061832528 H
   0.7571540394013878    0.3301064980242913    0.4873828183162698 H
   0.3173753034952527    0.9690358324638035    0.6675480502955771 H
   0.5292798574972356    1.0098767398082171    0.6800484229415817 H
   0.3464976587703485    0.7620808632898669    0.6219612746510389 H
   0.4682451447567684    0.7867852303464630    0.5842677898673057 H
   0.5528903648600488    0.9252255777672548    0.5937139047968032 H
   0.3747023884192175    0.8641964100956709    0.5517469592844892 H
   0.4454716380510378    0.9971689092862078    0.5859192279868722 H
   0.6292300223296117    0.8945243779509081    0.3786824945402303 H
   0.7379511470980451    0.9167632608028670    0.4152655295539101 H
   0.0927167339573267   -0.0823535777054253    0.6462536654931080 H
   0.1940800422540918    0.1497715807227228   -0.0331547826550407 H
   0.5078374683315956    0.3076458292569809    0.7486435233713856 H
   0.4569569485990254    0.1516535311112406    0.7656301408670119 H
   0.3702837758617840    0.3035969802327135   -0.0900807852197991 H
   0.6636928186538315    0.2647564526490930    0.7072443725632590 H
   0.7943515001872787    0.2777592799711329   -0.0171716672968297 H
  -0.1644699128363931   -0.0061719101665647    0.8840586713152604 H
  -0.0981493962978292    0.0479187317972381    0.7906211636469633 H
   0.2415584124416083    0.3081482568969360   -0.0683870829578050 H
   0.1030781982803385    0.6197502904282793    0.7509331749610454 H
   0.2004564896400016    0.5040978357191629    0.9320885753469456 H
   0.1608094587663895    0.5115317550799398    0.7814715853352349 H
  -0.0360387499986717    0.5757756701180883    0.7085694120637354 H
  -0.0643212326586181    0.5594381587742886    0.9489606060933170 H
  -0.1238022861326953    0.3622080354485702    0.7290123825959821 H
  -0.0830870269537429    0.3561710084776231    0.8802960591488131 H
  -0.1149405443026234    0.4992471121815271    0.7772124305886823 H
   0.6792027931697947    0.4282697336880765    0.6827693373875288 H
   0.2292040894112567    0.7694342506774967    0.8144739580509813 H
   0.2334854083635450    0.9507532083996060    0.8021784526233418 H
   0.0340657464123171    0.0514393140457812    0.9027835350738286 H
   0.0853070821449403   -0.1385895856918368    0.8052361826655838 H
   0.0130353081098709    0.0079384112246907    0.6666049666259506 H
   0.3809863727649274    1.0070818066225236    0.7632627091808880 H
   0.4993193107531758    0.8744100462621884    0.8148357743925685 H
   0.3249159446145889    0.8834630745804093    0.8616739762320010 H
   0.4378665529945925    0.7750650290138514    0.7857772692466365 H
   0.5526982939083609    0.7958389764184552    0.7250830987942546 H
  -0.1568655282575250   -0.0579097552678346    0.7683871675006030 H
  -0.1267835187015662   -0.1971180992239866    0.8544584833546682 H
  -0.0288742653383307   -0.2193684661362872    0.9249376677282838 H
  -0.1178741443962398   -0.1411254097660677    0.9631881135599113 H
  -0.0382732734701704   -0.0125850401137069    0.9801434801239226 H
   0.0764894704022366   -0.0602869557585940    0.9451209082955524 H
  -0.0137957850099672   -0.1587110949182702    0.7321742824102743 H
   0.2270108941168171    0.2479559901227632    0.0943247120540623 C
   0.0424399558486075    0.2502908431410121    0.3118971702835092 C
   0.3212482440199912    0.2575789149354476    0.0464052279807502 C
   0.3845293883507707    0.1710694883804227    0.0681197641971544 C
   0.4842428618097864    0.1926932562503221    0.0268595064184279 C
   0.7526744852947315    0.2832701934276698    0.1067361931612510 C
   0.1694694630542069    0.6588154749423369    0.1906789733397606 C
   0.4040958285167178    0.6681864681812724    0.2188943977972342 C
   0.6463917229727830    0.4292402085623385    0.2337691467808327 C
   0.7160170927209175    0.3812478897415573    0.0829181220145830 C
   0.9063998934477555    0.4677351592376602    0.1447102418643722 C
   0.7221231557620001    0.4516148186524623    0.1616440800088266 C
   0.8219489157766526    0.4524599737182441    0.2087510398601483 C
   0.1513740258005316    0.8786010105331858    0.2505981206880901 C
   0.2347154469892352    0.8144819128758778    0.2437430552220505 C
   0.2366494655800840    0.7432434155604047    0.1659650421534622 C
   0.3415978181173288    0.7094415194517631    0.1492520439257539 C
   0.7306956003526586    0.9387315504830214    0.0888745495804042 C
   0.6824999411260154    0.9403156330564229    0.1812168857118820 C
   0.7423613539245515    0.9072085225984623    0.2651638326812736 C
   0.7646638595073242    0.8022923005767938    0.2620679070559464 C
   0.0528133282904329    0.2198243488079016    0.4134842264518543 C
   0.2358439163662208    0.2047055833678790    0.4046304902927481 C
   0.1463172781702029    0.2418945595235897    0.4585746678558315 C
   0.1475802392420249    0.1919618651573016    0.5513461834481553 C
   0.3250588420403525    0.2321431567858311    0.4553463077269714 C
   0.6146460791708024    0.2545729621409729    0.6457453170055039 C
   0.5869569010188057    0.3314207051796598    0.4935896700140994 C
   0.6677002508734062    1.0452325728318628    0.3714926968733366 C
   0.7415628094864610    0.3129076821548543    0.5634421690390617 C
   0.6290352895631299    0.4272681083001373    0.6249384467362290 C
   0.4011538226921741    0.8196425624919887    0.6047899294263104 C
   0.4963478848703867    0.9554803347378128    0.6337185695897533 C
   0.6919346736142959    0.9345405862120237    0.3584450856914957 C
   0.3027962636794843    0.1659712833424204   -0.1100258242416466 C
   0.3059323017929325    0.2617792100054729   -0.0587965192777314 C
   0.5163562794555949    0.2578782182581066    0.6884104777766118 C
  -0.1261776055972256   -0.0195874459071393    0.8212304094661468 C
   0.1738845732237542    0.6235615629542249    0.8879948997684579 C
   0.0193571182447534    0.5293532941214126    0.8429789744747541 C
   0.1170296101868709    0.5725149147347791    0.8111064965531770 C
   0.0413149888595081    0.4336878415819760    0.8936957641601831 C
  -0.0051715050785906    0.4269355729778642    0.6980434038306524 C
  -0.0397793002613058    0.5145866586816215    0.7541096585434246 C
   0.2920677491059818    0.8950978632142285    0.7924531627047500 C
   0.0659689976691840   -0.0370288625512975    0.7024602021655741 C
   0.3519529781421452    0.9429052886635061    0.7273414994522994 C
   0.4850255054068727    0.8281565577279149    0.7566687626101205 C
  -0.0797268360155677   -0.1614593741088250    0.9037432859069828 C
   0.0113156356576674   -0.0194812183489773    0.9290391788864674 C
   0.0245784781057411   -0.1073457640243385    0.7721053338976424 C
   0.6397462921972007    0.3335431030815847    0.5818198002241297 N
   0.4360299007869846    0.8861711595597677    0.6841811850313803 N
  -0.0390101758814608   -0.0752025968813204    0.8553543433942986 N
   0.4685310096560533   -0.0698259033800287    1.0183064233470280 Cl
   0.6627632849087911    0.6767212782765680    0.5178436638781908 Cl
   0.3550077608566297    0.9849771437258098    0.3674654934858821 Cl
   0.8278070097553810    1.8521069589716486    0.6166986177670709 Cl
   0.7871821121838967    0.3375524756484271    0.8372156082197989 Cl
   0.6954832930207574    0.6667983323874533    0.7644655228154925 Cl
   0.0878477143177069    0.1812888665771109    0.2581122335786329 O
   0.1738614574637042    0.1809299896914287    0.0712969422446806 O
   0.0017527157727460    0.3225851562541623    0.2911229398761433 O
   0.5249035537854693    0.1208016030029073   -0.0130409886024721 O
   0.5140914442178950    0.2769855414056019    0.0293533307613058 O
   0.7931004472342704    0.2365171482685266    0.0382994307849632 O
   0.7444207580017320    0.2393443803739315    0.1838426584326900 O
   0.2014595735306555    0.3193882809565047    0.1494069096535350 O
   0.1951678839315957    0.5737415559300411    0.2001361997116101 O
   0.0796100980089847    0.6822960718187564    0.1969944393865809 O
   0.9882857222308872    0.4147436638667119    0.1474936581735493 O
   0.3539038081948485    0.3537823239265219    0.0711740219136616 O
   0.3684688384590714    0.6102400529576992    0.2840720352386497 O
   0.6013965457966969    0.4931244571856562    0.2689195001962509 O
   0.6267524331387996    0.3402619961353281    0.2532044483847821 O
   0.8981398618565606    0.5265582891603420    0.0812694617556044 O
   0.7112181208390250    0.5510253668201249    0.1271736079723216 O
   0.2033284477068180    0.7960370764593518    0.0869481032626255 O
   0.0678749971569419    0.8522142286365114    0.2360629651613746 O
   0.1634922878873424    0.9668459657073704    0.2813157030702056 O
   0.4901135643849055    0.6703957142895324    0.2070065434108837 O
   0.6888042393214661    0.9210661946621973    0.0101541473073366 O
   0.8143333235565483    0.9665976229024782    0.0858272365153671 O
   0.8289824111300439    0.9620061520270593    0.2650186894655505 O
   0.7077857807103908    0.7388421494343973    0.2410895038953625 O
   0.8484178619890410    0.7830959759616491    0.3003593263312468 O
   0.1671557856164765    0.1028843156083344    0.5508176954712882 O
   0.1246213861693480    0.2374846803523260    0.6286586965287093 O
   0.3298998425768814    0.3086248454011221    0.4956065356940175 O
   0.3998999678288567    0.1759107375682765    0.4431802506027326 O
   0.6056841690471807    1.0735623141876212    0.4209122256641691 O
   0.7187069266176432    1.1132497912214516    0.3254336849288383 O
   0.0749295068376512    0.4233554889416750    0.6668487238925477 O
   0.1498771052179008    0.3477409904329466    0.4675904921802477 O
   0.2229901528232741    0.1172860450307638   -0.0914329088610086 O
   0.3687861548015757    0.1339472633254488   -0.1570501427404753 O
   0.5013553188792754    0.1571709043517198    0.7161675552370652 O
   0.1366913153033270    0.0242443414025503    0.7356181350742486 O
   0.1203512748582961    0.4254541291937677    0.9319364874797524 O
   0.2326924677460727    0.5720096160797385    0.9423874934769594 O
  -0.0156359396054615    0.5943827188869424    0.9141109560865498 O
  -0.0145480979279576    0.3599887407875110    0.9002063749133106 O
  -0.0669550283491619    0.3534155517493547    0.6847200899854525 O
   0.1642095769264692    0.7104650363297290    0.8996688588895324 O
   0.2539666722454097    0.8044879093633979    0.7576180964660699 O
