Li1 Co1 H90 C51 N3 Cl6 O45
1.0
  14.4168190315999993    0.0000000000000000    0.0000000000000000
   0.0000000000000000   14.0431586053000004    0.0000000000000000
   0.0000000000000000    0.0000000000000000   14.0893672205999998
Li Co H C N Cl O
1 1 90 51 3 6 45
direct
   1.0341671753748396    0.6024585380319617    0.4425038763475779 Li
   0.2088921980083822    0.1078945873422065    0.2407383921004478 Co
   0.3043806685914258    0.0762485729026718    0.9208761051688646 H
   0.4201392139641624    0.1206851571170298    0.8857567139107149 H
   0.5922576261160427    0.0824893341490003   -0.7178504351006113 H
   0.5227302221996215    0.2138614885091830    0.1287071010363499 H
   0.4936364256359942    0.2524347194485218    0.2713387727456220 H
   0.3828092038682895    0.2375142869525930    0.3155841948600052 H
   0.6832652192004921    0.2259107720611140    1.0582719136314083 H
  -0.0165569799882207    0.0284708600064593    0.2055877716186495 H
  -0.0915638173238204    0.0897476727368398    0.1326256588491718 H
  -0.1039396402851078    0.2880926518321248    0.2608925974351504 H
   0.1820991863770826    0.5588649265655958    0.0758147327467068 H
   0.0679366935003624    0.4219913033285436    0.2090556349538150 H
   0.3288472308217525    0.5805134750542004    0.2811326831348868 H
   0.5565005011309766    0.6972043169123516    0.3223509998206001 H
   0.2049606788656529    0.6839102991456122    0.0398926084897704 H
   0.0921396747013600    0.6597155998226429    0.1783196910878023 H
   0.1380242764675365    0.6916614043676893    0.2951822850013622 H
   0.2546089402769333    0.8665166537467903    0.2002929987000384 H
   0.4056582109396810    0.0791816737212052    1.0013743974088265 H
   0.4685635576747819   -0.0578131473209731    1.0757879593228834 H
   0.5709978739246478   -0.1833012977812914    1.1080775570654160 H
   0.3860658168490789   -0.1644259145822466    0.3115023933781107 H
   0.1174739734256095    0.3378891413295858    0.6212047335669684 H
   0.1966994944990497    0.1718317702250612    0.6055021121123635 H
   0.3326892711413675    0.1047336175598638    0.4097339163649225 H
   0.2029304113055314    0.2754088956340871    0.3967361715313399 H
   0.3266574273754582    0.1727012327400962    0.6145912357042849 H
   0.3738821305854866    0.3321625094328522    0.5904020727231609 H
   0.5178278231443872    0.2210927676575702    0.5551728823536829 H
   0.4211935380814786    0.0302596313723626    0.4557938983243084 H
  -0.0857941673186647    0.1079985525569445    0.3797325690097358 H
   0.0109913993823930    0.1887766760463336    0.3993778799499821 H
  -0.2878678698195056    0.2594530835338496    0.6204956882391275 H
  -0.1691412633296663    0.2993137741187112    0.6058491823479132 H
  -0.2089461605640815    0.1870021464906683    0.5565515816022623 H
   0.3016082123434566    0.4305100421224536    0.6245228385796368 H
   0.2048053047852063    0.3991488638876806    0.4898321409572928 H
   0.3141824147110285    0.3863020389624168    0.4468993895761247 H
   0.4065897617880729    0.7122151849032924    0.6306033103750445 H
   0.6044843177054727    0.7091396659823780    0.6115194157053908 H
   1.0059591497966154    0.5184928553005154    0.6968369449584051 H
   0.6995690931330703    0.6387936684923856    0.3397243847404075 H
   0.7098501405454792    0.5860662144479269    0.4446149718662263 H
   1.2170826988491834    0.8363275764946116    0.6447288560353928 H
   1.1729266337279756    0.7698987889106043    0.5513942172677051 H
   1.0210810709029390    0.7894036601221722    0.5789799841736691 H
   0.0298853037452731   -0.0859257686404392    0.4083868012175332 H
   0.5902176476758932    0.8559499426406439    0.4119213815304933 H
   0.7161115772606200    0.8610499348869018    0.3976978896687016 H
  -0.2371493307022916    0.0298751024959344    0.5905624773719016 H
   0.7479847664150935    0.7301192766440997    0.5764206073446461 H
   0.9222936756475559    0.7645488528946680    0.4098517357086877 H
   0.1323621397769755    0.2970578713769987    0.7465467714562181 H
   0.2509930247351111    0.1414554131682516    0.7143338272626413 H
   0.2655655874855700    0.2816902460395941    0.8216225348626428 H
   0.0761666643240186    0.1147755179587368    0.9609659112727292 H
   0.3729797123771784    0.2629138434217040    0.7583968423207129 H
   0.3387259703472909   -0.0290845677087099    0.7687024861247657 H
   0.4589178792699136    0.0135639572302567    0.7675768145632486 H
   0.4200705441696793   -0.1082070807579217    0.7716784891874650 H
   0.5577615976294585    0.0226943817738924    0.9135904692426524 H
  -0.2722610983460741    0.2876632612534465    0.7695641287954351 H
  -0.2121923690305553    0.2113848377087802    0.8448847577054684 H
  -0.1546137868079085    0.3126875460227840    0.7858026153376474 H
  -0.2518058232015631    0.0899719812480896    0.8030290809552896 H
  -0.0575785117632759    0.2340934041334052    0.6983359476935400 H
  -0.0663592282113723    0.1290294337355233    0.7749902064043871 H
  -0.3317124931455327    0.1336665671490435    0.7192737226397904 H
  -0.0751843372538821    0.1183900893971626    0.6475565202857609 H
   0.1820693601027112    0.4044354238480574    0.7178648588001868 H
   0.3216320469610132    0.3777569528195664    0.7843973002734583 H
   1.0652135524583650    0.6916621164582013    0.8165563030807330 H
   0.4512827692113958    0.5003184112759584    0.9657120435122404 H
   0.6350971733591807    0.4780875863757699    0.7824135348166864 H
   0.3918521140771395    0.6567426219354430   -0.0728796668809000 H
   0.6848085554906426    0.5089550580168295    0.8920408854149218 H
   0.7790796978987585    0.6478279608169143    0.9289701521345269 H
   0.8628200845508905    0.5000894029673301    0.7141663250630712 H
   0.6714782917494688    0.7180415094716925    0.9292050810669747 H
   1.1772646225633017    0.7289635537432791    0.8122310556053959 H
   1.1294746074087914    0.9712751373150654    0.8136065609561021 H
   0.2882980639966265   -0.1148102960748094    0.9196205484271726 H
   0.5701983216812068    0.6782149992314023    0.7831935556528198 H
   0.5448979416736262   -0.0975371165275491    0.8724523548813093 H
   0.3987142380854355   -0.1771239125905224    0.9424547889549951 H
   0.3584314268267894   -0.0857883351716416    1.0207109648880011 H
   0.9219080149835902    0.7994669232364024    0.8402124399945814 H
  -0.3093219783383162   -0.0298187330264831    0.6705894922368023 H
  -0.1867706723860545   -0.0775038741561481    0.7462351889748147 H
   0.5851333083469931   -0.0406980518673556    1.0602854888016631 H
   0.0568003950112093    0.0985476872829519    0.1028159453663747 C
   0.0472518254066200    0.2522880288030695    0.2476726992606128 C
   0.3812159259094240    0.0723342113587344    0.9264143240809186 C
   0.4034614711505095    0.1742037437202141    0.1816392156106366 C
   0.4420481384854231    0.1986199031923854    0.2773440105022398 C
   0.3533609601836434   -0.0264982549694738    0.3335672593960440 C
  -0.0248382797491673    0.0960425528620730    0.1701241491452819 C
  -0.0295445883912665    0.1746929499018922    0.2482837983870101 C
   0.1081549967702516    0.5412354169261787    0.2698930016417064 C
   0.2288272474371121    0.6219505916143154    0.0771419747517742 C
   0.3194103363374843    0.5974995397070608    0.0264832057080921 C
   0.1416637755751407    0.6379541137788505    0.2356799676244503 C
   0.2420916159209535    0.6359915923280426    0.1864641306643522 C
   0.2850733581930717    0.7306362543557422    0.2103970720605408 C
   0.6354113896915125    0.7973591353211660    0.2799083556168433 C
   0.5302223048680139   -0.0795518464683846    1.0289157336465995 C
   0.0445535880274356    0.0451522923383271    0.3630767464787644 C
   0.2602169734930531    0.1861362444281928    0.6482052364315533 C
   0.4710983054523535    0.1102779542855499    0.3393709267091114 C
   0.3921857521695271    0.0579300444839362    0.3880906448662458 C
   0.5276365056068669    0.1596799456394159    0.4165846143763189 C
  -0.0178908387234833    0.1333162186171866    0.3547215096425861 C
  -0.2136628737204964    0.2353559406110114    0.6132668327195492 C
   0.3024419607572818    0.3565053235822974    0.5971234533584487 C
   1.0710095605664536    0.6323976715144620    0.6545745785457110 C
   0.2653727571535872    0.3559349390822621    0.4936371876397028 C
   0.5723877783103574    0.6850282812493017    0.4845904932066386 C
   0.7236860636823921    0.6500446985804720    0.4120732691182391 C
   0.8297628616672994    0.6731192795282158    0.4050651474294500 C
   1.2738982833553516    0.6967770626052091    0.6362089560199762 C
   1.1910936093573377    0.7646086684976680    0.6234461401188415 C
   0.6520350290307240    0.8147298712685571    0.3890126167189638 C
   0.6656940754242713    0.7285491170653509    0.4578939926391715 C
   0.3096321737836636    0.3045390942950643    0.7617965691679177 C
   0.1635951044838945    0.3350471880965761    0.6901780227704146 C
   0.4104512238677438   -0.0356194223364548    0.7957846108238869 C
  -0.2095218770228792    0.2553443212801624    0.7845300244739651 C
  -0.2598172992245913    0.1066114002397552    0.7284906021466382 C
  -0.0883890531889806    0.1651573458569831    0.7073164787577743 C
   0.6404492555231360    0.5341936962720604    0.8348360452414340 C
   0.5418297197653783    0.5481288803357186    0.8816181320221866 C
   0.6926584147246349    0.6240420014477781    0.7965000439474740 C
   0.7698280037693083    0.5972481717563587    0.7251987580720378 C
   0.7282286746325923    0.6826491868490298    0.8864558226673948 C
   1.0791673934241881    0.8417615391909528    0.8105340312021251 C
   1.1063557765994814    0.7438248827267199    0.7838507888596071 C
   1.1011486640016568    0.7366548433623564    0.6764066448964452 C
   0.5187992579643224   -0.0446921675486262    0.9234787770579459 C
   0.3603507129008777   -0.1069452563708275    0.9456252649104154 C
   0.7900959976561381    0.7660976497580596    0.8593673101725273 C
  -0.2448556076387283    0.0146107302827558    0.6668043683795699 C
   0.2572197797358665    0.2924356918642285    0.6694418182677145 N
   0.4151325616754855   -0.0287627027973292    0.8985074639754400 N
  -0.1930966170899522    0.1883380282910006    0.7074548809989443 N
  -0.3690577631957351    1.3054435485604463    1.1194669968810933 Cl
   0.9416127778288009    0.4101442534819934   -0.3434759215108253 Cl
   1.0562871728098497    0.7748763015888147    0.4184812219089078 Cl
   1.1430476431506629    1.1142707451010605    0.8376942289603680 Cl
   0.5538676734651231    2.2609978064846974    0.6889451781913760 Cl
   0.7382288001584795    0.1328654653231512    0.0326311042363776 Cl
   0.0310353493942931    0.1230777812370280    0.0163273202265363 O
   0.1386943271894625    0.0733802723207217    0.1185299229023063 O
   0.1360807131933785    0.2290461065850282    0.2503030515979282 O
   0.3247277367870543    0.1401978613242288    0.1655753288188236 O
   0.2864717249170912   -0.0193189584284557    0.2765717969720188 O
   0.1213576318024870    0.0390482524702843    0.3248429499167454 O
   0.4599496602728793    0.1855566027515028    0.1092867824573904 O
   0.5306269017480341    0.0502188163305256    0.2879811099300180 O
  -0.1168384634993270    0.2226472612450570    0.2380739715191521 O
   0.0954212585165069    0.4849087013893003    0.1940109564610804 O
   0.2963671116655345    0.5585766011173259    0.2255255016530603 O
   0.0834331771220483    0.5212394168885504    0.3512571950828354 O
   0.0126089545413282    0.3322465361132568    0.2443112991878860 O
   0.2343409463901036    0.8029219864001617    0.1703633366082272 O
   0.5793497856560832    0.7246169532586160    0.2570478541509525 O
   0.3408908029592278    0.6767281542425463   -0.0304285056161481 O
   0.3571946768918059    0.7357661544035000    0.2597527307719749 O
   0.5487828485922215   -0.1770954289700463    1.0416998422002219 O
   0.6690602826225185    0.8500652266502676    0.2187437918357240 O
   0.2364974553905879    0.2644142181302862    0.4570198582790426 O
   0.4824790406644949    0.1900705445064635    0.4941893061187091 O
   0.6126019197745203    0.1696534853491462    0.4015880572782067 O
   1.2839906622415038    0.6127461096574417    0.6616522562326265 O
   1.0738929983004561    0.6009033323539630    0.5719228893841584 O
   0.5216587653153989    0.6540808276019451    0.4233369403332222 O
   0.5483775580779137    0.6849421182973613    0.5747264219617071 O
   0.7869240080584491    0.6353564075914240    0.6515155341383095 O
   0.8905925077964340    0.6107045461598124    0.4072724857373429 O
   1.0228734219023767    0.7934333803290382    0.6515659267491971 O
   0.3982356304269170   -0.1044187592345913    0.3527249685943216 O
   1.3537425262134273    0.7524283602915465    0.6272944321784539 O
   0.0050101909194863   -0.0205366332038118    0.4112641483237060 O
   0.8506232192358320    0.7650850570501317    0.3991755997513489 O
   0.7053768930240499    0.7674449250065823    0.5386980473688570 O
   1.0332245263778441    0.5812046301050545    0.7222880524769676 O
   0.3585888818100991    0.5184225149997495    0.0212281790741247 O
   0.5123775917287211    0.4762765265768439    0.9295734439550121 O
   0.4982573201519052    0.6252390255982890    0.8748499075514258 O
   0.6293462514797931    0.6818402520275066    0.7457142287439487 O
   0.8114883727233426    0.5240721129449053    0.7626766654707431 O
   1.1446131757380198    0.9049631325750103    0.7866976164972143 O
   1.0049027447764360    0.8623480758901032    0.8500688088311433 O
   0.8805597814590245    0.7408170124044365    0.8577334539716369 O
   0.7570533410925888    0.8460034623703661    0.8414367675126248 O
  -0.1641075593037688   -0.0325873409367667    0.6988512298837427 O
