Li1 Co1 H90 C51 N3 Cl6 O45
1.0
  13.8387418360000005    0.0000000000000000    0.0000000000000000
   0.0000000000000000   13.5056460035000008    0.0000000000000000
   0.0000000000000000    0.0000000000000000   13.9585527015000004
Li Co H C N Cl O
1 1 90 51 3 6 45
direct
   0.7974117551274188    0.4460567454706574    0.3336045255106995 Li
   0.5653680449364804    0.5741788656233382    0.4575354255827466 Co
  -0.0552719743503133    0.0637678865251475    1.0267150654709301 H
   0.9772677008121042    0.2181921916979260    0.1399891802958924 H
   0.3664744581770374    0.0992123221245957    0.1048917020346001 H
   0.6210944259282734    1.0825640252980884    0.0009697531749510 H
   0.4930081431573285    0.1960806984807478    0.0919863526153410 H
   0.6468677226792945    1.1054500094205730    0.2184213804968740 H
  -0.0985714308400081   -0.0046864472964564    0.8546492323318038 H
   0.8315434706834717    1.0464050737104751    0.2027471193697524 H
   0.8316504168218951    0.3189241374077008    0.0809479589297663 H
   0.2951189829682144    0.3252422357776630   -0.0126061528700673 H
   1.1720989963122539    0.5171775196825001    0.0720372929990044 H
   1.0806412601250293    0.3964004758019423    0.1437352706763357 H
   1.0439833033532426    0.4813891538483341    0.2352906079186178 H
   0.3188863170147515    0.4705610735060756   -0.0383695688695896 H
   0.3907765229156920    0.3550097863188081    0.2533519360083780 H
   0.4375625680398016    0.4359560809067670    0.1563261175756073 H
   0.6512409526099638    0.6569375873986864    1.0315694369411699 H
   0.8671615930418025    0.4380478727390628    0.0463168613985693 H
   0.8558433675949961    0.5324733448467658    0.1608710013724198 H
  -0.0223773654765648   -0.0660718856372178    1.0549486516046593 H
   0.1012025105170117    0.7918863339842018    0.2559732679460415 H
   0.5953312457038598    1.0155794471619850    0.1407106017939048 H
   0.5269500293176795    0.7609178042380785    1.0088708085965599 H
   0.3915670572091738    0.6935718957369753    0.1915890857733851 H
   0.3764898195185899    0.8714537978227708    0.2193770669699112 H
   0.6002666654702958    0.8954215517470268    0.3194698222775486 H
  -0.0740612546968536   -0.1312572162590815    0.8829981599364168 H
   0.8546503400643393    0.8412382864807553    0.2327939307383071 H
   0.2420700852649391    0.3078998591198341    0.6187952673540292 H
   0.1896946591901145    0.1260551699162563    0.4047379747466865 H
   0.0805749127640566    0.1950900017013022    0.3967665179359784 H
   0.2936520866101082    0.2411973852236175    0.5237945156029183 H
   0.2048347638674744    0.0702577649046997    0.5782432837705758 H
   0.4649323972113154    0.0817181570962238    0.7295546012951377 H
   0.5613331405599320    0.2052427926129302    0.5851972282142263 H
   0.6105638443387751    0.1056711023989635    0.6533239187340687 H
   0.4213623958957709    1.0173735116586939    0.4235830517131354 H
   0.7100497669981968    0.2878134448950204    0.5743526225278693 H
   0.7765695424885732    0.1894523594900175    0.6379405187074366 H
   0.0093545654463497    0.0977099874717592    0.5723877340049316 H
   0.7540053524993006    1.0953594147193140    0.3541739932871937 H
   0.2655765574468080    0.4181020663755471    0.3191445736577893 H
   0.0522724843611282    0.5541331751076946    0.5612107156323008 H
   0.0944092628999890    0.3993382841814687    0.5256481461728857 H
  -0.1682244391425758    0.4976562764978590    0.6960410981402061 H
   0.0165647584814155    0.6388666265622516    0.4766494416061506 H
   0.2667666945412912    0.6798791038518575    0.3521802335762024 H
   0.2158950178857863    0.8008129710342737    0.3649014664860382 H
   0.0426935788817905   -0.0625074504382259    0.3670084184479590 H
   0.1662662287849330    0.8038272659439322    0.5741184291935096 H
   0.4643366060550304    0.8428776008826181    0.4533376408085628 H
   0.3689537298049498    0.7688707744234488    0.4983921685557280 H
  -0.2829906526337775    0.8256181525052809    0.6212382140354812 H
  -0.1243953102240674    0.7717636386366730    0.5649550866367806 H
  -0.1224608858148801    0.7022623352738612    0.4626864610473527 H
   0.7143702464686978    0.8993961857620223    0.3739238918544266 H
  -0.0517832178887682    0.6702823766781694    0.7103140678570874 H
   0.0228312241057981    0.1276085943133242    0.8623212311622048 H
   0.1336288687306356    0.1046618948426224    0.9158131666061826 H
   0.0617393854387385    0.0343831388502008    1.0617946335659363 H
   0.4730356627631217    0.1984234224046386    0.7867037926947787 H
   0.3473816820322682    0.1695066271696094    0.6588194741573581 H
   0.3888760611315446    0.2357507742298941   -0.0325093624607110 H
   0.5389907915469838    0.3398450174549624    0.7788154390556392 H
   0.6311545890305168    0.2072538034148542    0.8548698855804511 H
   0.1138510592127213    0.0589432376351119    0.8020664169285188 H
   0.7427716723105723    0.2529465455347110    0.8229668645779837 H
   0.9094717977510798    0.3445845167712788   -0.1150823931070860 H
   0.7746380085155596    0.3179934155453966    0.6684529943994353 H
   0.7065321061749157    0.1262084391489508    0.7868886256108534 H
   0.5862074394000567    0.3875265574444686    0.6557733130753836 H
   0.6438031377262263    0.3968218551271908    0.7680858166368403 H
   0.5267337524309893    0.5881522808861914    0.7987508869455981 H
   0.5968740160115231    0.5557413914043731    0.9738098670744917 H
   0.6447338581741283    0.6180953135923055    0.7699076387514832 H
   0.7182723353030689    0.5907948793957889    0.9436276548488125 H
   0.1554010792083396   -0.0806420883471811    0.9969361901900184 H
   0.1511152849719221   -0.2435761678743456    0.9826711009463033 H
   0.0848859983169932   -0.2468710861617394    0.8775362756257457 H
   0.5524102195701948    0.7074808934962324    0.7626267979527749 H
   0.4662809302081123    0.7617589339402088    0.8904946391372123 H
   0.5465678531933847    0.8945604304058493    0.9143395181241456 H
   0.4619418796851960    0.6448966972437202    0.9653383584210699 H
  -0.0218643130557494   -0.0737434920137769    0.7798556615135477 H
   0.1688661761230936   -0.0873044871673990    0.8708923203401784 H
   0.6032510408195463    0.8833177249506160    0.7266359605971217 H
   0.6485383947876401    0.9381422035285467    0.8546778885978619 H
   0.7130977319432666    0.7620551063705362    0.8414931405845364 H
   0.6851370976178676    0.7948006706986247    0.9618695174147385 H
  -0.0088660215830332   -0.2989966934683104    1.0186762664349855 H
   0.3053966513925218    0.2191976970988880    0.1575869932821631 C
   0.3855852995478916    0.2898725837168726    0.1188938700372324 C
   0.6675733622089371    1.0445273405021984    0.1683660477599122 C
   0.9498844311123833    0.2907203772986852    0.0139173705866457 C
   0.7308370613497438    1.0851533127702269    0.0886464648062711 C
   0.9217330279995258    0.3179223341621180    0.2453503901183089 C
   0.2901561040581290    0.4442021877550539    0.1823667829492416 C
   1.0270106621418151    0.4514156153818962    0.1658213713339541 C
   1.0305702342896137    0.5344353391114706    0.0911352615134159 C
   0.4347205466721014    0.3921712815830802   -0.0292389660968319 C
   0.3694624465715049    0.3090652976331729    0.0062790428688629 C
   0.3824744676160458    0.3837585036996264    0.1800535058717026 C
   0.8940029059589719    0.3677192857352386    0.0762511969228460 C
   0.9248966103915403    0.4006698754282214    0.1763718920898900 C
   0.2407925124762042    0.7681318242097814    0.2172643837547788 C
   0.2706557764128811    0.7598923071980694    0.3253765951187715 C
   0.6652342767354447    0.9433318849389609    0.3283188772362856 C
   0.7212516523890156    0.9652234701266210    0.2338298547563069 C
   0.7284921950039043    0.8674125250109513    0.1764206077421887 C
   0.1268731967838698    0.1473892105038247    0.4443142124708623 C
   0.1481800470376229    0.1994940857402727    0.5421563046422976 C
   0.2272399798671987    0.2826348699507434    0.5428727829344149 C
   0.0763722185676302    0.0459094294074728    0.4474792970569779 C
   0.0508482219365827    0.2353790778298331    0.5826258298201691 C
   0.5729888244300072    0.1780208441104504    0.6614601490746107 C
   0.6368928274441725    1.0298112728702988    0.3911570538551081 C
   0.7340541168109698    0.2557372302594722    0.6416758629881082 C
   0.2208578967958717    0.3644673124502423    0.4704924279215754 C
   0.0115411804116844    0.6208734109887778    0.5531466990822250 C
  -0.0975193120728146    0.6136719783453638    0.5869531409169355 C
  -0.1390050198635702    0.5130974482823080    0.5596468715528459 C
   0.0592514425023052    0.7084915819147252    0.6050861096718410 C
   0.3285671103692088    0.9242346866314414    0.4773970835876061 C
   0.3853396124731349    0.8323383049494127    0.4480063574304513 C
   0.4465305798338473    0.7112237725844966    0.3206497440324902 C
   0.3753415937486240    0.7970745345324644    0.3392390638243707 C
  -0.1524441028527617    0.7000728805826649    0.5362642897780946 C
  -0.2643184349522683    0.6952089888456109    0.5377995492321564 C
   0.0773896521007403    0.0716601413623006    0.8701085714634897 C
   0.4745386895733980    0.1617520925125586    0.7123672893201491 C
   0.5977303077279545    0.3490848568501058    0.7251329394423751 C
   0.6840777527602402    0.2047467037921316    0.7987215142728886 C
   0.5797705103023355    0.6455090337434224    0.8011393867215397 C
   0.6450597548527026    0.6166159323028194    0.9644851180991905 C
   0.0045398213901618    0.0057025411283578    1.0171453054208321 C
   0.0862762981164988   -0.2086626213562595    0.9479769596297785 C
   0.1177148497677921   -0.0997392866547007    0.9312151932057524 C
   0.5030472060755047    0.7135131854709285    0.9444988053369783 C
  -0.0444364517444995   -0.0583203127044703    0.8540574804377042 C
   0.5987217273355022    0.8736173374263133    0.8591253410900769 C
   0.6575240382423446    0.7833906278202563    0.8892344798373079 C
   0.6457801960689744    0.2484284351100644    0.7045906951186360 N
   0.0385320734008380   -0.0181645141695869    0.9139985085580544 N
   0.5987000490642002    0.6865415026720755    0.8982468755125760 N
  -0.0106891641995366    0.8151914020955998    0.3339290577238073 Cl
   0.6184626837922030    0.4535181434647915    0.3621769719905656 Cl
   0.4728933087815715    0.5140136576955262    0.5717767107719079 Cl
   0.4886618665439782    0.0632310739951788    1.0101144905434809 Cl
   0.8166028061020907    0.4441145207156770    0.8442233663332206 Cl
   0.7400394875174691    0.9307038329408706    0.6802686893018356 Cl
   0.2345419442507764    0.2554603090371160    0.1937705440270569 O
   0.3115178725991807    0.1194290522187534    0.1479412941270113 O
   0.4761899957593804    0.2497419598385670    0.1381143440890422 O
   1.0008211425817943    0.2228346945433101    0.0515143916548546 O
   0.6930077553186027    1.0942221125868561    0.0019555287273491 O
   0.9554738120630982    0.2342062350057360    0.2169068968357042 O
   0.8196088597226433    1.0956681744779304    0.0975213104044603 O
   0.8831406468185522    0.3321149170234136    0.3259647649796137 O
   0.8106644049834126    1.0046018160318946    0.2563909330238380 O
   1.1098960872471615    0.5436395637718671    0.0454621882633868 O
   0.2666489092672167    0.4898235523192018    0.1057979564486871 O
   0.2325937902697645    0.4567500510676331    0.2603662735327461 O
   0.3849645783796092    0.4776072540423742   -0.0578443672826649 O
   0.9594683948550248    0.5939913203500988    0.0805997852971605 O
   0.8545556782796536    0.4751490747008310    0.2050188448615071 O
   0.1488925395544173    0.7901744573369086    0.2016116148272007 O
   0.2930711089392130    0.7600729723805693    0.1456731506685138 O
   0.4365697032141672    0.6606545513992970    0.2394557961901606 O
   0.4053753934195438    0.8823884839504634    0.2800782025474520 O
   0.6709479464416247    0.8383913289942317    0.1191267021989543 O
   0.8080015906584761    0.8097610805855444    0.1920748094830697 O
   0.1930699660318455    0.1348352016133162    0.6104863830104872 O
   0.2842090316309301    0.3698517272335969    0.4087799410741796 O
   0.3562741089203739    1.0120164928251445    0.4476200709639883 O
   0.5594322452103585    1.0290330798096132    0.4359532453637597 O
   0.0276228446725972    0.3226455439947664    0.5905251444810760 O
  -0.0101739439515909    0.1676192683573472    0.6025922981181360 O
   0.6996752689620735    1.0999078828180691    0.3986306080430569 O
   0.1470484412756553    0.4305057677576645    0.4763269153316668 O
   0.5146338446514828    0.6900940909738542    0.3741101575838042 O
  -0.1010644320397451    0.6196524401447525    0.6862929528338967 O
  -0.3070896642312361    0.6336384427358948    0.4930714163553929 O
  -0.1749931180521229    0.4638415445049096    0.6340740720095492 O
  -0.1458950970924088    0.4854403484365693    0.4774704436287148 O
   0.0369343848058761    0.0122013046808198    0.5189408462111970 O
   0.0776642435372331    0.0036522874794154    0.3624312963518312 O
   0.0384749872864093    0.7400783716091570    0.6880374030301827 O
   0.1323635802956387    0.7427350383091951    0.5511100266128117 O
   0.2540025283986373    0.9202630143407490    0.5253091425454185 O
  -0.3175241388179618    0.7593473499262667    0.5886001598086240 O
   0.4064304026229107    0.2044031437729516    0.6551894416544500 O
   0.9545373107428492    0.2970258883403585   -0.0789339462881133 O
   0.5229750942656431    0.3923289934022296   -0.0310829968176697 O
   0.5472841755381092    0.8537826697672781    0.7680693392838569 O
  -0.0014115866912975   -0.2269490476357575    1.0028658880440879 O
