Li1 Co1 H90 C51 N3 Cl6 O45
1.0
  15.0816928641000008    0.0000000000000000    0.0000000000000000
   0.0000000000000000   14.6907999930000006    0.0000000000000000
   0.0000000000000000    0.0000000000000000   14.7391396539000006
Li Co H C N Cl O
1 1 90 51 3 6 45
direct
   0.8789993306159997    0.7761239348390058    0.4106174424365802 Li
   0.2556966228426193    0.0886685202385629    0.2801023618300272 Co
   0.2441919461751201    0.2864242586179765    0.1510900826433753 H
   0.1731674259404069    0.2850880481999357    0.0576911440129414 H
   0.0775634368529363    0.1122955521337210    0.0997600852510367 H
   0.2758422393021102    0.0945490713345661    0.9744020455495062 H
   0.5435446143856471    0.0941454173468441    0.2628394817722571 H
   0.5732836499197569    0.1382526137084276    1.0141004277983763 H
   0.4556874346950254    0.0232861040013480    1.1080563867293693 H
   0.5758715556907932    0.0053619609917454    1.1246502996539465 H
   0.0661999910153707    0.3609981416278887    0.1738492129506344 H
  -0.0193858919243710    0.1602657103508223    0.1480614119713942 H
   0.1865870070062541    0.6355502423931202    0.0896753717948704 H
   0.0430354826841073    0.6484521946414874    0.1416173452056065 H
   0.1977071114607887    0.6564994078672023    0.2066340302023075 H
   0.4678114052365056    0.5965122049633501    0.3135215444666247 H
   0.6070411335515774    0.6459308887890051    1.1053900167157300 H
   0.4084533472209526    0.6895677227466831    0.0656746493438556 H
   0.2018711002494403    0.8726428446788805    0.1666371230664142 H
   0.3542836988027243   -0.1971729589185212    0.2548003422578521 H
   0.3567323629104456   -0.0503518190876237    1.0119836149631207 H
   0.5084796250130792   -0.0907328739166778    1.0899074305296621 H
   0.6498798258536802    0.7277521647285555    0.3488723188153929 H
  -0.0182527300072045    0.7522443639397248    0.1542537679801691 H
   0.1505360142629772    0.1930978229811640    0.5003951384942920 H
   0.3000795714964370    0.2274805659387075    0.4805047305814781 H
   0.3221268312434841    0.2066450770513869    0.6019454348580254 H
   0.0838624644790813    0.2528331675790176    0.5801056255096673 H
   0.1672357310831971    0.1800951274103973    0.6187693476387409 H
   0.3563020398652491    0.3135310193246602    0.5472552006294142 H
   0.5626084557322901    0.0952542745913619    0.4196212922620268 H
   0.4615301474988217    0.1064735410764094    0.4819115969581403 H
  -0.3092028268922238    0.0589975696975647    0.4358514119038271 H
  -0.2449262228839609    0.0331827740308410    0.6504435166175572 H
  -0.2575176475808550    0.3017862538876374    0.6718626772614734 H
  -0.0899449471702891    0.2257019017398585    0.5684251608392313 H
  -0.1892295575580472    0.1501546204121683    0.4823698801523166 H
  -0.1281349570842969    0.0585714526717401    0.6335897513481393 H
  -0.0511840464366906    0.1813421663741522    0.6810816685452724 H
  -0.1608242582418311    0.0382777994913786    0.4809542751380525 H
  -0.2534796393447263    0.2410189709333142    0.5641515056952330 H
   0.1453648441096820    0.4150299166420623    0.5107281703792094 H
   0.1657969005622776    0.3289073092549317    0.4300010704303895 H
   0.0963597352893530    0.6625957402686150    0.3827555719581810 H
   0.3131464070152201    0.3708703065249062    0.4018998372698498 H
   0.2715091713508620    0.5668972758779836    0.5489063824874789 H
   0.2422856614987867    0.4595185081627025    0.3889282524630384 H
   0.3723413533680330    0.4958440997066809    0.4738256093904423 H
   0.5417487284566562    0.5586421093752889    0.5886916083398466 H
   0.6760221166132612    0.5223531393903988    0.4960451559644069 H
   0.6778468454582245    0.5301657159726604    0.3682506547771140 H
   0.8535963467830663    0.6555661707387591    0.5208358159744243 H
  -0.1044095037665368    0.2883002626486033    0.6800090143489458 H
   1.0382679234486878    0.8762532675302755    0.5547045499522526 H
   1.2067079005050430    0.7595366829455684    0.6697112626779492 H
   0.3710822108983436   -0.1249903684193463    0.4757985875074049 H
   0.5712686241349301    0.7261239348151814    0.5211162258285305 H
   0.5559209438654967   -0.0267268292868385    0.6415169440299106 H
   0.5275107379382877    0.7448621927814709    0.3714245170986927 H
   0.5778918859199367   -0.0493362174861378   -0.6501581772491303 H
   0.3352586462051475   -0.0058627510782966    0.4585050408021496 H
   0.6565501645819980    0.6914580214379207    0.6220334458920790 H
  -0.0246154109651506    0.0183891616949876    0.3270854297879162 H
   1.0121090563006170    0.8932237524677052    0.7212678675981644 H
   1.2016819395149190    0.9976789217390306    0.7459551972893327 H
   0.2094133570123245    0.3056403666675390    0.7107374022084202 H
   0.4592023584159683    0.1284369467557286    0.9843184995238958 H
   0.3242512611923440    0.0637658600584285    0.8556379900412310 H
   0.5422959481934833    0.1198315610680712    0.8944930394842604 H
  -0.3267273848036988    0.2086245471969104    0.6508655222533036 H
  -0.1629791887455123    0.1034737044425297    0.7874440503946898 H
  -0.2751018804908935    0.1405962573504624    0.7740341767764760 H
  -0.1894549964415092    0.2183374287328370    0.8113450383948125 H
   0.2796733742098856    0.3933517234768332    0.6624177569154500 H
   1.0279985192514527    0.3461698136876949    0.8560287862569704 H
   0.1566540277268131    0.4024792046258443    0.6619828604323095 H
   0.5207595064341395    0.5806790985218472    0.8817344928922792 H
   0.5088340812434354    0.6933455973366609    0.8520271958395546 H
   0.6788924840441646    0.5002423625671643    0.8745753233289405 H
   0.7248356023826475    0.5863582310428640    0.9491882265121334 H
   0.9184869402209934    0.6560603575770156    0.7275674211800067 H
   0.8990010640233987    0.4885212173550554    0.7877839616865048 H
   1.1417112181807809    0.6762294430006266    0.7174474275099195 H
   0.1793232335699995    0.8015902130660774   -0.0818414235786699 H
   0.3350086742667205   -0.0828953157132537    0.8926774653986373 H
   0.7383997295561263    0.7322229900090914    0.8298915754667826 H
   0.4962578471489535   -0.0328714912550780    0.8528026820801626 H
   0.6291275135754606   -0.1011257728788004    0.9619515223636809 H
   0.6527734002284693   -0.0058076145302266    0.8930601200265490 H
   0.4942715648217680   -0.1183637721790880    0.9333521597212038 H
   0.6776638421292965   -0.0014599956101928    1.0101198698161826 H
   1.0239379671269777    0.7919923695131610    0.7839682708578262 H
   0.1926579435267788    0.2451562541329331    0.1165195437947814 C
   0.1062518608845590    0.2343950974855532    0.1766478837664771 C
   0.2347513614023777    0.1599627996854997    0.0848297701059616 C
   0.1341625207682378    0.2541557640345720    0.2796627160873203 C
   0.0501779169566161    0.1403069606476263    0.1613132030926160 C
   0.0558443895979883    0.0803183963475256    0.2442786969215882 C
   0.2049112098984798    0.6913055450580728    0.1389394412758778 C
   0.5673356438962731    0.6591854426657703    0.2675059685289519 C
   0.0439233140516239    0.7177057411117120    0.1726252609138391 C
   0.1273575817653824    0.7604862568289952    0.1323651091048436 C
   0.1099835374613953    0.7802305866230302    0.0310796857317781 C
   0.2989629859677604    0.7209397379003579    0.1218678885320634 C
   0.0406272649643011    0.7120545852836048    0.2759616859538847 C
   0.3502781802880356   -0.0916647496488723    0.3373105856341139 C
   0.5129078679564807   -0.0137071162629639    1.0830725675481350 C
   0.3052328391501632    0.2569507105330312    0.5497900839996329 C
   0.1490242476327025    0.2273859488994269    0.5667052504105862 C
   0.4417441060584527    0.1134343600957089    0.3373614705580383 C
   0.4905162834677223    0.0747523277849584    0.4248973125607709 C
  -0.2097643876192799    0.0849913889709845    0.5170300307442697 C
  -0.1938643157798107    0.0796683296387997    0.6193209402140816 C
  -0.2659914973768691    0.2365100265578164    0.6325225248770313 C
  -0.1062726898327965    0.2190902808583353    0.6479487984139563 C
   0.1944468673726039    0.3645867821393053    0.4848528269768497 C
   0.2681428383763422    0.4167677389534520    0.4409337981053975 C
   0.5112907418009643    0.5675030972086286    0.4559280925614868 C
   0.5973790882286106    0.6311093678300546    0.4417333698766631 C
   0.6772023554737389    0.5721140101631496    0.4328160922684532 C
   0.7599450562597007    0.6324292414931116    0.4431063808172742 C
   1.1728788068749463    0.6519203515848995    0.5789746232672407 C
   1.0698764440766835    0.7770170107781140    0.6422361176213756 C
   1.1469274761107684    0.7167602514170311    0.6531438099138127 C
   0.3775310890764369   -0.0623824777368610    0.4350913946800921 C
   0.5234913615628216   -0.0702459024690092    0.5204387100281181 C
   0.5838288852214631    0.6981765119249622    0.3600812498574625 C
   0.4766969462170537   -0.0257581958559307    0.4336629530956859 C
   0.9827535983961624    0.7211289719789189    0.6248585768683623 C
   0.5272201206952836    0.1066008316256573    0.9676614892936524 C
  -0.2033526405514039    0.1597946672487926    0.7688160974444406 C
   0.2156235351961639    0.3566791120290763    0.6593979062969493 C
   0.5568315180380214    0.6714032932991956    0.9889863432118953 C
   0.6263943986412532    0.6265010415284060    0.7316531413383109 C
   0.6420451615978350    0.6390041046759215    0.8383717176551991 C
   0.5505972709380949    0.6440875582683456    0.8899473196136795 C
   0.7099281246859508    0.5691401761976189    0.8769730209442588 C
   0.7964078064930655    0.5709594780744899    0.8250622569535296 C
   1.0530540619816386    0.8332596933000801    0.7306367997911274 C
   1.1380803260459629    0.8792660374285173    0.7655696392980630 C
   0.4738141796475599   -0.0450566683785360    0.9210855007271586 C
   0.6300332474425463   -0.0265103672833047    0.9616882776905785 C
   0.3724050066998340   -0.0378950434125620    0.9385899145571567 C
   0.2156241982517035    0.3022042025359701    0.5669366071980293 N
  -0.1933007185711556    0.1719172201448131    0.6661459256749787 N
   0.5338479575635134    0.0050331837976987    0.9847228650526818 N
   0.6608255467013016    0.0387059586115761    0.2771774964028520 Cl
   0.9100018184808063    0.9376474734570978    0.4509695263414659 Cl
   1.2676095518167714    1.1019387306486761    0.7577577857771871 Cl
   0.0493603694762965    1.2921468882256260    0.9195542037498600 Cl
   0.6293045494045322    2.0028978347346831    0.7388713374134021 Cl
   1.0082746061151435    0.4295880074269008   -0.2600607811315339 Cl
   0.2546178314796995    0.0972984110586958    0.1386334532666789 O
   0.1209803135855653    0.0522253040587018    0.2872873130881544 O
   0.2085958095320048    0.2243105547737478    0.3021918465384411 O
   0.2339543686437855    0.1480900630011048   -0.0026760158683729 O
   0.0812241664870359    0.2986271338926668    0.3293386142192892 O
   0.4880639062489791    0.1357986969702528    0.2647873566600836 O
   0.0435606226714659    0.3033845330835415    0.1434933027342866 O
  -0.0264056609220549    0.0648924154541786    0.2760661696643428 O
   0.1093622544207955    0.6740974964752554    0.3140968833397967 O
   0.4894061295777797    0.6170890285634290    0.2553003714436160 O
   0.6115220628881550    0.6244868557785421    1.0380624777072085 O
   0.3471014811978397    0.6630552115025311    0.0750205137046395 O
   0.6210819976580244    0.6690290182415664    0.2059162135421471 O
   0.1440334285861768    0.8437199813765104    0.1848240733426517 O
   0.3338675556830789    0.7901027515200478    0.1549627645868492 O
   0.3202251879559280   -0.0397424581219673    0.2779706227504205 O
   0.3732159236247578   -0.1767315942451821    0.3186649925769044 O
   0.5096894626728443    0.7316532456790353    1.0180870919714409 O
  -0.0199521413551845    0.7474352316914018    0.3217913623028203 O
   0.5086122692737750   -0.0172814621137699    0.5882845289484512 O
   0.3620673077820207    0.1307016294153423    0.3464413763831106 O
  -0.3028374937121194    0.0727490332050837    0.5033164080535099 O
   0.3150533547470931    0.4727297696387608    0.5043273218754749 O
   1.1224885750324050    0.6250919964110629    0.5176232132640978 O
   1.2571664270681626    0.6192155295038057    0.5895261210922069 O
   0.4491568680744541    0.5585303387432755    0.4042798947782077 O
   0.5122186217230725    0.5260345590561604    0.5351312229620532 O
   0.8072852326201085    0.6102350791496477    0.5165632463754697 O
   1.0901274863669699    0.8408760246131001    0.5682311196626663 O
   0.5655138324956840   -0.1422419816821203    0.5238212005377870 O
   0.5159364404391312   -0.0697721365744823    0.3571434935828932 O
   0.6172813633050704    0.6835380987614538    0.5273055287418699 O
   0.9296547846743788    0.7383758203548227    0.5630367866284622 O
   0.7805269632642445    0.6942733888801096    0.3877857163045223 O
   0.3404841869126895    0.0519727650545790    0.9204144981970086 O
   0.5803710505824794    0.5620322583136538    0.6990956100801669 O
   0.8306519728909482    0.6410087606520448    0.7952708301599167 O
   0.8303429890094972    0.4920014907250803    0.8099087266088395 O
   0.1877115492014059    0.7810814592784306   -0.0140735603617890 O
   0.0371555061589858    0.7890674096729566   -0.0041632125782704 O
   1.1447599475518351    0.9602507353732780    0.7261324663253383 O
   1.1901911870137512    0.8504595735054058    0.8267401025117307 O
   0.6761142813332649    0.6821794253053105    0.6863974469312427 O
   0.9743513585984245    0.6620164661648184    0.6916786235689445 O
   0.6773774021361918    0.7294532293412320    0.8565722372444832 O
