Li1 Co1 H90 C51 N3 Cl6 O45
1.0
  14.0644299999999998    0.0000000000000000    0.0000000000000000
   0.0000000000000000   13.5722330000000007    0.0000000000000000
   0.0000000000000000    0.0000000000000000   14.0255130000000001
Li Co H C N Cl O
1 1 90 51 3 6 45
direct
   0.4690684122996808    0.1782480023736698    0.6652256127815074 Li
   0.1347665600383378    0.2475842626633362    0.1250825549126082 Co
   0.7895950237585171    0.0934044405220571    0.9294655140243354 H
   0.8515486969610570    0.0728278132271970    0.8183158968944665 H
   0.7382582642879946    0.0149951367619462    0.8411937673866189 H
   0.6543384751461665    0.1873090772903766    0.9351570042393457 H
   0.5957667911177345    0.1160802433910470    0.8452856198557585 H
   0.6038202700002773    0.2472254153019624    0.8321171382465653 H
   0.8094660871432400    0.2662157538851566    0.8961194346331574 H
   0.7566785650040563    0.3217435251811548    0.7925825094597252 H
   0.8613432296936313    0.2456594231767167    0.7814010974144047 H
   0.6745277391262923    0.0780801987410620    0.6999319967832905 H
   0.7923055530867584    0.1204666004481355    0.6780927456984995 H
   0.6788161887826240    0.1935275212266102    0.5672153959716125 H
   0.7315451696229422    0.2894050374761470    0.6376618010335878 H
   0.5681237433724651    0.3070538930476657    0.6244975624064517 H
   0.9337940727068214    0.2779852843669866    0.1185129292596998 H
   0.8971822576528162    0.3194010749741770    0.0033913419067096 H
   0.8206562007845323    0.2401524620156462    0.0740609437957813 H
   0.8797878463613527    0.3608006029663652    0.2600635955347943 H
   0.7767090170024664    0.2907796270517902    0.2266915670036454 H
   0.7644984823416234    0.4194874321712573    0.2554787343607325 H
   0.9639640141832978    0.4505798861543269    0.1456792653502228 H
   0.8671722444492951    0.5372568014415903    0.1504207824697749 H
   0.9072809548627282    0.4909270501029565    0.0372655673984973 H
   0.6863580408164425    0.3494814287376292    0.0908475882486437 H
   0.7496919171271071    0.4011025901191057   -0.0071139251733609 H
   0.6156754621410181    0.5011141983784098    0.0587166522892959 H
   0.7259552395653431    0.5673219440014035    0.0444365756888892 H
   0.6825053272688618    0.6073767640151770    0.1895558415581662 H
   0.7270125102830332    0.8431804353786144    0.4315854414736915 H
   0.8037487676358018    0.8149832713599890    0.5310087217487161 H
   0.7018510753724111    0.8941560847061790    0.5464218920192081 H
   0.5635598470752102    0.7854970932196639    0.4368871299039115 H
   0.5440184714204557    0.8205918466032818    0.5589219788253021 H
   0.5288937944872277    0.6939824942586823    0.5223651833626335 H
   0.6973119450983793    0.6756165584543088    0.3992237667171247 H
   0.6638888209475962    0.5900914558422331    0.4900035713488697 H
   0.7812699775248624    0.6442831551742444    0.4913575068519775 H
   0.6796310742774502    0.7936181179618711    0.6752669510199021 H
   0.7611663920969424    0.6990593316516154    0.6457385715588442 H
   0.6645647374262589    0.6069599040924215    0.7394784254950246 H
   0.5951622454660445    0.5900606024078719    0.6346889308077358 H
   0.5652260496870474    0.7327072590044689    0.7805399503034219 H
   0.5513542937751476    0.3020157287308580    0.2212953814951367 H
   0.5669325361923661    0.2594330903396663    0.3406047358125153 H
   0.5048594589329251    0.1118434564157571    0.3638500894762280 H
   0.3460053226472740    0.3060531527862806    0.3901547415770104 H
   0.3671639184808769    0.4276697637006379    0.4280729253896096 H
   0.3542760744658688    0.2087800673625335    0.5201828346670813 H
   0.4514739993017847    0.5628356947600295    0.3265216359644029 H
   0.4221843067938053    0.4115367301754987    0.1910130752436649 H
   0.9537544898726787    0.9664747893732739    0.8552555068752208 H
   0.8795753599683741    0.8892081229374709    0.7842569801190159 H
   0.8098665356505738    0.7996008291340119    0.9029985962010800 H
   1.0681889369139026    0.7351278746835542    0.7587915700480973 H
   1.0917497986054181    0.7913855686090859    0.6461457588039738 H
   0.9967438083164407    0.6685052938598975    0.5510102881798333 H
   1.1572781968412511    0.9408351087105563    0.6476356415626294 H
   1.1129243766011134    0.8669352007145764    0.8628552994817373 H
   0.1455104095935633    0.0018450280068136    0.3671245358369423 H
   0.2300460167955616    0.0648132786992383    0.2963062620240700 H
   0.2865819034258764   -0.0640960665794641    0.4490755781981022 H
   0.2278469685582707    0.2428969993368077    0.2835836478851076 H
   0.2060167920065015    0.2782900101995007    0.4032151601157120 H
   0.1096441199536704    0.4123783728145545    0.4230181484270842 H
  -0.0322035254894795    0.0939864604446446    0.3784286549803917 H
   0.1053621334103124    0.1660003184442825    0.4957153039607178 H
   0.5506844713934371    0.9983973329959779    0.1469420790526521 H
   0.5889765329984934    0.8938203669211985    0.0830846757619489 H
   0.4283276229466818    0.7627483193075154    0.2164816516871789 H
   0.8351086058944442    0.9045238510125784    0.1579489698522970 H
   0.7575343252446064    0.8988038305855786    0.0590732060923547 H
   0.8485763824058279    0.7483905927639172    0.0526544519262860 H
   0.6882224946194051    1.0949317662023632    0.3035396445035557 H
   0.6441659107407837    0.9308735460111832    0.3212729431001918 H
   0.3887885701731246    0.6611094077150016    0.5425038242807946 H
   0.2859622665120449    0.6169809161101197    0.4852480312128333 H
   0.3044551638424024    0.7596911274659077    0.3933362922268868 H
   0.1363686640695712    0.6566092219312768    0.6544233305405656 H
   0.1609050825380055    0.5418843804110937    0.7070656873655886 H
   0.2233229743402328    0.4350606042498680    0.5718481848043633 H
   0.4364494501376877    0.5975610151991938    0.7242283900774252 H
   0.2848269129996736    0.7423729219797508    0.7022374760908923 H
   0.1988997165189062    0.2502413456945515    0.7652681973201265 H
   0.2369710475291213    0.1335555998780746    0.8081629777106905 H
   0.1399995357081659    0.0617754160277089    0.9075036449647153 H
   0.2298555903083168    0.2307093910044132    1.0361960229190903 H
   0.3538507326638903    0.2477598505713835    1.0281237335133480 H
   0.3654513776953634    0.1177745983288085    1.1249285427206832 H
   0.4357200320240493    0.3602673789935672    0.9348665984623876 H
   0.1784193351596901    0.3571921680094940    0.9013030496638518 H
   0.7821889973500524    0.0807683142486575    0.8527962114469537 C
   0.6394692170247922    0.1813905913640003    0.8587097463030406 C
   0.7944003880711837    0.2570835064502650    0.8200760421383516 C
   0.7214221450851545    0.1428620404615806    0.7029933771406436 C
   0.6834059979679233    0.2250548041726074    0.6400620412244458 C
   0.8729035396386486    0.3001670675709738    0.0751911541488714 C
   0.8106456742292436    0.3634234720255686    0.2241015298335255 C
   0.8966832797347635    0.4735304912610916    0.1129562198544894 C
   0.7350541187947182    0.4088826105475790    0.0694500386545576 C
   0.6895134186028157    0.5094419245528720    0.0861603935627880 C
   0.7305906055204512    0.8301244850423655    0.5085935216772463 C
   0.5689164096945273    0.7620615973804752    0.5113976265966171 C
   0.7060525787394157    0.6559756776943042    0.4744832991135511 C
   0.6869439977304447    0.7223876682635789    0.6388028658916077 C
   0.6219572040957223    0.6459260911597966    0.6850071594529198 C
   0.5137157687869327    0.2821243748173200    0.2876398831187137 C
   0.4468270132525811    0.1980027015451326    0.2636898350883850 C
   0.4633580145089420    0.3754313634315001    0.3239049623354240 C
   0.4020226507579760    0.3566719168466971    0.4128820393236240 C
   0.4488557879700777    0.3224048334566610    0.5035553430380764 C
   0.5428118750635468    0.4528082468080233    0.3485409453472397 C
   0.9480249544418081    0.8929249785204836    0.8218714167531697 C
   0.9546740066963254    0.8188640085975535    0.9027100356329212 C
   1.0309266674867021    0.8854037217015063    0.7524012747341220 C
   1.0389881253630613    0.7840697061419443    0.7032528828000800 C
   0.9487582113174866    0.7333596070742375    0.6696858040058855 C
   1.0241820521699065    0.9674201415492939    0.6762866078410108 C
   0.1874023469134547    0.0704984323508151    0.3623210944227138 C
   0.2541325698944074    0.0791934569646719    0.4468910941082868 C
   0.1187647057150556    0.1590399553264374    0.3559055914746220 C
   0.1710169854021812    0.2569648597986786    0.3365714416292652 C
   0.1092512408963605    0.3397884614860354    0.3011550215667690 C
   0.0471488755676554    0.1320031309512591    0.2778125106725151 C
   0.5876529685170320    0.9269749568843976    0.1547894932613160 C
   0.5253316231087929    0.8647508534520442    0.2200284716858485 C
   0.6915645141680110    0.9459111415196009    0.1906081745459150 C
   0.7624792024987859    0.8830740844192698    0.1360588685775700 C
   0.7510477602007333    0.7729028170972306    0.1517270313035965 C
   0.7166192430123367    1.0556473499976016    0.1684567787288778 C
   0.3104099149414515    0.6616791208933710    0.5462121364116949 C
   0.2779787314523233    0.7683917266967049    0.5353384799543517 C
   0.2810208995316554    0.6131229098409966    0.6420572445371517 C
   0.1744779461378812    0.5873047603883604    0.6431405204216059 C
   0.1301305036890937    0.5391899851704579    0.5567750862303574 C
   0.3397719914706817    0.5181899839179006    0.6600056133419148 C
   0.2079824308557119    0.2051565155122226    0.8302578009089577 C
   0.1124791235762843    0.1972652230476739    0.8793530489758199 C
   0.2792518587671167    0.2579414758057867    0.8942557466525467 C
   0.2941669033156694    0.2101658761679084    0.9927340176434188 C
   0.3015105404200526    0.0981881264490523    1.0014801547722354 C
   0.3746057671729319    0.2662728314493275    0.8387839218430013 C
   0.7330923279507239    0.1675629367695058    0.8081777536408115 N
   0.8284921486331119    0.3887184960647227    0.1205768616092688 N
   0.6714139293238331    0.7415041408440305    0.5332614186732421 N
   0.6835172474106664    0.8247197097191007   -0.1324718717953489 Cl
   0.4736708121125420    0.4134831578561906    0.0538763102640167 Cl
   0.3399745770002766    0.6756848198818867    0.2972278810764355 Cl
   0.5121198214218422    0.0076214164610938    0.6133877028241319 Cl
   0.4458678815991832   -0.0353561871506332    0.7402067525088030 Cl
   0.6188932711812707    0.0931292079939977    0.4308837694564184 Cl
   0.5914652197067353    0.2549836360752132    0.6703769651776729 O
   0.6858432336042057    0.5342708720075761    0.1833747179158438 O
   0.5406131617136279    0.6901296455785868    0.7287681755383920 O
   0.3935890341805534    0.2029210978031397    0.1930341086276131 O
   0.4459554585575100    0.1190413935569777    0.3187981936917387 O
   0.5147608342463932    0.3686854292878703    0.5405105895235347 O
   0.4162858089520869    0.2405605194075285    0.5459377649858511 O
   0.6238025501211211    0.4282016599626605    0.3672940832895025 O
   0.5162682184773930    0.5479801518291058    0.3515645345735304 O
   0.3971050017668686    0.4126932473086779    0.2580374036942534 O
   1.0312514115396072    0.7954522988221613    0.9388663102732855 O
   0.8730296172685277    0.7850188152531715    0.9402851596230384 O
   0.8834094222090763    0.7166100493559165    0.7250525880942821 O
   0.9416989383857006    0.7087081484675365    0.5765647110376639 O
   0.9517604830057101    1.0141582258424240    0.6602274326792894 O
   1.1046871234738982    0.9839095423722831    0.6265295330017518 O
   1.1189610229493836    0.9027403309389103    0.8012454810030833 O
   0.2624938479554450    0.1586696183303072    0.4911138359074637 O
   0.3051259773769716    0.0028907778108437    0.4729725272793943 O
   0.0857486460524884    0.3451056314756754    0.2148123551701816 O
   0.0780218636660000    0.4082516134227875    0.3590529494357889 O
   0.0618326828744570    0.1437864565101409    0.1912523598958555 O
  -0.0320414684420200    0.0889235949603871    0.3078568755381710 O
   0.0617016537463658    0.1671721705632374    0.4413543675728652 O
   0.5235783334269501    0.8743502738274533    0.3074184730355317 O
   0.4689867538179649    0.8033325083646883    0.1715696395561432 O
   0.6889672229873517    0.7339902991644779    0.2011194791948074 O
   0.8163036049096906    0.7159867554587369    0.1083682714493224 O
   0.7390750261475224    1.0819441436055510    0.0878662948014807 O
   0.7107253688915939    1.1207130617342038    0.2392009040952726 O
   0.7067531680985294    0.9278275778200977    0.2887142423952693 O
   0.2519935198227016    0.8206071115932064    0.6026034548611520 O
   0.2820005233059569    0.8075684848617024    0.4477288303108770 O
   0.0633488886503043    0.5757833961441716    0.5120314194568141 O
   0.1641466884900419    0.4509130376703671    0.5305574305909523 O
   0.3118019912644878    0.4357725114209283    0.6340388169758924 O
   0.4221257150129795    0.5285428764743428    0.7041673691365157 O
   0.3023142125205216    0.6745946249228110    0.7216447854705920 O
   0.0620783416036057    0.2707031046401870    0.8921868055735287 O
   0.0842271105192318    0.1075491586388179    0.9073070254186067 O
   0.2636618952918817    0.0409944317932060    0.9443183055051176 O
   0.3477037619014777    0.0636731958550962    1.0772242648094226 O
   0.3859620254784587    0.2165510104343183    0.7658948296579240 O
   0.4407163639052560    0.3272978536398542    0.8684330419857013 O
   0.2477918223490038    0.3571507223608672    0.9113655343658373 O
