Li1 Co1 H110 Cl3 O55
1.0
  12.7589040037999997    0.0000000000000000    0.0000000000000000
   0.0000000000000000   11.8064809526999994    0.0000000000000000
   0.0000000000000000    0.0000000000000000   13.0193623250999995
Li Co H Cl O
1 1 110 3 55
direct
   0.3386828524309772    0.8649227079017741    0.7188788843026620 Li
   0.6640470058695184    0.5287463302070873    0.6256408308797440 Co
   0.0877282250549603    0.1573782640097411    0.1537490556462123 H
   0.1500271497716338    0.2459236997063046    0.0696957070509235 H
   0.2307668433764441    1.2142198453402500    0.2348766849129466 H
   0.0052125952103874    0.3323330204926728    0.1537075789604488 H
   0.3445665866433862    1.1521691798680405    0.2741489616368431 H
   0.5023677582330741    0.3292821537573343    0.1395540439870234 H
   0.5768145915752720    0.2921957431872256    0.0386842957453472 H
   0.4176912061030300    0.3177647506848377    0.3036772895533985 H
   0.4434786875279241    0.0427589625073296    0.0118887283981331 H
   0.5396585788128273    0.3296311146387778    0.3223702173576127 H
   0.4601948568741688    0.4705003547335287    0.0597784010588262 H
   0.4020707421556061    0.2210585429185944    0.0012841383611982 H
  -0.1040095605159161    0.3061719652860098    0.2091004608844458 H
   0.8846278644731879    0.3147807963515235    0.0341237958900255 H
   0.8211874624011191    0.1647945297328460    0.2922973159187173 H
   0.9716180949561068    0.0197742644345358    0.2147904477017864 H
   0.3299650189895725    0.6247995068092700    1.0021139543406776 H
   0.2136031434273906    0.6637018691507740    1.0237355970118627 H
   1.0809378295966829   -0.0243218554919475    0.2127880454835349 H
   1.0327048465899362    0.7845329623203061    0.0376904145031720 H
   0.1447304565776202    0.7663632806971852    0.1723221619137762 H
   0.0984575949098654    0.6423889986173695    0.1637149815310658 H
   0.0826052144906882    0.5355951110016312    0.3326856227243627 H
   0.5959620042313466    0.9835583966909627    1.0347192378714698 H
   0.4280815969987147   -0.0222147924221247    0.1136188259964290 H
   0.5119884905438934    0.5957053168151342    0.0359524952844728 H
   0.4846342601259787    0.5207320878279166    0.3017563045331274 H
   0.3612655131292775   -0.0284467933286416    0.3106069684230053 H
   0.4796808566062738    0.6088226885892006    0.2088416156418103 H
   0.6204029750159159    0.6369453782653373    0.3227104797982285 H
   0.9765166348292328    0.5162531918544380    0.1985646146137302 H
   0.9706775753004666    0.9004345595432335    0.0674259338268518 H
  -0.2381543114671145    0.9988974296107238    1.1582813571081847 H
   0.9555195335170659    0.6441693767066758    0.2399844619560507 H
   0.7358596004095441    0.6712087630639625    0.2856741036716967 H
   0.8277499382983484    0.6962788920198993    0.1417822637166542 H
   0.8431901359784412    0.8024383823050523    0.2200034526328462 H
  -0.2196260742510031    0.9771212542177331    1.2844703331099245 H
   0.2488616577845813    0.2696521926520314    0.4095741810887072 H
   0.1935873176226084    0.3972482143654694    0.4244973390090786 H
   0.0734730037643361    0.2372877648830089    0.4562154823165948 H
   0.0184364583219641    0.1215168585921366    0.4833550603678790 H
   0.2889897126588490    0.3369321893913091    0.5640848206859925 H
   1.0048184388002050    0.2413541755427424    0.6014069250922287 H
   1.0146782198568327    0.3516097212227030    0.6645137024814729 H
   0.4662713976159840    0.0452222113040296    0.3351957302998310 H
   0.5950810508205636    0.3642044986670349    0.5116191174554194 H
   0.4914342172362571    0.4072901566237073    0.5813352815297631 H
   0.3731427088472535    0.2921330657473547    0.6512081353058803 H
   0.6491820927121255    0.1906803123995354    0.4584429339594523 H
   0.8442874089100214    0.2999330190415613    0.6322448409574296 H
   0.7316327483238213    0.2595933105451797    0.3946287486519074 H
   0.8922539113476702    0.2413457056184355    0.3688064394170026 H
   0.7603428945786171    0.2869918216930780    0.5478136704783058 H
   0.1846555159595455    0.5980167591584820    0.3856260035808964 H
   0.0902687253981203    0.9388880158964729    0.4605290576360042 H
   0.1486657475700946    0.9269877722453050    0.6270072572496211 H
   0.0123313101072899    0.5713991750316781    0.4710725847744538 H
   0.2855764100752549    0.7665182803120011    0.3961134603848879 H
   0.0055675630037536    0.9436904629784743    0.5441422157014580 H
   0.0048055069527711    0.5751411875904581    0.5882104262384585 H
   0.5044580631677344    0.9957804974657918    0.6045076913964409 H
   0.3546920645027324    0.6867891888264699    0.5593572465957211 H
   0.5053241250173032    0.7115840452424331    0.6236699202192020 H
   0.3856939436517716    0.6874735587104659    0.3655221003739481 H
   0.6913197245839443   -0.0848361613941318    0.4516115701968406 H
   0.7167788078957441   -0.2175962959574750    0.3998002768972036 H
   0.7257309874846791    0.5559695139218331    0.4394658140490804 H
   0.8257121457111281    0.5617688710947545    0.5099531372439168 H
   0.9189646695678513   -0.2575125082385126    0.5506409978911879 H
   0.8524072286037149   -0.1614491677271615    0.5006761851948023 H
   0.0920488155996953    0.4796554959168363    0.7488911068864590 H
   0.3271716756123212    0.4999943251549494    0.7838935892370298 H
   1.0134712196320945    0.2146230944302263    0.7807267674703052 H
   1.0372898799111818    0.1036059331565909    0.8405853058948447 H
   0.2134393362540333    0.4028561512490552    0.8847195718943577 H
   0.2472674769682713    0.2393095358150613    0.9567584303714601 H
   0.1332067394968890    0.2430219036387672    0.9057190642790892 H
   0.3618674457088872    0.4573626551411258    0.6766471692408588 H
   0.4483027695949785    1.1412853271336987    0.7023028036459359 H
   0.6595246738586485    0.2567584268796667   -0.1428929690214848 H
   0.6017548215437103    0.4142575163585476   -0.2185003586477996 H
   0.3925856014284749    0.1702313741454328   -0.1080126124678844 H
   0.5199343141012934    1.2260184498997351    0.7453694290304239 H
   0.9239807743979320    0.2277150564313721   -0.0635419244616227 H
   0.7532129718224850    0.2294420739975451   -0.0373500886800356 H
   0.6809888999331167    0.1210482176802369   -0.0037896124378443 H
   0.7018747064193661    0.2819733915412511   -0.2591114106177307 H
   0.8828565524550656    0.3949714987117797    0.8719616505881984 H
   0.1462564497188964    0.9182806900578316    0.7462811480304486 H
   0.2080509423935948    0.5350098392320257    0.8906799252559346 H
   0.0239490007769471   -0.0804097789513558    0.8968169385753936 H
   0.3201185619613996    0.7658101946399459    0.9087453261662818 H
   0.3946594472691615    0.8707517098097693    0.9206429902862340 H
   0.6230332949861895    0.7282875829680329   -0.0924703766081533 H
   0.5321869339151458    0.9564546389089438    0.7113961829562079 H
   0.6057214631913728    0.5938529443692193   -0.0948253306553950 H
   0.5930534471962793    0.7320905789818223    0.7090366203883258 H
   0.5097633777919247    0.5040344790493315   -0.2345118955260775 H
   0.3720399495510154    0.6447360146428063    0.6764036857336913 H
  -0.0170858717986336    0.5259207634583117    0.7513789399454986 H
  -0.0334186226319290   -0.0848937568794186    0.7900751515893458 H
   0.8012805801231151    0.5259402442842176    0.7728623269974717 H
   0.7662164398280902    0.8468241736428309    0.7763263983455018 H
   0.8616635095479735    0.5154426200982695    0.9187995820300762 H
   0.7860911876845263    0.6591984103968054    0.7314593775641661 H
  -0.2543861131907045    0.6652713461248390    0.9915066760000359 H
  -0.1425990819868324    0.7299129614425232    0.9955928976345193 H
   0.8401177717700167    0.8351509239630877    0.6890010769042101 H
   0.6796494431902090    0.9342634372249158    0.9697237351064372 H
   0.1728621832441974    0.8732791352229426    0.3179690801460357 Cl
   0.5594471123674966    0.0478868749007472    0.4474270334553622 Cl
   0.6301671365742202    0.8753271629203465    0.8271284256248923 Cl
   0.1284806282272971    0.2342182643141952    0.1467840447850292 O
   0.2965616796531321    1.2185987962069074    0.2729914548693306 O
   1.0318348659084688    0.0149637709244428    0.1633854723052775 O
   0.5055098776492920    0.3132180953169040    0.0600072141086218 O
   0.4795609403501797    0.3680388334007599    0.2852432069918198 O
   0.4137371047174427    0.0213544135132275    0.2773503473083705 O
  -0.0692040631261921    0.3507593408222922    0.1543627569781582 O
  -0.2007655200898989    1.0200722403779261    1.2220709636389808 O
   0.8352505825520787    0.2411077007454122    0.3166095665571193 O
   0.1355180665506247    0.7029531923737214    0.1237452820169229 O
   1.0097483293285188    0.5765997085561030    0.2383445966948436 O
   0.4606635491692295   -0.0334708983297541    0.0443877087194869 O
   0.4849148484899113    0.6047410320657147    0.2853438263591351 O
   0.4495959841214838    0.5576533348740410    0.0690384551989259 O
   0.9834137789705940    0.8449201346586441    0.0131642901027170 O
   0.6716025137698277    0.9946624674572835    1.0307482292529964 O
  -0.1819002633305164    0.6640347371760343    1.0227063607355078 O
   0.8378370116050892    0.7176535930007439    0.2136943878761459 O
   0.2134166070290220    0.3251649235517595    0.4526538639483432 O
   0.0038839544435197    0.2007002328545755    0.4714781345908086 O
   0.3534184441357197    0.3544750966157209    0.6062689143678451 O
   0.5596281624012073    0.4291578071992124    0.5486793042719266 O
   0.7733784970057900    0.3263363140834011    0.6166357815484129 O
   0.6688193593555126    0.2685612664013052    0.4405042673667161 O
   0.9765009595016388    0.2771226658907004    0.6647049560880495 O
   0.1241605079423899    0.5449298145802446    0.3962279053141243 O
   0.0605925087037059    0.9888012798369219    0.5142175550098287 O
   0.3308436211012164    0.7016742338033823    0.4158118137754814 O
   0.3627703445783018    0.7172385667097066    0.6348793785901885 O
   0.5813761119051268    0.6985022471504555    0.6401469176821596 O
   0.6941452023827633    0.6486093110283430    0.3450472112554480 O
   0.7553879235261529    0.5296314372971562    0.5000071816151717 O
  -0.0394875608398611    0.5907122964362279    0.5225612816292632 O
   0.7407134655990271   -0.1358454335398913    0.4121411270854071 O
   0.9123575189869789   -0.1739719508148849    0.5478221194328131 O
   0.2132778803798151    0.4684353871875112    0.8403395181273571 O
   0.0349880524037994    0.4988974699572083    0.6983494610232507 O
   1.0220534614898111    0.1812482046913928    0.8465687018596237 O
   0.1828622584827916    0.2839655177382295    0.9527566982820508 O
   0.5894222575591286    0.4948996656843605   -0.2319334282277766 O
   0.4448259819346287    1.2113739507731380    0.7413707692881082 O
   0.3680584163421387    0.1615666415794937   -0.0392651594321516 O
   0.6378276691694094    0.2873678863323035   -0.2162421835340062 O
   0.8776915320128417    0.4747742785387808    0.8542188461226790 O
   0.8732319013123477    0.2871730780732453   -0.0403831097308340 O
   0.6742547791987331    0.2100307014710354   -0.0211172660023415 O
   0.2623871141990667    0.6464503273225189    0.9676191773473236 O
   0.0283378573733540   -0.0511487314483744    0.8231190126677489 O
   0.1916145776449031    0.8970465898204812    0.6862720645983230 O
   0.3851758740747898    0.5151055171108555    0.7291412916820477 O
   0.3711723201686873    0.8153245251455409    0.8651794443790842 O
   0.6271355282175400    0.6584124014211268   -0.0543302597882471 O
   0.4694299761261756    0.9844731485161058    0.6723912004294542 O
   0.7734435496153051    0.5787282005344221    0.7189733589757901 O
   0.8336673744650845    0.8093066439255021    0.7616882006180614 O
