Li1 Co1 H90 C51 N3 Cl6 O45
1.0
  15.0007978806000004    0.0000000000000000    0.0000000000000000
   0.0000000000000000   14.6120016753000002    0.0000000000000000
   0.0000000000000000    0.0000000000000000   14.6600820527000000
Li Co H C N Cl O
1 1 90 51 3 6 45
direct
   0.9225176254255676    0.7751006734173175    0.4190292391350307 Li
   0.2084929391885723    0.1081222390749256    0.2969805361626985 Co
   0.0463175656275298    0.1579785158663148    0.1497685361041772 H
   0.3229435179954730    0.0487381779940412    1.1176846738850450 H
   0.5159125869103738    0.1152834755930464    0.2507031689855448 H
   0.4775124294930832    0.0349036600072474    1.1168586212097280 H
  -0.0601674368846239    0.1923283613668421    0.1921141381116139 H
  -0.0255166133659478    0.3578087694403893    0.3007090282545919 H
   0.1004993502545413    0.3238141114162483    0.1206390947773907 H
   0.1775932494727703    0.3571141349730831    0.2010977167523449 H
   0.2176924498478333    0.6049624503836851    0.1304964748029947 H
   0.2519866256706612    0.6814187788748370    0.2257913029613885 H
   0.0620440624364158    0.6518670439657228    0.1584458408793283 H
   0.4362492243671408    0.6411546170526738    0.0557561018595703 H
   0.5277301583096433    0.5557705589527500    0.2940917392345667 H
   0.6474049258979521    0.6690166450654540    1.0792797046648144 H
   0.7048845351069465    0.5591288941822724    0.3547933094441350 H
   0.2436904002971464   -0.1570885161736661    0.2678954329233568 H
   0.2620407575375434    0.8314399771139206    0.1296786076207444 H
   0.0266946094126017    0.7714707805950589    0.1713536813211318 H
   0.6139040412116836   -0.0125819627991677    1.0742695007835561 H
   0.5776013055615838   -0.1197274473665896    1.0418399415020350 H
   0.4357668500256160   -0.0714999686364702    1.0862387380203753 H
   0.5347906494143847   -0.0370207774075480   -0.6996687286556418 H
   0.5182517291532928    0.7113838726196687    0.3566452772504816 H
   0.6276566430160716    0.7469820070545472    0.3417988392007085 H
   0.1873147323672633    0.2274570187134723    0.7252121093170776 H
   0.3323256856055049    0.1886245566997865    0.6563182247965619 H
   0.2761573399810587    0.1969013145791971    0.5439390447839523 H
   0.3793905154645257    0.2530120390520758    0.5751297296898246 H
   0.5263903629094271    0.0920320410839530    0.4056334068815659 H
   0.4322357045211156    0.1063271393628623    0.4822884485082279 H
  -0.1501139857775306    0.2502937256489818    0.5121920191993115 H
  -0.1448309334605274    0.0145019377364429    0.6060545224959127 H
  -0.2349708054035201    0.0375863862258094    0.6856557140721277 H
  -0.0584108636536708    0.0274707290226039    0.3588424000144751 H
  -0.2829749186334757    0.1312409060109574    0.3220642975412560 H
  -0.0891718940783766    0.1476315419636516    0.5258742754976695 H
  -0.3151465406926016    0.1974412816675760    0.5287146415918232 H
  -0.1839268538687653    0.0497989498406665    0.4500168556004061 H
   0.1378146987083670    0.3251411027779298    0.6879046782922104 H
   0.1472788619568836    0.2387614247538315    0.6097243518874947 H
   0.2114827801528321    0.3372523797906575    0.5014171818258121 H
   0.2220675504606398    0.4391063237657525    0.5782102035806023 H
   0.3103215227184840    0.5728120297610187    0.5382798677273873 H
   0.3424404809122417    0.3584698698299635    0.4312817626444007 H
   0.4048698268346428    0.3844820486160159    0.5299192051090340 H
   0.3900266163752873    0.5058237401514842    0.4268907913136403 H
   0.5679092877664487    0.5541725574934790    0.5827238208824790 H
   0.6901853169883446    0.5374968134431692    0.4757880619716840 H
   0.8848942933540188    0.6400986357885817    0.5230745640190805 H
   1.2451304649905008    0.7908233652911043    0.6148996298789318 H
   0.1431930792879988    0.6447509757972003    0.3975597822200858 H
   1.0464756985094525    0.8705256556329297    0.5328677561365529 H
   0.3246754258717600   -0.0146022198902889    0.4733124278060952 H
   0.5775746403132960    0.7514557267715728    0.4944380257997954 H
   0.3670358393016210   -0.1314116781649340    0.4518995872181951 H
   0.5538039047272142   -0.0585811362824406    0.6118607655779099 H
   0.6558438103498061    0.7043779878494085    0.5875287053126468 H
  -0.3003006637084173    0.0301924642703644    0.4237563613810646 H
  -0.3176330750954309    0.0739968665845230    0.5651604812589754 H
   0.3288972013069122    0.1330202652375547    0.9446494895742719 H
   1.1752408492284048    1.0152778974544854    0.7749737680429675 H
   0.3348295524197211    0.2946483605855189    0.7574643162488198 H
   0.2866861132674622    0.2179210219967774    1.0452764843412152 H
   0.5859255294458006    0.1138387727748360    0.9793014102234091 H
   0.4682946531387451    0.1221627521106448    0.9485266847902109 H
   0.5406162062078013    0.0742055991091815    0.8673450109276959 H
  -0.2926544037619156    0.1816433092111254    0.7205300072829108 H
  -0.1932663570815368    0.2311717732834608    0.7272912245560259 H
  -0.2683490299476650    0.2799638563835581    0.6480010817163467 H
  -0.0905638200389953    0.2437559492291033    0.6135435665275443 H
   0.9320724505182624    0.2741323487028522    0.8632809136200668 H
  -0.1261752591272362    0.0813059267922380    0.7098772701809900 H
   0.2755880369301160    0.4136902303206103    0.7354617108854622 H
   0.3849788848744232    0.3773344994765612    0.6827109829413732 H
   0.5498691140267585    0.5815159022917060    0.8320116479807539 H
   0.6434764681939646    0.5283451583194194    0.8706833278500754 H
   0.8966250027069910    0.4708628216304076    0.8057989706834106 H
   0.9785493116525392    0.6137073166134774    0.6838971973116260 H
   0.7751054665790174    0.6443294045342833    0.9149218251291923 H
   1.1966397109792946    0.7096250444610706    0.6919360336275726 H
   0.1678671001598269    0.8310724709967349   -0.0745303449102298 H
   1.0630634828380316    0.7738667562305656    0.7659281160798138 H
   0.3096775569723357   -0.0021439678283747    1.0116122798554628 H
   0.4076403461317362   -0.0410825070267230    0.8787296675346664 H
   0.5203018867678936   -0.0951839243114133    0.8588662043594130 H
   0.4459865064212442   -0.1383498104107968    0.9488131770475462 H
   0.6627894408975481    0.7970826035551268    0.7944913941361518 H
   0.6407086154217001   -0.0445153015961891    0.9560893982594428 H
   1.0134394557745974    0.8674035645591848    0.6944612582386573 H
   0.7960183541798637    0.7247961349746124    0.8222736397290397 H
   0.2071970081217894    0.2343267140660044    0.1444356873712057 C
   0.0624713730402264    0.2687662118967948    0.2424153572554854 C
   0.1402279036784051    0.2999994412750435    0.1767090401600369 C
   0.0130366692396350    0.0978416489587932    0.2758162617142580 C
   0.0096295171396725    0.1804456635778388    0.2090151349211350 C
   0.0882833333827327    0.2600795170263335    0.3486719248790689 C
   0.2428011142667512    0.6721667952654645    0.1524642918208187 C
   0.5991881573129020    0.6523330992093047    0.2537863713740113 C
   0.3282025715890172    0.6983705973528427    0.1054052100557927 C
   0.0832149363144456    0.7218861982701924    0.1825030050024339 C
   0.0842682136218103    0.7104928242685034    0.2893073185370658 C
   0.1447896610292256    0.7529770789103134    0.0278824515941040 C
   0.1682784116146649    0.7449487469536932    0.1320346653751168 C
   0.4422328394197829   -0.0011427360789470    1.0601604392342105 C
   0.5863961710780788    0.6892027911222669    0.3476664734807061 C
   0.3158325629083471    0.2316487784299755    0.6000968477921813 C
   0.4110594975934282    0.1364311600011550    0.3385028139925071 C
   0.4554384703186692    0.0781420892135613    0.4145112562368517 C
  -0.1735007417882694    0.0652615815197969    0.6537166022501877 C
  -0.1268545563273656    0.1998810569148142    0.5625472625974234 C
  -0.2800417413218272    0.1309103558161703    0.5336241639083605 C
  -0.2513765994125356    0.0842528194190564    0.4457130597708063 C
   0.1774552568128814    0.2725877280203791    0.6659518680116753 C
   0.2545944869531995    0.3773064403502957    0.5511668351618707 C
   0.3397526238848402    0.4015899032108154    0.4927961250305178 C
   0.5324815055757894    0.5625477960623924    0.4494395054894330 C
   0.6104055606363357    0.6323926415995489    0.4288121311737275 C
   0.7904046527840928    0.6299186479056453    0.4350786036034012 C
   0.7028073122653337    0.5845429345206147    0.4231499527697047 C
   1.2076391258979764    0.6660861772930351    0.5550500330727253 C
   0.2955129770819025   -0.0741690074763661    0.3451098711461989 C
   1.1915466485563413    0.7396749999536322    0.6226431063200539 C
   1.0215703566087282    0.7105544174725009    0.6014365401574354 C
   1.0980609545844480    0.7808726410008257    0.6192931932824967 C
   0.3516579906140969   -0.0644263313418127    0.4272371058828051 C
   0.4493692598190236   -0.0269105951558089    0.4049417327174276 C
   0.5134272524437176   -0.0708327089264962    0.4778263861701831 C
   0.3511580172087023    0.0451117070164493    1.0508085134054770 C
   0.5271714546948950    0.0848612234007660    0.9403111782489075 C
  -0.2443569728007952    0.2154600313126067    0.6785807195647879 C
   0.3213462696230390    0.3561402779809877    0.7102019614059701 C
   0.6127194375565019    0.5963551423094875    0.8701308070680714 C
   0.5918445479344657    0.6294902329533953    0.9641609765476562 C
   0.6562811204217246    0.6437668532711053    0.7076665049285520 C
   0.6704270346383564    0.6611354524294948    0.8133705517701314 C
   0.8340849960041957    0.5864879110290723    0.7969531811759694 C
   0.7662946019135498    0.6576896548502957    0.8388322100786026 C
   1.0725869762639884    0.8293451238090689    0.7108813573305083 C
   1.1416199709248416    0.8864974577984402    0.7566334887025472 C
   0.4681959250569598   -0.0753700749543193    0.9100350857683573 C
   0.5937144484706416   -0.0517251283085746    1.0167261666488996 C
  -0.2049990663281305    0.1510109557563199    0.6051070516734394 N
   0.2699476702860575    0.3133241044065239    0.6337276281812444 N
   0.5105777373485718   -0.0120070928951901    0.9786861339945603 N
   0.6211176575047173    0.0577944320884881    0.2352803357989898 Cl
   0.9224862937588295    0.9372290424555286    0.4640869678452424 Cl
   1.2547366206861494    1.1186874120149863    0.8289298098411318 Cl
   0.9165332770785974    0.2144540089806460   -0.0678564395631597 Cl
  -0.0316169555429694    1.3649035075196521    0.7799321304681364 Cl
   0.6220789397054892    1.9449130221863684    0.7130034464080568 Cl
   0.2302164503373650    0.1580490058664454    0.1727834141101199 O
   0.2466375768641459    0.2705572053952583    0.0676919149997003 O
   0.0841562195790019    0.0606893126763752    0.2964996384450284 O
   0.4541875368583719    0.1510116401252532    0.2592563271158505 O
  -0.0056583363348807    0.3448577717464943    0.2409201405219636 O
   0.5651205694373989    0.5674213925471490    0.2372100657894703 O
   0.3819370466760023    0.6244252184779929    0.0926651722218570 O
   0.6637853879210942    0.6488941453194388    1.0147978009072633 O
   0.1507646765392949    0.6632645241810117    0.3275096968038950 O
   0.2750787306878207   -0.0105651275527130    0.2895044524950894 O
   0.2065263771273534    0.8323481346884184    0.1630542734758946 O
   0.2722215493337923   -0.1581787158844236    0.3266413524143999 O
   0.3564344032136335    0.7782405580833284    0.0884516896657601 O
   0.6374401226128336    0.6958329573481418    0.1913897219752087 O
   0.1582469452088272    0.2125329853848542    0.3639078559739335 O
   0.3367827818567961    0.1655818547153517    0.3547844418266460 O
  -0.0640992277446472    0.0661122521038971    0.3029416214885413 O
  -0.2549230774348015    0.1553628578032168    0.3779057312424561 O
   1.0363282382735632    0.6394341135543410    0.6569696536197888 O
   0.0431370681380128    0.3058665361402814    0.4045481469258025 O
   1.2862949420346581    0.6278853878047912    0.5728650766080307 O
   1.1551525844308561    0.6323604762596834    0.4986268836642498 O
   0.6075670449561086    0.5795375970161966    0.6779408868567389 O
   0.3283132323694112    0.4961072753470765    0.4646830763778267 O
   0.4783530514453533    0.5404133200893488    0.3907030675278589 O
   0.5293354729196843    0.5313440629851691    0.5341052662633574 O
   0.8458730356409866    0.5879969445270133    0.4937256150532214 O
   0.0210309106762914    0.7418779835499463    0.3352818224707507 O
   1.1046992681456740    0.8398193903333271    0.5438141478022425 O
   0.6061084558747708    0.6898029826767769    0.5070346128677368 O
   0.4748683034728735   -0.0569475476386377    0.3170643255263313 O
   0.5448569139692379   -0.1490478655762463    0.4703784742412119 O
   0.5233707901933264   -0.0208641956300447    0.5552451206574822 O
   0.6861128669436036    0.7101424273746504    0.6549867179243745 O
   0.8071337629285968    0.7068759344559777    0.3976805182428200 O
   0.9616655430679664    0.7161990924344142    0.5491834219793610 O
   0.3551344723596075    0.1346921785416229    1.0076641436996123 O
   0.5152260234300859    0.6286251906216958    0.9916846969845201 O
   0.8482029117101254    0.5105812402903948    0.8421316459089152 O
   0.8759901003195442    0.6151978721502193    0.7293348693250183 O
   1.1361575948131035    0.9731330898035953    0.7332393495178462 O
   1.1912399982010327    0.8612579315380912    0.8193254979761742 O
   0.1230581503059466    0.6824446479058638   -0.0110968663896420 O
   0.1625653821690224    0.8365754815894536   -0.0065443679956982 O
   0.6438124503223899    0.7508089981295980    0.8382462651999096 O
