Li1 Co1 H90 C51 N3 Cl6 O45
1.0
  14.6980447341999998    0.0000000000000000    0.0000000000000000
   0.0000000000000000   14.3442656476000003    0.0000000000000000
   0.0000000000000000    0.0000000000000000   14.8252951361999994
Li Co H C N Cl O
1 1 90 51 3 6 45
direct
   0.7198465549013636    0.4828713782889884    0.4120617844014021 Li
   0.6909896553837636    0.6003288376941618    0.5800699068109254 Co
   0.3109411454617370    0.1363545804191971    0.1526463754892947 H
   0.0513317845566528    0.1353109578059680    0.9928171704426996 H
   0.2673714046165541    0.1865446715459921   -0.0238101453399112 H
   0.0281593146016865    0.1304616332250587    1.1160086471196438 H
   0.4321028395649172    0.0955584870968519    0.1530517637088739 H
   0.5440418103432336    0.1720183092267846    0.1017610478739307 H
   0.5635284158870008    0.2672912241026085    0.2031290129763912 H
   0.3949985845526139    0.3064817978001932   -0.0158662899955118 H
  -0.0595693611043874    0.1186861959771950    1.0330645985389566 H
   0.9110889991061706    0.2828674833192930    0.1641786922782219 H
   1.1272000572395697    0.3654440354482048    0.1142788425144472 H
   0.0849144827268027    0.5828033675044723    0.1840130360331733 H
   0.2681545019746140    0.5518007347503581    0.1529465381477186 H
   0.2169823893840248    0.5655462972520530    0.2600978619767547 H
   0.3986167528846409    0.3802213691373271    0.0744239867040388 H
   0.5016736578942885    0.6621221718233511    0.2334602809794146 H
   0.7068434647995017    0.6588818525806734    0.0888216764659649 H
   0.7433401560057690    0.2912471385036705    0.1368949184117356 H
   0.9386593329382003    0.3078272832000142    0.2767579013035203 H
   0.7573821598050746    0.5012458985659535    0.1425204387965781 H
   0.8675872945214620    0.5134956717029561    0.1128926981030741 H
   0.9259494791189828    0.4759028096319568    0.2795018601674939 H
   0.1592318507681685   -0.0241646163502274    1.0293864255583156 H
   0.1208444318833185   -0.0206266171771229    1.1513388038003733 H
   0.3088041265202370    0.7598343889862080    0.1559953813299114 H
   0.5270466926580379    0.8645340673731097    0.2164805178322154 H
   0.5672210839242473    0.8735767052596788    0.0314157366731102 H
  -0.0335631809006636   -0.0263836215458908    1.1736803489066987 H
   0.7117618060691940    0.9132099645680855    0.2402878010436083 H
  -0.0667573920235048   -0.1149263208518328    1.0949223889960753 H
  -0.1212585188391051   -0.0038931010880535    1.0811459347586625 H
   0.7150425145492683    0.9696366942372633    0.1358986481948996 H
   0.7774378886677098    0.7693266839105413    0.0685010017520841 H
   0.1221480066340074    0.1339835981161964    0.3930624999074142 H
   0.1034094597741560    0.2461928976051042    0.5043795418171110 H
   0.2142643407780737    0.0846726039267973    0.5882242132776354 H
   0.1667587022644483    0.3517619129316828    0.5342950339490051 H
   0.3139884895683842    0.3217575885156741    0.3512670419210834 H
   0.3665961672549826    0.2457871605570753    0.5551564061617457 H
   0.7132266267572074    0.2927522695804651    0.6168705232565177 H
   0.8176786152878819    0.2346677345844611    0.6053584421524280 H
   0.7247458460181232    0.1825172782015538    0.6648500065292076 H
  -0.1080002927604642    0.9737484418477008    0.3974165447616297 H
   0.2983347067584406    0.5558232480959370    0.4082972724987874 H
   0.1133985435370032    0.9235548650074348    0.5101068611871430 H
   0.2665726589185849    0.7873631596950850    0.3133797691997141 H
   0.0167367068306443    0.9758091956517790    0.6177588698208866 H
   0.3666546784389905    0.7387527939133648    0.3653767104354883 H
   0.0915623057377536    0.8552341838323779    0.4155409731478071 H
  -0.0697489463965629    0.6999616829795612    0.6441057314793938 H
  -0.0515594521587396    0.7788970588166257    0.4959968419208677 H
  -0.1305720025354418    0.8493231109281901    0.5532215374298607 H
   0.0915589039247299    0.1096700495130058    0.8061773784804039 H
   0.1582405624530569    0.3247859763793127    0.6876171755399498 H
   0.0387831766747597   -0.0466272511002963    0.8163485082025911 H
   0.3399477247523807    0.2231349029941818    0.6714185098274805 H
   0.9049909090798527    0.1890655395282475    0.7475768587593050 H
   0.7140763996505323    0.1506139370865230    0.8363912795113695 H
   0.7896987031677964    0.0396455515933051    0.9286585826195499 H
   0.7863758122062281    0.0813026161429969    0.7671427424287448 H
   0.8804910516830313    0.2504803251744820    0.8464794429257225 H
   0.6677613956952083    0.2829309233044658    0.7927563977733042 H
   0.3371038090645519    0.7596594061699620    0.6915051251200736 H
   0.2276212194344023    0.7492308486073077    0.6390124096057792 H
   0.3010030888942455    0.6520979570233375    0.6454487064297800 H
   0.1635793678124809    0.5927606566058421    0.6949499132022547 H
   0.2888225571815187    0.5336377275668156    0.8019380025069345 H
   0.3022685633390688    0.6174771536862848    0.8920292949722491 H
   0.1266846644824386    0.5984765295556518    0.8164712713572724 H
   0.1067745332172184    0.6925719704209586    0.7333983889164525 H
   0.4949557575350491    0.5760857005030862    0.6998348075220425 H
   0.3975941678897111    0.4651012110136320    0.6670098286242035 H
   0.4441057966378060    0.5856804754034679    0.8631556708003583 H
   0.8349489396466964    0.4115616978125157    0.6661929814795938 H
   0.9210998544723696    0.3181094407968848    0.6781644126294962 H
   0.8856638485668978    0.3860968877641103    0.7736903355193523 H
   0.6991301939495222    0.3908709209340452    0.7520118463528710 H
   0.7505241047492579    0.3476132167584524    0.8571760259308584 H
   0.7961301708704388    0.5091771515694166   -0.0186196921790762 H
   0.1080338843985990   -0.1236650045237273    1.0815965160077121 H
   0.1284304749262110   -0.0244720562783730    0.8866715601500903 H
   0.1999345435969615    0.8166131757159609    0.7885062294345880 H
   0.2063115822912243    0.7555985499762017    0.8958356272901947 H
   0.3073774061380894    0.8044619785559193    0.8439007421545890 H
   0.4457257399997007    0.9870401644554664    0.9551970087611860 H
   0.5714822629540177    0.9231372765336042   -0.1167047546780561 H
   0.4409053709450915    0.6851146350210180    0.7953492635238240 H
   0.6362714928972502    0.7910872959675430   -0.0254553065172050 H
  -0.0779677266618670   -0.0184110976949306    0.9357869398649954 H
  -0.0026577095801802   -0.1154373264466871    0.9608259017601681 H
   0.2652901754086430    0.3078760831886088    0.0544716014542016 C
   0.0090377235953643    0.1018251027750856    1.0484720489742771 C
   0.3782773128158275    0.1334844439471436    0.1141958762066132 C
   0.4200413713080207    0.2337042833810660    0.1093217742520722 C
   0.4270729188280470    0.2690201379842438    0.2115699916449667 C
   0.3801074882225881    0.0862530264145664    0.0228007311149316 C
   0.3733827842373011    0.3086408487241547    0.0550881153189194 C
   0.2465978932059141    0.6064790305424628    0.2033927514021075 C
   0.1780438767893323    0.6693062272871624    0.1519610602961293 C
   0.3265404992633009    0.6599150180534894    0.2480016441036874 C
   0.3954789205515629    0.5897162344602368    0.2773481087779493 C
   1.0102770221639430    0.3920177206660170    0.1793176826280308 C
   0.9229252673408971    0.3392983958446361    0.2100064477298510 C
   0.7520304275561606    0.3589515455370477    0.2525094801626686 C
   0.8411164266586981    0.4063486041737687    0.2164623057158616 C
   0.8199904874188010    0.4580709452281631    0.1324882607769423 C
   0.7979637480902231    0.3983875134629936    0.0485708757555682 C
   0.1055110998602093   -0.0437752403382923    1.0761274849189466 C
   0.5869186699117455    0.9795904976251620    0.1818336527761678 C
   0.6233262336167914    0.7418439246194821    0.1514652860176089 C
   0.6723524825520190    0.9239020420691502    0.1747262057383877 C
   0.6379431438171054    0.8499282307867625    0.0179603553017865 C
   0.6756780949640062    0.8341016973428573    0.1151570712363974 C
  -0.0594475761981383   -0.0371154361805254    1.1068688628013446 C
   0.2145732254006273    0.2712196231844693    0.4183564314315401 C
   0.1713429854952115    0.2811852779981696    0.5137613719069807 C
   0.2246657242793956    0.2177459899679556    0.5838357677591959 C
   0.0987496562942662    1.0003074870689346    0.3880460736361823 C
   0.3182863401425501    0.2575381978106416    0.6097118124838158 C
   0.7603213262575674    0.2468022003198418    0.6508010450693155 C
  -0.0628963342415842    1.0145535980250706    0.5249760289153278 C
   0.2402922925851493    0.6808983160064493    0.4098203450442281 C
   0.2983938983050534    0.7223971291645560    0.3340673843319827 C
   0.0731959172226969    0.9178710606215587    0.4497042053362370 C
  -0.0086714346435099    0.8259465221060147    0.6275974597889098 C
  -0.0270895307165271    0.9200168658343302    0.4783053222856486 C
  -0.0574990176981523    0.8389294105002462    0.5374538918044315 C
   0.1631793146008916    0.1938179612746619    0.6694866764483212 C
   0.0565671748001557   -0.0035814783037426    0.8728661014310768 C
   0.7879528927240240    0.1350871750011273    0.8246188325957031 C
   0.8482221337026415    0.2113587686036239    0.7918167874740134 C
   0.2805439050069972    0.7137874168910899    0.6801292976272236 C
   0.1521125364721303    0.6368695720110628    0.7561399260597339 C
   0.3130795251284465    0.6065494419545778    0.8173272408259012 C
   0.3215792951495098    0.3605898308684360    0.6396781636369350 C
   0.4156748041107755    0.6146850971959826    0.8002948648981244 C
   0.8658414840776896    0.3578103229466295    0.7089071395575499 C
   0.7262059041679032    0.3294261581519597    0.7876138357332515 C
   0.2393826477826070    0.7695455867165225    0.8325694331683816 C
   0.6830763579279894    0.9217506597148249   -0.0411170520586509 C
  -0.0070038658992830   -0.0405760525145728    0.9477765831312517 C
   0.0151888819048523   -0.0015723130590358    1.0459223526847441 N
   0.8001068902951658    0.2837598259678789    0.7326449469176672 N
   0.2481606861090104    0.6811827502256861    0.7741321479716391 N
   0.6640894787174065    1.4493573135462994    0.5499337782620191 Cl
  -0.1614284877483837    0.5981621182005640    0.6167477601018364 Cl
   0.6168648299595403    0.6644520227073936    0.6903921624540076 Cl
   0.6829504908461118    0.6477749751765549    0.4392808040764082 Cl
   0.4526795220740049   -0.1180230286995037    0.8667002882610714 Cl
   0.8000585845502290    0.6470652839138514    0.9981209434386248 Cl
   0.2283723397500394    0.2357859514659704    0.0135449288702303 O
   0.1322200946346334    0.9871802901370021    0.3119120075261628 O
   0.3579378727470141    0.2890525333023044    0.2512312594037625 O
   0.5820865305840742    1.0656750717913273    0.1694703238632446 O
   0.5102778023425455    0.2244343769761851    0.0762094486295398 O
   0.5105788559915185    0.2734916112248925    0.2488839199626051 O
   1.0594230149176054    0.3400847728037025    0.1242988791231805 O
   0.2181907133700497    0.3748143304010516    0.0817547007978600 O
   0.0926481644549246    0.6507245859157481    0.1640721176714107 O
   1.0318948635670699    0.4697954143736532    0.2068827325137592 O
   0.1993174547144589    0.7395510222982328    0.1078917858568844 O
   0.4818548312906250    0.5949712960891750    0.2558294815216847 O
   0.6459666600148481    0.6576988014286028    0.1315587683200702 O
   0.7070795506233478    0.2921318125826202    0.1985672150911766 O
   0.7170128446526062    0.3761667872278147    0.3266894536402072 O
   0.8600332285209925    0.4666927738416545    0.2912345102363130 O
   0.7875555609628537    0.3138254989409780    0.0508905597607809 O
   0.3612913800257958    0.7268086481335028    0.1897444565019991 O
   0.4486221796806157    0.0251087321336844    0.0146875705407247 O
   0.5090292144975719    0.9322363829784043    0.2032032104874623 O
   0.5514757243077053    0.7563319440905082    0.1971149674426675 O
   0.7659037014294896    0.8087793832611481    0.1206605029893867 O
   0.1823458095391269    0.2229285487566963    0.3566888564118945 O
   0.0798451009588573    1.0857214099632722    0.4181439567407456 O
   0.2394615698447572    0.1286420907931764    0.5461306162013646 O
   0.2872298283238137    0.3238002166097029    0.4145703347984320 O
  -0.1157428192024477    1.0683681340190521    0.4899722738310284 O
  -0.0286285109284574    1.0293804288454818    0.6082136972830082 O
   0.2581429662458102    0.5928233994483207    0.4459523070105044 O
   0.3662138034711167    0.5239054761271361    0.3229451774224302 O
   0.1840099764703300    0.7296460188989286    0.4463028565241738 O
   0.0430014248241707    0.8820002804337914    0.6651609615528781 O
  -0.0206015929176910    0.7431970785889394    0.6675548430691619 O
  -0.0720628596152963    0.9140618729404074    0.3931758197425045 O
   0.1499632710037449    0.1121783689267654    0.6924872303575234 O
   0.1271282609007315    0.2676133040273325    0.7066839123167297 O
   0.0484123486196975    0.0919654136509050    0.8547814698917467 O
   0.3208567500632719    0.0973264409693628   -0.0355306539978277 O
   0.8236562811331601    0.0951917900396986    0.9025835536606941 O
   0.2460978266914275    0.3968865652423642    0.6691716742876832 O
   0.3983207951515774    0.4050623759029554    0.6344243053302757 O
   0.4355658852230628    0.5554412138995111    0.7237297787010649 O
   0.7981290762031759    0.4387665063113942   -0.0309088235809283 O
   0.6351386891603518    0.9553194747263181   -0.1102246138702405 O
   0.7636340117800645    0.9479388250227403   -0.0296764703743207 O
