Li1 Co1 H110 Cl3 O55
1.0
  12.7513005076999999    0.0000000000000000    0.0000000000000000
   0.0000000000000000   11.7994450403000002    0.0000000000000000
   0.0000000000000000    0.0000000000000000   13.0116036125000001
Li Co H Cl O
1 1 110 3 55
direct
   0.4723981095310658    0.8213348583005562    0.4510447352286340 Li
   0.6566201030901926    0.5458193583006218    0.6987920610773217 Co
   1.1489165552214335    1.1420745191129240    0.1808436051678868 H
   0.0505413744669284    0.2913802732634777    0.1335442853969742 H
   0.0975172103542786    0.4131359994940965    0.1124192951047755 H
   0.2854673726575498    0.2260924569832288    0.2692201061931174 H
   0.1476602525964325    0.1230732051583909    0.0130614420298457 H
   1.0332499219153353    1.1075898464346525    0.1834266841642153 H
   0.3216048630822905    0.4143801258025679    0.2169605984298501 H
   0.3027495314355448    0.0132712614589219    0.2642391674917771 H
   0.4295303252082104    0.2635721857746734    0.0010034356017007 H
   0.4101613204662347    0.0902736964799590    0.0270575339354621 H
   0.4266121914870633    0.2840629799750973    0.1299098371453713 H
   0.5840063332679792    0.2678206906686565    0.0754509079385775 H
   0.4050143944754018    0.3590800673869892    0.2885320993557896 H
   0.5085152098787440    1.1294213816568761    0.2981389090713818 H
   0.6746104249292454    1.0866820834714439    0.2064000246456940 H
   0.6729933349714370    0.4198846219698172    0.1655641664514317 H
  -0.0312710649285704    0.4409305270231354    0.2059319808763503 H
   0.6917820067508627    0.2283476477917046    0.1257988911318751 H
   0.8574011919253265    1.0567230473648601    0.2216125999665286 H
   0.7324021771944362    1.0476124493975114    0.0995251888134630 H
  -0.1383341052181170    0.4557320706045070    0.2444637418284248 H
   0.1203132380868593   -0.0521630023867929    0.0026179944697420 H
   0.2598840998138890    0.5178561787720012    0.0740726765895398 H
   0.2098311660276770    0.5632193291720298    0.1796123964347365 H
   1.0974472953131060    0.6624739971670106    0.3180726549588471 H
   0.2368205699549220    0.7689874811238838    0.2054216671442580 H
   0.0693556122660557   -0.1552458165230308    0.0629585200023323 H
   0.2842518103711273    0.6826969821620688    0.2880302396162470 H
   1.0039823189932144    0.5868517965505896    0.3104955719999651 H
   0.3403425596690598   -0.0398477621781478    0.1526387803876853 H
   0.5697058311435187    0.6562059057654747    1.0330552410455240 H
   0.5830699581905674    0.7223869843952664    0.2141607898063380 H
   0.4335118798715440    0.8916983370204749    0.2614309048757152 H
   0.5467387620337323    0.9355309069619889    0.3017587549722169 H
   0.6805509954580521    0.5506136515751605    0.1912258765637217 H
   0.9736089465073160   -0.2416702200875287    0.2527317465420522 H
   0.6740246023305630    0.7406547926916572    0.1200225085860838 H
   0.8381090420892018    0.7161782178177040    0.0266253350945293 H
   0.9424042862642510    0.9550063991749818    0.2412542988386398 H
   0.7852932528610115    0.8374127330948420    0.0331452770268596 H
   0.9048787021317891   -0.1903245849385220    0.1655065255931382 H
   0.2317387353639428    0.1627140525374391    0.3631739366668322 H
   0.1765278963146336    0.0690747333807894    0.5486944975361314 H
   0.2502976266595480    0.2300401002699181    0.4930618467455254 H
   0.1336169791364535    0.2598923516933498    0.4715402873482671 H
   0.3401292480936360    0.3729002088803433    0.5888932321100556 H
   0.6273650479078027    1.1285230343224213    0.3474671870542275 H
   0.5426889790356124    0.1731899689536621    0.6575888384795353 H
   0.4229984424445892    0.2827705463099618    0.5774864905261500 H
   0.4392681554730543    0.3598614600684679    0.4363755210653133 H
   0.6033918069183518    0.4021727720238060    0.4119296487906287 H
   0.6100915157008726    0.2080280480833183    0.5582982330726147 H
   0.4486170058062430    0.4935024910334214    0.4032297219121883 H
  -0.0254666373758431    0.4307258098022195    0.6468776299190386 H
   0.7113682442369282    0.2679274753518087    0.4269931264246773 H
   0.6962380228227676    0.4546362563559692    0.3406048507381857 H
   0.9890740357255426    0.3533162369892275    0.3760847203798109 H
   0.9700642100333614    0.3911425922521741    0.4979597826109230 H
   0.9251433017970517    1.0848175890037075    0.3825028378146038 H
   0.8743641675739190    0.0306880890553132    0.5638855536032031 H
   0.7625042048086560    0.1423953003265382    0.4451914982051180 H
   0.9427571914441801    1.1820170755967514    0.4600136527791109 H
   0.8135405676962704    0.4973992844709907    0.5872477777419690 H
   0.7113008001358750    0.4816298987613667    0.5011454007126134 H
   0.1523758500340185   -0.0420149827476459    0.6267648130984748 H
   0.0320249886396613    0.7299712393915272    0.5884797550198965 H
   0.3210315882233390    0.9654051933200393    0.5275841095947005 H
   0.3287806017408490    0.5696543775781766    0.5727814593998416 H
   0.0022815126882495    0.8933170572174642    0.6548835608636245 H
   0.4362472871328612    0.9795160264508630    0.5702729292469061 H
   0.5169574860163815    0.6714735729637805    0.6113255170683521 H
   0.5577509721149868   -0.1548144403029954    0.6079362346006911 H
   0.6584442307535595   -0.2276899015694464    0.5649530622987997 H
  -0.0106584223325244    0.6916507930946305    0.4820739620652197 H
  -0.0267211760788044    0.5464905763090069    0.5757411253370212 H
   0.8027863705132308    0.8616367537181654    0.5861933343075856 H
   0.8302823894321073    0.7285381211438261    0.5552109887024119 H
   0.3135554880449741    0.0159106228774999   -0.0113957278530644 H
   0.1631543584627867    0.1077793502877883   -0.1096555610047408 H
   0.1168542183599408    0.3232029563403127    0.7603540348243912 H
   0.2412099261595069    0.1923722270367292    0.7918743617736380 H
   0.1603711129437458    0.1323160127334518    0.7285178359716958 H
   0.0202962241964040    0.3746180862831168    0.8164716373694404 H
   0.6009010805817855    0.3115786808314611    0.7007141915652174 H
   0.5533114249514786    0.3807887154738392    0.8004797576444769 H
   0.3535859147211995    0.4548032133605802   -0.0554093649922891 H
  -0.3043657973362312    0.0381845517870682    0.7728136827531259 H
   0.6911193292463291    0.3168229952707126    0.8409344176292245 H
   0.8729133351675437    0.3548298674980354   -0.0880433133237673 H
  -0.2413588907454214    0.1335516640670699    0.8352395008298213 H
   0.6981844909485099    0.2707225220584428    0.9561853924252414 H
   0.9674213423525588    0.3891408031918133   -0.0103845534896401 H
   0.8200763716285576    0.0225714446137399    0.6803492920577164 H
   0.1052895940370373    0.6905583688360339    0.8305129504497500 H
   0.2278520729823236    0.5565071490881784    0.8505258564492717 H
   0.0784961701197128    0.8069053661152464    0.9028099576454109 H
   0.0761143738486846    0.8243366943936119    0.7184660388300774 H
   0.1452228541537221    0.5206944478503873    0.7643958118079353 H
   0.2843451341853752    0.5488008544540295    0.6879478942703613 H
   0.5178813133540625    0.9068007422091404    0.8721373355854680 H
   0.5226949400082955    0.7471847608161616    0.9633328588536419 H
   0.3948601360982416    0.5805176003451976   -0.0414919413300718 H
   0.6337698848066495    0.6059315074379312    0.8807527225384111 H
   0.4635401895148452    0.9303781222511536    0.9822851730605624 H
   0.6517437377373055    0.9445737051305106    0.9791725667127106 H
   0.4494545674332747    0.5734689637596685    0.6762037615292440 H
   0.7496027756641810    0.9887113741667453    0.9173354539353864 H
   0.9213005565044904    0.6826842696997887    0.8589491072079030 H
   0.9085175466537249    0.5542985706413961    0.8933030587508609 H
   0.7675225164672479    0.6013092561529154    0.8591566142977598 H
   0.3816214864485010    0.6295512623542111    0.4211168330578439 Cl
   0.3831719165389896    0.3113761289324661    0.8596100557163358 Cl
   0.5350489740070139    1.0167211660570592    0.7291910811965646 Cl
   0.0316951399314876    0.3719705041389310    0.1085612771774714 O
   1.0839192634158235    1.1575074483208703    0.1399316610406771 O
   0.2601146645314427    0.1492261300583364    0.2907754815605746 O
   0.2209586584677083    0.4912201803054150    0.1376329436119302 O
   0.3712515637947175    0.0134887293136588    0.0370724716695638 O
   0.3576992206517066    0.3385553732871520    0.2285602447528448 O
   0.4473190989778370    0.2314401661156912    0.0695038315977596 O
   0.5802569117896659    1.0900127485888096    0.2983756208627740 O
   0.6602848273253231    0.2921379360153669    0.0875707822212909 O
   0.7419862976475776    1.0831480189575979    0.1707702887725055 O
   0.9322876711062833    1.0409087442885134    0.2470990818696061 O
  -0.0678808993308029    0.4730862766117070    0.2686659854087221 O
   0.6981735116762454    0.4749965359436515    0.2146280650309044 O
   0.1200646359934426   -0.1369627532719040    0.0096083703456733 O
   0.2197101583644925    0.6977205700845981    0.2434577167150080 O
   0.3127908601551277   -0.0572751072183321    0.2222266672435492 O
   0.6219961837704813    0.6872582136281404    0.1552741204288666 O
   0.4994784845713593    0.8658276287831458    0.2984109739225274 O
   0.9670449101606345   -0.1770087044489422    0.2067727688626589 O
   0.8094445149078933    0.7732198835656455    0.0727901290652694 O
   0.1802584961833509    0.1975216217576232    0.4724110485808884 O
   0.2042403637438667    0.0159678289577600    0.6029145630261568 O
   1.0062330698074291    0.3258615559518078    0.4453244564515818 O
   0.3554265112929631    0.3057326431776219    0.5490242032455706 O
   0.4859786850884711    0.4088781721277747    0.3931410346212620 O
   0.5591610243672369    0.2345259044597950    0.6093595795281532 O
   0.6778712687917905    0.4286791033751360    0.4124791583063606 O
   0.6946209328649590    0.1892712337378893    0.4481334876124209 O
   0.8982754540984490    1.1115730846157259    0.4510770141092784 O
  -0.0578097697293593    0.4685521650651660    0.5860350140834726 O
   1.0244978734530934    0.6557533421083059    0.3440955811164433 O
   0.0739125592194203    0.8650386086242993    0.6526255763080717 O
   0.3384439298010412    0.5267625298453842    0.6373338408751807 O
   0.3941943216587754    0.9606931073015780    0.5081476121781142 O
   0.5736756223008546   -0.2168470187420735    0.5625352204295795 O
   0.7443248826399079    0.5238454435008620    0.5686320861474830 O
  -0.0146329188922594    0.6738126660233045    0.5548689862765369 O
   0.8645847729212167   -0.0136072907879672    0.6283918223919074 O
   0.7744731800443850    0.7838034321625061    0.5719076239881112 O
   0.1661767952704462    0.1838913197009842    0.7861502402726996 O
   0.1674307850097943    0.0673313463037072   -0.0425639075853764 O
   0.0640726217225169    0.3912883618196516    0.7534617252620368 O
   0.6031243832153389    0.3830345838099763    0.7448217448762218 O
   0.7366260600813211    0.2742777740094221    0.8874621184437808 O
   0.9339659312952795    0.4068840105447820   -0.0819695039491813 O
  -0.2339808197837034    0.0545696444197878    0.8081329265363064 O
   0.1916910555455876    0.5869551912438005    0.7884335868059016 O
   0.0522322608190287    0.7585107172101754    0.8385135015808952 O
   0.3293734824431300    0.5355841311702338   -0.0413951046881386 O
   0.5214613403460100    0.8876049241663080    0.9451721457672865 O
   0.5481174449366553    0.6678852686108731    0.9566465192915898 O
   0.5162681445649199    0.6196321517858530    0.6766664254851470 O
   0.6938759108184420    0.5703162731142231    0.8426098452436237 O
   0.8708272734372960    0.6275808307008077    0.8937565001694368 O
   0.7293609187771805    0.9650831442756120    0.9907545365058285 O
