Li1 Co1 H90 C51 N3 Cl6 O45
1.0
  13.3613360807999992    0.0000000000000000    0.0000000000000000
   0.0000000000000000   13.0150320504000003    0.0000000000000000
   0.0000000000000000    0.0000000000000000   13.0578576444000003
Li Co H C N Cl O
1 1 90 51 3 6 45
direct
   0.8500526797406894    0.7792210950328249    0.5118161802802446 Li
   0.1886510095365462    0.4079519363178840    0.5665605357072290 Co
   0.2182835251476867    0.0519067124524858    0.0752670804786646 H
   0.3807837412091630    0.1682421923911208    0.2127835130283862 H
   0.1088760533828964    0.2325662752483943    0.1620408860183453 H
   0.1069930081658724    0.2084103608578233    0.2953698016346556 H
   0.4695589948834183    0.2976433335852555   -0.0243901554506979 H
   0.5264133390452723    0.0200965718092074    1.0293845428744242 H
   0.3864979901089953    0.3426920125074085    0.0689000329687190 H
   0.6279057341021300    0.0874771204397464    1.1780697294396671 H
   0.0084332539589299    0.1685203323131726    0.2205275092300423 H
   0.7629835428695850    0.1336775445087382    1.1649894826908256 H
   0.6343377255946195    0.2283918713906389    1.0909237342091236 H
   0.7811972902469678   -0.0297196712464578    1.1368332559948120 H
   0.1175091720547451    0.4177667411916126    0.1709351474785940 H
   0.0380635242856304    0.4846898188011856    0.2734006541824296 H
   0.2386018524735079    0.4616371671566759    0.2932316254682173 H
   0.4114984839203896    0.6063333148655187    0.9744436774172434 H
   0.5174057069288295    0.4190060773636279    0.2503348490402539 H
   0.6265061734678554    0.5544199582649688    0.2358439574136977 H
   0.5699187187831043    0.6743285373569454    0.2825935863822596 H
   0.6399666536857312   -0.4445330946090283    1.0047242954763300 H
  -0.0945691697266509    0.2640506387454021    0.1454585333923109 H
  -0.0024541302906915    0.3489701376540530    0.0960139753658348 H
  -0.1027210491001902    0.4096684130744136    0.1677876173768528 H
   0.0362650514491802    0.7402799692609199    0.2200312563088919 H
   0.2731425598705160    0.8564133751677879    0.3392989066701975 H
   0.5191322558203846   -0.1015865707191528    0.9627710122564797 H
   0.3783438654510159    0.7438696646085056    0.1388648024492473 H
   0.5576396323947483   -0.0622927758195634    1.1679892090675945 H
   0.5704431423854766   -0.1760550773080561    1.1101634905950222 H
  -0.0174152089426425    0.9588149670224188    0.2340274266591161 H
   0.6668389662919495   -0.1453344460832016    1.2009417815123198 H
  -0.0388816250454569    0.8290496315657079    0.3009151216995480 H
   0.2033291823490557    0.3292621569893326    0.3323567265309557 H
   1.0459327911436873    0.1806117354991650    0.6544493786746799 H
   0.2831759876047860    0.0794909703021595    0.4447406290028400 H
   0.4877131673803261    0.1946232261581062    0.5969468372587827 H
   0.4699424146229579    0.2256573410520135    0.4642329536192872 H
   0.5269393343467526    0.0410715489696832    0.4001703008640895 H
   0.6428503473348542    0.0926826396991413    0.5597268726033685 H
   0.8542887830508467    0.1931188118835829    0.6858718379458579 H
   0.8820532220078965    0.1516990137676472    0.5676166048094921 H
  -0.0932160116374700    0.2647160231998132    0.3574129041145974 H
   0.1103324945563179    0.5166811729820771    0.4080276387823047 H
   0.5038013758274509    0.5597482586280762    0.5450745456129564 H
   0.6325197936263560    0.4160433493541479    0.3606063835608895 H
   0.6069063371628381    0.6302733250624527    0.5161580104291061 H
   0.3549682091460442    0.6493627901546546    0.4803322331278332 H
   0.0050862832870177    0.3261672740997617    0.4120747038858720 H
   0.6915632901172223    0.4421885020270176    0.5306377210484885 H
  -0.0842513392966461    0.3987318284045644    0.3542094689769859 H
  -0.0160373527246214    0.6388526354757965    0.5251379674169424 H
   0.2166916184797177    0.8972123526842267    0.6863933630065114 H
   0.1456448313725437    0.7975114841058724    0.6514335700273182 H
   0.0722157974745163    0.8995342831937310    0.6976256802819951 H
   0.2198799223845357    0.7374824348515535    0.3773419006687604 H
   0.0485504994767828    0.9539413716479033    0.3986340611112689 H
   0.4748908718431164   -0.1139322952150876    0.5372396462913304 H
   0.6496430811940392    0.7500233182983203    0.4239107189665143 H
   0.3528643776257523   -0.0364710952659860    0.4087283662867069 H
   0.8394489497586562   -0.0166148245323264    0.4751879666004057 H
   0.2399916835418758    0.2029121031721804   -0.1384892703724289 H
   0.3280779342643059    0.1621123573134155   -0.3269229374414852 H
   0.3729312330942921    0.1764719070460845   -0.1367232838968535 H
   0.5812666857141869    0.2854543509238471    0.7661422795867586 H
   0.6248326881318993    0.0300834853639847    0.7077268778591157 H
   0.7905301892359536    0.0249632521027879    1.0153853092345633 H
   0.8318209700877865    0.2178225543526703    0.8847689365915783 H
   0.7246453110563689    0.0258990930559898    0.7923724629236776 H
   0.1494610664924186    0.4950120369470772   -0.1080424688505497 H
   0.0447761763331216    0.7089792395798523    0.7716584984001021 H
   0.2288251355935461    0.6656447323872506    0.7847755046245846 H
   0.3276984811939437    0.4115224231073170   -0.2194711610314605 H
   0.6764345635604170    0.4440326004439141    0.8836002915951653 H
  -0.0115138530061426    0.5463655793288233    0.9380954484102018 H
   0.8040460531366833    0.4034041180896391    0.8634461432527025 H
   0.9109343157597793    0.4656814138243883    0.7052394866740901 H
   0.9186431256704894    0.5675123578334172    0.7851185930638984 H
   0.1181887448119222    0.7023907041334595    0.9871325889149926 H
  -0.0000980784849715    0.8171649124654391    0.8401115344449036 H
   0.1588500975924048    0.8907721073067729    0.9645078974805061 H
   0.2434988178371755    0.9317424251619344    0.8671527237131471 H
  -0.0169983344649468    0.6970376631474514    0.9772098279592115 H
   0.2740481579279878    0.7473648538499799    0.9057700845185972 H
   0.1090811226950842    0.9619144599659464    0.8606922458692813 H
   0.3028978176977105    0.7715199998982247    0.7758735849402441 H
   0.5944517443740880    0.0133021206194171    0.9243941196875129 H
   0.6638317819986259   -0.2327072620391217    1.0005352468981001 H
   0.7100846414628867   -0.1408926590959599    0.9103657847961030 H
   0.7542576191075491    0.6665782683134743    0.7246370024762804 H
   0.7825826307464555   -0.1710039948562092    1.0232487737320517 H
   0.3019428233825584    0.1536751902304021    0.0053321780720944 C
   0.4128860697043174    0.3523631373661546   -0.0075137270195373 C
   0.3882029094271116    0.0991021398337900    0.3224240098838552 C
   0.0644403774587524    0.2303457659259365    0.2304441436065500 C
   0.6972258974749342    0.1044943662784297    1.1281342792489051 C
   0.7365505575854626    0.0095587568066094    1.0781306708637255 C
   0.0846367109966663    0.4162177630621748    0.2490497990376453 C
   0.4541512543135341    0.4577226166736109   -0.0115358263125652 C
   0.6167361924412136    0.6061343142030561    0.3034813925927195 C
  -0.0554016795269234    0.3394219475674846    0.1594332607150780 C
   0.2512787284218194    0.7560532688736313    0.2165398719454276 C
   0.1178908704095472    0.8489035972723892    0.3078121183166481 C
   0.1225737853232669    0.9324585202098687    0.2192470541618887 C
   0.2228055280098722    0.7952571677210658    0.3210263839870966 C
   0.0270324418318482    0.7818580458960341    0.2949141373011919 C
   0.5671291773948326   -0.0335782864081820    0.9863996968694047 C
   0.6157602421379548   -0.1146522319746526    1.1422660001655545 C
   0.3383718149936172    0.2442297117587434    0.5506738561576962 C
   0.3580075758496746    0.0507833959717131    0.4216801080352877 C
   0.4352065920081127    0.1874261635894342    0.5282858804298882 C
   0.4341795989052508    0.0689439351916481    0.5084009186642531 C
   0.4151448258509701    0.0055718284764248    0.6042144919219272 C
   0.9556296962508181    0.0615755322842536    0.6820350676758523 C
   0.8656544128861906    0.1160371730435796    0.6412174990888201 C
   0.7642214430241787    0.0657207391336168    0.6343128442476282 C
   0.1754554728825918    0.4074125600049548    0.3266383306015879 C
   0.4554935601945884    0.5123626357873667    0.3445624040885106 C
   0.5538528853438524    0.5485465958557191    0.3884647053397309 C
   0.5329117909571863    0.6103893940050531    0.4817658297031511 C
  -0.0442261504408337    0.3282218214797797    0.3448289102869062 C
   0.7179334074370244    0.6353543728650179    0.3369792305927828 C
   0.8912341900831082    0.6067920152342062    0.6397723922026922 C
   0.0257675982639744    0.6933511566667759    0.3713164099533105 C
   0.4834861948935582    0.7140648974363742    0.4687632526630487 C
   0.7631324800707726   -0.0533600279362090    0.6087320783136964 C
   0.3109516529840359    0.2137434249433525   -0.0937606467417004 C
   0.3315476471522721    0.3319697953465441   -0.0903198066572422 C
   0.6818374663512341    0.1801653286076951    0.7617219526409558 C
   0.6974167466523353    0.0690392096400857    0.7263118560851631 C
   0.2332528365092511    0.3823745886240096   -0.0604596251007970 C
   0.6981973572093131    0.4608610645730723    0.6805983848362254 C
   0.7532973857953704    0.4665113003708197    0.8684607483880312 C
   0.7610451139697074    0.5180811157505192    0.7644207108109158 C
   0.8677574959783358    0.5344117094192046    0.7272744948535058 C
   0.7848960221478153    0.5253687812462861    0.9640139420265833 C
   0.0546576731536173    0.6867503277431652    0.9354748041259783 C
   0.0579507569989692    0.7548976820151618    0.8393464778581301 C
   0.2425153832524500    0.7385704075853252    0.8247169723755117 C
   0.1630285719352684    0.9042488317067418    0.8801709388468449 C
   0.1452758562962350    0.8567721910340813    0.7066769353361262 C
   0.7065108970625332   -0.1587182010617110    0.9910260300432778 C
   0.0113057211858528    0.3314903497350515    0.2482403247511391 N
   0.6595185905893616   -0.0707522248300341    1.0476356225300678 N
   0.1530333140364787    0.8100362323637907    0.8176116720631139 N
   0.6278353818563429    1.3346019786148862    0.2253085385305703 Cl
   0.9237676131907452    1.0461716477894905    0.3661218365518238 Cl
   1.4401718079714572    1.7421307483836082    0.9935049971818024 Cl
   0.0428639424183774    1.3273411436331470    0.6226830651417787 Cl
   0.2863800085006840    0.5389170383168156    0.6360880205921139 Cl
   0.9146375382295070    0.1920047155107234   -0.0670456978197688 Cl
   0.2227718487432720    0.0931705370762212    0.0104248970931598 O
   0.3311704393663499    0.1613002194747173    0.2674563406423530 O
   0.3669236003609649    0.1595768276372526    0.0725269678986086 O
   0.4721737034566278    0.0778021538693698    0.2791113918877055 O
   0.6624696427716849    0.1725318475977927    1.0501069314445006 O
   0.1890297141787617    0.3633373708099831    0.0215117081108987 O
   0.3831846987036833    0.5319119076612059   -0.0276142677933573 O
   0.5399845117860408    0.4751000613947747    0.0087546384187322 O
   0.4542127002643758    0.4526055336159512    0.2605440275770694 O
   0.7104925348028224    0.5770473324319767    1.0120095640548854 O
   0.1974906943768761    0.7303744999927103    0.1438824708742128 O
   0.2023876597405437    0.9624653614137670    0.1822854014050917 O
   0.3513495590568904    0.7549483926086851    0.2104423939235145 O
   0.0386570278059404    0.9745621429960424    0.1855853301662603 O
   0.3092931362110132    0.3212091610693741    0.5020962856806559 O
   0.5315006296866384    0.0349301887570863    0.4756201201859075 O
   0.7107245475282903    0.1260840172997935    0.5609809067984052 O
   0.1446045162486712    0.4471992465067438    0.4239989417080522 O
   0.0816459921225695    0.6167850755275924    0.3540409880469657 O
   0.3759459016690824    0.5388213796972149    0.3831996762765995 O
   0.6169090793430946    0.4634572164587652    0.4218150459437857 O
   0.8008667303696254    0.5988220002854676    0.3090910417399832 O
   0.7402245913574700    0.4687327317040688    0.5844256408686446 O
   0.9629208832556859    0.5823508921721833    0.5783557324534619 O
   0.1062782592858017    0.9064862445603739    0.4044612038227405 O
   0.5328353016005964    0.7941100326281836    0.4540288295103723 O
   0.4322556146686040   -0.0972784752966543    0.5986860199500368 O
   0.3813330874688194    0.7212458248161979    0.4743908220546874 O
  -0.0260191389167710    0.7119619444898113    0.4571680887300943 O
   0.7182507409712128    0.7172811784134705    0.4025313313516000 O
   0.7182702001030262   -0.1293552307270928    0.6451913515700695 O
   0.8204403716895090   -0.0732977429564363    0.5242709798675066 O
   0.9484395470457508   -0.0273869839443880    0.7188205812785372 O
   0.8419786368944039    0.6900918485194173    0.6339980912374542 O
   1.0450144698077222    0.1108193603069669    0.6859522492988221 O
   0.2873552103757962    0.2049535887326546    0.6247607413378916 O
   0.5868102929965782    0.2107299863403493    0.7524861343862116 O
   0.3816249744460211    0.0421625950727593    0.6828384153830851 O
   0.7486586281423042    0.2346884367531100    0.7966212456498235 O
   0.2099460355937730    0.4570781311304699   -0.1265868584889104 O
   0.0502868527770593    0.5787657300443215    0.9131556758327558 O
   0.3696965266443805    0.3542747730735161   -0.1917208202123138 O
   0.6237107943400396    0.4166449613954920    0.6991971478656380 O
   0.7205865852169726    0.6215841416964751    0.7826066955617790 O
   0.8725758763866031    0.5279154518861775    0.9971541409615582 O
