Li1 Co1 H110 Cl3 O55
1.0
  12.4224519756999996    0.0000000000000000    0.0000000000000000
   0.0000000000000000   12.4248832088000007    0.0000000000000000
   0.0000000000000000    0.0000000000000000   12.4040377139999993
Li Co H Cl O
1 1 110 3 55
direct
   0.5582816501578146    0.1222664695571589    0.6059838361033220 Li
   0.5289661816245197    0.5604299442966366    0.3752984684854530 Co
   0.1995819338122491    0.1436163684288136    0.1329096537040729 H
   0.2932276973278249    0.0438137401737860    0.1289649704381736 H
   0.5529010698882553    0.1721631156327461    0.1764914302565462 H
   0.4750122600226427    1.0458550302828180    0.1050477584109029 H
   0.5187491970671817    0.2483046764105532    0.0332908014810314 H
   0.6562969214087537    0.1424179668221527    0.1030580837123050 H
   0.5037618177346479    1.3097206896137630    0.2952068061649881 H
   0.8259478086991628    0.3065563305981262    0.0119458486435234 H
  -0.0091466654266214    0.2879058534784801    1.2636769347620189 H
  -0.0944856147800773    0.2146295107797279    1.2149428036719689 H
   0.0715610726239018    0.4429753191323212    1.0449094606082396 H
   0.2792014808980221    0.3971278056847468    1.1553896148610179 H
   0.1535475437322040    0.4990185018567126    0.2872843858800928 H
   0.3018411337258328    0.5664259765126365    1.0562283555710898 H
   0.2442067793004332    0.6650417928071656    1.3101537363722981 H
   0.3606242146689855    0.3842029357039762    1.0584373137048655 H
   0.4541130043436631    0.4383885556962162    0.2083874958057065 H
   0.5776699319938914    0.4430308528535165    0.2074055574820062 H
   0.6430402792963804    0.6554891879250578    0.0557592110768392 H
   0.8088191451779653    0.4273019323706594    0.0156071645026925 H
  -0.2230021108086351    0.4632789305031974    0.2409994572755940 H
  -0.1370263306575658    0.3948468989330498    0.3029147801493052 H
   0.9313859301394506    0.5742256474126706    0.3213216896786356 H
   0.2360167697758227    0.6671158565683242    1.0069621396750938 H
   1.0843831004016364    0.9079140958532597    0.2492161365819595 H
   0.0691992200639247   -0.2692084375514263    0.0326089267403206 H
   1.1900385702370142    0.9751340435955824    0.2370862153845915 H
   0.2432134166354667    0.7956426180004932    1.2984478706414873 H
   0.4320344323728067    0.9316004351978066    0.0701508151751174 H
   0.5185294336899241   -0.1021428832828901    1.1928693461162110 H
   0.5196145656772619    0.7335237242427350    0.2668418488734692 H
   0.6099831983913153   -0.1124488151655583    1.2783818239445253 H
   0.6201333684420146    0.7677518125758948    0.1111191685223862 H
   0.3999006796498458    0.7133448625354132    0.3141208086381669 H
  -0.2502382796955698    0.7896143923229308    0.0161428279820530 H
  -0.0657086872701719    0.9905064214916356    0.1658295794101292 H
   0.9452157280196166    0.6755746885938487    0.2524344434688325 H
   0.9610177613367097    0.8172516742377253    0.1564318330723837 H
   0.9108263819520559    0.7358537260233149    0.0655417514719756 H
  -0.0813054471030134    0.9334676559684267    0.2786775110493670 H
   1.1890001279049180    0.2113763614888459    0.6024922311115766 H
   0.2647405676780394    0.0726339708336913    0.4875046736011561 H
   1.2297569769545573    0.2809866737521780    0.5096402077176078 H
   0.5109568546061801    1.1992810197238979    0.3651711210122817 H
   0.4323612599594975    0.0666892871888835    0.4568864177753660 H
   1.3782864302065616    0.2270312370101093    0.6120713699968037 H
   0.5577245942711397    0.0189803316970395    0.4433545337332405 H
   0.7202875088994498    0.2817770232335353    0.5276980373666736 H
   0.9693011501718033    0.1507101976840917    0.5514781972469581 H
   0.9304762868562965    0.1936490318795020    0.4327080004797219 H
   0.7866327040036197    0.1869737176245352    0.5742393341049462 H
   0.8839234806042593    0.0242500955169220    0.4405086862105296 H
   0.1135546340416029    0.5923747113684821    0.3595624634441514 H
   0.2264856401541017    0.4565553260558870    0.4471242739644575 H
   0.2330270218522524    0.4418235980449258    0.5833589452032200 H
   0.3842282503757508    0.4800605771791454    0.4937679567184199 H
   0.4167178104714144    0.5883432851443287    0.5613161228332589 H
   0.6965651390664688    0.5859923576137334    0.5074135134236339 H
   0.7365862235490261    0.5152544693591776    0.4037271147158655 H
   0.1066099503214520    0.8320341069506472    0.6503597089192147 H
   0.2454352002297192   -0.0118028791849033    0.3972227810577262 H
   0.2651173048961953    0.8943526001700923    0.5518055100215249 H
   0.3494927568641580    0.7402191594111783    0.6251671057358734 H
   0.5108159806463997    0.7758323714280609    0.5952381415905135 H
   0.5990079094333303    0.8720183862111668    0.4625079743690950 H
   0.6312519463419478    0.7559054235574650    0.5975164319868820 H
   0.9593836234032559   -0.2132376901155504    0.5686669550463123 H
   0.7984154019996612    0.7180024515869556    0.5632413024038634 H
   0.7073850641716674    0.9353107316428750    0.4165809937249599 H
   0.9511485342115155   -0.2669677726266822    0.4526563435680956 H
   0.8824342416008653   -0.1079795578641560    0.4488503248273822 H
   0.1397233808104292    0.0058583733445837    0.9897096929368462 H
   1.0456145866700419    0.2053561841766742    0.7100152837458553 H
   0.1648802500510036    0.2534652882990083    0.8376463049102917 H
   1.0225676068499514    0.0797271562197382    0.7074983613759109 H
   0.3265930909562953    1.0321889058495728   -0.1492396012961687 H
   0.4786105834524647    0.3191343160305618   -0.0747445037073353 H
   1.4705709487736298    0.2778164226248191    0.6837173953065264 H
   0.3903212503847716    0.1895524138956846   -0.1017760242275897 H
   0.3715085392986551    0.1475343127009595   -0.2218328987982953 H
  -0.2017655626202382    0.0086225039543327   -0.0885109887775370 H
   0.1536723178108668    0.4069975161632443    0.7504158381100517 H
   0.2927157211082798    0.5239386556156390    0.7677037571686958 H
   0.1184868326220323    0.5300642665144276    0.7328191486261391 H
   1.0628978090499699    0.6368652704112008    0.8595746484280642 H
   0.0957837462626175    0.3375843888519819    0.8946035648195064 H
   0.3465577485363883    0.5729580298636505    0.8774720464462464 H
   0.4486841244307505    0.4448095416048399    0.7987613860539412 H
   0.5772151103523143    0.4050642987964212    0.7953536247285873 H
   0.3933576879635833    0.6553097093768475    0.7068646967433754 H
  -0.0278360514233757    0.4313051893159458    0.9762705206412113 H
   0.7235324399387366    0.3364053033222584   -0.2785241163045371 H
   0.7630584530769224    0.3533503318156356   -0.1546902458007151 H
  -0.1175752592851298    0.6000287068549464    0.8093821212562624 H
  -0.2154440216178971    0.5303298625723175    0.7899505453809361 H
   0.7647360606893941    0.6515189292778731    0.6734755689811667 H
   1.0412273690654490    0.6941149031076436    0.7476659270902311 H
   0.1325468588021824   -0.1727198042296338   -0.0016959512204850 H
   0.1749652155831759   -0.0405403726485932    0.8815997346378271 H
   0.2923591087415212    0.8814188769873920    0.6815245609547491 H
   1.0081904130117811   -0.0059447959516984    0.8467481798483671 H
   0.6542272816910641   -0.0027083872608288    0.7617629496913991 H
   0.3435889304582711    0.9029884962342102   -0.1233859230508947 H
   0.3891918437243599   -0.2522127043560883    0.9958609157692214 H
   0.5038423171402368   -0.1988842352779476    0.9798822478088444 H
   0.6005068083653948   -0.0684612789597524    0.6749323526847186 H
   0.8981074758690162   -0.0131075996983741    0.7946490154552589 H
  -0.0076319081116558    0.8653301945715750    0.7223693255130005 H
  -0.2059289918772940    0.7080458187622397   -0.0690149177742173 H
  -0.2024715424072525   -0.1109679159336872   -0.1146814993390788 H
   0.8267367028739336    0.1215887971912701    1.0789548262977815 Cl
   0.1289131156339013    0.3542871615471019    0.2236534926017559 Cl
   0.6907192722326058    0.5134894628290182    0.1208764751986951 Cl
   0.2145693131447829    0.0638210107309801    0.1261803932870564 O
   0.5764849807436233    0.1575054325833785    0.1019689222383156 O
   0.5051206477009879    1.2305489192663934    0.2928728887207252 O
  -0.0741257051185430    0.2455497209373495    1.2848474605258686 O
   0.3069222562066016    0.6260209028839012    1.0003513890557654 O
   0.3388024358019576    0.4330838780672692    1.1154993781970695 O
   0.5113504966995097    0.4378654119458269    0.2602343230105403 O
  -0.1866292593873650    0.4583774759803197    0.3137951082418001 O
   0.9692367506473322    0.6417578717321488    0.3184016727587322 O
   1.1590462990853034    0.9057571339285778    0.2688186245464684 O
   0.2837923619987547    0.7340380147911946    1.3222788204350666 O
   0.4280336119150404    0.9861522558153190    0.1296647425769025 O
   0.5747574634996865   -0.1538399486963554    1.2183529835646225 O
   0.6201470533409646    0.7298923017784946    0.0405995506230690 O
   0.4748794360034211    0.6840673237540139    0.3057178996497205 O
  -0.0369538970968034    0.9349324584695167    0.2122910634275100 O
   0.9675060134271718    0.7406167486614741    0.1249977138774765 O
   1.2364706273806683    0.2101811792283412    0.5410960940182127 O
   0.2891962870959348    0.0009959533938505    0.4610624773129419 O
   1.0505250504109622    0.1423632379374965    0.6635191335971780 O
   0.5130248843357580    0.0792149582462802    0.4693033422923049 O
   1.4515489392329823    0.2147003363951652    0.6453798788490204 O
   0.7189327039033893    0.2273885844334521    0.5832041568960357 O
   0.9095866911059876    0.1522490451467752    0.4979029006119000 O
   0.1822423618484088    0.5506366932893499    0.3421302365366220 O
   0.2589269006064120    0.4195272114033362    0.5099304357935783 O
   0.4492516452401519    0.5319121712081102    0.5095974796953121 O
   0.6700848595980136    0.5395709957138087    0.4442711707398474 O
   0.2637182252270609    0.8430603675357744    0.6162990256367742 O
   0.3920978722661177    0.6753453101802165    0.6287860886054059 O
   0.5789313576794688    0.8136854435331486    0.5794618270942159 O
   0.6300130604899352    0.9215480268249424    0.4033006406820088 O
   0.7380014030992781    0.6790668743368318    0.6037119952197527 O
   0.8471272023095916   -0.0420516947016407    0.4145808385680630 O
   0.9078962035886214   -0.2284201265883854    0.5090057368959722 O
   0.1000291239145627    0.2913682602695178    0.8321077857938540 O
   0.4548189841306774    0.2692779117819276   -0.0137923349512963 O
   0.3410870089325694    0.1521959259351972   -0.1544330714778412 O
   0.1773697328281151    0.4762931373398037    0.7206505303519750 O
   1.0323080349262035    0.6254245190084574    0.7866000234816765 O
   0.0483906067156381    0.4496812171757724    0.9728603407485577 O
   0.3565308198947920    0.5686948107162476    0.7965443660291663 O
   0.5005217166596964    0.3816169959039752    0.7976391708268552 O
   0.8548068456027688    0.3762648329192237   -0.0170159626862289 O
  -0.1964775566671060    0.6043973595889660    0.8083026340514720 O
   0.7165507264920148    0.3837417643670946   -0.2135654295786350 O
   0.1285613332314780   -0.2504098705085930   -0.0154931520953936 O
   0.1078069764825583   -0.0337897256935703    0.9314625304677625 O
   0.3005177234979520    0.9540312295414194   -0.1584075837404375 O
   0.0334521710217023    0.8136999305908518    0.6766954882462396 O
   0.4251919828977537   -0.1858764671336538    0.9669187270821611 O
   0.5881453196431695   -0.0030791754543739    0.7156118484774868 O
  -0.1836459514162419    0.7756351864759913   -0.0375136430272869 O
  -0.2109094901010767   -0.0360418997808230   -0.1548329412714006 O
   0.9758860015489721   -0.0153989693250790    0.7779915362727509 O
