Li1 Co1 H90 C51 N3 Cl6 O45
1.0
  13.4561021848000006    0.0000000000000000    0.0000000000000000
   0.0000000000000000   13.1073419716000004    0.0000000000000000
   0.0000000000000000    0.0000000000000000   13.1504713088000003
Li Co H C N Cl O
1 1 90 51 3 6 45
direct
   0.8678116762215686    0.7342794982120354    0.3967107742297377 Li
   0.2585059584587051    0.1567840749293539    0.2850889193523595 Co
   0.0717572279950958    0.0852234181591008    0.0550043901404478 H
   0.1531165982618185    0.3358486026639192    0.0143701050679106 H
   0.4269336330463803    0.1132931824787609    1.0321518777290564 H
   0.3658899527354607    0.2848657259336169    0.2164982218161881 H
   0.5220669771916134    0.0682054750487960    0.3410488908788212 H
   0.7443650809752582    0.3312343948305504    1.1027348992956574 H
   0.0329235454900482    0.1328410054130490    0.3564399742284011 H
   0.8083628113858348   -0.0537193212571724    1.1124022334173576 H
   0.0799445915040061    0.3403575259931536    0.1219479984209279 H
   0.1595203843520682    0.5451366494657636    0.2512171295479949 H
   0.2946011064688507    0.5022113941989766    0.1377907766079411 H
   0.0049132052872399    0.6772107193840509    0.0353184036901550 H
   0.3986825098920529    0.3770026368814421    0.1291378547979179 H
   0.4925486222813275    0.6282427439249005    1.0576680734699235 H
   0.5991283717737185    0.5301305559018532    0.2339804849687001 H
   0.3844948946838649    0.5059904975524503    0.3022160621528826 H
   0.8642943129205182    0.5640797731393493    0.2267617322889786 H
   0.2119159436542569   -0.1575840104481432    0.2813369625713897 H
   0.2457400030846413    0.7500881953871734    0.1267797644092298 H
   0.2343526044237506    0.8621086189926138    0.0590088093558078 H
   0.0544825375381093    0.8648353350634570    0.2376297838320713 H
   0.7065829659899627   -0.0606429218007937    1.2036681638784854 H
   0.5389757370148713   -0.0638640172823550    1.1303840984355153 H
   0.5674133926409004   -0.1733431170959714    1.0647035627560062 H
   0.7377294298205826   -0.1623553821065242    1.1299917170615834 H
  -0.0420677102347981    0.7411718185768922    0.1460832550628408 H
   0.0553995935942040    0.1319430354031490    0.4868263885048689 H
   0.0950321701513600    0.2750796075674428    0.4717502900636419 H
   0.4005983693025976    0.0879714963032467    0.5739188715882384 H
   0.4970801202710558    0.1587631184346050    0.5094711434347341 H
  -0.0402142760339065    0.1809567867336621    0.6065017342049774 H
  -0.0245871652174078    0.0352941494013320    0.4358296003098155 H
  -0.1672897081699337    0.1836308605524382    0.3202192191835795 H
  -0.2509194238591600    0.1930942590255047    0.4275048036215978 H
  -0.1924344339867606    0.0716409541945730    0.4036656580397801 H
  -0.1563645533233793    0.2269157615818987    0.6031125020661890 H
  -0.1361781727304292    0.0878807074917105    0.5796357769549449 H
   0.0216847782807126    0.3291630366513844    0.5767484279688603 H
   0.1861759488739521    0.5271848785796579    0.6625788118004035 H
   0.0816791205436536    0.4276986514845376    0.4028816557209354 H
   0.0103055543496574    0.5146919177371927    0.5492570178504962 H
   0.4428341514180146    0.6512214684178295    0.4127033569335428 H
   0.3341393020542693    0.4048908235780297    0.5997825833909020 H
   0.5789256417210974    0.4009708831269965    0.5590309641206949 H
   0.3426283874098364    0.6081494251902059    0.6142908086491350 H
   0.6526408964343435    0.4224306116218703    0.3015947916441570 H
   0.6716939622091863    0.6190135653269736    0.4782835844211230 H
  -0.0494569228488578    0.2931549733062280    0.3605386866421479 H
  -0.1353502955452675    0.3371440598234860    0.4580767877398375 H
   0.3145935230175215   -0.0623328143852699    0.5111160274462695 H
   0.3762726027838392   -0.1522015309070690    0.4422667840435539 H
   0.2679931040114644    0.7014932932796298    0.6492074279259462 H
   0.5415286308267809   -0.1617412224990735    0.6296286619673674 H
   0.5631503453473983    0.6950091411010912    0.3673186717777633 H
   0.9808600151170874    0.8564018936960532    0.4685843959278066 H
   0.7118920814395092    0.9157640436793133    0.6038113363348780 H
   1.2020838107688923    0.9822924063244175    0.6985098433888915 H
   0.2593613324624045    0.2915840979872951    0.7728912079066366 H
   0.6132572775585422    0.0967024808345087    1.0636929525894256 H
   0.3988192508274835    0.3406230260470577    0.7083490344689417 H
   0.4682742079290813    0.1279147587232239   -0.2432868199529150 H
   0.4196142772145515    0.0424534956824716    0.8922625949191715 H
   0.7467298073694991    0.0902091734816975    1.0533579617888258 H
   0.9492884653350200    0.9928307748433201    0.6604655795559132 H
   0.6725062330919347    0.0805870853212400    0.9387187245630715 H
   0.9075029622020889    0.3417025736800300    0.8744966917424800 H
   0.1752849792612553    0.3590783315181540    0.6932294242792333 H
   0.1662065702002724    0.3758559513038043    0.8228110917332113 H
   0.2000737327516078    0.5727398813631179    0.7925224434675434 H
   0.2771019825200161    0.4746991036993964    0.9023732591590931 H
   0.4338004061082240    0.4646778499406554    0.6726020267031115 H
   0.3828354245272527    0.3951939681610130    0.8818173419107805 H
   0.5608179462938705    0.5892665730805812    0.8116092118506688 H
   0.5791627088863277    0.4700261501644454    0.8822994539089838 H
   0.3895520798230257    0.5315797436960800    0.8657509975921085 H
   0.8301945421474992    0.3992565767444602    0.7282509827607008 H
   0.8055588790522485    0.5388061516287661    0.9507631597989408 H
   0.8626831479856614    0.4838957814286558    0.8354144422982279 H
   0.7100683735289287    0.6641951132932322    0.7476343184613329 H
   1.0289333718080551    0.7219367974302497    0.6921427712107280 H
   0.0493294851126954    0.8646774083072554   -0.1101645949853183 H
   0.3369885669805797    0.7111130926465191   -0.1263320763635504 H
   0.4317815451017517    0.7025476641833526    0.7328432136079396 H
   0.5165970425114841   -0.1005144686889692    0.9010212163628700 H
   0.4172941402557772   -0.1151741914929012    0.9762405736598264 H
   0.7946716252258406   -0.0734143899110108    0.9450112746973487 H
   0.6772773026868519   -0.0859241726232707    0.8752624437648626 H
   0.7156034087848390   -0.1914161940411885    0.9588594475668744 H
   0.9005551849991478    0.7019983537269991    0.7017021244116948 H
   0.9224411662406300    0.9082873180233917    0.7669819139980601 H
   0.1394291278881133    0.2005953984794865    0.1055143668859590 C
   0.1521148222783374    0.3123320116824775    0.0923049543926016 C
   0.3446683540824296    0.3162847581746541    0.1424233101932001 C
   0.3625955366117428    0.2425939975236527    0.0560781159156260 C
   0.2090518155827910    0.3635155393155867    0.2661473929119105 C
   0.2393599980266404    0.3625481425674532    0.1536685345298398 C
   0.0484295216735296    0.6201152379644379    0.1887227914591350 C
   0.4631990383842823    0.6241068939472728    0.2593810954986416 C
   0.7331931979191223    0.5680348084250939    0.3054189891819553 C
   0.2010264603560756    0.7827050295955368    0.0630200724323411 C
   0.0946434989055435    0.7930190963447618    0.1102221829441234 C
   0.0225044807360387    0.7076058979689404    0.1121171720600895 C
   0.0418964262204270    0.8753454751283525    0.0381608873641041 C
   0.5582383731364068   -0.0888225482117244    1.0542005171421527 C
   0.7318451106535179   -0.0791501065927678    1.1284586921587794 C
   0.3564830681665410    0.1494797717222321    0.4367907825901450 C
   0.4358943259977316    0.1035978529241229    0.4997805401850450 C
  -0.0012691199401927    0.1130681177778938    0.4300225080614261 C
  -0.1877726085087362    0.1547012727823472    0.3949838399270255 C
  -0.1118836188164973    0.1690001291337026    0.5697692104302019 C
   0.0279808065685848    0.3240086735359348    0.4937544443791121 C
   0.5083528943565072    0.6308153478954890    0.3615432133765746 C
   0.5668229541995979    0.5372534340721404    0.3992392007187374 C
   0.4998160537155555    0.4463581936350309    0.4351026301674144 C
   0.6337751062884601    0.5063998864286715    0.3039954660579229 C
  -0.0695206824942749    0.2885911189313583    0.4399258033077988 C
   0.2969375928872963   -0.0681112552136321    0.3491428973596971 C
   0.3629812352285281   -0.0715062990063721    0.4457302340546209 C
   0.9720335363664904    0.6541061112448744    0.5617269131226349 C
   0.5247645637216118   -0.0582915678751253    0.5278732975718303 C
   0.4583983911305056   -0.0072179023332868    0.4470445595714891 C
   0.9613922675924060    0.7291403937203734    0.6473900025699435 C
   0.8317016650662675    0.8452653871246769    0.5813908471313695 C
   0.9402665362256278    0.8406267654932480    0.6152763246580805 C
   0.6776102371383353    0.0618357625486644    1.0213811611004273 C
   0.2196262002036755    0.3609414094826194    0.7601829181369637 C
   0.2388278974300733    0.5497711512687699    0.7232519223881644 C
   0.3087768311609143    0.6361879093311013    0.6867505690352401 C
   0.3707762117053331    0.4090632942527476    0.6751836832234587 C
   0.3403729051324884    0.4613683307342450    0.8568866765147343 C
   0.6031533114818294    0.6050526874925134    0.9660363766505373 C
   0.6093296914511999    0.5459642009268838    0.8628902636216974 C
   0.7928821025491177    0.3913739716957885    0.9493403971039278 C
   0.6917443450239635    0.4512774976510326    0.7215067377889901 C
   0.7124375588667164    0.5246228030594828    0.8158881459419773 C
   0.7970906020998991    0.4846481841676221    0.8852978255318789 C
   0.2221261812188316    0.7140313044458967   -0.0256391073508047 C
   1.0774927533456078    0.9172403155307631    0.7186847856985608 C
   0.4835829501763491   -0.0674261430055691    0.9698963143522402 C
   0.7168125256432394   -0.1057191852629179    0.9475663162020220 C
   0.9656780554979961    0.9197274712081411    0.6963015575169953 C
   0.6662986405177377   -0.0521118252411493    1.0359821586990086 N
  -0.0920331453040617    0.1816579204967022    0.4608841395930973 N
   0.2939530733400707    0.4489955704635977    0.7557230019390740 N
   0.7229591793222988    0.2777971684640135    0.1980486929511927 Cl
   0.9234154454055733    0.8866734774282632    0.3138057608352417 Cl
   1.3411166431825239    1.0228139705859447    0.7727528098251335 Cl
   0.5486914777401223    0.1853779729761178    0.7686776707109833 Cl
  -0.0258980946201234    1.3491936446090365    0.7545055550792580 Cl
   0.5859113199441851    1.7598871331640538    0.7313474497270788 Cl
   0.1661047576559572    0.1499894097567378    0.1818751281408066 O
   0.0876318101784336    0.1583244330007116    0.0341321344201281 O
   0.4176151841911361    0.1690115731015433    0.0871165471942724 O
   0.2426767088680916    0.4639644329854665    0.1035653873096263 O
   0.1419744414959937    0.6164623234296877    0.2110877693442385 O
   0.1640908014873862    0.4389303718683485    0.3015788226347527 O
  -0.0139057659514036    0.5588676561328636    0.2168685507485619 O
   0.3944546882525692    0.5509810838420072    0.2408965868987608 O
   0.4839730334209553    0.6797512802446855    0.1869555544184026 O
   0.7889062112200199    0.5446494416082256    0.2271670409562378 O
   0.7236399113704209    0.3921346140916002    1.0159448540418232 O
   0.2788142168419304    0.0061288158937226    0.2913898342058486 O
   0.1144932292607214    0.8291194743638330    0.2074513977741944 O
   0.0304926780998653    0.9633846826580190    0.0717581622925201 O
   0.2047102908828677    0.2829614496849251    0.3197812120684926 O
   0.2677055021527054    0.1438562059253139    0.4572188717203218 O
   0.3800441258670487    0.1786122991886982    0.3439795843190031 O
   0.9932216929429215    0.5652313414765991    0.6062538343447026 O
   0.0435663005786481    0.4298691907183230    0.4659495854190142 O
   0.4141223450795922    0.4390664787925338    0.4099877888629062 O
   0.6182104206816145    0.5671378302257403    0.4887816492249005 O
   0.5495684033042971    0.3782286673027753    0.4909013146988936 O
   0.7604871345254353    0.6357538014843442    0.3659810771329060 O
   0.7616382851177291    0.3893857730162649    0.6952232691677016 O
   0.2611672045987984   -0.1585506442650873    0.3351319926800524 O
   0.4872898185781322   -0.1324744191432766    0.5826006897009930 O
   0.6112440645472290   -0.0243907204750358    0.5424846370050733 O
   0.5002856919446066   -0.0050733027599403    0.3472623563950968 O
   1.0107966189320492    0.8647605678068979    0.5364170217746895 O
   0.9594288461173637    0.6643202340082905    0.4709315361386175 O
   0.8016937181545593    0.7927604626715620    0.5089375503919278 O
   0.7809521990900511    0.9127657241050509    0.6304301541536549 O
   1.1389838143257083    0.9693073174811740    0.6608663256490569 O
   0.3326262338774388    0.2517972364611408   -0.0313035431151832 O
   0.4634034809458963    0.0371381540860629    0.9548922893734576 O
   0.8647238578155124    0.3283001614761958    0.9404076374148213 O
   0.5038319120419764    0.6044583640959866    0.9850820818666232 O
   0.3773018755858579    0.6595908235653254    0.7605220694795484 O
   0.6088897423545968    0.4486153255588109    0.6826822737822633 O
   0.6682917882830911    0.6403443584508421    1.0225636282253581 O
   0.7605294944891284    0.6171039485599560    0.7793480107090716 O
   0.0104118258375193    0.8335383718127206   -0.0474679827773383 O
   0.1659806503939087    0.6507522657363609   -0.0649821839486587 O
   0.3184728039031084    0.7270804795090480   -0.0522647690307548 O
   1.1053633799839542    0.8754087984170711    0.7975504001428113 O
