Li1 Co1 H90 C51 N3 Cl6 O45
1.0
  14.1498479449999994    0.0000000000000000    0.0000000000000000
   0.0000000000000000   13.8092638488000006    0.0000000000000000
   0.0000000000000000    0.0000000000000000   14.2723522556999995
Li Co H C N Cl O
1 1 90 51 3 6 45
direct
   0.7826422244709146    0.5872771722806015    0.4788580049984760 Li
   0.5769250315148882    0.7743964878569015    0.5742495687441276 Co
   0.2840764428864681    1.0041755720095833    0.2457328732479485 H
   0.1245969906145165    0.2753597487914196    1.0218964517201565 H
   0.1692547143198294    0.2846433718290908    0.2730388136436080 H
   0.3919694750896491    0.2055059165696662    0.0737177802894970 H
   0.4971867188216629    0.1550745534191592    0.1121214008126031 H
   0.7312925560628701    1.1394434632203316    0.1586070808262135 H
   0.8883274590976532    0.3248859224881754    0.3071621306186004 H
   0.8536479344902247    1.1365287531792532    0.1629133086223677 H
   1.0098566802372801    0.6758575639215575    0.3139753032658188 H
   0.3192626867199879    0.3155023665348101    0.3187832002943268 H
   0.3669458846329673    0.3638916222776545    0.0598420016895884 H
   0.3830803336311046    0.3902290146239964    0.2372619500368348 H
   0.8053774511143695    0.5245182874125055    0.1632629356432400 H
   0.8561256996320323    0.6413727423398928    0.2833146250426314 H
   0.7487167715709329    0.4314991363509792    0.2288982270946459 H
   0.9974897628908761    0.4309933888993794    0.2917603246610569 H
   0.9826019703987710    0.5467514783603835    0.2297257010658887 H
   0.8432343950251544    0.4530997084934197    0.0418176427478266 H
   0.1482453012748612    0.7250745249009121    0.1813118175223375 H
   0.1340635234366824    0.8432039210701188    0.1374577990125272 H
   0.0076529777578469    0.7045238276945102    0.0756410792319707 H
   0.3937885759096756    0.8744228191026495    0.1944484047254120 H
   0.3627119168735350    0.7672143526550590    0.2558363234302694 H
   0.4063505483556629    0.7579415918908328    0.0249556710357785 H
   0.7052654212532600    0.9635991874799552    0.2442243622741249 H
   0.8972660710524688    1.0089260062628689    0.0378771570456510 H
   0.9163298801512315    0.8485119520269152    0.2729014851945279 H
   0.7777813948515897    0.8687556089706047    0.2132322740692289 H
  -0.0335729069490011    0.2140016627067924    0.4470207863074555 H
   0.0663907114232951    0.0019968786679672    0.4197532418251103 H
   0.0599136100186552    0.0009700317516320    0.6613931578118148 H
   0.1822103305718597    0.0066155173367868    0.4799386958140940 H
   0.1853206113445624    0.1772328670954230    0.5467156350967810 H
   0.0642698405760148    0.2271182199674273    0.5636279138631350 H
   0.4843518812526716    0.3109923506004406    0.3307132589804834 H
   0.6152277045970758    0.1377847107009503    0.5109085382115497 H
   0.4424032325953026    0.1906463264968882    0.3942423804424263 H
   0.5273152404606988    0.2517748565360441    0.6285856715887224 H
   0.7214344995987870    0.0924079254601895    0.5539287418191775 H
   0.6084219777529206    0.0346445277342987    0.5765568968852788 H
   0.7643035115032114    0.0934101512233827    0.7060473247341224 H
   0.1660228774705748    0.5525034142252995    0.4920831550381001 H
   0.0243761256616104    0.5578433078508679    0.5974583569008037 H
   0.5284103052317288    0.5502730274112567    0.5937574953291658 H
   0.4290143961402124    0.6299325959476050    0.5917080784232511 H
   0.5415927083730934    0.6724526032723274    0.6313686746486514 H
   0.4096346825866898    0.4367356935485074    0.6857619509700061 H
   0.6556246051306949    0.2959032044821914    0.5642260633375211 H
   0.7641798352625335    0.2382028079422817    0.5918334957313396 H
   0.1709501388991781   -0.1711731053502470    0.4329823155347081 H
   0.0314942233536489    0.6850615302872987    0.5884395212040745 H
  -0.0460684475857101   -0.0546223595883822    0.5750965909997037 H
   0.1052766416565192    0.0814942372542033    0.8451953757645232 H
   0.1874591502262253    0.2347399151680115    0.7622083545097069 H
   0.2339720175417051    0.2429199312236694    0.8728194136901947 H
   0.0279796979542737    0.1028023969955041    0.9365748468309788 H
   0.2433579841270867    0.1160941989343851    0.9520754451932175 H
   0.0010027296162581    0.2817894905193044    0.9991510770135904 H
   0.1674080513661661    0.1303621571801914    1.0494812529460908 H
   0.4623634470864980    0.2542862141565311    0.7902618941664299 H
   0.5459997521973371    0.1706829162080801    0.8351584878406850 H
   0.5707282864798304    0.3539910221083066    0.8508671808426014 H
   0.5033524387883449    0.1314150735527946    0.6809435441112115 H
   0.6586967229491313    0.0610203001134796    0.7548577792071599 H
   0.0043723771336965    0.1793307341734365    0.7778560904959603 H
   0.7179305750200412    0.1784928908150445    0.7870928300073011 H
  -0.0596707138961414    0.2360397672235981    0.8585884028265941 H
   0.6911627962091149    1.2228287915483196    0.0158660691484519 H
   0.1733183622278140    0.3452056153459800    0.8251692444808133 H
   0.0105038917858138    0.3142307563901806    0.7807694154514450 H
   0.3323412724913207    0.5395560911849380    0.6560303417441669 H
   0.0683101666786144    0.3717617014643481    0.9449686979533231 H
   0.1188054089439192    0.6325178170275181    0.8885750506007251 H
   0.7109679560305692    0.3035965906875127    0.6876446119020379 H
   0.5997010359816980    0.6348235156041130    0.7616849649614272 H
   0.3453230374342373    0.4915457839550118    0.7758466109451353 H
   0.4608559397208420    0.4456794722576624    0.9485245238670038 H
   0.5930416004622303    0.5088643030751155    0.7380378468162587 H
   0.5043930153413391    0.5962370995696114    0.9120687252237073 H
   0.6162467968202608    0.5248336554181924    0.9126923084873872 H
   0.3629281736143773    0.7118247237526849    0.7207877120389535 H
   0.3825524127637543    0.6639749609242761    0.8320083413760723 H
  -0.1893590333136262    0.5375783608512262    0.7935171389339100 H
   0.2249620267279840   -0.0326132211340966    1.0182292216054363 H
   0.2570712056934404    0.8565044128277558    0.0085007800835034 H
   0.1391660517663605    0.7237927766344004    0.7556046778128711 H
   0.4721680047424707    0.7296127827462384    0.7855331711927487 H
  -0.0988181310382272    0.6281772525588909    0.8088748036042492 H
   0.8110283952312817    0.8954999744953530    0.0018081201569064 H
  -0.0900505456562346    0.7305129031390485    0.7234740246602447 H
   0.2611489880289311    0.3231711315869893    0.1721045055357995 C
   0.4508276340774487    0.2185073337317839    0.1224392515327735 C
   0.4214673185733658    0.2403825041469143    0.2258013304368194 C
   0.4935398951808312    0.3108221749831354    0.0738242799030694 C
   0.3884033590298768    0.1481480437190559    0.2770360524293320 C
   0.7908062697983996    1.1123442634297129    0.1228722565405873 C
   0.3414650454464654    0.3196923074783331    0.2433303260443994 C
   0.8603243313226996    0.5004763106905638    0.3095969079683623 C
   0.8160729724081851    0.4646295845058790    0.2121925015261940 C
   0.9704096132320663    0.5021997914105059    0.2965542085825160 C
   0.8696325585567980    0.3828853936236045    0.1615456293743864 C
   0.2574768637628636    0.8664383239690019    0.2881134135515576 C
   0.1684865081848765    0.7769020522648846    0.1266347757832408 C
   0.1357752026076631    0.7433397997744831    0.0334609263591622 C
   0.2752339450386935    0.7919680255331178    0.1284354600390358 C
   0.3274846832002477    0.8281075334362396    0.2200384401629228 C
   0.3207475083294968    0.6934233083852698    0.1074284112618968 C
   0.7127912971788476    0.9619437770069352    0.0495507758728111 C
   0.8550550167484503    0.9737438267260344    0.2901943599483324 C
   0.7892656172002419    0.9961353172055846    0.1200275958096426 C
   0.7742810038797205    0.9472217757311274    0.2203201036146074 C
   0.1034123106684734   -0.0093911288117845    0.4893731602658961 C
   0.0641871541751045    0.0755149177985051    0.5503396347762552 C
   0.0989415912483150    0.2130428860373793    0.4281239713208237 C
   0.1081961076578905    0.1744369179106766    0.5260697741538297 C
   0.6466124941528479    0.1021166254653422    0.5672570283266822 C
  -0.0464211015519856    0.0818874515529128    0.5475336502207657 C
   0.0612203378415880    0.6279882490009476    0.6273644293094029 C
   0.1663352483184582    0.6213093991353905    0.6149305994248352 C
   1.0346689610027466    0.5471041401715649    0.3661503047413186 C
   0.4887703032910578    0.6128701368201784    0.6247734058160449 C
   0.8309996345759318    0.4285391668372132    0.3834670017771064 C
   0.0866107166920513   -0.1103132355409645    0.5276604720004956 C
   0.0963104675680669    0.1244834947917503    0.9107297728451763 C
   0.1716271779767171    0.2676149478251252    0.8307079250419261 C
   0.1714179884496278    0.0959685786954648    0.9789939231789725 C
   0.0064006674808123    0.2426990649969541    0.8182621840163667 C
   0.0741519255668581    0.2939574092324081    0.9672999853465915 C
   0.5340318497394284    0.2291183265844357    0.7842796987672167 C
   0.5489351194296527    0.1987213405759110    0.6822271447168988 C
   0.6993501633419849    0.2636277693192424    0.6224241084192821 C
   0.6967232799899886    0.1237238598021623    0.7329889243465080 C
   0.8016367748748977    1.1369118293560807    0.0201008300986563 C
   0.0702204345560549    0.5445232640010298    0.7890021158427258 C
   0.0330285154594288    0.6354730795561248    0.7337575432681451 C
   0.3832365190550462    0.5072590038902552    0.7099723960185440 C
   0.5561283416038857    0.5653426214373050    0.7774791379163424 C
   0.5431630432690137    0.5343189546661593    0.8817450622250480 C
   0.4164057800834551    0.6787708256595101    0.7639515850266011 C
  -0.1479402136713208    0.5926040311780358    0.6773912214742928 C
  -0.0763337904830044    0.6514884155234520    0.7388912450355422 C
   0.6470796369819224    0.1730972375191250    0.6516799726608082 N
   0.0874404075866555    0.2345596014288243    0.8825662302981189 N
   0.4615203284857631    0.5877094907637130    0.7242195219552510 N
  -0.0730023059198323    0.7198838064973216    0.2007683160045059 Cl
   0.4468646232933071    1.3187064584896353    0.4773526469737384 Cl
   0.4615308586342551    0.8875922394273833    0.5387897516843377 Cl
   0.6430230562876906    0.6835176391549809    0.4556607075895800 Cl
   0.8076184645954512    0.5500231951220215    0.9459496154467522 Cl
   0.6818142858566244   -0.1964184771395835    0.6862348933329095 Cl
   0.1739791467137211    0.3002915629539767    0.2033908689887241 O
   0.5012970810125550    0.2781216628527049    0.2720193601057941 O
   0.3343179721780395    0.0954761556326242    0.2308096148961279 O
   0.5723604594960896    0.3150150125329105    0.0383024548445878 O
   0.8503100894346748    1.0485950288840569    0.3325083379934589 O
   0.9048767535430925    0.3103985463187799    0.2015285270619135 O
   0.0502555557037825    0.7024129258883626    0.0203236385007352 O
   0.2696671007654422    0.3442265624328028    0.0858363152654625 O
   0.4321798011801886    0.3851295393173442    0.0514124171442692 O
   0.8773796382728549    0.3929054788008476    0.0721357005036662 O
   0.2391056416118965    0.9585685065717882    0.2893991161233023 O
   0.2190220335685734    0.8080087068051502    0.3424429302358394 O
   0.3036540384250751    0.8668242967520813    0.0594349209298153 O
   0.2953797445630431    0.6144806498962924    0.1391183521978324 O
   0.3925998705564182    0.6927013292769578    0.0469443379616992 O
   0.6363346451918356    0.9996416590736348    0.0481725867945430 O
   0.9227907269642394    0.9112727196890751    0.3060221643601653 O
   0.8819337508152990    0.9602007441947921    0.0913777984479851 O
   0.1650786977131718    0.2335950315469071    0.3785750261063044 O
   0.0885831760505183    0.0650683073506545    0.6516246208879648 O
   0.0136707102685406    0.2338144494704964    0.3993900953168723 O
   0.4136163508151394    0.1301941540175752    0.3636860998667539 O
   0.8584713078766586    0.3369553565887110    0.3737348989315837 O
  -0.0910102732838943   -0.0018179517659214    0.5588565209784896 O
  -0.0909092121272261    0.1574997370036491    0.5283789239988973 O
   0.2031102018036562    0.5693971460385469    0.5481944382836608 O
   1.0702665166766920    0.4993951524070035    0.4323867584851261 O
   1.0499235418886335    0.6406949364769241    0.3631381873811385 O
   0.2182771492390055    0.6673321275703482    0.6677312861300724 O
  -0.1425408623640160    0.5972349804234265    0.5902626264311479 O
   0.7845341175925973    0.4461757333237869    0.4561098977360354 O
   0.8298830148029551    0.5937662944366523    0.3311721882363378 O
   0.1232068696692981   -0.1818825828154669    0.4849884590702676 O
   0.0342539703242020   -0.1235405879907384    0.6001411662453325 O
   0.5897115293418088    0.3167797698919436    0.7973336086387021 O
   0.7425485074072998    1.1958396627952768   -0.0208447680431363 O
   0.8695675401902702    1.1122283991796327   -0.0289135150819440 O
   0.1090950572472742    0.5615668951878184    0.8718370948860605 O
   0.0627327215847336    0.4622758674391416    0.7576498907866710 O
   0.4801677373501981    0.4560889337303311    0.8856925544807482 O
  -0.2047853474937112    0.5315095362623411    0.7232624267438050 O
   0.1680080578137972   -0.0051845323823124    0.9885557667738500 O
   0.1791382127534233    0.7609714420304283   -0.0416864621570973 O
   0.0693822630049471    0.7190546529576857    0.7714436927103430 O
   0.7416757065088023    0.8958497397002824   -0.0153116927248431 O
