Li1 Co1 H110 Cl3 O55
1.0
  12.6276999669999999    0.0000000000000000    0.0000000000000000
   0.0000000000000000   11.6850709977000005    0.0000000000000000
   0.0000000000000000    0.0000000000000000   12.8854799092000007
Li Co H Cl O
1 1 110 3 55
direct
   0.4615448576329007    0.8003407510952038    0.4410439886326931 Li
   0.6380306789482656    0.4868544230514102    0.7224033190998100 Co
   1.1544129193436354    1.1587656165345646    0.1935568928883492 H
   0.0703537450067450    0.3047348620817871    0.1148722022796509 H
   0.1020795542235423    0.4302933632058953    0.1129723894537024 H
   0.2738717258517201    0.2073250987843247    0.2577694799111456 H
   1.0375032680327856    1.1433271138472030    0.1622565453000505 H
   0.2959018659981439    0.3898357570781232    0.1816302901476724 H
   0.1670478384038723    0.0986850228917715    0.0204996210045234 H
   0.3302501638776860    0.0165329332562914    0.0050105587882608 H
   0.4511003586073720    0.2200028137959971    0.0380111146850105 H
   0.4253458664314494    0.2520770733425391    0.1542964226874059 H
   0.3636822220595606    0.3561217984656730    0.2801923933017217 H
   0.5735343730391627    0.3068803347113445    0.1096593580182554 H
   0.5497699503189344    1.1021634786331187    0.2345433368331281 H
   0.4411492194190489    0.0480677865808908    0.0573170312479152 H
   0.6933962642747354    0.2686572036676466    0.0993406891803902 H
   0.7046200025936995    1.1111321875113642    0.1703757617155216 H
  -0.0077588964543063    0.4484926535689456    0.2292637507812785 H
   0.7058712201583622    0.4320605754037557    0.1609775863387910 H
   0.8611687014989718    1.1184577741523738    0.2118348306647950 H
   0.7622472824547748    1.0693010338884026    0.0756593050060894 H
   0.9154303644930749    1.0136659418869967    0.2713009898920436 H
   0.6897455598613843    0.4660192907661275    0.3092087747352956 H
   0.2583526685006484    0.5292375630509430    0.0749345357257980 H
   0.3062085727095895   -0.0175425978276339    0.2543904827525754 H
   0.2197787396558913    0.5812903062580422    0.1839468511302935 H
   0.2617206610971738    0.7999051525437698    0.2279948806953203 H
   1.1028199925475786    0.7207263439441378    0.2905350426201105 H
   0.2754721756606969    0.7114050484191522    0.3070319058722296 H
   1.0034669826345581    0.6400079640399290    0.3007333434149591 H
   0.3644630451726981   -0.0578149248073011    0.1547737040958856 H
   0.5225234999836292    0.6481867761343366    1.0309855393988803 H
   0.4589743182563850    0.8701888504486993    0.2635139302941811 H
   0.5687369831614878    0.7422957464791853    0.2045452302260146 H
   0.5644155311042955    0.9104145367190284    0.3205315970925622 H
   0.6644685893256463    0.7305234602836562    0.1245427772895138 H
  -0.1169270746342242    0.5160634881967723    0.2720134197017742 H
   0.7000388041053620    0.5624885377413388    0.1847570654237127 H
   0.8129128828152494    0.7287750755280975    0.0455386573674330 H
   0.9453407995673199   -0.1969659834803761    0.2886895545073223 H
   0.7690624586329309    0.8424012571971127    0.0382313625935089 H
   0.8509134689278447   -0.1588078926919022    0.2174814965641419 H
   0.2227872051800389    0.1647913392463785    0.3584277409258513 H
   0.2005139487093422    0.0845914842190142    0.5726238763782372 H
   0.2545562526747037    0.2521498157332501    0.5055499291065551 H
   0.1370526689755647    0.2708891113732252    0.4792094278297910 H
   1.0020969785922378    0.3860154978765500    0.5245402966927316 H
   0.6228513509232951    1.1166349354204403    0.3350463843816615 H
   0.3493027229841530    0.3814267367119362    0.6122871255238975 H
   0.5213395947563061    0.1300829493632679    0.6141271811653697 H
   0.4114280507992054    0.2675617888428228    0.5661506987715229 H
   0.3956215301722016    0.3837082804017646    0.4499687629375982 H
   0.5795869400307553    0.4381135981037395    0.3640084411020751 H
   0.5719632238946749    0.2001954887018187    0.5182479427741080 H
   0.6659106571644126    0.2997490130431747    0.4074697637649707 H
   0.9883810999720120    0.3984364750386543    0.4123737332286833 H
   0.8971926806233407    1.1487528404014087    0.3774041393000723 H
   0.7364500271468953    0.1982742337942175    0.4480371313510844 H
   0.9152323870303118    1.2439683508778958    0.4586351068213266 H
   0.8797389875061480    0.0487579834998130    0.5330328014943470 H
   0.7219659959711489    0.4466372947094002    0.5392071931786796 H
   0.8224981596523864    0.4730539078442932    0.6160642452231995 H
   0.1515002722981627   -0.0253458024481234    0.6287009495716144 H
   0.3146202391474669    0.5583653278772752    0.5889810475108013 H
   0.3271585478191778    0.9642096741318629    0.5450610690553666 H
   0.0437247309441083    0.7069472235578182    0.4751482674873937 H
   0.0206664700762604    0.7777906099748061    0.5809704805216507 H
   0.4674833896059418    0.5817815313435492    0.6649169076335887 H
   0.3840699411749019    0.5017820174181311    0.3919786837736479 H
   0.4430284214955961    0.9436364144531396    0.5787222134641454 H
   0.5618370726292692    0.6619641849349924    0.6184017600237538 H
   0.5801016814339393   -0.1637732027025491    0.5849152307644188 H
   0.6664467801335749   -0.2461107426447006    0.5191241227906503 H
   0.8334280994166100   -0.0779594322772456    0.5606848565602666 H
  -0.0285054299231593    0.9372693157838509    0.6446499092881454 H
  -0.0148166346198396    0.5705312787754753    0.5958368263116300 H
   0.8262264712311406    0.8232195166630484    0.3942867080156294 H
   0.8752330204536606    0.7499670734242799    0.4836454286929943 H
   0.3213823573656024    0.4365594783210206   -0.0568714980399591 H
   0.0069906620944980    0.4673620297193686    0.6709151320338159 H
   0.1294772593403984    0.3033193807378350    0.7741576972602898 H
   0.2817852809932857    0.2095193516053000    0.7916487027632422 H
   0.2198215027878481    0.1174400651198535    0.7164609715474050 H
   0.0347200903288614    0.3796860540918645    0.8346870687308183 H
   0.1990180310007044    0.1120574705243753   -0.1029978359170325 H
   0.5418548113576668    0.2891662788839779    0.6773704600919203 H
   0.5242680773854974    0.3182829184034954    0.7965161970624044 H
   0.7750738463122688    0.2473719243527878    0.8753685182145687 H
   0.8893210967038808    0.3970158589377109   -0.0888408156674603 H
   0.7129303045706423    0.3285806735496717    0.9361578722409358 H
  -0.1968790851063147    0.0494432168203102    0.7402815822008624 H
  -0.3106258484720616    0.0735279656468595    0.7793627808483766 H
   0.7717897961599549    1.0230625471811889    0.9015452692845209 H
   0.9753621020207124    0.4042216345822554   -0.0110159300546232 H
   0.0889756635362098    0.6801300993775989    0.7988715614115683 H
   0.2297900639928944    0.5668188494707206    0.8637895936381178 H
   0.2824940403099775    0.5513632309267213    0.7164920142406395 H
   0.0761373002219352    0.7780653194738439    0.8815692961881506 H
   0.1450762995864265    0.5091726443143646    0.8005478668462289 H
   0.0338753759289409    0.8499510615600784    0.7306583472981819 H
   0.2009772159722078   -0.2388818605936950   -0.0039816557676962 H
   0.1861249467157221   -0.1049999183865891   -0.0305380589759059 H
   0.4653618631149727    0.9211632946876125    0.9426923591667882 H
   0.5312717281082040    0.9145309002404368    0.8335928137943038 H
   0.4888380306494179    0.7150455911260277    0.9317110064351004 H
   0.3760059231616363    0.5551389889010362   -0.0398670091467236 H
   0.6153361264368089    0.5921674331514104    0.9029189084601454 H
   0.6669757759140778    0.9567300447811125    0.9416679502900511 H
   0.9125715699307760    0.6745032615078982    0.8744993228040040 H
   0.9051513746264163    0.5762830623986325    0.9521370985833704 H
   0.7463275187190707    0.5968640242128428    0.8741966565449681 H
   0.3267443789670775    0.6594045085747986    0.4450710020125325 Cl
   0.4090697432627716    0.3039090219990097    0.9004820570412410 Cl
   0.5709701689414554    0.9781762131483671    0.6840640408205992 Cl
   0.0349875895574483    0.3817091483464611    0.1185608503032347 O
   1.1054016186620093    1.1762922537317464    0.1337756503247709 O
   0.2367327376570698    0.1424166356565192    0.2825198192269748 O
   0.3414865727542669    0.3276358782632611    0.2070728815226299 O
   0.4684804041084167    0.1987791515650347    0.1115195914103300 O
   0.6021484516872351    1.0629510510757518    0.2792968116019078 O
   0.6452394343223946    0.3347209871185086    0.0905751638917778 O
   0.7621839296666907    1.1372338688841204    0.1250177304960009 O
   0.9201818235993887    1.0951630932682288    0.2595947902733314 O
   0.7416663373357768    0.4914645790368213    0.2024614894426520 O
   0.2245650427956513    0.5106137994432735    0.1403807593777316 O
   0.2318331914086093    0.7222855984838480    0.2428332880613887 O
   1.0331873593445506    0.7166228173152077    0.3277932591074316 O
   0.3917997732310233   -0.0196895253050055    0.0386804727578784 O
   0.3397269490652288   -0.0863162492806871    0.2270333332723830 O
   0.6030876567705831    0.6909943893784888    0.1494234959169277 O
   0.5225266676230335    0.8427127657879220    0.3040681047356702 O
  -0.0417487759352621    0.5006147159954281    0.2817375433574666 O
   0.8881886656168760   -0.1403638455789303    0.2798711014267452 O
   0.7765586772829918    0.7837092732001826    0.0921311788901547 O
   0.1909310476017584    0.2070127344006835    0.4841917800939207 O
   0.2221489258400908    0.0215522437946308    0.6208937122231495 O
   1.0131678783099487    0.3382194682152898    0.4628623455725282 O
   0.3497485682302955    0.3249118896793436    0.5559438612360348 O
   0.4209895703408107    0.4253314763665759    0.3885965823457542 O
   0.5157368325601112    0.2029254678355595    0.5736801040155395 O
   0.6570903652433920    0.4322779467830566    0.3759994574312133 O
   0.6588872086954298    0.2165334296555003    0.4343131566721328 O
   0.8799844795599744    1.1709692223173678    0.4529147145255478 O
  -0.0420870006326466    0.4942912627605660    0.6190070925418256 O
   0.7437997424745116    0.4539406307367806    0.6083788504456799 O
   0.0421706316187137    0.8920663384032285    0.6651869790647285 O
   0.3334273062001077    0.5235328480335399    0.6594883166542138 O
   0.3973447260080915    0.9383390568237180    0.5202711503056634 O
   0.5889417711012360   -0.2393782204361933    0.5414601166401700 O
   0.8665220120920855   -0.0079913507687185    0.5949932411229839 O
  -0.0045686084283570    0.7094769471688959    0.5392770392384572 O
   0.8071636172966098    0.7907926704697663    0.4642072702569109 O
   0.1984462720882447    0.0616907247753898   -0.0382407600549037 O
   0.2110178409736998    0.1769418858736046    0.7736749833804940 O
   0.0856138478365226    0.3712119934704536    0.7737122346123753 O
   0.5799995250631536    0.3280980063924837    0.7377523787695852 O
   0.7785131107953889    0.3265507329524199    0.8973157023313268 O
   0.9604029249343345    0.4401375481511680   -0.0799695900083845 O
  -0.2364745776589293    0.0904333828273698    0.7952395663031375 O
   0.1894042454089296    0.5786818497064303    0.7989072605087880 O
   0.0360328836359024    0.7381246122165357    0.8247301248758677 O
   0.3064113016314589    0.5214986284721288   -0.0467548395283171 O
   0.1525701425069343   -0.1818056134633801   -0.0255169033452331 O
   0.5326591541672476    0.8843419523025565    0.9084445078558782 O
   0.4874347663933533    0.6363913835323465    0.9636772197932783 O
   0.5429880343545226    0.5995186935773769    0.6714529466941027 O
   0.6734765638813661    0.5636156169009428    0.8544224609546217 O
   0.8621981843053399    0.6455517900049360    0.9284748056654087 O
   0.7405156923221978    0.9789892163386662    0.9661295925587999 O
