Li1 Co1 H90 C51 N3 Cl6 O45
1.0
  13.2423441133999997    0.0000000000000000    0.0000000000000000
   0.0000000000000000   12.9236034584000006    0.0000000000000000
   0.0000000000000000    0.0000000000000000   13.3569915812000009
Li Co H C N Cl O
1 1 90 51 3 6 45
direct
   0.7670180195001849    0.5112911619789102    0.3163980275729366 Li
   0.3926492553639729    0.6661752859342127    0.5427057991713394 Co
   1.1606077008562143    0.2166474109339963    0.1435200268672907 H
   0.1522537504035860    0.1466235973039208    0.3190528169979677 H
   0.3070246869121812   -0.0061534517873427    0.9684355726334803 H
   0.4788196486288116    0.2871540620342932    0.2650795854048075 H
   0.3862938851002717    0.0436066636533717    0.1939655179723667 H
   0.6159594166674874    0.1265394156098986    0.0948084591430303 H
   0.5790967588313993    0.2539055952747601    0.1213234118437927 H
   0.4588459190734565    0.0321245719536646    0.3143182179218547 H
   1.0044623853219616    0.2606320474039840    0.1558596318597790 H
   0.8619687313403689    1.0524893674572697    0.0406735144884468 H
   0.7531141367417171    0.1561758866787361    0.2976363177615207 H
   0.2810036141286006    0.5208371063741489    0.2384111550300091 H
   1.0378031591471359    0.5066984026768272    0.0715442384455068 H
   1.0190730915793391    0.3753051728035989    0.2267213969695363 H
   0.1749717826057230    0.6574385585683934    0.2306189812184681 H
   0.3946254915783391    0.4903766391161465    1.0289701619595717 H
   0.5333291821236837    0.5241799820774358    0.2560730662894310 H
   0.5777221532597483    0.6457839143753219    0.1596741135632573 H
   0.3685122900908409    0.4891320945855306    0.3355475492631360 H
   0.6987408329041135    0.3660979884155124    0.1697991480201443 H
   0.8855627413830350    0.6162712477860284    0.0447724913925770 H
   0.2040308371586558   -0.2154070093345816    1.0140012223757946 H
   0.1830828843170364   -0.0822645769209962    1.0606764034006517 H
   0.2788846539384930    0.7489254262834122    0.2179896403242632 H
   0.3397711550817552   -0.2069209860398389    0.9512505651709409 H
   0.4798703689454601   -0.0838190969172704    0.9858077479911856 H
   0.6351259628489273   -0.1288096447835529    0.2717435111442892 H
   0.6898685366555126    0.8656065055856309    0.0702071110024426 H
   0.9493082529609896    0.8105870210982890    0.1236847220092040 H
   0.9221227337721541    0.7267257355451822    0.2103891264373720 H
   0.9061338727225646    1.0005580309565527    0.2862385416175064 H
   0.2181182221716483    0.3044975220624106    0.5154375181526822 H
   0.2707508976278556    0.1922803680257494    0.5694815141836469 H
  -0.0007954365563829    0.2664067525967135    0.6212009448503791 H
   0.0688870903510892    0.0531697859201470    0.6069582166998453 H
   0.4773096440685339    1.2597133053179845    0.6398293911204370 H
   0.4591516806489999    1.0590672542110409    0.6032410623018533 H
   0.5429838927176055    1.1412772975182297    0.5430188187592146 H
   0.6351546586747377    0.9908424744243389    0.4895625448925022 H
   0.7157242308640277    1.1383733086949261    0.5574083614067165 H
  -0.0577347513440883    0.1989333112452440    0.5170565878263084 H
  -0.0438610747180525    0.2710942997034475    0.3799123297900667 H
   0.0938094150674542    0.3860374736240677    0.6494707837362157 H
   0.1065186452882349    0.4951703485640894    0.4420779001546324 H
  -0.1594825981347919    0.5168598874687985    0.5971977853027411 H
  -0.2891280736864166    0.6384926043081786    0.5366898486849215 H
  -0.0336279922033883    0.7204225399803993    0.5625967303278695 H
   0.1848340848447839    0.9293015889770176    0.3961929419831653 H
   0.3711349375392527    0.7708860196205229    0.3882121029332972 H
   0.5602568919722120    0.9081078096350823    0.5669727157168449 H
   0.0145560750988904    0.6785874587864938    0.3734572834215900 H
   0.6913833741969794    0.9090038445557819    0.5805085481609167 H
  -0.1322449733675111    0.7908022914891636    0.5097017055983168 H
   0.3002486962543638   -0.0115466844274774    0.8312654629675585 H
   0.1411175045292038    0.0682971457644272    0.8484849093228085 H
   0.0429777802575073   -0.0035496888269334    0.8946786945212991 H
   0.1411960404735271    0.0599217727232769    0.9770101082468142 H
   0.3688128411085396    1.1925594342793380    0.7677144758429758 H
   0.4725401712728460    0.1885089740676409   -0.1122988062305300 H
   0.5823307028849045    1.2247060411709296    0.7211635743005090 H
   0.5955936870284956    1.0562058231775806    0.8019766820604394 H
   0.7706601239181781    0.2748494443236159   -0.1143202194983203 H
   0.7046113947422804    1.1729851722854374    0.6971686501402583 H
   0.1260605026651429    0.5917935546241890    0.7839861039771064 H
   0.2198716881593282    0.4904732066101908    0.9176546766602673 H
   0.2484557512797672    0.4469292367095800    0.7914743171268983 H
   0.9741074876876942    0.3428900649469961   -0.0529149251239179 H
   0.4028589281260023    0.3603186405548000    0.7974120314331369 H
   0.3903603856789351    0.3708273195340925    0.9672436874770648 H
   0.3496485603870322    0.6154371151051008    0.9138289648830792 H
   0.5300407160011387    0.3830313461051404    0.8029694205763986 H
   0.6026762699304981    0.5266016750751158    0.8745027440940107 H
   0.4635822406388003    0.4603108760144902    0.7169770028214413 H
   0.5106428134998686    0.4159179168954066    1.0067840283382030 H
   0.5339432727960270    0.6332494845994910    0.9263692138591851 H
  -0.1063771967060232    0.4198733152612373    0.7538932497923554 H
   0.8554321242820755    0.3977409432087593   -0.0426918146899640 H
  -0.2197581802496161    0.5552990891666122    0.7096003417371682 H
   0.3761816271153358    0.6059591084180119    0.7854055852940436 H
   0.1790307316512783   -0.0965547089723602    0.7480221672567957 H
   0.0764658089782879   -0.1674405112912606    0.8208679120553101 H
   0.2085141823648813   -0.2138091577704671    0.8125958397605640 H
   0.0848011912229092   -0.1613067731078535    1.0000699416028167 H
   0.5313076367106695    0.6073797648207792    0.7946711447763295 H
   0.3620126855447768   -0.1741716060884674    0.8265099010871868 H
   0.5317181380504209    0.9585364692653343    0.7403961985361619 H
   0.6630115091568755    0.9370741889583881    0.7480640928653128 H
  -0.1613312134396328    0.7998988256236577    0.8296168881469383 H
   0.7201751044778887    0.8023168818647510   -0.0386063138742858 H
   0.7817065065485749    1.0667253350488333    0.6571918337475937 H
   0.4684006473690282    0.1551088468206664    0.0338643464623164 C
   0.5501071783830601    0.1710842673498228    0.1188587850002500 C
   0.5124406598476243    0.1447007589810033    0.2260812827680694 C
   0.4611458139968320    0.0363880887179605    0.2360386147908879 C
   0.6075394572520564    0.1521661690975054    0.2970733167328620 C
   1.0140792627350121    0.3444894640671050    0.1517778744020041 C
   1.1213329323147658    0.3592655287006790    0.1006361187269114 C
   0.3384798429202855    0.5514425796288173    0.2874206940433734 C
   0.4117546341272380    0.5954821543366026    0.2094248374414780 C
   0.8388572642633046    0.3966802483302663    0.1613443998597165 C
   0.9318068198298660    0.3967994875196271    0.0966352177998481 C
   0.1623010652037932   -0.1424590886532768    1.0043875306085004 C
   0.2269338819219390    0.7086835539856383    0.2702079857323493 C
   0.5319541989753773   -0.0463852649711535    0.2009274150009524 C
   0.7180289587685923    0.6719902275827940    0.1495662985527255 C
   0.7506666848614111    0.8314767056873441    0.0321266797235975 C
   0.7997154027045570    0.7442579974046042    0.0897833754936199 C
   0.8835427062766423    0.7858199349655155    0.1606848201971523 C
   0.8547728754417462    0.8675633901404229    0.2348676924387309 C
   0.2103031405581688    0.2871617998142647    0.6841005876997849 C
   0.1061085970404700    0.1783794463069518    0.5556254000373675 C
   0.1264486514668946    0.1150650616901630    0.4626424111322850 C
   0.2036321162105529    0.2466622594434401    0.5772536235968261 C
   0.0079356460230982    0.2457731885247148    0.5420373103169654 C
   0.0207158606550941    0.3421712251876439    0.4823471476667041 C
   0.5232166220774234    1.1090958706167662    0.6155776726080190 C
   0.3005817188644271    0.6431344985130807    0.3440928866848240 C
   0.2247779192196022    0.5915064829872465    0.4229287528002234 C
  -0.1230109586830366    0.6437968524786410    0.4402208951659558 C
   0.1717888114006968    0.7892663421648211    0.3339940557332602 C
   0.6289729736725209    0.9575119871971078    0.5656203902406933 C
  -0.1070069945672312    0.7117074783985001    0.5286079389716640 C
  -0.1762847593001140    0.6837415940255093    0.6158359643033477 C
   0.1200064385724514    0.0174506460157143    0.9102518120706711 C
   0.5085004209025270    1.1970071102069555    0.6915783194474474 C
   0.8634352390699443    0.2425720689505058   -0.0041651751490437 C
   0.7115739082678655    1.1124207946705194    0.6358239981638897 C
   0.2483341715967282    0.5155704638143480    0.8429769325038705 C
   0.3551234218903393    0.5626871214833993    0.8497381855488384 C
   0.4592358047278230    0.4216157859330191    0.7879360952366846 C
   0.4324254457037934    0.4364581633409489    0.9757673134229136 C
   0.5351359619351062    0.5701888991657673    0.8714691268491640 C
  -0.0581236552991508    0.5584653887309495    0.7164926123087523 C
  -0.1558102875843667    0.5791825208266405    0.6593959228810657 C
   0.9055803453457476    0.3511091348327222   -0.0072983657141185 C
   0.1582398506983054   -0.1433798844698851    0.8148104102961654 C
   0.2904732366460450   -0.0512685779111664    0.9003858179806935 C
   0.3637895612850915   -0.1411514038380935    0.9000361883525239 C
   0.6049462607827658    0.9947624337579002    0.7444165649243225 C
  -0.1584419968725082    0.7702522954408570    0.6960433967545219 C
   0.8255839345193556    0.9107255005994404   -0.0044032527116945 C
   0.6179968203000284    1.0448560475153863    0.6408513278280421 N
   0.4456883543320533    0.4927737259735171    0.8761969878810512 N
   0.1846845644892453   -0.0841270605601360    0.9050814861346120 N
   0.1696940161165348    0.0841031089122077    0.1855841396268439 Cl
   0.5981596979785972    1.3954571793579877    0.2706931249166190 Cl
   0.8787082147808943    1.1411836703805747    0.3632528897771527 Cl
   0.4871165180545821    0.5240848847615861    0.5316902947364118 Cl
   0.3731519520324022    0.8138043900104381    0.6329573346815308 Cl
   0.7568513904768712    0.3744872894606114    0.7855336081343369 Cl
   1.1803315501810256    0.2822042041865254    0.1074437894098805 O
   0.3862606583545966    0.1160438908565576    0.0424081865408431 O
   0.4419410570578656    0.2202679181826605    0.2615436095293359 O
   0.6965984629613711    0.1560915448770467    0.2478975726285906 O
   0.9098530027782596    0.1830507440757456    0.0486116792582171 O
   0.8202140393262498    0.9926043669238491    0.0522150355759483 O
   1.1469907763558509    0.4437109392638342    0.0565071697478895 O
   0.5109337514159210    0.5942479784311485    0.2278107141194010 O
   0.7504854480668188    0.3817267564019457    0.1140590514966192 O
   0.9614458321254941    0.5014631755037106    0.0800596290039683 O
   0.8443502494460711    0.4107914829086892    0.2514605006809660 O
   0.7489645692988657    0.6164592758393358    0.2148953806813828 O
   0.3811210849212850    0.6510417358659553    0.1406773208755131 O
   0.6251647355261515    0.6866053463929610    0.1111676818520985 O
   0.5382616925191737   -0.0822042222372186    0.1162189690068321 O
   0.5759982892818517   -0.0880594003416517    0.2825356119795470 O
   0.8450736863178183    0.6775521438263074    0.0184806428228521 O
   0.7736830026213144    0.8718532153566220    0.2819089738665321 O
   0.9285279441543680    0.9351799804213652    0.2506436999864626 O
   0.1519464030060900    0.1769580161261875    0.3890528611183818 O
   0.0950516422637219    0.1147648358272688    0.6431512469238388 O
   0.1171496935976912    0.0196667461995516    0.4606322279382047 O
   0.5919580014136442    0.1624372982316729    0.3883895380979144 O
  -0.0157029180649052    0.3439516883590857    0.3941692827006331 O
   0.0648938396435736    0.4252555602538124    0.5180512953485247 O
   0.1503968284123264    0.5352225678747617    0.3901032473460521 O
   0.2425383699363307    0.6073155412470157    0.5114582014272895 O
  -0.1957563874191175    0.5846446197085213    0.4353319948770680 O
  -0.0513861774601844    0.6366819637948479    0.3697985254068897 O
   0.2214227730597134    0.8738480150332743    0.3603742475495033 O
   0.0841555351421744    0.7748028838420956    0.3609439866223878 O
   0.3830580531634896    0.6983118337118415    0.4013482944876111 O
  -0.2841818195006701    0.6878163089585004    0.5898398410079848 O
   0.2643177465731420    0.2598636858528141    0.7532733497235663 O
   0.5086442776082345    0.2067144227845833   -0.0465616980904113 O
   0.4434809656892509    1.1773438637433828    0.7727814851009033 O
   0.7822857091379594    0.2146920739351985   -0.0599404592368599 O
   0.1416181711742649    0.3661622119892759    0.7037307565447699 O
   0.1971068364519216    0.6022875318215357    0.8068348119473620 O
   0.0094074398258493    0.6254513499442146    0.7246696033127541 O
  -0.0396737496096610    0.4613647925977283    0.7493869955483445 O
   0.4626606515382988   -0.0947634129089582    0.9130271376201889 O
  -0.1793801327210872    0.7377868920144396    0.7880109623947510 O
   0.8710403880630211    0.9021868604008916   -0.0872624799015771 O
  -0.1301116652644983    0.8591624824253669    0.6755327901306770 O
