Li1 Co1 H110 Cl3 O55
1.0
  12.7663056224000009    0.0000000000000000    0.0000000000000000
   0.0000000000000000   11.8133300574000000    0.0000000000000000
   0.0000000000000000    0.0000000000000000   13.0269150393000004
Li Co H Cl O
1 1 110 3 55
direct
   0.2460400764406503    0.8122136588141476    0.5130340529233330 Li
   0.5669543739028323    0.4948543721622403    0.5937960750003983 Co
   0.2809891065827097    0.3672925422059155    0.2195908249244031 H
   1.1192104618057777    0.3186542668671107    0.1438230781461116 H
   1.0459081277023212    0.2415447646713780    0.0789691202096977 H
   0.2343867442707730    0.2736517148841514    0.2968155551821094 H
   0.3356572322443290    0.4151418782740223    0.0723359304069458 H
   0.4188191141075654    0.3334231761545229    0.1322931035092254 H
   0.6004566268372716    0.2719688701736925    0.1192209371915467 H
   0.5146855328037145    0.1078121090760679    0.1533871230196778 H
   0.5382522567173349    0.2730617034338547    0.2340424429346573 H
   0.6594149521557048    1.0040427187819139    0.1152645131383835 H
   0.9606681191840679    0.0789960175636868    0.0737584467850825 H
   0.9417276357621660    0.3868949742783980    0.1305636073136925 H
   0.8222349614427166    0.3737259525678306    0.1275421705513234 H
   0.6724719793748810    0.4247048041764637    0.0348694313526749 H
   0.8399832440470778    0.3619959831750599    0.3069077373759271 H
   0.1875783709108644    0.8938959613750206    1.1485114453086935 H
   0.1269069423151898    0.7884760675814079    1.1050782918496376 H
   0.3124751145077208   -0.2294587519462394    0.1997442227764633 H
   0.4919060374194164   -0.0045100721846526    0.1865983628792146 H
   0.4827828029109428    0.5094768367137826    0.1857562602043369 H
   0.4183804594046595   -0.1985038900890669    0.2672406328894787 H
   0.4706187513369678    0.6378783960226101    0.2082243579171878 H
   0.5887696122527070    0.5951385421840453    0.0688631972338559 H
   0.6205618951577826    0.5974046263338936    0.2856340897652729 H
  -0.0331135883241159   -0.0088186794742725    0.2732904151873016 H
  -0.1343409158081539   -0.0057108343686495    0.1965485314040694 H
   0.7276751071116516    0.9213395355767688    0.0480746222578920 H
   0.9297194632701166    0.7979932824102252    0.0501129406103104 H
   0.9657909794644335    0.8476219643442195    0.1463278922100370 H
   0.7393621216962163    0.6446774949735182    0.2972615548667985 H
   0.8532525488099817    0.5408744187840184    0.1830441829478709 H
   0.8869349634974002    0.6727212386419240    0.1768331959447386 H
   0.9292808085672107    0.5884935064812777    0.3163650800874077 H
   0.1819353914827675    0.4475214019258136    0.3398510703680689 H
   0.1167005440153264    0.4386830811904510    0.5010196965290651 H
   0.2307709762196771    0.3569559140573175    0.5766300768093164 H
   0.2607365756119375    0.1225427565018539    0.3779138042159627 H
   0.2680182436801757    0.2331186900999961    0.4518445849951817 H
   0.0944092869816019    0.4739694905241918    0.6135167839499061 H
   0.0198453506201092    0.2935504224338273    0.6422664916796438 H
   0.3033228974563766    0.2648117011460620    0.6311003790918843 H
   0.4270321401075093    0.2567428501500390    0.3654396305908362 H
   0.5462420388059783    0.2372987138325141    0.3959994368687614 H
   0.3978122537101889    0.3804293968646734    0.5380676083749638 H
   0.4786249829769703    0.3756348131423199    0.4498602318369693 H
   0.6279250276708462    0.2271584740002272    0.5520087448184052 H
  -0.4111594492607187    0.0263493043187272    0.5128252544478847 H
  -0.2745960571905037    0.4413275514497435    0.4773947631452562 H
   0.9169828106464556    1.1284699541895320    0.4624533898874431 H
   0.8485683432325222    0.3048977732103368    0.4247652650690301 H
   0.9048336419999006    1.2069490955912618    0.5619074813658518 H
   0.7144379181394961    0.1803926596772850    0.4793491782867683 H
   0.0589529840081106    0.9912266881398885    0.4065099836549296 H
   0.1011818806008784    0.5539714878786961    0.3738821513003217 H
   0.2689151358852244    0.6087079590395056    0.4240851347409155 H
   0.0456220090938499    0.7842181657234563    0.5719843107305925 H
   0.3887446343515480   -0.0266442205348214    0.3477002042337254 H
   0.3362024173750835    0.6940327569671311    0.3734246369938248 H
   0.5089626555547313   -0.0527532853371540    0.3702934275035546 H
   0.4365509471605676    0.8890116485081455    0.5667850751636397 H
   0.4815404701273557    0.7094060682280180    0.6001122288827085 H
   0.4381207043473953    0.6603335376897839    0.5065574619771673 H
  -0.3765613428809840   -0.1006762670238775    0.5340712669662002 H
  -0.3218595348046773    0.5594017941249704    0.4335455480182115 H
   0.6781650907690242   -0.2552084769198045    0.4924374650749780 H
   0.9399181851126792    0.5034717560417530    0.4108164522110502 H
   0.6854921909314921   -0.2769787989839797    0.6108292712199633 H
  -0.0505907666558418    0.9286702373838983    0.4398655401077909 H
   0.9413281466577338    0.7072127831954230    0.4749229576638465 H
   0.8590960561022641    0.7948231348042551    0.5241295424973379 H
   0.2353337684418681    0.4876667290855271    0.8704947399664124 H
   0.1852644673530356    0.3703975092069029   -0.0011470851122403 H
   0.0084284220026194    0.1978839173494233    0.7331053431214496 H
   1.0503573396889383    0.1190919936939135    0.8897625404581462 H
   0.2540149756018737    0.3044779085340855   -0.0791637142937423 H
   1.1559242938150640    0.1476449079324104    0.8128602196110586 H
   0.6025966351378770    0.1426988004660065   -0.2286856843168664 H
   0.5936778450534362    1.0104422690892927    0.8636627310271122 H
   0.4742674184907817    1.0202278248503107    0.9963956148129968 H
   0.6041507260853151    0.2936833231478827    0.6823696165118811 H
   0.4819274262402762    0.2007916495327363   -0.2351668811117552 H
   0.4062728062924868    1.0816245687384294    0.9068962977081662 H
   0.3914266945350299    0.4889694946838149    0.7143626093841519 H
   0.8420903532449651    0.4354189719331426   -0.2307145606794024 H
   0.7648440433752026    0.2471773847435074    0.8435505249361390 H
   0.7323459963856300    0.1371313609988598    0.8887185480809048 H
   0.8767362416548377    0.3122733395897270   -0.2759071483506915 H
   0.8967733618340044    0.1513001008196143   -0.0139782887775543 H
   0.7046692345681752    0.3037363733397384   -0.0185754631522493 H
   0.7096542319419132    0.3623134211863386    0.6828371101572782 H
   0.2562239153557929    0.6206266982363168    0.8538599496613973 H
   0.1647518768083977    0.8040389951476985    0.8746630330608391 H
   0.1152916791070289    0.5453888105550833    0.7600434170200920 H
   0.0690802677990571    0.9572819834671523    0.8040323428917383 H
   0.2386659775600141    0.8156487613468650    0.9649223152049853 H
   0.0947733703850139    0.8269808750988330    0.6753886851305334 H
   0.0741435963697425    0.6414286227407511    0.6797604032102317 H
   0.3397414208531709    0.8494546397960019    0.8281976958590602 H
   0.4394178689688456    0.9298214792381359    0.8386069139733197 H
   0.4859505165154990    0.7396989660190040    0.8558174353687250 H
   0.5707894693053812    0.6528047545636164    0.9028815329045099 H
   0.4812851104253069    0.5656176536364892    0.7639890940929013 H
   0.6380164357735908    0.6563719113090257    0.7527032294383407 H
   0.3650619802664454    0.8522218527529888    0.6689013472040138 H
  -0.0148241938112415    0.8663161004537634    0.8241522253972500 H
   0.7058606520737464    0.9592289366029950    0.8295564212323817 H
   0.9397771889581736    0.5914698052750268    0.7607772822499764 H
   0.8479181942978580    0.6550852292366427    0.8172357758980259 H
   0.7360675115526052    0.5920022546326117    0.7083696325539142 H
   0.6902280950989369    0.6405863538841583   -0.0064832679145606 H
   0.2295396098036626    0.9537182127271966    0.3759071894555884 Cl
   0.3125730285039052    0.1942050224240440    0.7771188335196192 Cl
   0.8196515985673886    0.7997683957692957    0.9142272735924711 Cl
   0.2145532852036698    0.3370267324585587    0.2526339513055459 O
   1.0615978664509025    0.3211514458891698    0.0910010555932589 O
   0.3827021658190191    0.4110465046778454    0.1325610103766204 O
   0.5500309188023281    0.2396130485600767    0.1679416049847485 O
   0.5152197515668964    0.0294261674744495    0.1261481336711246 O
   0.9709608384629675    0.1225231176702228    0.0086305943779335 O
   0.7000100949737389    0.3492603701625583    0.0495355974728668 O
   0.8821332611245195    0.3910860025286404    0.1746154797845546 O
   0.1984899066456490    0.8203400719028825    1.1123171507594802 O
   0.6337701015870675    0.5866980770894854    0.0050341941666278 O
   0.3788044054589122   -0.2624274405469639    0.2293966768559333 O
   0.5249484862277740    0.5784159077498831    0.1859681292456005 O
   0.4565802342200396   -0.0533500687983580    0.3150739071620253 O
  -0.0558005745648191   -0.0109543177640193    0.2009985489120607 O
   0.9724726305640540    0.7772269109630541    0.1073285590242960 O
   0.7309039190498269    0.9924795101577351    0.0865154962859542 O
   0.8539575295825090    0.6138233667785915    0.2225569915020947 O
   0.6694554449804333    0.6391608455881760    0.3306624021654372 O
   0.1117341894664620    0.4062485349500382    0.5676517423650408 O
   0.2963247883210883    0.3122369400311004    0.5672564070163060 O
   0.2869438441746576    0.2009787263340499    0.3813735642484823 O
   0.4966701408177625    0.2854841109418946    0.3536709194618014 O
   0.4578969816407268    0.4277107305179322    0.5058435554250832 O
   0.6402480915746246    0.1742250507434806    0.4902627368362098 O
   0.6509865153641552    0.3482682705646419    0.6312093841783316 O
   0.8334112566231838    0.3793272520895138    0.3838868223684002 O
   0.8740416484798442    1.1955805822806671    0.4914863573136529 O
  -0.0176199125614942    1.0026459915322876    0.4077658450734347 O
   0.1668253035915976    0.5064717568736775    0.3931990808451022 O
   0.1078600851278332    0.7786075546867757    0.6159463691513536 O
   0.3105920325331032    0.6718933603085092    0.4438526698191083 O
   0.3756445249740506    0.8440294125579081    0.5933324195622705 O
   0.5023507192203941    0.6567833109716429    0.5501426084440864 O
  -0.4375460962644485   -0.0522411520122910    0.5145086921561864 O
  -0.3293088316343831    0.5011743513414585    0.4872221090374944 O
   0.9747834008740048    0.5783795081912565    0.3858166729833890 O
   0.7054031978835732   -0.2224801947062883    0.5606331965524542 O
   0.9348501566701769    0.7860525341779655    0.5054781580930486 O
   0.2503349759692809    0.3771094185173799   -0.0382120385984147 O
   1.0761048041255767    0.1339214278288095    0.8203984586879042 O
   0.6604833896820683    1.0268897905803465    0.8231312622636242 O
   0.4613513874261109    1.0238169906311687    0.9169524007536527 O
   0.5560005393216960    0.2088105569483180   -0.2560321434689591 O
   0.4644117872908491    0.4939316856761236    0.7241055147164661 O
   0.7669683854364184    0.2063421589726148    0.9104274483958942 O
   0.8139279380064358    0.3589993683485889   -0.2462193827643443 O
  -0.0294356253026437    0.2477885587278893    0.6810930287741221 O
   0.2369818568256432    0.7839252762517164    0.8944912118138865 O
   0.2317955482757502    0.5489229537473196    0.8233231726270877 O
   0.0590230120981817    0.8739989468280714    0.8062892087660688 O
   0.0566683763179403    0.5664734665148966    0.7140386646906255 O
   0.4050202904532965    0.8697655935096585    0.7965670297530086 O
   0.5238565493423261    0.6704847820397952    0.8414548637671178 O
   0.6608303968845458    0.6112136030751989    0.6899953667144663 O
   0.8588297300326427    0.5968095358754164    0.7616362730368390 O
