Li1 Co1 H110 Cl3 O55
1.0
  12.3727476751999994    0.0000000000000000    0.0000000000000000
   0.0000000000000000   12.3751691806000004    0.0000000000000000
   0.0000000000000000    0.0000000000000000   12.3544070921000007
Li Co H Cl O
1 1 110 3 55
direct
   0.5563852927752140    0.1651637695348987    0.6220534088693112 Li
   0.5109539937011452    0.5420846771950757    0.3754555772381905 Co
   0.1141237884071838    0.1522403098499422    1.1261391131506826 H
   0.0421708945657914    0.0434181208077795    1.1500496090407601 H
   1.2247679525603068    1.0402823107001622    0.2162184738034192 H
   0.5306642477531869    0.2142952190631323    0.0512542642863783 H
   0.6103619855464261    0.1084655547662517    0.0487667309089448 H
   0.6055077687162886    1.1850237662600573    0.2695597628743772 H
   0.4875614532891124    1.0403954404666784    0.1221929174703433 H
   1.3468022847585179    1.0011313307879417    0.2254694236181685 H
   0.8025626237899891    0.2421873629977063    0.0212660505875674 H
  -0.0011871382724018    0.2674532802095824    1.2528064625697148 H
  -0.1204409239903061    0.2584990591898236    1.2515356609939727 H
   0.0568365132919946    0.3850411675963023    1.0176272282819023 H
   0.2816791329775231    0.4061503739584681    1.1638341637126630 H
   0.1750965019712148    0.5037999480664651    0.3000104350268725 H
   0.3149983285856510    0.5729367806635705    1.0759545923251987 H
   0.0553880072308936   -0.3341473841006117    0.0454470248563390 H
   0.5171240055694885    0.3383872599547740    0.3096385781755682 H
   0.5369344798824254    0.3865239756074257    0.0674641882841118 H
   0.3866218695535368    0.4117923170285842    1.0948223533000701 H
   0.4223843381349424    0.4199352360084695    0.2605095511429298 H
   0.7700573136876799    0.3700967254395096    0.0285922297659981 H
  -0.2095925036520299    0.4487025194940226    0.2723684771850938 H
   0.7298253447615091    0.6381463942230414    0.0881942806382618 H
   0.2392455512232978    0.7166705732317105    1.3233723742723875 H
   0.2592807128953387    0.8397678802477704    1.2861629803635566 H
   0.3483506615381073   -0.2445405283221571    1.0111518062399043 H
   0.4313095989499954    0.9284454558012702    0.0879186704875993 H
   0.5502330619209006   -0.1322358010317446    1.1834304096672594 H
   0.5242283289023070    0.7281839511840185    0.2667146243146744 H
   0.6262961988008651   -0.1541288350619157    1.2904367589112755 H
   0.4002954693424587    0.7094399650118024    0.3139819675102383 H
  -0.1109935479451052    0.9949091936295495    0.1463171022878067 H
   0.9391725381251796    0.6671391291718660    0.2734571575159047 H
   0.6818513606811779    0.7534272424425913    0.1291790884259039 H
  -0.0859603048748675    0.9676287585039239    0.2668870324265425 H
   0.9561210774072280    0.8009813397976844    0.1612550915109407 H
   0.8645246083164057    0.7242680451230356    0.1181643955324654 H
   1.1793778731096707    0.2028569915985816    0.5942568503262798 H
   0.2661676229202473    0.1090651425287877    0.5110128716931306 H
   1.2333917443647635    0.3099036089552723    0.5272742752960978 H
   0.2805759018797645    0.0414464305913539    0.4089059886516413 H
   0.5566107883622283    1.1803531230424591    0.3843123357361331 H
   0.4290150399122398    0.0648587973858378    0.4719636484966172 H
   1.3672019572181697    0.2351393785437458    0.6324577932352914 H
   0.5507584100626903    0.0206192890599035    0.4407545425374529 H
   0.9351394808520551    0.1732792141429159    0.5506675468505706 H
   0.8963930348252835    0.1880830521613241    0.4331111162446296 H
   0.7445536819735628    0.2080035879053087    0.5672082030290991 H
   0.8484247083403255    0.0269014981243157    0.4530845555331722 H
   0.6775701774395465    0.3152893939112052    0.5360363307466763 H
   0.0823344874107386    0.5831629034868759    0.3418546122622632 H
   0.1865418174110377    0.4847278855713521    0.4691573624691663 H
   0.2089709501538191    0.4556664646928568    0.5966389962099797 H
   0.3495339071990000    0.5174070347690839    0.5160208012148607 H
   0.4279021100795559    0.6217070230087129    0.5626859301605188 H
  -0.1283203378892422    0.3797232605002791    0.3556998740158100 H
   0.9118382701939027    0.5632666098357162    0.3360000213085417 H
   0.6700617401515050    0.5788688207778245    0.5012867877860496 H
   0.7201492402176519    0.4939649310074014    0.4206799247795041 H
   0.7962519802652284    0.6210524865024405    0.6200800240020123 H
   0.1416374829345796    0.8341356340147843    0.6278230099087313 H
   0.2562951189941519    0.9224172553854774    0.5759395002249781 H
   0.6333892069429373   -0.0432408964831667    0.6606793013498289 H
   0.3485745406693008    0.7748338184767425    0.6395985648921045 H
   0.5465127888491186    0.7906946117423167    0.6458789148450874 H
   0.6145591130853711    0.8749997218199645    0.4709478166637788 H
   0.6661895202325592    0.7511888892050917    0.6167573230667120 H
   0.9617544259430353   -0.1939731388289284    0.5434612115455822 H
   0.7950638852368729    0.7065761657794204    0.5182402521197554 H
   0.7043475763405262    0.9363726201550140    0.4028741330195202 H
   0.9349455061535480   -0.2645079321122699    0.4355984877365121 H
   0.8518758415179289   -0.1033327618263721    0.4347251151885976 H
   0.1347683539237008    0.0800678823893023   -0.0198016749793224 H
   1.0637366236830861    0.0263453845149124    0.8172711948804440 H
   0.2020347382263732    0.0624996377190942   -0.1226565502094379 H
   1.0183222973951367    0.2309972129497305    0.6910676475651699 H
   0.1097383437651049    0.2682556934820867    0.8205688035553315 H
   1.0380592229682231    0.1059185188801151    0.6828527652771402 H
   0.5029379892853438    0.0151334311286498   -0.0770104908076392 H
   1.4343010383433799    0.3042446964201788    0.7200095463818798 H
   0.7588326444674088    0.3223842464112938   -0.2829200080378659 H
   0.8095893572434049    0.3231777709164290   -0.1610889894564509 H
   0.7075651316520108    0.0275950644000362    0.7396292657413783 H
   0.1677658748234714    0.4447841892237573    0.7462859996005521 H
   0.3203633454551902    0.5596642348419354    0.7607326661762496 H
   0.1309850390749040    0.5647502259166003    0.7151165556013950 H
   1.0519607430278908    0.6623286898856442    0.8621523450535317 H
   0.0445217870889051   -0.4489159160917953   -0.0060146920241536 H
   0.0470554199425706    0.3765798691306499    0.8504399254350680 H
   0.2211250814711030    0.6116457464166168    0.9961045442698117 H
   0.3555107525967467    0.5846392469399126    0.8750870005824226 H
   0.4512671707426335    0.4641366519258784    0.8160109158655202 H
   0.5804357307063496    0.4095079038147174    0.8144527674366644 H
   0.4944184588813347    0.3542076497323065   -0.0536360789198637 H
  -0.1860730714580572    0.4935277652667924    0.7596140370184943 H
  -0.1042731328697484    0.5855943853972139    0.7670429649561764 H
  -0.0629266984778637    0.3680547331538919    0.9712793950163019 H
   1.0379864824562828    0.7048929564676112    0.7377513933491988 H
   0.2598707192699641    0.9096174303739279    0.7063965903940895 H
   0.0413095660816293    0.8810279222357574    0.6943838730784282 H
   0.2908905064728738    0.8962196337393642   -0.1043375812526258 H
   0.4133402678170540    0.6829530543913120    0.7134977000908955 H
   0.4282254012437342   -0.1751160228901962    0.9417109991170288 H
   0.3586006078983809    0.9796366751498599   -0.1774977089108737 H
   0.5486513599001581   -0.0111400020062850   -0.1962586254220522 H
  -0.2385092818319596    0.7181202503826398   -0.1680435927295567 H
  -0.2711059216881491    0.7655806116454766   -0.0531293771450774 H
  -0.2146722160691817   -0.1014491512138770   -0.1616450663243075 H
   0.9389462343102547   -0.0185616379176533    0.7898445448215617 H
  -0.1896325071756604   -0.0016695860233079   -0.0854350148842785 H
   0.7738584095505067    0.0719786192415361    1.0708632917446776 Cl
   0.1303004700347564    0.3392462381105365    0.1892750521144210 Cl
   0.6898374606642927    0.4748201422338137    0.1316923616059543 Cl
   0.1119520800118159    0.0706562130779376    1.1223428969785614 O
   1.2772623553437612    1.0070544821348266    0.2649104098482227 O
   0.5323340466161679    0.1296434470580881    0.0407886062393257 O
   0.5849585740932042    1.2338715833022396    0.3273949948424817 O
  -0.0644619273937555    0.2426843259006168    1.3000689491987474 O
   0.2997761641203149    0.6209846086425308    1.0157331673346179 O
   0.3475828450231839    0.4496358400677815    1.1477265513831931 O
   0.4874951786004559    0.3379371650979916    0.0265642894679954 O
   0.4703259930988559    0.4081050947099162    0.3229140027894192 O
   0.4697400278637827    0.6695447528498575    0.2943347276070613 O
   0.4623415095715618    0.9696166101155660    0.1545748842468645 O
   0.5990564935351103   -0.1841809494671887    1.2219186994293847 O
  -0.0587744275879485    0.9565743641757676    0.1927758271558761 O
   0.9435369688415870    0.7235399742685276    0.1395470485428978 O
   0.7369118870802978    0.7167384510916203    0.0776314912605793 O
   1.2408759348154916    0.2319515433372709    0.5522621195284126 O
   1.0406132231652319    0.1775223884570349    0.6410069691862391 O
   0.2954998302461462    0.0406196136120725    0.4863301817245449 O
   0.5066784680548869    0.0798616629863385    0.4731308433196873 O
   0.6901930809448888    0.2599818672009468    0.5928201160607115 O
   0.8688243807999774    0.1669051598694877    0.5058681488807631 O
   0.1614770534522927    0.5650952717044748    0.3499845046359915 O
   0.2320078702852556    0.4401983933310463    0.5212262311088718 O
   0.4173959554716710    0.5651995127036219    0.5024118923658468 O
   0.6477433346324547    0.5166660347984027    0.4462189893131439 O
  -0.1645653185331840    0.4495243264407869    0.3426259969130162 O
   0.9513040390609711    0.6310870967924292    0.3435884065140081 O
   0.7493262677847453    0.6531191188214630    0.5579475400812868 O
   0.2790548169523056    0.7817298858156669    1.3402651315244496 O
   0.0637007121126197    0.8210093488198594    0.6456903181781142 O
   0.2584474299196690    0.8717351199862108    0.6373175974778108 O
   0.4101970694733302    0.7187537770751307    0.6443766169313438 O
   0.6160389783893974    0.8187338243733618    0.6198671445023817 O
   0.6257668095195230    0.9207526316781673    0.4069293660733214 O
   0.8247193837269502   -0.0304703235969593    0.3985501699509761 O
   0.9066656115670496   -0.2072376039529552    0.4846368588605624 O
   0.1393865682039881    0.1036058232246193   -0.0978767289102223 O
   1.0102723474070965    0.0043853615015685    0.7582655303782483 O
   1.4317389558672666    0.2346407995013136    0.6794814986765252 O
   0.6499708107536434    0.0316196558438507    0.6857456600744029 O
   0.8143805322965275    0.3149863677508939   -0.0073347877501904 O
   1.0292576210234683    0.6428808749517452    0.7874518763770435 O
   0.1950961016151961    0.5133036565235884    0.7167993559045592 O
   0.0870360299885929   -0.3779900170442119   -0.0086195924260983 O
   0.0043473639899579    0.4124024096980110    0.9639540738312918 O
   0.0889532274149614    0.3384115020475989    0.7867630533573260 O
   0.3867495695633872    0.5829164422098227    0.7994322165824949 O
   0.5021273366911666    0.4003379281688169    0.8232196794537744 O
   0.7787530377761662    0.3682034179898847   -0.2214633962927740 O
  -0.1784425917555383    0.5723428493893603    0.7414108162306829 O
   0.2804498183257350    0.9498916272537022   -0.1643914546978699 O
   0.3675792117555234   -0.1705593175088750    0.9928830218039175 O
   0.4960704767302859   -0.0323861761929115   -0.1427635450775968 O
  -0.2687863075851696    0.7804393984076213   -0.1310179389211678 O
  -0.1845552194422399   -0.0287951949827584   -0.1612662541348507 O
