Li1 Co1 H90 C51 N3 Cl6 O45
1.0
  14.4995496582999994    0.0000000000000000    0.0000000000000000
   0.0000000000000000   14.1237449893000004    0.0000000000000000
   0.0000000000000000    0.0000000000000000   14.1702187716000001
Li Co H C N Cl O
1 1 90 51 3 6 45
direct
   0.9923319460452102    0.5305180744962856    0.4858107654200107 Li
   0.1853406755748219    0.1057087902345365    0.2512450545037004 Co
   0.4512122433716373    0.3088815324621785    0.1379094719071401 H
   0.5683756063749528    0.1030713877589027   -0.7433288633137082 H
   0.4974112230493647    0.0284070546943431    1.0536829126113842 H
   0.6223363167720599   -0.0183291332289079    1.0185740686324125 H
   0.6243550001580811    0.3012936016349659    1.0878715167401332 H
  -0.1093381317462156    0.1206460466180119    0.1490659686802771 H
  -0.1178225331861995    0.2977123984881859    0.2567523794969043 H
  -0.0766750483290767    0.0364792763385581    0.2363151509214064 H
   0.0684846324610901    0.4223988751510075    0.2183831765393829 H
   0.2050199074630111    0.5300989930129762    0.1268249570854777 H
   0.1688718882243604    0.6649131659849827    0.3081587841361849 H
   0.3791053142159782    0.5084746008824627    0.2038223568847472 H
   0.4487934096266925    0.7235258073649535    0.3219426221381402 H
   0.2020005033413845    0.6569138711743222    0.1211108604081363 H
   0.4411299992023284   -0.1535652197942647    1.0330502036382545 H
   0.3577839623612306   -0.1565771688228140    0.2412508545352542 H
   0.6171458107374866    0.8112086422602456    0.2627544039801435 H
   0.6365167571888629   -0.1677137335313358    1.0825737862526932 H
   0.6906674045195232   -0.0824027907953386    0.9306918686415518 H
   0.7566529021761571    0.6795084450810135    0.2961243898372220 H
   0.3274099155543426    0.0777820611482484    0.3995349315951841 H
   0.1656435120952297    0.1827174023854917    0.6056023217368461 H
   0.1792418654680280    0.2983283824220923    0.4161938134236787 H
   0.3527872554491281    0.3150484520763451    0.5757905025399078 H
   0.4312269330117310    0.2891381853392127    0.2906975152603719 H
   0.3352191236103448    0.2349025700275286    0.3368711143096209 H
   0.4855851729967106    0.1907577627917459    0.5346808337768881 H
   0.4185830920428457   -0.0018030631124601    0.3986097518071151 H
  -0.0117668255098072    0.1960240714128907    0.4217736849326824 H
  -0.0998192154175975    0.1215105482080116    0.4014805614012147 H
  -0.3034834718663891    0.1216040078393629    0.4448949228811496 H
  -0.1526898229927214    0.2136001463270203    0.6180001543202144 H
  -0.2914210282649162    0.0520240203258171    0.6096064942139654 H
  -0.3163321467832240    0.1748816619296960    0.5856612040621968 H
  -0.1166569797450052    0.0934273450419611    0.6166120317854077 H
   0.1784783934802161    0.4140151214022882    0.5211627644310631 H
   0.2245549969433840    0.5926398418224943    0.3820658999598984 H
   0.2928736705121837    0.4298529887787854    0.4852200448295300 H
   0.3174930558318967    0.4079749387124542    0.6457428452649648 H
   0.6182851564681690    0.6683591358773074    0.5266270413944637 H
   0.7429173031614666    0.6101047564175168    0.4042236383167175 H
   0.8198686586376213    0.4785708749004395    0.6473857274515588 H
   0.9744189759102156    0.5000354369007921    0.7004187830530811 H
   1.1815054076106086    0.7188082200642427    0.6003779846116938 H
   1.0463729347976753    0.7801934971743025    0.5909010667062945 H
   0.0362250098505185   -0.0767123736955618    0.4487259152514861 H
   0.6781152905374301    0.9154140071344341    0.3957671704292799 H
   0.9857565694130522    0.7565482104424192    0.3993189857407607 H
   0.7987831761774823    0.8898853672253196    0.4032314165150204 H
   0.7448221899097381    0.7138661880427866    0.5382267917334940 H
   0.2857417248699406    0.1433015108905836    0.6060539731970781 H
   0.2151291869547430    0.1464685179438749    0.7141638072576728 H
   0.0324828246600330    0.0572464312413271    0.9928814518938714 H
   0.2684963616764112    0.2316052859123537    0.8204889123449445 H
   0.1248139681472138    0.2696900856880157    0.7684904208695160 H
   0.3905753256245600    0.0610372105311373    1.0074443886647269 H
   0.3364219195875300   -0.0007360656545326    0.8571601880941562 H
   0.3746706937267003    0.2453813771790400    0.7477694987205599 H
   0.4867169322848762    0.0930230613336156    0.9478158103330040 H
  -0.3366776062596935    0.1787991781438387    0.7377364849547500 H
  -0.2569716824734026    0.2762096030022804    0.7479289881424542 H
  -0.2647098538403852    0.0097746027349395    0.7671397007212597 H
  -0.2715721359349911    0.1979959280289014    0.8474560330478278 H
  -0.1817286559166789    0.0466812447335667    0.8565553985606893 H
  -0.1087850111190926    0.2023814504273110    0.8439642026959091 H
  -0.0451044126343354    0.1354622302972367    0.7530375895809222 H
  -0.0923658804832855    0.2525905132882758    0.7360046838869230 H
  -0.1409142848536963   -0.0035186137697650    0.7518555330248462 H
   0.0997980187868577    0.3034134360006163    0.6511330231606711 H
   0.1439469761742042    0.3921363633084468    0.7255856492636960 H
   0.3127584260249149    0.3508618995991659    0.7918139845580590 H
   0.5190310393462492    0.5989122575356862    0.9962123814130824 H
   0.3489092039699353    0.6130020049894077   -0.0737471050548929 H
   0.5578540382162706    0.5185534503737161    0.7248213703083347 H
   0.6328918170190893    0.4791867172288439    0.8216999028226916 H
   0.3743886160003994    0.6489485616841532    0.7649809478824321 H
   0.7823578384523433    0.5910708528598085    0.8540536728942479 H
   0.6940737172094990    0.6547119056174843    0.9146660045627887 H
   0.3379240352058266   -0.1099592214937726    0.9843438278846733 H
   1.1989080170672104    0.8009875571224605    0.6888106348197123 H
   1.1314652327707875    0.7122030314212393    0.8544968558896007 H
   1.1221773581006311    0.9719514198818995    0.8477658377213306 H
   1.0023019108652726    0.7055978427782359    0.8333645074885895 H
   0.4342388196585001    0.0255331710302901    0.7890645562938967 H
   0.5658678733172446   -0.0287569623996822    0.8320645981296093 H
   0.3999845833749829   -0.1815365546136978    0.9102327631984489 H
   0.3947423515959779   -0.0934855454130824    0.7939699145752601 H
   0.5456957295684509   -0.1504187455387704    0.8655404397976796 H
   0.6447197705791384    0.7563464226020015    0.7596528720625078 H
   0.8954910073201775    0.7971153546689730    0.8152920977306500 H
   0.0271950742259282    0.2524354552635338    0.2419219803769427 C
   0.0151264235351234    0.0741272231404037    0.1278143560655484 C
   0.3479257251491406    0.2269315963172776    0.1878776489277445 C
   0.3908408511126428    0.2226890954759359    0.2857999197384812 C
  -0.0556261187283360    0.1024801847878546    0.1963552879773804 C
  -0.0465830792484897    0.1832555032932720    0.2709003614886716 C
   0.1277092304822042    0.5177347510833538    0.3023169547802467 C
   0.2810450272755421    0.5935602775858029    0.2364936943892793 C
   0.2041688465479615    0.5963775190490369    0.3094805703627701 C
   0.2464322281316243    0.5971620135303798    0.1348601188451675 C
   0.3237208354614736    0.5958174692884391    0.0610186336242690 C
   0.3398027142435860    0.6857617440514290    0.2510693338574538 C
   0.3442042302564277   -0.0210861923537718    0.2795657181764664 C
   0.6270461182217144   -0.0790616089745290    0.9713129775515736 C
   0.7424559095211359    0.8620754626782207    0.2632829773296963 C
   0.0239722155095369    0.0518342689530735    0.3858999974340241 C
   0.4466869304104558    0.1330761775877372    0.3168177894753202 C
   0.3797549895660404    0.0454747658561224    0.3538313323467391 C
   0.5098797896090517    0.1574160393071633    0.3964234764574296 C
  -0.0346958135014921    0.1390689224343853    0.3752883052347920 C
  -0.2646753700107641    0.1202559234598712    0.5762703822164044 C
  -0.1752677655988631    0.1408984655208384    0.6308602239449139 C
   0.2445597561831966    0.3760598906609997    0.5145219354137582 C
   0.2930640212516924    0.3482138767108786    0.6059848140672301 C
   1.0448659914432319    0.6089343869430945    0.6715773087902351 C
   1.1797894922486611    0.7255797951721518    0.6759413910247267 C
   0.6139822642080437    0.7412087944331290    0.4129687397154596 C
   0.8764573127224959    0.6772703701211537    0.3859232857124423 C
   0.7334652854623136    0.8669212029582846    0.3724054986487799 C
   0.7712892188205516    0.6794008248994575    0.3730081710660270 C
   0.7158964639469378    0.7708730230295393    0.4208272634118743 C
   0.2276606106390634    0.1784862299843138    0.6454259835373959 C
   0.3052726762907589    0.2779364820997490    0.7653881399020475 C
   0.4593078051488135    0.0390331315679839    0.9887213185218907 C
  -0.2707238337263111    0.2010269938002271    0.7695807357227322 C
  -0.1957835751936610    0.0432989973171633    0.7795227134910890 C
  -0.1031648365674400    0.1844917193261462    0.7671213523806877 C
   0.1468677565431143    0.3136217766432170    0.7078653865036563 C
   1.2472957267915870    0.6558822750919066    0.7215758311433239 C
   0.5298052360407358    0.5726584558505867    0.8680513396344069 C
   0.5932995528778795    0.5419171050028524    0.7900511324523409 C
   0.7188268997881420    0.5772126304019348    0.6792052785303097 C
   0.6619678924790376    0.6181082993932387    0.7659823438544151 C
   0.7301086294869923    0.6456640220641625    0.8470940061742355 C
   1.0824037090156142    0.7105965170005110    0.7037454783398526 C
   1.0700584980112480    0.7369181477210912    0.8112625198588927 C
   1.0562994499924152    0.8427640123364996    0.8259122583947616 C
   0.4068841080055795   -0.1285031700143966    0.9665508774677526 C
   0.4023908650059456   -0.0268587406447361    0.8341513690169624 C
   0.5502029040352516   -0.0778501739045131    0.8908420957409574 C
   0.7718864787495895    0.7411457799847179    0.8194748136756423 C
   0.2444680291964045    0.2783931598438520    0.6772180121052889 N
  -0.1874315916594222    0.1361299002393905    0.7356652395863422 N
   0.4550701562943314   -0.0453113536165395    0.9246411504852562 N
  -0.4404739334193091    1.3721391890806500    1.1657411684219758 Cl
   0.6737096364650340    0.2290308978851311    0.0397387927932758 Cl
   0.9160799226337721    0.4211732795307869   -0.3994739039417696 Cl
   1.1084189997583906    0.8116447872065516    0.4556768312244566 Cl
   1.1366074614438912    1.0908823409140025    0.8707104376065228 Cl
   0.5167055878119183    2.1992569265398125    0.6663310947974779 Cl
   0.0997393962765018    0.0666702774025849    0.1386257628948518 O
   0.1113769990970424    0.2244704926916929    0.2451399970310957 O
   0.2796670534438815    0.1808205966855660    0.1599627658637806 O
  -0.0199256995981676    0.0688941918122402    0.0380747394444836 O
   0.2699419238141291   -0.0122832863189920    0.2329214136210069 O
   0.3897497827434301    0.2749167447685872    0.1246323303871326 O
   0.4998035870066924    0.0923582235015028    0.2458555823134007 O
  -0.1304001652022123    0.2320208980608630    0.2773441575564503 O
   0.1231194327596312    0.4675890142029045    0.2266893291752120 O
   0.3353342996012794    0.5118461216820860    0.2539069752974427 O
   0.4064316801609503    0.5783788933167976    0.0778080709529869 O
   0.4038916012710574    0.6716550039374618    0.3103902246318936 O
  -0.0009492481576572    0.3366022255429876    0.2316511438891044 O
   0.3226863205728396    0.7592188902110341    0.2079337965836716 O
   0.3987445448618069   -0.0972600400701572    0.2689843713097186 O
   0.6098152382366259   -0.1657709060432448    1.0196502693774967 O
   0.6639803687757271    0.8410619142018892    0.2175490327487669 O
   0.8137029499013624    0.8841864537954200    0.2166407898904566 O
   0.1027091436834739    0.0529458721441460    0.3529379093019676 O
   0.2288744414417273    0.2926698265602761    0.4604942586121561 O
   0.4603352853362048    0.1960623048984435    0.4678822885139823 O
   0.5914298396358215    0.1450298060430728    0.3923593190207482 O
  -0.0090501894122542   -0.0229893703012895    0.4245265005827964 O
  -0.2490404016605416    0.1021552001606557    0.4821271144586990 O
   0.0766193678687158    0.5061790624098719    0.3743010233709411 O
   1.0468957096547318    0.5923750395336657    0.5849470301907049 O
   0.5717498491033808    0.6917736056408534    0.4781732376059091 O
   0.7057720115701728    0.6062842399722765    0.5950110949944059 O
   0.9195207191533690    0.6027462265036210    0.3974488664132376 O
   1.0244267359501928    0.7823083753473813    0.6558683064390409 O
   0.5665978959903240    0.7660591439874362    0.3444567417252986 O
   0.9184020637204594    0.7594291743815745    0.3856283008524783 O
   0.7328363004100241    0.7795414038373740    0.5169774373760664 O
   1.2314676489954859    0.5732802456100771    0.7405056729702973 O
   0.2986697125949041    0.6141985714817086   -0.0255537771319189 O
   1.0059509897157812    0.5516384643239121    0.7372100287214171 O
   0.5664155454992874    0.5781339157982556    0.9510119501195520 O
   0.4454907553285579    0.5850271300324233    0.8528292740137754 O
   0.7705981628749440    0.5042027452205465    0.6978528381946382 O
   1.1336549559517295    0.8966930517362509    0.8315183821448912 O
   0.6119015099287044    0.7009928318516528    0.7324853310241464 O
   1.3323880247646989    0.6975794312247990    0.7372622509215064 O
   0.9770287121359430    0.8716232136537702    0.8379607668018566 O
   0.8636576048437231    0.7363198644749407    0.8013487703068004 O
   0.7285878926007003    0.8153683038828894    0.8194324713512456 O
