Li1 Co1 H90 C51 N3 Cl6 O45
1.0
  14.5723011620000005    0.0000000000000000    0.0000000000000000
   0.0000000000000000   14.1946108926000001    0.0000000000000000
   0.0000000000000000    0.0000000000000000   14.2413178573000003
Li Co H C N Cl O
1 1 90 51 3 6 45
direct
   0.9583628505714518    0.6447620872489883    0.4073637698021215 Li
   0.2367040073255384    0.1336490983200535    0.2182134378601094 Co
   0.1422968176369618    0.3306766900702440    0.1213101867826393 H
   0.0231220915114381    0.3195196389049625    0.0851646555082188 H
   0.5388697360631723    0.0662425306276056    1.0679873226411902 H
   0.5364966722885794    0.2983742899925471    0.1762348789942558 H
   0.7018590933098916    0.0045853280017652    1.0649939198938350 H
   0.5237394558453197    0.2679437270649514    0.3183530467284685 H
   0.4106929999914038    0.2485997660308983    0.3514827054249179 H
  -0.0459630851403619    0.1660557633199240    0.2216569394019883 H
  -0.0324717361890602    0.2147376190769032    0.3373583103362365 H
   0.7243030434015126    0.3571254601591601    1.1425660948196075 H
   0.1410506177541762    0.5905612355439875    0.0408534473515574 H
   0.0322537995732372    0.4675968927235770    0.2002656606556998 H
   0.3057260505031004    0.6259112711171071    0.2299820116451604 H
  -0.0614005920583924    0.3415385587869397    0.2239306053874295 H
   0.1754967902851801    0.6927246559415139   -0.0160549095941145 H
   0.0636078043334087    0.7267967417252907    0.1461660325370090 H
   0.2234487226692138    0.9023344876242627    0.1494227536118937 H
   0.1241033973217579    0.7250531222497542    0.2506746190957373 H
   0.4932373412473123   -0.1525419097136936    1.0727670769225055 H
   0.7139944450319068   -0.1282129582113995    1.0211250865274231 H
   0.5367765868988152   -0.0565554814622295    1.1543311576936246 H
   0.6054343773793603   -0.1571697223742185    1.1303340807781044 H
   0.3800005242439005   -0.1353381975550667    0.2389931159043227 H
   0.1541377752236713    0.4046209501800571    0.7030253119564995 H
   0.1638713099909786    0.2544463510925054    0.6328471156677551 H
   0.2146916980523491    0.3027534167238339    0.4523541988073677 H
   0.3415851776368880    0.1183010199790279    0.3695856648970183 H
   0.2680086032797844    0.1859006186760402    0.6536155587966606 H
  -0.2735599460018900    0.0549283775863465    0.7074279943927924 H
   0.5468666199255428    0.1886932278077682    0.5600898041336353 H
   0.4004338104277232    0.0306522630378566    0.4267097322166023 H
  -0.3371326096259278   -0.0249286899005081    0.5805148801634422 H
   0.5916952981650160    0.0370983714019613   -0.6891063853103681 H
  -0.1906835363961578    0.1936556745090527    0.6994512045241660 H
   0.0231097393099568    0.1322753375211460    0.5775931000011751 H
   0.0009368514175098    0.0098323897608747    0.5741783879297728 H
  -0.2304164511611814    0.1219284529808612    0.5656082540964464 H
  -0.1620621130970282    0.0431696896404153    0.5142198919144406 H
  -0.1189398914922041    0.1649715490278631    0.5197245088877790 H
   0.0157409648929132   -0.0170637332035830    0.3546249708001031 H
   0.2160490677484668    0.4092424224061256    0.5601143805108714 H
   0.3282262717348031    0.4254605492531259    0.5217147039163572 H
   0.3771101090972634    0.4128036330925244    0.6495618609171199 H
   0.9955491531310694    0.4901482682013564    0.6295384331095714 H
   0.3757259762979362    0.2899478525998634    0.6219885700226458 H
   0.4567626627397038    0.6657714690669477    0.3835822628240721 H
   0.3119007787769463    0.6168789699874694    0.5208298138994167 H
   0.6585611959506660    0.5874593541093261    0.4118809079381139 H
   0.7013979444545877    0.5881610288558450    0.5356563209766229 H
   1.1704391702716579    0.8034215966247670    0.6467404928104173 H
   1.1445853263377677    0.7537104770076831    0.5323854860393826 H
   0.9917028148364587    0.7958828200559928    0.5658961488012121 H
   0.6699533568835530    0.7792117043917116    0.5753208383801472 H
   0.5098747959159149    0.8131252793140760    0.4497005118116359 H
   0.6272737558318107    0.8272193606181500    0.4239014246989452 H
  -0.1012144823664604   -0.0676519462538156    0.6612721535790110 H
   0.8383413124110396    0.7959610187476229    0.4715569862698931 H
   0.0729577346213784    0.1317061074054961    0.9494470290450708 H
   0.2931123940903905    0.2430251151582032    0.8553468893369279 H
   0.1822356024266746    0.1881507684153791    0.7424324795812518 H
   0.1690887426500196    0.3676533993278135    0.8205039060560200 H
   0.5224563366047732    0.0978030998738925    0.7813572480299702 H
   0.5407227035320586    0.1592271154102773    0.9388862086556217 H
   0.3746657456707865    0.2264357206491391    0.7623512822399954 H
   0.6252823064596501    0.0815610202745009    0.9077725150747380 H
   0.7167771215322897   -0.0378962873494780    0.9395202791883127 H
  -0.0822284624562030    0.1768408423304243    0.7700310490351686 H
  -0.1148897418731511    0.0008663109466714    0.7686168540707836 H
   0.0400699981772721    0.0617316637581671    0.6813489472342724 H
  -0.0927257750151074    0.2296742736709739    0.6634208311316517 H
   0.2406580842664031    0.4632597537582466    0.7729043786251704 H
   0.3827976116460116    0.3307189596332873    0.8259816294508401 H
   1.0024890316633437    0.6528933421930863    0.7807561800609961 H
   0.3904559765644514    0.5091540093267185   -0.1073442139286560 H
   0.5737482356460236    0.4393489186837226    0.7604645186504708 H
   0.5579870324258399    0.5948382108312531    0.6568006572864571 H
   0.4195522733871975    0.6229601511239667    0.9772590618898382 H
   0.6184213447701733    0.4293380771696322    0.8785329458036574 H
   0.7359422483640268    0.5785187779314923    0.9445970565430811 H
   0.6483919029644331    0.6525312329363485    0.9090947241700393 H
   0.8182415356672135    0.4284405534476792    0.6701070101042803 H
   1.1240086173700778    0.6738710218387632    0.7913408746454746 H
   1.1025603919645370    0.9225449747007037    0.8203999830894216 H
   0.4554999932549431    0.0007303438522154    1.0071151471384412 H
   0.4907557839697081   -0.1209926123508849    0.9059342020574788 H
   0.6015557861142150   -0.1033598641273684    0.8617388539649303 H
   0.5877151443543573   -0.2010990702596951    0.9393461380010398 H
   0.6819164640182447    0.6493187461450570    0.7206550006212534 H
   0.8785250825301327    0.7611499201033055    0.8767353593543895 H
  -0.2531513642210300   -0.0690869979191359    0.7419283127568086 H
   0.0996817225262888    0.1989492327875098    0.0772833624197097 C
   0.0780173335948243    0.2896378758042124    0.1279184235303192 C
   0.1450891014051635    0.2925347498581139    0.2973950144037418 C
   0.0510332632253898    0.0968111741278095    0.3007409126188832 C
   0.0585941829988100    0.2850537416921656    0.2343200933184328 C
   0.4309094364158873    0.2202249128526422    0.2098946852567980 C
   0.6850854899316279   -0.0541447073833261    1.0103269285520939 C
   0.4658125717783597    0.2231485576298044    0.3092597871511170 C
   0.0071753993990095    0.1902536791767837    0.2726669658109998 C
   0.1998594490069049    0.6377347723930381    0.0342086971291267 C
   0.1132540470206349    0.6837846433578540    0.1867725273708823 C
   0.2108563394923885    0.6756026649381042    0.1385445468649957 C
   0.2889593094589928    0.5926451250020228   -0.0069314561818730 C
   0.0682289001542665    0.5939061669661481    0.2261951430041831 C
   0.2550614374270780    0.7713805633452212    0.1508481834915867 C
   0.5532457085105635   -0.1121575691821159    1.0977205260036127 C
   0.2153518545981859    0.2312171127220547    0.6866040788695542 C
   0.4901156654396077    0.1187166706822871    0.3413754947410263 C
   0.3969539207770594    0.0655507187791301    0.3610274681612067 C
   0.5367401479044452    0.1205384888494538    0.4361120221831424 C
  -0.1385277381079698   -0.0045484200791765    0.6925024094062145 C
  -0.0077289041550760    0.0703363378083501    0.6208531413943389 C
  -0.1587853485373912    0.1073687019905934    0.5531344085029405 C
   0.3278865861940659    0.3511626337991839    0.6402804165083607 C
   1.0229168279798415    0.6182971138275724    0.6081956049355483 C
   0.2790967628095469    0.3735478898942031    0.5506216494761025 C
   1.2329214089982585    0.6676707814330272    0.6128545838773032 C
   0.5009169999886390    0.6421864618742160    0.5329946993219549 C
   0.6766537399537721    0.6286411803969875    0.4745499677079242 C
   1.0589125155633397    0.7106948561766595    0.6519113625808897 C
   1.1499159875103875    0.7408323501338216    0.6066086731483038 C
   0.5574173900675248    0.7312794288860337    0.3318524996531467 C
   0.3649884820435609   -0.0081011768529667    0.2833977142944813 C
   0.5702489255896974    0.7737772475697768    0.4305274266564558 C
   0.5939873177732229    0.6993588638611613    0.5036404636965128 C
  -0.2418902738705284   -0.0150291582357651    0.6916113401858548 C
   0.7663773865806686    0.6789468918675472    0.4502171072611383 C
   0.3339926911263488    0.2783223137775185    0.7978522102486237 C
   0.2060760375191043    0.3935019416215146    0.7583453327505135 C
   0.5266005002017675    0.0271960217663487    1.0037580140079920 C
   0.5508469796062261    0.0884439141233864    0.9207692055393866 C
  -0.1209011465940769    0.1701199818065381    0.7017178486875397 C
   0.5142775322639190    0.5234854976316253    0.8685907479383509 C
   0.5949240263855590    0.4766737882422256    0.8246025435967922 C
   0.6741510466869666    0.5403274527798732    0.8031628142782383 C
   0.7625845744924771    0.4836660898101215    0.7736676506839025 C
   0.7080475462520501    0.6114741018596649    0.8831638374571426 C
   1.0405592028622939    0.7997490760890208    0.8016510159871157 C
   1.0577671919926519    0.6999731815107241    0.7610585647973774 C
   0.5640798930532012   -0.1271569236280342    0.9251543334205109 C
   0.7721746864759175    0.6839311778430708    0.8437833527562466 C
   0.5829526844498796   -0.0666283183354501    1.0097883547995206 N
  -0.1071140310406385    0.0864607671239378    0.6449288627170146 N
   0.2729659534743014    0.3159837899563898    0.7214646167056308 N
  -0.3733863209737031    1.3973315011502183    1.1773044529517100 Cl
   0.8121889569413497    0.3024730286223133    0.1399046737994613 Cl
   0.9250949408150860    0.3868797100780628   -0.4043504350089512 Cl
   0.9721993749308157    0.8307108265255274    0.4303021666045319 Cl
   1.1219183503860664    1.0550875300574565    0.8695337786420098 Cl
   0.5832820764893824    2.1859195142133698    0.6907968088260303 Cl
   0.1597175391261653    0.1398415893058983    0.0983397002533807 O
   0.2229868875804943    0.2703108225953767    0.2545359190506297 O
   0.1321982066925388    0.0681038003869460    0.2957512058577512 O
   0.3017424655253635    0.0097436236784837    0.2240555938202302 O
   0.3606837398273089    0.1787669254197644    0.1800919658559077 O
   0.4824454973064192    0.2616483801423679    0.1461976307363126 O
   0.5436542926836334    0.0710950764649775    0.2754040720528929 O
  -0.0105438336259935    0.0440636908987813    0.3453386111158966 O
   0.0742032482707483    0.5185834682257840    0.1716742055614451 O
   0.2678837087981396    0.6060424630085997    0.1770845194644176 O
   0.0206084185099825    0.5922928786433285    0.2968543341045480 O
   0.4862593767604704    0.6727544008817025    0.3194365138734764 O
  -0.0053332633011088    0.3588338549988271    0.2604918285282432 O
   0.1990160681390946    0.8421503792704818    0.1268468934828259 O
   0.3317610600587174    0.7829652415899574    0.1834350553422220 O
   0.3633669124824254    0.6477491363707154    0.0092770156964285 O
   0.6131558757720382    0.7497942019917205    0.2712155551896573 O
   0.1334286232067649    0.3147692445116120    0.3801134827227503 O
   0.2646728226464031    0.2906720711133388    0.4979176084933180 O
   0.5215851632836298    0.1969266341958875    0.4881501837792703 O
   0.5901588215474187    0.0546289681814564    0.4567740847077258 O
   1.2709730518949864    0.6441865166988819    0.6851786489898611 O
   0.9886813291074363    0.6222521359429913    0.5292211019246850 O
   1.0321878414250136    0.5425738687078099    0.6592182706242812 O
   0.5063182883043960    0.5908451461090951    0.6102143787799410 O
   0.4315750828290492    0.6384258797487962    0.4834715086266161 O
   0.8282756406705670    0.6502049979835317    0.3990351866479156 O
   0.9864627364747020    0.7755582051593349    0.6293017977058981 O
   1.2427894455150295    0.6202330598149559    0.5297710510290079 O
   0.4076536721935750   -0.0900872213317693    0.2856074816991087 O
   0.6126034578724553    0.7449747673120659    0.5923143499655901 O
  -0.2798732934256934   -0.0576840787954858    0.6010509009819149 O
   0.7766660841812212    0.7640355222737288    0.4891104670997490 O
   0.0434853818868666    0.1804851831574749    0.0039530702048857 O
   0.5069992857590654    0.0572017755853592    0.8382396242339925 O
   0.2937258867639644    0.5213527163790035   -0.0516548452938939 O
   0.4383341388563047    0.4800108293459513    0.8501577628290803 O
   0.5128714399952915    0.5879637708949762    0.9286961404713341 O
   0.6367876959061162    0.5941527394172341    0.7292047711705841 O
   0.8261325337135521    0.4818294068466180    0.8299103388975799 O
   0.7545151557580745    0.4488093400377174    0.6893229283740719 O
   1.1136986465336405    0.8561986685479256    0.7932999630022940 O
   0.9700638165413726    0.8254891265042440    0.8417561527253729 O
   0.8261366511140459    0.7211157124522699    0.9073736755813067 O
   0.7794714063843198    0.7127695872293686    0.7590784109743557 O
