Li1 Co1 H90 C51 N3 Cl6 O45
1.0
  14.6993792012999993    0.0000000000000000    0.0000000000000000
   0.0000000000000000   14.3183952765000004    0.0000000000000000
   0.0000000000000000    0.0000000000000000   14.3655095502000005
Li Co H C N Cl O
1 1 90 51 3 6 45
direct
   0.9882839881642914    0.6679532835217157    0.3963891956147648 Li
   0.2348916272800582    0.1392047852576966    0.2233754928070285 Co
   0.4407310003967412    0.1708200599626043    1.0031953774308937 H
   0.5589355161252921    0.2683721929374828    0.1636386629367611 H
   0.3430948362876424    0.0558574563877734    1.0449850541494368 H
   0.5626161477532737    0.0225639209884261   -0.6755198756360783 H
  -0.0389940889033809    0.1635126768390413    0.1612308123917368 H
  -0.0791073475604439    0.2034913189246875    0.2646570079476971 H
   0.7118226530052800    0.3299796554334913    1.1111045326601574 H
   0.0327688056756438    0.3067340337299005    0.0736752686357210 H
   0.1432523830947753    0.3322655261171787    0.1204108193416583 H
   0.1926803208362375    0.5621315087529459    0.0583642906831890 H
   0.0496076120368070    0.4751664560389956    0.2073210675049487 H
   0.3375116073038809    0.5334400952204359    0.1921367818910101 H
  -0.0093404556423619    0.3666806955886318    0.2942890929435317 H
   0.1837227996921911    0.7042492503506910    0.2900692635119222 H
   0.1264380675638078    0.7254436645388556    0.1821865605291782 H
   0.5206145100279610    0.0461538550192573    1.0730508877066174 H
   0.3684020274897784   -0.1159907118240954    0.2740169265450940 H
   0.3623004092668763   -0.0639164405386989    1.0245674003951419 H
   0.3939895026374864    0.8148314747846457    0.1096127338677017 H
   0.5187359953218733   -0.1118554718857778    1.1864467957534237 H
  -0.0064362513616652   -0.0066495482532365    0.3494343697074158 H
   0.2962520417334952    0.1530142936684976    0.6497843144777306 H
   0.1882515623758637    0.1879707249119817    0.6052596146914223 H
   0.1963049637051885    0.2973000156439703    0.4462054584837722 H
   0.3414668763804727    0.1240250115607988    0.4141595363818590 H
   0.5228846739269267    0.2726841286542827    0.3286317661550873 H
   0.4041185018258897    0.2604215813080609    0.3550157937230285 H
   0.5207055342801880    0.2069260613696538    0.5708904892333472 H
   0.3482358697262053    0.3112876166378267    0.6321650299604977 H
   0.4112677833404932    0.0229997240151970    0.4496672918302481 H
  -0.2980301983782118    0.0226819509748432    0.5899033894751069 H
  -0.2624912825610187    0.1762368680966342    0.5713749830117042 H
  -0.1978899149116953    0.1276678778871397    0.4793738607833876 H
  -0.1458768339829181    0.2167120742079759    0.5562011390740232 H
  -0.0599119790937916    0.0530477839892172    0.5310337756236285 H
  -0.0205164378216278    0.1148507991254435    0.6321476271667349 H
   0.1556644718980810    0.3889199195973880    0.5735301449912922 H
   0.2630853349410830    0.4264597408986051    0.5268537637841484 H
   0.6780321103437184    0.6536283542234839    0.3504729684391811 H
   0.5647269171657164    0.6177570159846956    0.6390815963135942 H
   1.0020301469124193    0.4852314107505425    0.6240789958665394 H
   0.7234476337381320    0.5861710741758205    0.4433725621038848 H
   1.1895496307118592    0.7742843332377953    0.6666747699921763 H
   1.1670337138511848    0.7683954051580970    0.5439879280224488 H
   0.5283043585890488    0.6785955375632767    0.3478173021109742 H
   0.5295074025923244    0.8183060261599421    0.4693075975927452 H
   0.6422237953943735    0.8607451395008987    0.4586859068363685 H
  -0.2158634630719219   -0.0528977476647189    0.6509461249893367 H
   0.6986486272625552    0.6808793130401047    0.6057837868395585 H
  -0.1996927121344281   -0.0327753809863192    0.5339488828012515 H
  -0.0489557340854475   -0.0100158472741266    0.6351652716052084 H
   1.0133061333149838    0.8042869970631935    0.5473928890389078 H
   0.8855905356498818    0.7915614090010278    0.4444122050032758 H
   0.1331737261684408    0.2637906739380970    0.8081135399083965 H
   0.0986906372530142    0.1237617138987915    0.9476171191581906 H
   0.1919673655572096    0.1291575699642266    0.7134938541081753 H
   0.2512834759901514    0.2242520252929407    0.8508909992009174 H
   0.0930223706644068    0.2920703793227202    0.6901963860420085 H
   0.3090627868283184    0.3378331891450909    0.8342852533924313 H
   0.4278671238064103    0.1579729499025889    0.8742838345769044 H
   0.3543851090078212    0.2322214937840978    0.7860085112708582 H
   0.5306062245071010    0.1383757817436309    0.9191155196451890 H
   0.3842414719187928    0.0097650006861787    0.8121530763966230 H
   0.3027931342982409    0.0143262660192562    0.9398854059452434 H
  -0.1669049329092091    0.0997422624617678    0.8639201228352680 H
  -0.2669132380130048    0.1319064813638580    0.7093659114276337 H
  -0.1061186923636915    0.0346113604304085    0.7865340756424954 H
  -0.1645470102020423    0.1966337068736251    0.7223804167152235 H
   0.1450164031696984    0.3800376393177862    0.7711110236981309 H
   0.2947118406345265    0.4097714182628852    0.6856264123998911 H
   0.9983150240319122    0.6614281109590234    0.7695141433424543 H
   0.3605064559550475    0.5318187543123454   -0.0937980807496829 H
   0.5761094386796319    0.4682472449062648    0.7248523095412950 H
   0.4987448585550899    0.5449948118492983    0.9881426569378020 H
   0.6406393747408848    0.4237960345779256    0.8170697136904959 H
   0.6956968019231448    0.6141916723121553    0.9243447111150421 H
   0.7768267587511536    0.5337087705800493    0.8860822326363482 H
   0.8377667472862326    0.4552137312759847    0.6811023821333074 H
   1.1238080788567621    0.6588782442110421    0.7784285504195230 H
   1.1185541154789638    0.9087274717897400    0.8381793025248007 H
   0.2158778991373567    0.6785983311724227    0.0357323054505124 H
   0.5815280348604119    0.0097091285032593    0.9616792726303024 H
   0.5032804705076073    0.0001396203737496    0.8169458057989046 H
   0.4281957091115348   -0.0911415584707196    0.8536371600566908 H
   0.5060346426019240   -0.1505637202122956    0.9855099622973621 H
   0.6043881839455025   -0.1154445612360589    1.0506799443803829 H
   0.3393150848274524    0.6080659858573364    0.5319997698998152 H
   0.6596578649894579    0.7001824538364496    0.7585246271371066 H
  -0.2101693450514413   -0.0651889295046869    0.8263614133363426 H
   0.9079833180587397    0.7434205393931528    0.8642890620630397 H
   0.1222174811600967    0.1930879184651066    0.0615907686468164 C
   0.0885310245268664    0.2798762754005746    0.1162835727728671 C
   0.0479850945363474    0.2748414933172557    0.2180899162853838 C
   0.1172029836775444    0.2795654863830858    0.2993129314469835 C
   0.0268012067179788    0.0984264725540174    0.2669729717416536 C
   0.4404247289591283    0.2144715996729105    0.2164324742074125 C
   0.3515795483487457    0.0047120601434110    0.9922907868591087 C
   0.4630164993633254    0.2261104737772952    0.3160920090813473 C
  -0.0143876075651750    0.1861283396802165    0.2294476756067528 C
   0.1038758902460970    0.5924280602605000    0.2464446362190272 C
   0.2428239350600826    0.6186342092565292    0.0709388533444546 C
   0.2495752405840073    0.6447600419896119    0.1740747703004510 C
   0.1646213127412886    0.6733267907139832    0.2222958234819830 C
   0.3144303604461909    0.7319967731930075    0.1787338462466340 C
   0.5242088114795030   -0.0006775103014457    1.0087538297587395 C
   0.5307527613077715   -0.1035745159748454    1.0429092489094072 C
   0.5779823068887577    0.8054107263421587    0.3352517889024653 C
   0.3557933317440690    0.0066661897410149    0.3178127973286152 C
   0.2292301636998385    0.1814595203950193    0.6695517998570464 C
   0.3940364433953614    0.0749224420044247    0.3911300713396395 C
   0.4807475883046154    0.1273598824787968    0.3577069617505115 C
   0.5355384736182464    0.1425403545779811    0.4487562207711768 C
  -0.1948421671540186    0.1592524228914417    0.5514700851728371 C
  -0.0664952503105407    0.0614844836100373    0.6066351315104359 C
   0.2848712890017605    0.3475745042370775    0.6454788633008081 C
   0.2272232762254756    0.3698744892447585    0.5616210651635168 C
   1.0358077638580443    0.6187536360475193    0.5960068973036043 C
   0.5501025580648240    0.6370531727581756    0.4992548123780369 C
   0.7038570104841561    0.6616949006324634    0.4253053296751968 C
   1.0706956317725373    0.7086331215029996    0.6430167160392438 C
   1.1710311615797802    0.7285997444715117    0.6100586090994584 C
   0.5945238217833797    0.8033895501250516    0.4388092711345723 C
   0.6288266309765330    0.7138054888367573    0.4892798442434743 C
   0.7975752540327112    0.6955981412279179    0.4215796003641015 C
  -0.2262380508631201    0.0000153047651701    0.5962463597457808 C
   0.2924097025961387    0.2666087271640912    0.8010438289701871 C
   0.1423584677926353    0.3066558126738135    0.7456249802883514 C
   0.4569869930293326    0.1320468602234429    0.9383149778360862 C
  -0.1921413728241133    0.1224536064161924    0.7149751799132669 C
  -0.1720534496569985    0.0628016703223607    0.7982726080913951 C
   0.3258138343812806    0.5821928350715064    0.0271541203489415 C
   0.6035908713624676    0.4889987323643363    0.7951359285435838 C
   0.5263306697956176    0.5178503384292990    0.8587292175116930 C
   0.6677214708313642    0.5693713563754053    0.7812116051980736 C
   0.7377006166111416    0.5936258201818333    0.8635330847019828 C
   0.7310132593660611    0.5380163762026730    0.7001598335271001 C
   1.0629606112357555    0.6985356212449022    0.7555167282631402 C
   1.0555827486393263    0.7912443343629605    0.8044345893069357 C
   1.2400347559567655    0.6478001871427104    0.6072581515271449 C
   0.4430066067024171   -0.0174042450629226    0.8518599867576313 C
   0.7917960984073847    0.6776038063164584    0.8361243806372864 C
  -0.1676348957092062    0.0852776527062376    0.6178251278999313 N
   0.2355290691659830    0.2802038260729392    0.7159511285874861 N
   0.4437397669163564    0.0281727897512412    0.9470184630527495 N
   0.7594539162315582    0.2808498481879441    0.0407993028824961 Cl
  -0.3618288110377901    1.3636771972447508    1.2024295215452008 Cl
   0.9280998138610825    0.3805844883081092   -0.3837933632311177 Cl
   1.0087712479237625    0.8471381677531802    0.4234386364050213 Cl
   1.1119640412538270    1.0378271344477366    0.8571678388552925 Cl
   0.4886956790640992    2.1864230268234697    0.7079743840383583 Cl
   0.0728909082436108    0.1776427518993420   -0.0116729047594184 O
   0.1959784193025803    0.1521971629933023    0.0829572227170604 O
   0.1061358496324813    0.0700014994938040    0.2545543381125028 O
   0.1883189121589016    0.2271119826561243    0.3028429141338346 O
   0.2937784678837381    0.0232721009069288    0.2602909950484799 O
   0.3618622955267103    0.1887571258865714    0.1934378147527188 O
   0.5007383236939040    0.2271343315292920    0.1484801334575914 O
   0.5339405830081502    0.0774806895798439    0.2927291065106322 O
  -0.0331312562748860    0.0500677014327570    0.3218634716048500 O
   0.1015887188261620    0.5145991151531540    0.1919912945351529 O
   0.0523560274254260    0.5994288447802931    0.3138902076144748 O
   0.2908538545778784    0.5675443359939428    0.2316995971196622 O
   0.4024714934952346    0.5693069636845907    0.0618559872237618 O
  -0.0101581772505600    0.3543266575428796    0.2284097729867380 O
   0.3247280742426084    0.7703795660540200    0.2548933445350027 O
   0.3495420473366382    0.7623472413570787    0.0988411006402646 O
   0.5491106794419015    0.7254848702737585    0.2955588007764673 O
   0.4832944305547078   -0.1240872895313940    1.1256073248703438 O
   0.5839954860026202    0.8782268471340731    0.2829981603502119 O
   0.3978100721480025   -0.0769716744800889    0.3225212972090847 O
   0.2330398483969342    0.2877675228356447    0.5033519869192060 O
   0.0951755228191046    0.3346617443621319    0.3643945073376893 O
   0.4974778526669533    0.2123645199745649    0.5006244818583462 O
   0.5991002055257660    0.0914033391610566    0.4668780283611049 O
   1.0320783546599230    0.5467941056599871    0.6481672468812890 O
   1.0133442301619549    0.6220291427711655    0.5124887320893884 O
   0.5013870245587104    0.6139695803850509    0.4320432041419366 O
   0.5328223725194687    0.5970263409147616    0.5792946463972898 O
   0.7356243384512243    0.5765892043258400    0.6237796678138189 O
   0.8591132270050665    0.6514905448245327    0.3863651864073785 O
   1.2831454201094363    0.6474467955857456    0.5240526797112595 O
   1.0099733395058639    0.7835144178560700    0.6225405888979059 O
   0.6671833528678994    0.7387300696370742    0.5785094323427112 O
   0.8144868525836225    0.7818277763341925    0.4551975516321980 O
   0.3049081896059678    0.5589757780214331   -0.0612764358774691 O
   1.2634779228606796    0.5980131833455743    0.6714591460534518 O
   0.4503846733890979    0.5326643798008296    0.8302304024456935 O
   0.5523523129386269    0.5336282447964168    0.9479254966636678 O
   0.6121463347108026    0.6473189879673176    0.7474125952636687 O
   0.7906817656334842    0.4716752826892808    0.7288417259834845 O
   0.8719368978158262    0.6812075621147559    0.8791350373662292 O
   1.1300069800996080    0.8369289231292441    0.8121823130901447 O
   0.9818918814832357    0.8127278870977326    0.8436402992075747 O
  -0.2402522481417223   -0.0075651536508271    0.8087504821601158 O
   0.7643330338471959    0.7460332623469184    0.7913184517037709 O
