Li1 Co1 H90 C51 N3 Cl6 O45
1.0
  14.1047215445000003    0.0000000000000000    0.0000000000000000
   0.0000000000000000   13.7652236319999997    0.0000000000000000
   0.0000000000000000    0.0000000000000000   14.2268351670000008
Li Co H C N Cl O
1 1 90 51 3 6 45
direct
   0.7673129336764696    0.7255875809224921    0.3243685281603713 Li
   0.6699951670215689    0.6764754111479008    0.6102536144959610 Co
   0.1558113189307847    0.1378078094997418    1.0565222276817570 H
   0.1978440523051759    1.0570148153768839    0.2941952679123214 H
   0.0844621613579136    0.2840437191961488    0.3113860202566863 H
   0.0578320716524940    0.2123739791051438    1.0357635700791836 H
   0.2572858496745774    0.0343093093600094    1.0040804870386533 H
   0.0499148646627860    0.0792755239706519    1.0332247060538393 H
   0.3715249004007021    0.2392729245853490    0.2893853436251034 H
   0.5259577258292466    0.1655959523026513    0.2179414850248683 H
   0.6467462146076257    1.0895816673209280    0.0666864817342267 H
   0.6622502427665703    1.0670073882312934    0.2570928488708482 H
   0.8755915689676095    1.2084762122809805    0.1072091976603414 H
  -0.1519147135404123    0.1738094040432513    0.2930657124060289 H
   0.3428820095272176    0.3338256928363719    0.2025374968976753 H
   0.5712587973877388    0.4323785413964424    0.1870266684239008 H
   0.4252437914549856    0.4997032739816515    0.2957795977886021 H
   0.5131104037868870    0.5391831265818406    1.0546911809525148 H
   0.5418972110073619    0.6772200412588255    0.9848506304480191 H
   0.9851073786293988    0.4811430233943619    0.2272162111639653 H
   0.7246173017137933    0.4071923904650444    0.0979337686242274 H
   0.8795980287776606    0.4631125135650103    0.2937882905394879 H
   0.9631225419191046    0.4710054438147903    0.0650262389801117 H
   0.8545397531580456    0.5082272909636373    0.0118380217049717 H
   0.1359406678785285    0.7003290010915240    0.1694802501889421 H
   0.2047665569212329    0.7773121310667276    0.0994611638421325 H
   0.0548869585661461    0.8238613203229360    0.2891393296691592 H
   0.0973713137595079    0.8013022970697204   -0.0201402780826919 H
   0.3434031116260297    0.8391483948831207    0.2480859264952219 H
   0.5533552181356926    0.9217950725117576    0.2601181176319451 H
   0.4148018979702162    0.7248908977260268    0.1932747200078669 H
   0.5496573074867340    0.9645303026632295    0.0716995432593529 H
   0.6196333078555516    0.8720857457116248    0.0317208696243834 H
   0.8605668129430827    0.6801157443048216    0.1708262979764655 H
   0.8927014423698323    0.8805432908349280    0.1715207602292451 H
   0.1184585786914398    0.1509656051768822    0.5506116076799837 H
   0.3082425451139327    0.1816966714718464    0.6522791242443864 H
   0.3302280908066741    0.0642339957299722    0.7063326077474331 H
   0.3936954905122055    0.1110490724209107    0.5388015320006272 H
   0.4657749709041057    0.2007947992631639    0.5833867818158014 H
   0.5817138779460290    0.1231149860914951    0.4952582567234294 H
   0.5020090786380004    0.0358269018494941    0.4605011941585251 H
   0.4382954493284998   -0.0776983151594903    0.5731663780300548 H
   0.6080003238592115   -0.0035912735834585    0.4995296916059364 H
   0.6824087406924562   -0.6987430746595515   -0.6230101292703056 H
  -0.0492746156531541    0.2129035745694015    0.5373728235239066 H
  -0.0664369537564819    0.3364889259940793    0.5023168891473809 H
   0.1744299069809971    0.3608074557142800    0.4892237452532228 H
   0.0691027656182312    0.4296805830491719    0.4966333341577542 H
   0.3120880659084322    0.5181305808515759    0.3880158530482256 H
   1.0328757800029604    0.6526726739923406    0.3920076052076747 H
   0.1082279619759848    0.4529389774319360    0.6643197501453135 H
   0.5142446197265301    0.4542420438026342    0.3706465648615467 H
  -0.1211689807280477    0.6089232939532094    0.5787266448829026 H
   0.1991833201482455    0.7548025076647733    0.5706317313868123 H
   0.2892645029629071    0.8318016199447968    0.3599885373930262 H
   0.0765435364033109    0.8215373479084499    0.4981438598472517 H
   0.4184474857145593   -0.0488524343648673    0.6951755233968543 H
   0.5292301761115422   -0.0976442315746607    0.6500256364079374 H
  -0.0418331358856271    0.7854187919523951    0.6568542809279319 H
   0.1130050857063199    0.3009442800747372    0.8986529634613006 H
   0.2245436222904372    0.2487591489643297    0.9205671837597947 H
   0.1837076512871955    0.0674297302255409    0.8016566896026651 H
   0.1661730973990020    0.2386045736565190    0.8076214736887869 H
   0.0307156199881830    0.1245584788040878    0.7750246245261779 H
  -0.0067016376538719    0.0680145372882671    0.8733374244976236 H
   0.3595430970402593    0.1602280772883850    0.9906593713963706 H
   0.3808161153734005    0.1527105822758492    0.8162080636482572 H
   0.6205797994227819    0.1460742934336078    0.6567094841424332 H
   0.3897627648766802    0.3058908034164803    0.8126654626826605 H
   0.5590996066189656    0.0881217296884378    0.7498011650717257 H
   0.7457924804691985    1.0295063629083219    0.0272891039323026 H
  -0.0212109634391655    0.1993919887810218    0.8650270730658279 H
   0.1781690804083920    0.6615791765874015    0.8362898314234752 H
   0.3960528571496890    0.5731105811939343    1.0376213268950709 H
   0.4298642300644533    0.4495109183417588    1.0101478940892545 H
   0.6416599745302400    0.5299333676673535    0.9488405133709383 H
   0.3741530983330785    0.4512224778942843    0.7269591207108135 H
   0.4874445231200573    0.4243650864066107    0.7522739567774736 H
   0.5734874128127811    0.4337853474547896    0.9141722266992790 H
   0.4294813795428770    0.5942755115858187    0.7826587890276356 H
   0.3498264925991428    0.5501360180154028    0.8651360221034604 H
   0.6152269819451875    0.5287873637649304    0.8275317345918610 H
   0.4303541369355815    0.7033888859961240    0.9262620553913948 H
   0.5391068687892735    0.6981757487512499    0.8610444585675995 H
   0.1381214978866185   -0.0137364048020575    0.8936680178168539 H
   0.2285075431536464    0.7981101949161562    0.6845913001151170 H
   0.1342561255835928    0.7837675292771444    0.8105806701302875 H
   0.6437060978733311    0.0242390043867033    0.6776284022648787 H
   0.3106410327333633   -0.0134436380364939    0.9135656265736223 H
  -0.0377947718654447    0.6652086127183088    0.6932769985539821 H
   0.7946690214079893   -0.0774571276503908   -0.2442821875494356 H
   0.0929288297443283    0.1431844021348189    1.0142275083758268 C
   0.4169642944346749    0.2182511084684425    0.1492382218938518 C
   0.3975303765699945    0.2874203443235422    0.2342732972144795 C
   0.5611926646000721    0.2872961182269879    0.3199009147204243 C
   0.7076669493622274    1.0489219573908337    0.0903052272989057 C
   0.7785084755027862    1.1085512102052859    0.1409032690664616 C
   0.4849560656280562    0.3513996899225967    0.2662761983977374 C
   0.4524240515395592    0.4345946332533945    0.3339089493718880 C
   0.8550516384850422    0.3616218267916914    0.0818964702847323 C
   0.9152506291082279    0.5141150994124292    0.2456039971282532 C
   0.7492516058298848    0.5422507120514901    0.1793327576759996 C
   0.8578067442754966    0.5375972460626711    0.1554982227271067 C
   0.8856796802111445    0.4683900812923604    0.0734891190645929 C
   0.9382854688230672    0.6054754749225275    0.3027340608746367 C
   0.1580148363771904    0.7745203130020605    0.1584243830088089 C
   0.0652870220865210    0.8192743988396395    0.1156397444820413 C
   0.1891653981669996    0.8257959056745384    0.2483902809035757 C
   0.1979709601632540    0.9375899484841730    0.2202139510807759 C
   0.2903981658962413    0.8034824287408279    0.2898886178892635 C
   0.3140285508668660    0.6963123573029358    0.2857457428711629 C
   0.5300635140801734    0.8377063551073298    0.1549949484629465 C
   0.5960837468839262    0.9053718013725619    0.0989529692988535 C
   0.6767290823066272    0.9658517486844707    0.1522782514923053 C
   0.7551538847041859    0.8995767629385653    0.1881084269330383 C
   0.1081925128536167    0.1858222855205699    0.4200932613152838 C
   0.1019286529311603    0.3220053254852925    0.6100251729654415 C
   0.0561078263405060    0.2836565115384680    0.4405082022765520 C
   0.4362691774939350    0.1271839356049483    0.6024535662984953 C
   0.5532420645370933    0.0507761686032592    0.5117587641971166 C
   0.3652908177410351    0.1333000730721438    0.6826288116436992 C
  -0.1269826367964282    0.2473752266606111    0.4036089204729871 C
  -0.0465457422132521    0.2663164372773337    0.4783990609019755 C
   0.0999534278328057    0.3540200614446508    0.5093674171687266 C
   0.3820851939541812    0.3999439067013627    0.4102836305462623 C
   0.1354252376392952    0.8901726294888864    0.6041763668871218 C
   0.1724327034267741    0.7885375207974681    0.6307669610396071 C
   0.4697188984622992   -0.0495701851449586    0.6323639430621935 C
  -0.0081373271097830    0.6790638180603152    0.5450259662448228 C
  -0.0007291695172820    0.7136698668056918    0.6488616389478128 C
   0.1797451483888811    0.0606183624986820    0.8789950425873236 C
   0.1582835407247412    0.2396165441389757    0.8839673360854648 C
   0.2749139892458229    0.0542472346227698    0.9322922089000962 C
   0.0225488511770031    0.1360323207279369    0.8517352904746703 C
   0.5895362939825245    0.0800564775016217    0.6782153212740599 C
   0.1361285482270798    0.6237904697776725    0.7101057589346005 C
   0.4520570113265592    0.5256900657376840    1.0100129378619938 C
   0.5875213658671175    0.5102557360326364    0.8977701248079695 C
   0.4226389899433721    0.4377807057192313    0.7864642734775841 C
   0.4200823992381795    0.5345903207044970    0.8347849289101136 C
   0.5026562378159538    0.6656924406733097    0.9190594696583653 C
   0.0982773933272384    0.7311152789849569    0.6857707613096155 C
   0.5149804442493509    0.0523082904607619    0.6086334368718141 N
   0.1125683525187440    0.1454182924675931    0.9072796185507390 N
   0.4876666473208162    0.5581053763732997    0.9159301721387547 N
   0.5351217493508881    0.5990128120281017    0.5924527475408544 Cl
   0.7896267382423403    0.5731846809708264    0.6600967448672767 Cl
   0.6941899020202951    0.7510430336901046    0.4639043403559523 Cl
   0.2294554526857714    0.7690507324116679   -0.0972565156099836 Cl
   0.6629209401617761    0.8061275001885126    0.7207665979911890 Cl
   0.8511189128495169   -1.0290101390777027    0.8153934060055733 Cl
   0.2183223013148227    0.9873101723103194    0.3013634116915189 O
   0.1976483731497036    0.9759591035462227    0.1412877537347516 O
   0.3590680788005258    0.2097681369511077    0.0858959543113683 O
   0.4879377622086880    0.1521526545439564    0.1587800488994025 O
   0.5526081633309056    0.1986291969600745    0.3272967971331245 O
   0.6346027632491841    1.0032663242677349    0.2410660939866079 O
   0.8495761670440540    1.1411812649002082    0.0924469545096544 O
   0.7682530444016734    1.1294211944264037    0.2251693750505094 O
   0.9216874807478408    0.2968477247620498    0.0832973440395804 O
  -0.0999739504641165    0.1983189949528893    0.3291158946130777 O
   0.5225458186995546    0.3798343896023090    0.1762990541506989 O
   0.7606889106707526    0.3403442937976672    0.0856351795180674 O
   0.7304288308348319    0.6078256001994462    0.2370110810956302 O
   0.6874070669463687    0.4877624581697025    0.1444711743246698 O
   0.8920413797113369    0.6316181667973937    0.1255168533646932 O
   0.1160778156331933    0.8090835001117838    0.3216054399866092 O
   0.0000854513147386    0.8449252716070947    0.1691519972820108 O
   0.0457942586787095    0.8182333696211468    0.0263971276177505 O
   0.3918478822543762    0.6724856466901460    0.2368058351666710 O
   0.5116126145584113    0.8594677160563547    0.2453727440096657 O
   0.4843589606108866    0.7741883169428483    0.1177161022702105 O
   0.7421213693567503    0.8311398072315749    0.2382439624634192 O
   0.8404905569810910    0.9274913112432316    0.1579921013433641 O
   0.8927808484039370    0.6831109735217413    0.3135678125974031 O
   0.1383051243404857    0.1740106357903013    0.3384784828792977 O
   0.1246798996670544    0.1219657130812679    0.4880889883090047 O
   0.1079961247156970    0.2336035651847084    0.6236072520246132 O
   0.3895564509844974    0.3243554507622110    0.4534929594506912 O
   0.6307288831567901    0.3438262568431914    0.3540947459056197 O
  -0.2049912664973845    0.2818577757778342    0.4203406810652620 O
   0.0612961598903120    0.3394434729805486    0.3518166566735762 O
   1.0154121243595031    0.5915992019968949    0.3504994276637492 O
   0.3061623906133683    0.4592450137391273    0.4256327927061306 O
   0.2713556063425056    0.6361934647862756    0.3301695372415360 O
  -0.0822309557363981    0.6265270762438711    0.5191245977623408 O
   0.0522573426688750    0.7054891061431322    0.4872044627028326 O
   0.0829066538683982    0.8930879471817070    0.5226214752769828 O
   0.3349655115199569    0.1356414807282515    0.9278991025439495 O
   0.4103360175342737    0.1834728867120522    0.7585079504211001 O
   0.1209166208364490    0.5595466896806897    0.6525659062273157 O
   0.1014543436738742    0.3770280421696239    0.6838926204802355 O
   0.1698321558098449    0.6033643577495058    0.7929147594024415 O
   0.3924342107383458    0.3659268785354376    0.8483255370452835 O
   0.1484208858994678    0.9635742702476423    0.6513590320491550 O
   0.0784230488712715    0.7833214776789904    0.7694232381978366 O
