Li1 Co1 H90 C51 N3 Cl6 O45
1.0
  14.3667327972999992    0.0000000000000000    0.0000000000000000
   0.0000000000000000   14.0209283247999998    0.0000000000000000
   0.0000000000000000    0.0000000000000000   14.4911148192999999
Li Co H C N Cl O
1 1 90 51 3 6 45
direct
   0.5374981915617757    0.5718307287983634    0.3409942900403226 Li
   0.7041239674967114    0.6059290416150948    0.5076577269198230 Co
   0.1754073756890363    0.1865973209329076    1.0896516663210565 H
   0.1174714474760172    0.0946583301515402    1.1494227750867134 H
   0.2140591699302684    0.0283531627286648    1.0263163045186900 H
   0.0179860585455144    0.2256846044069009    1.1030157174941293 H
  -0.0151996355664831    0.0044381984529464    1.0815763731873531 H
   0.3360249658229370    0.2949738823701600    0.3448752888938473 H
   0.3743022838296691    0.1352319631394340    0.0678455330704151 H
   0.5122762426947306    0.2040740524533574    0.3200600828531729 H
   0.5239839846269542    0.2986968883502755    0.1051863454749460 H
   0.6246452150127371    1.0591993139378550    0.0643012922966413 H
   0.8021337251685897    0.3651568244125541    0.0224998154914730 H
   1.0851848584620436    0.4012766866833160    0.0210478913115626 H
   1.2065242071222775    0.4823134036309584    0.0905773935316458 H
   0.1690238783905249    0.6555833857406953    0.2450134067650366 H
   0.2751586566670836    0.6165360425607417    0.2861054833530243 H
   0.4220974234545284    0.3683256588128708    0.1053878482603709 H
   0.5865516548608526    0.4634151542524687    0.0544207550305018 H
   0.4003965952705038    0.4024539268501318    0.3065994207555813 H
   0.8587200076219518    0.4845178225741271    0.1943789311467249 H
   0.9338894991992545    0.5849418435363829    0.0656276222746774 H
   0.0625626515006195   -0.0971178445575160    1.0848183597829897 H
   0.1071225391961930    0.7939900557589361    0.3535047146874690 H
   0.2940676183518902    0.8440823166798991    0.1142836441744514 H
   0.5508955312851241    0.9628697436902827    0.0489063414745778 H
   0.5395037275737919    0.7256393747056066    0.9850192747551161 H
   0.4076828726362019    0.6216662306862148    1.0181368096021131 H
   0.3839328659496346    0.7112473176801758    0.2008656646501270 H
   0.5478042926140502    0.8418271165057372    0.1487433807942266 H
   0.7412395739135169    0.9783116598733246    0.2148659677689592 H
  -0.0362781928329558   -0.0939083566436234    1.0047837996775564 H
   0.7343639675113039    0.8586926188834745    0.2017537950776673 H
   0.3390479217456755    0.0048482996863883    0.6085071797206253 H
   0.0961082047450268    0.0772300975595670    0.3777416353370955 H
   0.2162057957800786    0.0747431010360684    0.5047065392069880 H
   0.0857231017362175    0.2224851015665182    0.5669924993456711 H
   0.6502251436704948    0.0678498342165635    0.6416019419925569 H
   0.5566837645023263    0.0581143875444227    0.3682454715349341 H
   0.6301245401391009    0.3376771888938057    0.6078522956679946 H
   0.4623270990637680    0.1284485321285379    0.5771402348259083 H
   0.4985149371293375    0.2386794643604838    0.5281549076891318 H
   0.6519367367200030    0.1316059550162718    0.4838552793993181 H
   0.5827897000195850    0.0370587203902144    0.5345272952625856 H
   0.6933783093030116    0.2409931485366322    0.5763212502172022 H
   0.6639742683174793    0.1089847709796204    0.7501650180303462 H
   0.0793890241638204    0.0939529560300203    0.6804250420104185 H
  -0.0074637082983928    0.1890900232126975    0.4843712507440515 H
   0.1856978155604999    0.3303274615709916    0.3233938498271023 H
   0.0398330577504406    0.6076678708448882    0.6443995183354072 H
   0.1657085804259834    0.7152377809864489    0.5596747048679981 H
  -0.0028537527201526    0.6750785285492155    0.5485911545681904 H
   0.1739679391593970   -0.0366503790402430    0.5406279991147320 H
   0.2974977649757114    0.8215360206945717    0.3894743420418659 H
   0.3880012926980589    0.5555094129269149    0.6436611348408710 H
   0.4528466554638426    0.8036042551098855    0.4662273740804132 H
   0.3794398471881156    0.8678810261711809    0.3082397362383033 H
  -0.1488027328803503    0.7582670288382388    0.5659950605578181 H
  -0.1163123951963555    0.8174799411909479    0.6688558837992977 H
  -0.0648873418857763    0.0091126392946469    0.5931957283404672 H
   0.1689062455213232    0.1140992682752923    0.9449878481027378 H
   0.5394947484967937    0.2272722310949731    0.7952215929137643 H
   0.5546968130915390    0.0663927267036563    0.7202101108052740 H
   0.4785117113399633    0.2957042191754547    0.7062615635388626 H
   0.4526550322159655    0.1738199929379329    0.7192985177246363 H
   0.0546193005933452    0.0866852489538946    0.8545179279932145 H
   0.6966796862179434    0.2794207039394365    0.6865384432983589 H
  -0.0345895695153036    0.0954557095932584    0.9426353720907061 H
   0.9103524845717150    0.3273369320547801   -0.0287716021506301 H
   1.0451527921520134    0.4826265070074470   -0.0605524558491068 H
   0.3182540499437204    0.5826802243863932    0.8808450950026074 H
   0.4296537691826541    0.5139707225842903    0.8910879232356923 H
   0.3906831829053607    0.4632704420085290    0.7351682422329063 H
   0.2921179753540568    0.5453474609719945    0.7243464385307412 H
   0.7150554717027000    0.4468248832938361   -0.0939736250303054 H
  -0.1009505169520913    0.4995808765394224    0.7314507918730311 H
   0.1681391956878307   -0.0210743775843541    0.8700895387915408 H
   0.0890697220623807   -0.1240047946414990    0.8780392377233699 H
   0.1809389047514363   -0.1081834456650813    0.9596671880053302 H
   0.3040782451261996    0.7019269647782317    0.7856067356900512 H
   0.4938433809065745    1.0092047640933819   -0.0838984857590638 H
   0.5394250736434973    0.5265312318401931    0.7448044918756198 H
   0.5194785830918073    0.6307184130424647    0.6806562181512312 H
   0.5573871951391026    0.6355775777440981    0.8046052739966645 H
   0.3667508104689069    0.6912850160753002    0.6797349639781416 H
   0.3910298170406413    0.7176399043851134    0.9370733431505549 H
   0.4172981416015968    0.7519386318915789    0.7713152196415984 H
   0.7826978517560573    0.9614397385197594   -0.0294665107291329 H
  -0.0994748856934669    0.7015689285709485    0.8057694356371153 H
  -0.0272399513738815   -0.0061773611271375    0.8665094139600888 H
   0.7889685885527304    0.7985903217688489   -0.0404925775288519 H
  -0.2256629359327467    0.8065213230138458    0.7816367167703627 H
   0.1196312983229565    0.1345807937026820    1.0813196641593463 C
   0.4105979404244655    0.1850425023435107    0.1890342767867410 C
   0.4395224012509449    0.2862918609533123    0.2309723890423001 C
   1.0393421460449397    0.4611958290209888    0.0149407007259127 C
   0.2804973791923898    0.3703298057102125    0.2250287469502999 C
   1.0881305525594485    0.5500176224964765    0.0585301697127103 C
   0.2219614537411941    0.6787658735525098    0.2923700117300332 C
   0.3612756616574260    0.3356181240921595    0.2853698601706173 C
   0.4803456008102923    0.3464212604103220    0.1516078947062077 C
   0.5339813864041343    0.4357258321900127    0.1837013537533057 C
   0.9384653482059511    0.3917627659991873    0.1520578255832522 C
   0.9334454177167062    0.4465342463327446    0.0576579110799124 C
   0.0182575190129029   -0.0483065259239645    1.0421784381686050 C
   0.2074376226834317    0.8384271989756203    0.2175814248259685 C
   0.2737888253854927    0.7693996725822275    0.2541942049064474 C
   0.6239658677917854    0.9871377516365293    0.0370024954178026 C
   0.6098694129570398    0.9229765221401340    0.2342040244674525 C
   0.6713955798643912    0.8215994972333132    0.0347569815007739 C
   0.7010314063259244    0.9236398163090052    0.0721329878849510 C
   0.6988792120562703    0.9257352553070090    0.1796319635969693 C
   0.2188006794273199    0.0616826248851348    0.6511153577455252 C
   0.1222018201333810    0.2002640336897987    0.4313717396935207 C
   0.1744816258899936    0.0400064567342406    0.5578368200446352 C
   0.0656712218784575    0.1779580926882451    0.5094475823121394 C
   0.0695357052501002    0.0740805200867337    0.5464610907059615 C
   0.5812972242909329    0.1046926158094413    0.4966916279011089 C
   0.5245342837180241    0.1734177371193917    0.5615913275948436 C
   0.0084891185018017    0.0106111135406665    0.4871059609781613 C
   0.0068812372718855    0.6771090645694049    0.6238379532856870 C
   0.1924634456707966    0.6891360856120650    0.3899981112683640 C
  -0.0931241028615382    0.6674164110694492    0.6668125627457260 C
  -0.1247046999535415    0.5688673016245359    0.6192158106254969 C
   0.0706145865948491    0.7514579219240315    0.6618094970117190 C
   0.4184480202993550    0.7279316622956623    0.3590626031594265 C
   0.3417110185360042    0.8047104586108740    0.3271064696407516 C
  -0.1513029533902460    0.7539278011786559    0.6394778818092089 C
  -0.2497463517574654    0.7381435396181322    0.6693189261589554 C
   0.1499673535798558    0.0672785453678907    1.0046368130566814 C
   0.5066394008920335    0.2283606041075509    0.7251807428717639 C
   0.6140109252159147    0.1077016890335997    0.6936538378891651 C
   0.0137519713067351    0.0465295626143432    0.9031504872398911 C
   0.6512831434408293    0.2688322467017366    0.6288134158984029 C
   0.8553636425610619    0.4369369502848084   -0.1038445012039930 C
   0.8699125315081216    0.3909047628968734   -0.0098558732078902 C
   0.1324588494857814   -0.0708114551761794    0.9168009207963589 C
   0.6313113096183247    1.0024455825467240   -0.0657446029639576 C
   0.5164306597665939    0.6008823001753828    0.7508902900422691 C
   0.3661584698080156    0.5330548369739713    0.7134783996004137 C
   0.3967980039464056    0.5789907397244894    0.8786747995910968 C
   0.4309769649480527    0.6516000546297864    0.9456020175514641 C
   0.3725872105177585    0.6944602694514446    0.7532876211263988 C
   0.0759693183272064   -0.0033002335172168    0.9701308412087437 N
   0.5777702567670765    0.1961038241338575    0.6528881682104443 N
   0.4174046376311107    0.6041595439452353    0.7753866800320316 N
   0.7262869745277769    0.6569327971036031    0.3665257970785003 Cl
   0.3734551879609210    0.9829247638348929    0.9867955356101966 Cl
   0.5778817643744499    0.5016196859062343    0.5060442623733369 Cl
   0.4337771840770365    0.9022218336302952    0.5571579212764812 Cl
   0.5930785389703436    0.4262352337847249    0.9258340422388623 Cl
   0.8789472927047937    0.8233076580230405    0.8813557527464922 Cl
   0.0325948080058958    0.1768739989928858    1.0553099330448006 O
   0.4216888406484848    0.1098277964716695    0.2264675596475970 O
   0.3889388753892698    0.1927017669451313    0.0974202072997027 O
   0.5195367382765517    0.2661876286606891    0.2866099303946187 O
   0.6119255519843871    0.9591952366386438    0.3120786403318593 O
   0.9870177929295761    0.3204721940167321    0.1621847207069145 O
   0.1969752578492887    0.3743794662380086    0.2613999997194819 O
   1.1751830520835604    0.5465670663792737    0.0856419554448020 O
   0.2928014988898913    0.4103153891903276    0.1449203484954130 O
   1.0465219273811239    0.6234899330408421    0.0683299678490734 O
   0.5158585756249896    0.4651618859547256    0.2633729328137613 O
   0.5857853010798406    0.4852495858184946    0.1251413319342948 O
   0.8868927317695092    0.4271104254778667    0.2176359409905183 O
   0.8851115334719528    0.5336909574785048    0.0689448273758320 O
   0.2336272933140925    0.8712552677979866    0.1325679517176580 O
   0.1332293795816763    0.8572347981510310    0.2527740243160216 O
   0.3253579615595319    0.7399408528499121    0.1762298788978446 O
   0.5316132070497863    0.8826418176969412    0.2069328307099048 O
   0.5924527877903892    0.7935157647672165    0.0582748408407679 O
   0.7905360987387786    0.9405923314701858    0.0391024028700210 O
   0.3106002568683272    0.0474153812785776    0.6572846553540799 O
   0.1268521467554893    0.1369736452473731    0.3618587993462121 O
   0.1624649758669316    0.2774536444579885    0.4247166271502431 O
   0.5265842278782952    0.1001864947783361    0.4129404455294391 O
   0.0272463407458629    0.0717425864463471    0.6346701081583362 O
   0.0248776741547786   -0.0168756541734461    0.4081299115664375 O
   0.2239598204126614    0.6422654373371139    0.4554684364869885 O
  -0.1513718625858138    0.5717458556735293    0.5392998059260088 O
   0.1188336221803228    0.7487334232949049    0.4086157265011603 O
   0.0525861312978538    0.8049636515463031    0.7250206447682757 O
   0.1560953996180299    0.7572842123170511    0.6142293067642646 O
   0.4696433762913749    0.7418715381350025    0.4307651611031494 O
   0.4377516437405956    0.6543616406748068    0.3124637038738697 O
  -0.0696156263856987   -0.0211285822691220    0.5288139322099561 O
  -0.3085140626846619    0.6923334487938385    0.6236364505002622 O
   0.1824576912638506    0.0984647828174168    0.7184517919790326 O
   0.9232552094024321    0.4505992410805737   -0.1568887293110153 O
   0.7697227374673700    0.4618962819277075   -0.1335316581525418 O
  -0.0972746638026596    0.6452909146106101    0.7610054538393828 O
  -0.1244464644832822    0.4913425489961820    0.6663101859382284 O
   0.5563633019403118    1.0274453537373383   -0.1148650473794538 O
   0.5279127832477934    0.6648909006909839    0.9467020019349134 O
   0.7090784690527907    1.0157799349996433   -0.1024836673243431 O
  -0.2777624640969142    0.7858379564576490    0.7419227260128318 O
   0.7223911687945124    0.7680317175113729   -0.0185501663365459 O
