Li1 Co1 H110 Cl3 O55
1.0
  12.1952114129999991    0.0000000000000000    0.0000000000000000
   0.0000000000000000   12.3532574401000002    0.0000000000000000
   0.0000000000000000    0.0000000000000000   12.6853889338000005
Li Co H Cl O
1 1 110 3 55
direct
   0.8187237898849864    0.4754352241567513    0.5159853987180238 Li
   0.6559943436463983    0.8639214208761449    0.5666105709812778 Co
   0.1202807935692160    0.1455513842254586    0.2182089553064106 H
   0.1923697447343302    0.1151763999899675    1.0415932484099206 H
   0.1320477072487140    0.3030644943856762    0.2871433809328899 H
   0.0253528779476847    1.0599344977298559    1.0136477118678409 H
   0.0149538782333531    0.1726899751295664    0.2837355232609179 H
   0.1859163920752605    0.0116866114707014    1.1144250712906747 H
   0.5646847334814629    0.0582302865125247    0.1840113440022652 H
   0.5290600948190384    0.1451401566585895    0.2785405702055637 H
   0.5984053461115673    1.1165673335136406    0.0016898549198506 H
   0.8146074200821237    0.1781840725633078    0.2243041566757578 H
   0.8488913685796715    0.0629801268104797    0.2694190524812082 H
   0.8415360225375046    0.2688168473944730    0.0544859499781181 H
   0.7165197396402035    0.2521605119301054    0.0913693283626264 H
  -0.1005329265709221    1.0232478179453917    1.0133639208056364 H
   0.1268481253921498    0.4284273800463400    0.2313453282524534 H
   0.0723742850049434    0.5235269928971582    0.0658148103504702 H
   0.2866214933161323    0.3618967500497431    0.2397676163318773 H
   0.1062826762575289    0.6524104074718253    1.1892355485217989 H
   0.4065316736711172    0.3354786168907407    0.2763191168353076 H
   0.3791955342053732    0.3520191934140408    1.0899559752605998 H
   0.3796555508307530    0.5155404354665862    0.1878567128951358 H
   0.4381973813757287    0.6220839934213976    0.1438643684024054 H
   0.4784582660272738    0.6024138779738535    0.3231470070245644 H
  -0.0184385892039804    0.5101637159800811    0.1488843169694001 H
  -0.1660898056544418    0.4305393735935083    0.1072521681440036 H
  -0.1931873268706572    0.4846700353434497    0.2110109103369965 H
   0.7794747778104797    0.6624069610609328    0.0634617094596914 H
   0.2104907918007571    0.6769666835367354    1.2415319348180347 H
   0.2042596575115233    0.8400410798866986    0.1739572573151655 H
   0.3079249370369239    0.8971434274594285    0.2314958951771230 H
   0.4867713650434934    0.9780856408673849    1.0176996175893158 H
   0.4428155874971874   -0.0284463657949280    0.3005272827498555 H
   0.6422266446443933    0.9961780348034568    0.0369230671084905 H
   0.4714186176691909    0.7666822913732891    0.0112469130938393 H
   0.3684052333615744    0.9270626614584091    1.0562084881134510 H
  -0.2433988385257360    0.8422348332453903    1.0341752653672980 H
  -0.2196436127908888    0.9279531148512359    1.1275346417475092 H
   0.1953750226880138    0.1137225324504067    0.3880949565355770 H
   0.2829323403792639    0.1196820941576712    0.4768041010381653 H
   0.2161922099759174    1.2507667548434838    0.5941572234192588 H
   0.2860753773223661    1.1582000771437158    0.6432869744463965 H
   0.0130377162900604    0.3320333717635853    0.6221768609609141 H
   0.4049548252386659    0.2657901153619462    0.5750896172731426 H
   0.5034943223661194    0.2816806609084828    0.4259164220423723 H
   0.6382094941136712    0.0381032065738435    0.4012857227685422 H
   0.5840037917594402    0.3274232516979956    0.3424589888075790 H
   0.5882415206720287    1.0521146979346678    0.6408731738006461 H
  -0.3972051102235369    0.2215313437261165    0.6066235341350965 H
   0.9197142490325108    1.0434449199008724    0.5382645737180873 H
   0.8754673736216597    0.1708256895262208    0.3991226042277392 H
   0.7958533376595592    0.1212063884655738    0.4775774316826726 H
   0.8720233988861968    0.2609622389666562    0.5385318103016633 H
   0.8182809931332840    0.3210629859639591    0.6367984071324935 H
   0.1123366918460817    0.4041528110547969    0.5778699813742403 H
   0.1372374491774626    0.5774301842803866    0.4938236816853727 H
   0.1466960797902159    0.4685398768839343    0.4338326160608649 H
   0.3112631325483688    0.5555072217489907    0.5187365954043950 H
   0.6414246905274211    0.5214878546275848    0.6496959226011808 H
   0.4480159893477363    0.5520935472421266    0.6263604142029117 H
   0.4753709886751268    0.3608573480893890    0.6066724092624761 H
   0.5868959105432443    0.5714171953695525    0.3729255359522416 H
   0.4130932655361585    0.6251155824724307    0.4881360358136913 H
   0.9651009160820032    0.6400978655582839    0.5005692375722718 H
   0.9418376867379363    0.6150162219916060    0.6196140700075063 H
   0.1922656054982816    0.9416903821933004    0.4745116999023581 H
   0.1117889358643462    0.7574571942236034    0.4827148382170797 H
   0.2366322000308893    0.8595501042204496    0.5641896755589724 H
   0.3152286234580590    0.7175899768205786    0.6572061377390198 H
   1.0149729502274436    0.9555166948746474    0.5614069465323562 H
   0.0982885549013319    0.6881774917524249    0.3744469713690601 H
   0.3363770883157546   -0.0049731320016514    0.3643905197564420 H
   0.4774685332878206    0.8727773846193496    0.4198645776408619 H
   0.5464734870767263    0.7621515026099694    0.4251367849298162 H
   0.7531439509698969   -0.0264096560346077    0.3903976056819638 H
   0.8462509879491500    0.9251765192717850    0.6349301159729807 H
   0.7907021354480885    0.7995335455439231    0.4254379187791553 H
   0.8173543999306476    0.7026408833611855    0.5181816262160840 H
   0.0002809878717106    1.0209083540315103    0.8285844069702780 H
   0.0107239392636186    1.0026702495402486    0.7044778456172243 H
   0.3161404567689720    0.0298593890630530    0.7761768691746787 H
   1.1347576715027794    0.3085262116960421   -0.1233225517375898 H
   0.1834990498085595    0.0563508632015010    0.7581127797568578 H
   0.2610827806647061    0.1743518849618150    0.8613386253997112 H
   0.3040324255918662    0.2621295424143437    0.9383957818732874 H
   0.6199523280457950    0.2583281159300576   -0.1060333695812883 H
   0.5158303118709533    0.2811488173820398   -0.0262692405285343 H
   0.9170574685222966    0.1779185555516285    0.9226059624956330 H
   0.7883028330490494    0.2914546011493835    0.8404642161575598 H
   0.9679954948477612    0.2959861994157876    0.8953383712688197 H
  -0.3056240820496877    0.2059945510274576    0.6952081258937174 H
   0.1067492528347856    0.4907591175442163    0.8910184406552626 H
   1.0921999837002743    0.3555567218928163   -0.2300768662538523 H
   0.1246940011945162    0.6142091474164711    0.8597147098770967 H
   0.3110376342025946    0.5285977202177647    0.8919801770327334 H
   0.4645577279997581    0.5162568456962696    0.7552993066985029 H
   0.4218098015928181    0.5779960269363738    0.9389475978275741 H
   0.4108473020122460    0.4092405379401756    0.9717885301926807 H
   0.7195668372871036    0.3645923953207553    0.7573954190162854 H
   0.7536703871080320    0.5677088617399710    0.6929614466512654 H
   1.0746193126697212    0.8384625488721421    0.8111911680911682 H
   0.2048918728736761    0.7686178132480609    0.7093022936747002 H
   1.0132263630401732    0.7344252124665960    0.7831557643793905 H
   0.5253570019844312    0.8040521917609770    0.7401882209446207 H
   0.3487975372010059    0.8735059373952988    0.7472617131700672 H
   0.4114229377894591    0.9066388986392998    0.8630965533683667 H
   0.5009490610378154    0.9569414203031703    0.6692073464362446 H
   0.5552556226521564    0.6863917279482651    0.7039071102587907 H
   0.5782835137226333    0.6908658514956776   -0.0041339318308383 H
   0.7697922888399212    0.6758382362370986   -0.0639140460991074 H
   0.7957008187784174    0.8306346540461101    0.7186579390253744 H
   0.8685302245116560    0.8884331742714137    0.3146813619773037 Cl
   0.7201252531906394    0.4523797668102966    0.3634863298999183 Cl
   0.8518761466837393    0.6780190375464398    0.7864020188076073 Cl
   0.0985419330425838    0.1774628053151180    0.2877156929083357 O
   0.1428642479000212    0.0775528013356325    1.0888523433520270 O
   0.5603461453087644    0.0671204112858906    0.2659583781393258 O
   0.5797021033160502    1.0502852209639510    0.0435017380846433 O
   0.8688172224062779    0.1412108286869701    0.2706409306656997 O
   0.7908685942269692    0.2747788376109906    0.1176838546055364 O
   0.0628977785233251    0.5252196638466136    0.1368271383682406 O
   0.1584785733554220    0.3810835921559076    0.2855186771017693 O
   0.4000627411263395    0.3380042665140313    1.0121735749613898 O
   0.3634188499410150    0.3691838968154040    0.2165771566987349 O
   0.3902187133408082    0.5922028060673833    0.2005516330777494 O
  -0.1530937209919774    0.4970068623495228    0.1455545018395343 O
   0.1391783749390914    0.7068511089030873    1.2390960615341129 O
   0.2558815588201727    0.9017818801329718    0.1681458470080228 O
   0.4289790090004731    0.9171948188597193    1.0047082934084000 O
   0.4963251149584642    0.6897786888533444    0.0060472301874485 O
   0.7393721519979688    0.6942155752588751    0.0049576301702845 O
  -0.2435128176896001    0.9204814013823346    1.0534415252569573 O
   0.2531321189896948    0.0692271430630104    0.4232141004833808 O
   0.2878965839622382    1.2110444384925645    0.5810634191325468 O
   0.5219343470925689    0.2760376149072140    0.3478155451066884 O
   0.4769765368970402    0.2937034007178134    0.5635708533816653 O
  -0.3378539456157274    0.1754358095918105    0.6276910789612482 O
   0.8682104268576487    0.1590668477224007    0.4770137911007942 O
   0.8772139608089301    0.3299602343644676    0.5846005593995232 O
   0.6993630054997063    0.0084572203409981    0.4404906697035844 O
   0.0948896798350239    0.3375792773947275    0.6189329714582157 O
   0.1668129922152420    0.5004229653656402    0.5035963422357862 O
   0.3665733667999019    0.6084713895543290    0.5472315829752427 O
   0.5225354026833057    0.6182299492366263    0.3851230334674912 O
   0.7264564267459985    0.5115771083654226    0.6445813770134512 O
   0.9083819321648688    0.6113062693558557    0.5496067565041929 O
   0.0859533853904825    0.6912422704299179    0.4526282557723685 O
   0.1695329122622730    0.8894693382194303    0.5277382902358198 O
   0.3857374462147834   -0.0676981180028925    0.3403179429049474 O
   0.5400676940687653    0.9901796169481417    0.6151845645115982 O
   0.5264090542667167    0.8266599939017651    0.4667578974361269 O
   0.9431250772938117    0.9852497431642188    0.5894967435310565 O
   0.7618588470385872    0.7565351702104856    0.4837916676364445 O
   0.0551774531585974    1.0093243648939179    0.7688992050461462 O
   0.2366969795556754    0.2244625543946855    0.9176790343323609 O
   0.2586711783558975    0.0889323099941085    0.7690994354067016 O
   0.5817340484099732    0.2394173143756695   -0.0390392865117814 O
   0.8979598086201706    0.2563359288393788    0.9125234967023128 O
   0.7168157574686564    0.2926081430446364    0.7928724550258692 O
  -0.0456076794951746    1.0619582554408260    0.9725610725286818 O
   0.1442951374032076    0.5562835352069188    0.9087396158729198 O
   1.0786044834350426    0.3596706165676761   -0.1494195048328097 O
   0.3890977815638136    0.5181769870124380    0.8987044485899671 O
   0.5023159910102003    0.5219759849874708    0.6823957477436915 O
   1.0866650243039948    0.7693706511165417    0.7795058959960384 O
   0.2787224912621529    0.7848855872319223    0.6831154734097823 O
   0.4117205956058811    0.9091078830466832    0.7818109100679438 O
   0.5791117076471137    0.7651944247041839    0.7009478001268029 O
   0.7759176439051373    0.8972567578912428    0.6757392707179842 O
