Li1 Co1 H90 C51 N3 Cl6 O45
1.0
  12.9495648135000003    0.0000000000000000    0.0000000000000000
   0.0000000000000000   13.1920489075000003    0.0000000000000000
   0.0000000000000000    0.0000000000000000   13.1599152543999995
Li Co H C N Cl O
1 1 90 51 3 6 45
direct
   0.3165079650033600    0.2932873415516482    0.7047767746147895 Li
   0.5224938833269772    0.2233535498814629    0.8620049907545703 Co
   0.1110369674586285    1.1957423038912425    0.2746972573392015 H
   0.6454773212213322    0.1739351460708644    1.0192787998931203 H
   0.4199616346281010    0.1442869843074830    0.3039208497837969 H
   0.6090243587628652    0.2809518809161525    0.2520162602180229 H
   0.4830552606894367    0.2844949241786306    0.2017887331236521 H
   0.3701476054085622    0.0304600867172005    1.0759281008641690 H
   0.5516116185891624    0.1315558307787452    0.3566445935607954 H
  -0.0190021515582880    1.0537226666736417    0.1699085886174231 H
   0.9264149474964130    0.2564757739623321    0.1985174354619436 H
   0.8429642666771304   -0.0050711642117978    1.0453192411402950 H
   0.7057967227803473    1.0476917611973309    0.3406353719262139 H
   0.2301699284668397    0.4714321480542919    0.1457139039370986 H
   1.0318084506492902    0.6121347040419923    0.2652435490443548 H
   0.3405249883148901    0.4013668377692072    0.1599883119685023 H
   0.3528759825222986    0.3728693691321505   -0.0068448292453770 H
   0.3412006866975013    0.5906088590431493    0.0221409197223044 H
   0.4278591973240599    0.5178191046438857    0.2794959204596867 H
   0.5295240809676804    0.5979079526619773    0.2413315409564010 H
   0.4278730974050736    0.6378994660121183    0.3257720543273714 H
   0.5442199416194303    0.3943171367976525    0.2633620779618020 H
   0.3375001762409612    0.3109851231197006    0.3098046262749952 H
   0.4939467463904052    0.7152233151846356    0.0919795153540438 H
   0.4481330832639412    0.5210712908888600    0.0742423190660999 H
   1.0016167024607787    0.3920172666097281    0.1372184084997234 H
   0.9258056606119784    0.4955092874150641    0.0739148093582726 H
   0.8413734796277831    0.6585922334445378    0.1213132908789988 H
   0.2585955941398864    0.6170588822690051    0.2787246388971700 H
   0.2171316524759753    0.6722913943002300    0.1601228113148722 H
   0.1959463845576280    0.9168000390617108    0.0914719133010772 H
   0.0587448626850336    0.8874391715637293    0.1183109919100301 H
   0.2502223397825692    0.9366422941833685    0.2889655863041026 H
   0.2867803250753620    0.7462510958478267    0.2445405281864579 H
   0.4206728554399694    0.7882104612111028    0.1780332609981401 H
   0.3616592892695204    0.7479657650518757    0.0550332288012154 H
   0.5873765270374505   -0.0738102968786314    1.0097817782494427 H
   0.6417683162708392    0.9132751885759335    0.2714145614278007 H
   0.8543190884118894    0.9493431264176049    0.2726873659767813 H
   0.8792720505116765    0.8244481983019816    0.3107104071838817 H
   0.0650809829471186    0.0593850856067257    0.5684493769592340 H
   0.3462518216925406    0.1441535706116772    0.4591721534969340 H
   0.1586547838780003    0.9999311741635916    0.3673718662879355 H
   0.4636066534484086    0.1503656458226332    0.5238576004427556 H
   0.5332180274970751    0.2891628874671074    0.5131758447260537 H
   0.6327911806161484    0.2732063062357927    0.4376056772306748 H
   0.3516520031663688    0.3080598762326868    0.4474258012589653 H
   0.4521414032922628   -0.0133602480960936    0.5080677039287546 H
   0.8867363940160413    1.0735975171868881    0.4066502347278216 H
   0.8396629974363732    1.0337144024645892    0.5266359617994349 H
   0.8254602035472486    1.2146104874270458    0.5143474328177662 H
   0.6515199953286831    1.0188516619324095    0.4624702750395851 H
   1.1205040953710810    0.4696580491130203    0.4053979470282872 H
   0.2396876228276194    0.6060302694265159    0.6329229684374403 H
   0.5721642783760410    0.3963759526942915    0.4393004449832667 H
   0.3809896685992597    0.4109021268575069    0.3785945829350371 H
   0.6024835984191894    0.6067966401450365    0.5593781939240632 H
   0.8652908856920483    0.4080466189478459    0.3561491496408340 H
   0.9523239262792542    0.5014491835259290    0.3951752368208624 H
   0.1497548708956079    0.7475094295696311    0.4313272933351269 H
   0.1175754111221353    0.8301599721536660    0.6383044620588617 H
   0.3485499684201415    0.8056868973292958    0.4890576043069994 H
   0.5982973573538923    0.8700036691931131    0.3910961831976218 H
   0.6859782961616819    0.7883552453923466    0.3143950813677665 H
   0.4692262245342365    0.8018050136007654    0.6246668362436046 H
   0.9167605690056652    0.9195759535733058    0.4000415295561890 H
   0.8296387223453160    0.8733587204296831    0.5363770579631917 H
   0.7844873980791555    0.7657999924451842    0.4722373592126405 H
   0.6890772420010174    0.8457132801681133    0.5313915395360831 H
   0.0284890196785145    0.1158069504147644    0.7217556073565349 H
   0.1474096183379051    0.1163800228808392    0.7855280545019981 H
   0.0140097686225616    0.1708848238440326    0.9246740873298126 H
   0.6107912135050529    0.0737073490644198    0.7779033853411196 H
   0.7593436959787915    0.1666800183290633    0.9743658966886424 H
  -0.1358114823570399    0.2369685691449139    0.7836534223692606 H
   0.1940227677906745    0.3790268660130041    0.9609942300328739 H
   0.0895204142761210    0.3585183004446802    0.6871611596568976 H
   0.2289420879772949    0.6204723019974901    0.7727452974136684 H
   0.4851171060398044    0.4964316922731208    0.7851146779798217 H
   0.7089142020610343    0.4761148929738381    1.0075036480775956 H
   0.0019653484241778    0.3881437212371857    0.7917484593007776 H
   0.9020342053983572    0.5325363787656955    0.9615246285852252 H
   0.8407935373588220    0.5786592368801828    0.6918253234310129 H
   0.7289164186397699    0.4198726818357196    0.8112326273249044 H
   0.9364631616158827    0.5929117613605239    0.8440200725066457 H
   0.1197901573636539    0.8849543414793469   -0.0582934888234564 H
   0.3152036740682397    0.7502216693627733    0.8424129193000223 H
   0.4960562381295811    0.6746822283716583    0.6715767127941848 H
   0.5439991619993292   -0.0649587529813363    0.8788424852001302 H
   0.8968556529940255    0.8362810834811181    0.8919542717629129 H
   0.7827498879524410    0.6814544894985261    0.7463971034247999 H
   0.6625296317182683   -0.0648109366706424    0.7540111342192991 H
   0.1981232916897203    1.1015643631701719    0.1915918589488634 C
   0.1215114507291855    1.0031399251541926    0.2067659688226510 C
   0.5341934270708764    0.3136359622914777    0.2593620522030951 C
   0.7379236711366570    0.0743797237699863    1.1056843715110543 C
   0.7020066340239411    0.1137208453530743    1.0034511903703038 C
   0.3009962468187773    0.4564696504632027    0.1065821929765876 C
   0.3651258150289963    0.5522238436789240    0.0911672000926347 C
   0.4449065655699689    0.5995741077948243    0.2552898375296699 C
   0.8467211496844483    0.3559273458295432    0.1215199791400870 C
   0.9326939229809971    0.5039717712022893    0.2350837803583599 C
   0.9313595152036805    0.4410785613743374    0.1377305698525669 C
   0.8294827325472731    0.5775555417603351    0.2559722127445860 C
   0.9412949842215946    0.4431684565978403    0.3389400722553030 C
   0.1685207524908458    0.9531696737836703    0.2997247741303813 C
   0.1184101882096812    0.9448540587666859    0.1124378537852114 C
   0.1227972082229541    0.8470860767766601    0.3163563401981659 C
   0.2760471458526053    0.6717941250704085    0.2183275934272722 C
   0.4165885483021062    0.7283236304739268    0.1181225408484497 C
   0.1519117001329027    0.1703291861222961    0.6281220256670166 C
   0.4755709937356189    0.1659212279341681    0.3666613753904449 C
   0.4253517771545304    0.1242370283184913    0.4598169144878654 C
   0.5617236958586229    0.3141044262915230    0.4403512116282401 C
   0.8182259836063331    1.0783655407472192    0.4575024618936652 C
   0.7266406664871355    1.0162819322234233    0.4176115515153115 C
   1.0325683217447066    0.3683878818048568    0.3352052457727717 C
   0.3886825912136279    0.3301739543448550    0.3722510770395801 C
   0.2597199562485513    0.7975365333673434    0.6410848751004856 C
   0.4378966002694079    0.6859981354795474    0.5273257838708169 C
   0.6643513145577877    0.8635118800403826    0.3365813944522965 C
   0.4390098423132619    0.7247381373991468    0.6306531969820341 C
   0.8563222445313103    0.8989870365745535    0.3383162080554742 C
   0.7651052795589762    0.8448415429512006    0.4908976617490033 C
   0.0990504642644685    0.1555702960237831    0.7315649410417832 C
   0.0653396788993182    0.2469617097801834    0.7927157907580028 C
   0.1568346454919267    0.2983032416945275    0.8516971736161091 C
   0.0196261735788253    0.3292097371797134    0.7286751048031126 C
   0.4802343936930479    0.0379926543036886    0.9796767211619712 C
   0.6644470706714378    0.0412938852425188    0.9144133829567467 C
   0.7507843349812351   -0.0298671608226070    0.8804815535058922 C
  -0.0730317664585972    0.2993288594810343    0.6653023562801949 C
   0.3541779567772499    0.5309120670192603    0.7209166961791769 C
   0.2831933319471006    0.6159589773109702    0.7040905999833093 C
   0.6783842185678558    0.5717137653584764    0.6857743726109933 C
   0.6893791826497042    0.5925888395740849    0.9149263041929031 C
   0.7769728598377967    0.5989032491539829    0.7431630400454199 C
   0.8755499177068927    0.5931763146550478    0.9033403633222715 C
   0.7797837651094590    0.5592229838918977    0.8490459407376653 C
   0.0779362412046358    1.0038357988629978    0.0206363507629124 C
   0.3372376191551466    0.7240346833667164    0.6921589122053426 C
   0.5683307132551307   -0.0245078720195004    0.9483756077401142 C
   0.8837880323876878    0.6997700674420426    0.9453900262040278 C
   0.3759586114990180    0.6323537012478286    0.1714815470749693 N
   0.4871791058355167    0.2836656367740198    0.3582319898012853 N
   0.7563675341884105    0.9038414758242133    0.3948173317805222 N
  -0.4348238473102878   -0.0284943642140602    0.6520507511878525 Cl
   1.1050371663364313    0.5952760642992636    0.4699216148168086 Cl
   1.0104926764147586   -0.0568546289934985    0.6024995202418953 Cl
   0.4967629028037838    0.2281359760566821    0.6975700412759642 Cl
   0.5131074675091049    0.3524745084182065   -0.0213753179532025 Cl
   0.1903423352289320    0.7534417908388125   -0.0588330059755616 Cl
   0.1823768165813505    1.1793255970158705    0.2568080843886927 O
   0.2696809087483240    1.1005592122574535    0.1297039224192042 O
   1.0191933549026211    0.2817743460295006    0.2986427002929196 O
   0.0198624749560585    1.0465319716826558    0.2341202483176988 O
   0.6918055190133203    0.0865294664766615    1.1836430802236337 O
   0.8687574114515242    0.2597754888364373    0.1459927811129051 O
   0.8295406495514970    0.0279729825357305    1.1136927817449092 O
   1.0276778099080479    0.5573593613286110    0.2179225756215368 O
   0.2880660825691306    0.3976327703513708    0.0157791766273397 O
   0.7669424069329556    0.3752996208864305    0.0772362593186275 O
   0.8114844443146814    0.6553728700008612    0.1951883866684606 O
   0.7676991891214801    0.5517724354070357    0.3182758054463600 O
   0.0535964271228982    0.8021696271671437    0.2700680481974761 O
   0.4274669061487840   -0.0083777013771657    1.0507106132447830 O
   0.8776017241098617    0.7225951799102667    1.0360676618066595 O
   0.1120092009028655    0.1227990409267667    0.5471917932596378 O
   0.2250021872366298    0.2282026829045850    0.6198066225747807 O
   0.4254413554543965    0.0210059070916919    0.4432725830243930 O
  -0.0798304505277497    0.3096775172943316    0.5728552563953204 O
   0.7791258279414764    1.1734697970153050    0.4742641959729367 O
   1.1239335542478535    0.3996786996978468    0.3668749026013485 O
   0.4881039245589625    0.6101971733233585    0.4908200776627639 O
   0.6640408794151482    0.6272710942570465    0.6008361356701231 O
   0.1727803550948264    0.8104822100546780    0.3973940960943093 O
   0.2915526862234041    0.8620473615159693    0.5807630580785573 O
   0.3804452487595559    0.7426307332843701    0.4584596869028300 O
   0.0322930085159344    1.0875422805280408    0.0272830501001862 O
   0.2462855279487960    0.2825392006832961    0.8232053488017634 O
   0.4471861016335458    0.1226155970950337    0.9509364145043320 O
   0.6387635820917079    0.1107341978446952    0.8366894781878300 O
  -0.0152923743810721    0.2076372649090711    0.8615300636840550 O
  -0.1550422444395143    0.2598255189723644    0.7151332242852715 O
   0.1273919572247099    0.3668945580506672    0.9173138575617968 O
   0.3417358398165292    0.4493991036016783    0.6747127512262104 O
   0.4269765421796890    0.5416804473516920    0.7916747506194336 O
   0.6359325989252479    0.4901191087931842    0.6999925492772480 O
   0.6735477626018062    0.5434800161803448    1.0009891684367531 O
   0.7924305221517705    0.4490982405569891    0.8461431864826766 O
   0.0972828372955577    0.9576405486578886   -0.0686765344098871 O
   0.1652040387156289    0.7740170632550394    0.6647689181945922 O
   0.6299547918626277    0.6622125960079943    0.8912559389984274 O
   0.3682324831355616    0.7620863919011361    0.7888464649291017 O
   0.9059687005519614    0.7627527023478025    0.8705483588406534 O
   0.7232212465577617   -0.0846016455916478    0.8027021772551393 O
   0.8360397096521315   -0.0464112171348846    0.9251892882159075 O
