Li1 Co1 H90 C51 N3 Cl6 O45
1.0
  13.4055408080999996    0.0000000000000000    0.0000000000000000
   0.0000000000000000   13.0580910633999991    0.0000000000000000
   0.0000000000000000    0.0000000000000000   13.1010583418000000
Li Co H C N Cl O
1 1 90 51 3 6 45
direct
   0.8080257304916032    0.8026714609976779    0.4174711712755072 Li
   0.2999059837758102    0.1429226540570673    0.2892000838444812 Co
   0.1212455302898270    0.0466275682060886    0.0353274643028886 H
   0.0914198033218846    0.3270797401368350    0.0950684393890637 H
   0.3569055491747909    0.2290669453273955    0.1346171526672012 H
   0.5653633831408396    0.0358365575357043    1.2016507949339481 H
   0.4774438417458478    0.0538376573027935    1.0437559175865208 H
   0.0423497949263611    0.2047800875883728    0.2954614100564466 H
  -0.0875621590134392    0.1652130484636302    0.2900023091094789 H
   0.6729666511215251    0.0429072694454097    1.1128625482402705 H
  -0.0514875233890565    0.2943345250878701    0.2613740876166136 H
   0.0885232398369905    0.4933168255929380    0.2271814301752872 H
   0.2109755917039242    0.6958549291456767    0.2054129598304084 H
   0.2914191944975099    0.4669785194553753    0.0572325648308640 H
   0.4005867410328756    0.3478990159927054    0.1636041238028342 H
   0.5135835996963265    0.5683454798765682    1.0696461923376670 H
   0.4459122529758822    0.4605749801023401    0.3273740990234173 H
   0.6321283136134098    0.4892227355961357    0.2574041793356882 H
   0.7430652777604594    0.5657017550141524    0.1384099760180796 H
   0.1917313102763431   -0.1326520821374164    0.3130523553058620 H
   0.2522712028191062    0.8218909624379331    0.1586923068853653 H
   0.0407280774357199    0.8818308109349159    0.2786436847817625 H
   0.4348378023345253   -0.0851083793874716    1.1686435379079798 H
   0.5233121143356761   -0.1845608945900928    1.1817577455939210 H
   0.4437491921628132   -0.1809753781640946    1.0702522502448109 H
   0.6689444336838354   -0.2005111586056180    1.0608988074310326 H
   0.6847692335212145   -0.0907845536184622    0.9744523562778048 H
   0.6645305871373203   -0.0565850678106399    1.1962222258714712 H
  -0.0035066168961715    0.6941180749692213    0.0891918149216833 H
  -0.0423151966802598    0.9422431634120013    0.0109973688492257 H
  -0.0604405377969109    0.7608330332100753    0.1983234562516281 H
   0.3233373398468913    0.3074949479372460    0.6244455186340311 H
   0.3127275478186532    0.0193264873460218    0.5423808508835108 H
   0.1105484609173363    0.1759795532549816    0.4608651464161363 H
   0.0171079934321952    0.1863937860352355    0.5578194509357421 H
   0.0208691247973346    0.3415106396523217    0.5448639327194421 H
   0.5722374064509861    0.0587939713371933    0.4524655960035640 H
   0.4840981051789276    0.1097646681081423    0.5423674168543348 H
   0.0073970834537375    0.0908017125890125    0.4503717956948913 H
  -0.1324935801789363    0.2586210354410477    0.5462326007714566 H
  -0.1715169965027231    0.1748430931148318    0.4356919893019693 H
  -0.1752908091913863    0.3029353228196909    0.4229585905453402 H
   0.0182403610268564    0.5783746640325179    0.4256919575043855 H
   0.0907566446976068    0.3415382087662338    0.4196704592450959 H
   0.1827969448736708    0.4791734106708557    0.5786087637449987 H
   0.2688270436596262    0.5851240426034048    0.5693400469106825 H
   0.2098633650348598    0.6483119922044517    0.6844773099199818 H
   0.2034257284459760    0.3334068517796365    0.6683549483145773 H
   0.3015038305398182    0.4614443261610315    0.5232648380037764 H
   0.4519628854092257    0.4260551565070348    0.6490885659037254 H
   0.4450311247790352    0.6098622680018643    0.4203567396787394 H
   0.6705221395222467    0.4703709755031176    0.5458237025084126 H
  -0.1190163171138883    0.4340065484444843    0.4811902829854781 H
   0.7150164280062740    0.4722972907568458    0.3501966826803434 H
  -0.0579982640782544    0.4475059948141057    0.3555451055460317 H
  -0.0205160015427218    0.5825078102740290    0.5924992445941205 H
   0.7151865069335351    0.6189730943410569    0.4737293742978087 H
   0.3058341295431172   -0.1247604232801096    0.5382920209124933 H
   0.5268272280244524    0.7032304329258534    0.3574609812978339 H
   0.5195244267871575   -0.2292465991978281    0.6489351431841588 H
   0.4694774343081506   -0.1771317841995315    0.4175272736132593 H
   0.9333164609472627    0.9186907162352451    0.4935882279272059 H
   0.1594521201866349    0.3003706294171561   -0.0064195446585917 H
   0.3108186356482067    0.3081343982182602    0.7527756089318357 H
   0.4643793184634914    0.2459645147292854   -0.0851170035280363 H
   0.4629555788118641    0.0933809563572231    0.8168559281012758 H
   0.5868955245241688    0.0534922775701739    0.9863307859389783 H
   0.9428826546455068    0.3235508935561004    0.7933524834202034 H
   0.8885118530170043    1.0643077126834919    0.6838765950926239 H
   0.7754951518120394    0.1628359781974409    0.9284247771107045 H
   0.1577834072029347    0.6415583251047341    0.8101526528613051 H
   0.1671959330984777    0.4655021934053883    0.7591735653268978 H
   0.2750931094008341    0.4958254617971851    0.8404555482184946 H
   0.4272145365921800    0.5580507132565996    0.6912103537473312 H
   0.4322367882837581    0.4499797867216028    0.7817274684003042 H
   0.5818274708758633    0.5145583859904942    0.8369756766836476 H
   0.7966587888529693    0.4279015213304184    0.9909777387584887 H
   0.6180826288704094    0.3837924706886755    0.8596776593968347 H
   0.6697836389170330    0.5963373202018744    0.6883533326560979 H
   0.7001360137913196    0.6325095292718435    0.8583846340886463 H
   0.8922819359046310    0.4655554171114129    0.8920941244579048 H
   0.9631608369203872    0.7890523187251554    0.7474951195091396 H
   0.3048494620694989    0.6877940265612988   -0.0694167452257182 H
   1.1347786800893771    0.9089611164504724    0.7769751805793002 H
   0.3085650898619937    0.7452281489271698    0.7873285426101545 H
   0.6585390347523938    0.9676672470998935    0.6688900195902797 H
   0.5797335605740097   -0.1902340055862043    0.9592276320764321 H
   0.5457293375049511   -0.0652471302400429    0.8578411665447088 H
   0.4305310010777558   -0.1084471659314099    0.9266096565777222 H
   0.3783414616913802   -0.0093944028805125    0.8009839279486964 H
   0.8675936368842719    0.9780952644371034    0.7966026025242565 H
   0.8321888735260327    0.7892767006800501    0.7536159990524469 H
   0.1658927406163479    0.1755292577277525    0.0973056632251322 C
   0.1650356323381755    0.2898024690842270    0.0773820820006143 C
   0.3452327638511693    0.3078012714251570    0.1159285861703390 C
   0.6198885985322504   -0.0051954736699727    1.1522479159363819 C
  -0.0336374415888941    0.2261515115312027    0.3063406837976562 C
   0.2422626547179411    0.3505701568072892    0.1338324832357858 C
   0.2167105337775440    0.3491978275814480    0.2477637368076956 C
   0.0242960659896094    0.6362122144319675    0.2381309272508258 C
   0.4722342048501992    0.5879769864080637    0.2547349293340737 C
   0.7339026485343574    0.6211097006692360    0.2743951730548579 C
   0.2012781090091977    0.7568186639010017    0.1446033687870528 C
   0.0925559007175822    0.7989228273143673    0.1549788664341631 C
   0.0709551309951825    0.8725836706436029    0.0748548052618825 C
   0.2139512269707907    0.7042229210266849    0.0421719495086296 C
   0.4857622678053634   -0.1368425874520387    1.1262179578136897 C
   0.6287610492377179   -0.1459978306969784    1.0106158468630171 C
   0.0084608227093283    0.7228726607794257    0.1679434678860992 C
   0.0289143056329211    0.1666573637091305    0.4751100261144858 C
   0.4314788927131549    0.1096283541560219    0.3894935079114312 C
   0.4899018993796800    0.0623465579882410    0.4755090778447815 C
  -0.1375765530313876    0.2450868979364205    0.4629791740982842 C
   0.2654829040503602    0.5002300106489851    0.5830152779741437 C
   0.2839178186530353    0.3462287871748707    0.6856932422198306 C
   0.5987092963269677    0.5641136208910780    0.3990606739166457 C
   0.5638894403672619    0.4616195431961165    0.4427475261592534 C
   0.5068912773734708    0.6223495449865557    0.3583555655134164 C
  -0.0445478555806687    0.4388016597433709    0.4394769506925913 C
   0.6698380940121648    0.5314243098786567    0.3167039686909701 C
   0.0149723093587335    0.3421929752216434    0.4587788264191638 C
   0.2717526995926045   -0.0423670631192514    0.4031221778510438 C
   0.3303344465912402   -0.0488994114989532    0.5018280202541797 C
   0.4981710174694940   -0.0958825422660209    0.5785408303020065 C
   0.4500695638071115   -0.0503016072648658    0.4846631596655883 C
   0.9047327577244526    0.7121812052426125    0.6215671252236542 C
   0.7895497880775274    0.9210386857700829    0.6133945030425604 C
   1.0243131627933326    0.9969869997452939    0.7338366809821484 C
   0.3827538163174807    0.3232284880850742    0.0118385222669492 C
   0.5252551168875957    0.0058352351297020    1.0022295014904870 C
   0.8319583718219811    0.3171303532494861    0.8896973715253714 C
   0.2266810379081375    0.6210905554512416    0.7646334295709778 C
   0.2346717636485921    0.5073665821085914    0.7688353801740339 C
   0.4089012135032926    0.4749243975700425    0.7037681178384264 C
   0.6180565202631543    0.4988160980096600    0.9938553688717534 C
   0.6331017916839189    0.4662402032686379    0.8823742990302360 C
   0.7538555921588609    0.4698307740321866    0.7362555695309377 C
   0.7414525117923056    0.4955431847030751    0.8473450679538597 C
   0.8209412855205643    0.4281205426242746    0.9059349909947290 C
   0.4840567043874232   -0.0455980101079925    0.9061128392218882 C
   0.8959438545622012    0.7958741428009330    0.6989677422993491 C
   0.9118544398234183    0.9902272061758182    0.7246954347655816 C
   0.8923289313976901    0.9039136711784190    0.6498938443571722 C
   0.5645326072579844   -0.0739375275920776    1.0754411440140343 N
  -0.0335814945733476    0.2455632309601220    0.4218910432041169 N
   0.2994636293728892    0.4569782828690332    0.6816523473074639 N
   0.9105810857495800    0.9417009708383988    0.3396066985446848 Cl
   0.5118784838545107    0.2072482890922156    0.7667729513766754 Cl
   0.7978217408161291    0.0492879876985956   -0.0548728820484917 Cl
   0.0243557428061924    1.3812215693802834    0.7014171627326292 Cl
   0.5987853842681109    1.7073871612207061    0.7536946186550110 Cl
   1.2826279931735924    0.8905970233502085    0.7587514620238115 Cl
   0.2107525496019455    0.1233432225185166    0.1696723358453948 O
   0.2546530537609725    0.2794119763742863    0.3042003986948462 O
   0.1124059018334801    0.1252983321801086    0.0352511345916614 O
   0.4318083087406927    0.0741162722025010    0.2974230836349851 O
   0.2396480641914014    0.4572067236101428    0.1018533874200475 O
   0.0474663359881403    0.5472058662332150    0.1906202617945814 O
   0.1571858930768980    0.4157519659911487    0.2845500778365216 O
   0.0209288016139175    0.6556591610619966    0.3307669546874653 O
   0.4374006232226793    0.4919477893445918    0.2528740109743551 O
   0.4877253366868590    0.6394071684108792    0.1773343122583788 O
   0.5400861485368276    0.5595769700351162    0.9979756466837965 O
   0.6708608054563547    0.4759749339718332    1.0709560101823254 O
   0.7816836376916896    0.6063671170047998    0.1883204475953065 O
   0.1061502795351742    0.8598658852342584    0.2483293399678890 O
   0.1381586860696373    0.9356679297439919    0.0474104575901508 O
  -0.0270543427595894    0.8832958030158501    0.0537870416660692 O
   0.2388931524616273    0.0395446033568668    0.3592661789683567 O
   0.3709691369627661    0.1816013550668681    0.4150929664628021 O
   0.6287953634072529    0.4196139393649865    0.5100433870735609 O
   0.4850885911421628    0.4138964114631279    0.4150099960666981 O
   0.6397878330218292    0.6186912767321787    0.4794946260835375 O
   0.9690211003088313    0.6348605620415603    0.6505571495477364 O
   0.0024364480752813    0.5264565087134603    0.4798099822854726 O
   0.2511865766777114   -0.1281606139959215    0.3634917917818932 O
   0.4803263811788448   -0.1953871324615869    0.5859936633062282 O
   0.4854539624516919   -0.1072877315296668    0.3951449597306914 O
   0.5364930074103692   -0.0492317724833366    0.6499388788867961 O
   0.9588902147336711    0.9013030292526977    0.5670516821680918 O
   0.7535154343043382    0.9029441573391808    0.5294565515191026 O
   0.8619847620856834    0.7121038585619150    0.5362142498431783 O
   0.7630853578036187    0.6926576777406057    0.3278320772907804 O
   1.0818826417906804    1.0622553453144883    0.7038849022966038 O
   0.4312661448620367    0.2397752486560439   -0.0187780882033840 O
   0.4206821630569708    0.0316001036978953    0.8547032521161595 O
   0.7800335737131715    0.3844074150906568    0.7027078981494809 O
   0.7658961358646748    0.2580083884652257    0.9313237795431127 O
   0.9096076076790709    0.2763188749551051    0.8440071696818952 O
   0.3843844853306094    0.4032861316506111   -0.0413930550457722 O
   0.7204253854693095    0.5413553173567310    0.6689587163303843 O
   0.7660654688317289    0.5976430240690950    0.8742825863430429 O
   0.3016992721141273    0.7172286505146659   -0.0005726887785899 O
   0.1453982298813543    0.6509532664789641    0.0040704475553593 O
   0.3174837901003130    0.6685025391013847    0.8044973845564835 O
   1.0618595779066919    0.9090116598259776    0.7808847883883561 O
   0.7314499313727989    0.9655926712780164    0.6884212660990900 O
