Li1 Co1 H110 Cl3 O55
1.0
  12.7674337008999998    0.0000000000000000    0.0000000000000000
   0.0000000000000000   11.8143739274000001    0.0000000000000000
   0.0000000000000000    0.0000000000000000   13.0280661462000005
Li Co H Cl O
1 1 110 3 55
direct
   0.3795513620061645    0.7249491184493826    0.5107370885617434 Li
   0.6710469034897795    0.5497320470479897    0.7714020223969563 Co
   0.2645329460580571    0.1746897445757579    0.1509039446866360 H
   0.2267046705162030    0.2575235879951162    0.2312957686340059 H
   0.3305618771454826    0.3281197960654959    0.0766491789260117 H
   0.1651989663632497    0.0024067262365935    1.0830108179344362 H
   0.2936680102153731    0.0052286277782977    1.0892128128501257 H
   1.0036039466252922    0.0105308977407134    0.1522372200787837 H
   0.0727407615544957    0.2569903392560197    0.3266905867177704 H
   0.4018510666038027    0.2880728157593527    0.2527356352163130 H
   0.4177837908117741    0.4599685093000876    0.2669841044762073 H
   0.6086130566671554    0.3379713549136603    0.2257922657199596 H
   0.6295076237547601    1.0581186985039932    0.2762847941288571 H
   0.6313701750361755    0.0092792867716627    0.0980284839490555 H
   0.6702910742271361    1.1718530367141355    0.2272836612795122 H
   0.6876242364885857    0.3299751631069235    0.0834607808172014 H
   0.7289097455696192    0.3417371067235652    0.2649231692845456 H
   0.8972004177858015    0.1534952232630991    0.1074655714354328 H
   0.8230022647197532    0.0910815054875119    0.1890999435720995 H
  -0.0793161079370724    0.1894260311593598    0.2712502787016284 H
   0.7666127022699989    0.2804778301467933    0.0118385623291440 H
   0.3186573704481589    0.5229976638347178    0.3020760356093133 H
   0.0852224398410857    0.6075429817786046    0.2080613149090153 H
   0.0595548697030947    0.6329002289624958    0.0501176894385394 H
   1.0819673846848510   -0.0679900637338956    0.2080828069706044 H
   0.1655028645538255    0.5823152378599227    0.0517488601557834 H
   0.0099681622385107    0.8365326867451693    1.0788505688697039 H
   0.3318761584954470    0.6215674236168413    0.0265246253144634 H
   0.0749873367607549    0.7714416370860329    0.3114427365939865 H
   0.3913986919820654   -0.1026563103345846    0.2202173784584926 H
   0.4037191005845328   -0.1774152442761966    0.1275704739636103 H
   0.5131600448442631   -0.0359651758875309    0.0729282122486864 H
   0.5151690625216521    0.6933325467803831    0.1109018450540664 H
   0.6155048097054968    0.8464003276981635    1.1206526286603542 H
   0.4213068167427276    0.6440510525956015    0.1734821229595332 H
   0.6498155420157119    0.7582238397690009    1.2150565091901391 H
  -0.0193248036590633    0.6010864399026876    0.2618413611674053 H
   0.8201966891562417    0.5168009749157890    0.3007872794876001 H
   0.8363659526774964    0.5927821488244729    0.1977788985859240 H
   0.7585116224114279    0.7193974065767895    0.0757345381906732 H
   0.8818723569879447    0.7197782985332870    0.0447343885546659 H
  -0.2345932017088811    0.6803119668541598    0.3310442643368040 H
   0.1512830922602594    0.4265143455476305    0.3547553812848940 H
   0.1843547345253949    0.2212457452051578    0.3804368597365205 H
   0.0572195530922164    0.0918937364240784    0.4930898032762707 H
   0.2359375361618409    0.1212007485541912    0.5405097344515661 H
   0.2337327077946479    0.0359248544449451    0.4556345129420003 H
   0.4710200179129250    0.2832473378838148    0.3509474485154959 H
   0.3959642140255353    0.1521900334921678    0.5787525553283486 H
   0.5268049169525647    1.1483223780682923    0.4363814636263764 H
   0.5384298059848484    1.2704194107899791    0.4810933950414548 H
   0.3557352994266842    0.4706791911167963    0.6257311316674409 H
   0.5744252934701370    0.4719014310838682    0.4899281675017998 H
   0.6496933561452742    0.4255908941597666    0.5735814117953039 H
   0.3624547390579981    0.3362285626060419    0.6315723669778860 H
   0.7347370716981860    1.1158365263119088    0.6570964928357358 H
   0.8549992979192444    1.3136464157195911    0.5813953113301702 H
  -0.0589384810705503    0.0247289416684558    0.5020742525941106 H
   0.8422951003647613    0.3302417874764718    0.3904721173513380 H
   0.8841985879828161    1.1899073154521154    0.5537212117397899 H
  -0.0401884326576789    0.1717983514126572    0.3907730062135844 H
   0.7331181089148867    0.3908391584755082    0.4278176446567787 H
   0.1450179334292908    0.5618317148660591    0.3491275314430826 H
   0.1578638979231921    0.8561900974067184    0.3507079655435039 H
   0.2821284946438441    0.5321585386017668    0.4776577354817238 H
   0.2378658798350307    0.5748489090860024    0.5761320589617440 H
   0.4975876123055310    0.9480324588105266    0.3928892067064749 H
   0.6001994629476574    0.9557772619259750    0.4512294078898788 H
   0.4666777200558316    0.5846699965776470    0.3715284002078703 H
   0.5735002837715030    0.6442795877694999    0.3887136061691789 H
  -0.0799669826699809    0.6748025763100666    0.6586431536965174 H
   0.9837252453963907    0.8471773472894184    0.4437678246503467 H
  -0.0250412226129252    0.7825662214954687    0.6052438239577043 H
  -0.2821133231532738    0.7760986760741418    0.4106170872229064 H
   0.8693326404128969    0.8359114096427934    0.4995358866057213 H
   0.0410262659490510    0.4587818192489556    0.9807930378697850 H
   0.0003003618886801    0.4087918660250885    0.8765181604816130 H
   0.1505115981424317    0.1831675531008214    0.7236197964691602 H
   0.0667993169559111    0.2849808194991633    0.7257359969620508 H
   1.0805732125734464    0.4919608943661645    0.7262356873939956 H
   0.5851220398327497    0.0256857422631775   -0.0639406814144074 H
   0.5687217196975263    0.3759191973262175    0.8071678831756037 H
   0.6404918202100048    0.0662193332044105   -0.1806111053240486 H
   0.3804896868317053    0.0787295179089271    0.6731234301921217 H
   0.5877968138554722    0.2752392961050982   -0.0487849401260050 H
   0.4961903072230897    0.4323030568598220    0.7244648950337856 H
   0.5385566913118413    0.1973688980921868   -0.1295321506632220 H
   0.4124961189443070    0.3343588063129244   -0.0137246330263800 H
   0.9310365049839316    0.2836333083997322   -0.0159538971147015 H
   0.8462661411539862    0.0691474612806490    0.7983154565218107 H
   0.9582150287287262    0.4527908119865355    0.7193643682745335 H
   0.8944590681285456    0.1596343551752682   -0.0541426040506973 H
   0.7229320368312828    0.4508059416798986    0.9380391867801922 H
   0.9654130296859210    0.1056763541912676    0.7946195895021269 H
   0.2961430573344956    0.5015822251872905   -0.0167454957974429 H
   0.2490427540090427    0.8047883046641008    0.8454314285403470 H
   0.1940168172030833    0.6557935284011333    0.7331261958541621 H
   1.1645916633545448   -0.0520425407286318    0.8329506813461500 H
   1.2396733142529883   -0.0134530223333618    0.9270398566883813 H
   0.2736600739312009    0.6715412947358783    0.8722043966912447 H
   0.0022738986690766    0.8317867729672109    0.7924542642970328 H
   0.0818096161663539    0.6439418635680721    0.6688825858964306 H
   0.0214855903642298    0.8105016840115626    0.9609205566362202 H
   0.3704265838612983   -0.0320821939976817    0.7922309003712326 H
   0.4930173908055058   -0.0197985130432956    0.7896725774685107 H
   0.3480368063463504    0.7260012266758855    0.6982890991656118 H
   0.5423146900705595    0.7190342895782620    0.7176964307804997 H
   0.4181644467927531    0.8244871902275795    0.6845579745311103 H
   0.6604582446279387    0.7388110463861801    0.6796992334647347 H
  -0.0196711536071886    0.9521037706121994    0.8379936400832887 H
   0.7454808126263517    0.5814154864160186    0.9582801033552830 H
   0.7094774927134707    0.9921905329671323    0.6806901710187143 H
   0.3289852094711809    0.8706639917536219    0.3860961800970872 Cl
   0.7123935055060319    0.8432719350954644    0.5638048264931829 Cl
   0.8123431140095830    0.5191244158504236    0.6680305791691514 Cl
   0.2830629032555887    0.2429997544805829    0.1836325166185776 O
   0.2294867487969381    0.0479288168107453    1.0628850374035723 O
   0.4590019410155150    0.3295951175769961    0.2859761787582503 O
   0.3599757757250795    0.3786294552033395    0.0226857593278497 O
   0.6796273279169905    0.3156680147943088    0.2069360519701043 O
   0.6755497661125123    1.0862285248935060    0.2219943114077279 O
   0.8992290165321709    0.1150247124435703    0.1772854502871621 O
   0.8891956767866142    0.2152632022084376    0.0023083681616686 O
   0.7014798008991163    0.3246536792613690    0.0079762853468709 O
  -0.0501990583632184    0.2297252465833613    0.3329401711984071 O
   0.0538440117728233    0.6286257747840241    0.2759048451829083 O
   0.0961462482795950    0.5683568172941457    0.0753360907202852 O
   1.0600679171371723   -0.0395916905266717    0.1405892902711612 O
   0.0110918023008819    0.7756416057263449    1.0287970925761249 O
   0.3949467816813138    0.5361714469701100    0.2838699567225260 O
   0.5873879611351616   -0.0437771852726368    0.0530393049394786 O
   0.3913086190647556   -0.0921682387057845    0.1439796629868296 O
   0.4372058615120528    0.6831364923182310    0.1071018950504014 O
   0.6247368921083755    0.7617712135238472    1.1413003592583801 O
   0.8532135044282321    0.5881742025774237    0.2720639067474986 O
   0.8176237366922171    0.6664297246796823    0.0517081019961271 O
   0.1508765892682263    0.2793004507879311    0.3376131594467633 O
   0.1901295833890944    0.1021572510838591    0.4814388031741355 O
   0.3363868535457719    0.1295091871225989    0.6291092232050582 O
   0.4821397153655143    1.2113726932671725    0.4619608547854550 O
   0.6157491814463721    0.4068857133894612    0.5062721127666238 O
   0.7871179977062731    0.3868634928762446    0.3705006191197380 O
  -0.0233512197113649    0.0986356086967405    0.4958684198102801 O
   0.8230194960604560    1.2408706592314760    0.5650905123203833 O
   0.1881236986827423    0.5010726763921538    0.3757101413341917 O
   0.0797090374104125    0.8510827594833723    0.3386171457524220 O
   0.3029729341948589    0.5818886388686455    0.5348227814403849 O
   0.4128086328052342    0.7448968534244397    0.6627880512886861 O
   0.5622537009919207    0.9976923056720959    0.4002947570711498 O
   0.5168530344539665    0.6125140450241815    0.4299292397079003 O
  -0.2892917430414882    0.7396270015996548    0.3405414528382678 O
   0.9432785893104775    0.8603909124736004    0.5079884073992330 O
   0.0736385144051091    0.1989872656940161    0.7243566671522124 O
   1.0257305545731437    0.4301903761411160    0.7422388299679079 O
   0.5781088841667298    0.0633642517411625   -0.1352290821315695 O
   0.5687843791182635    0.4369787172324707    0.7544417155087042 O
   0.3799468995995685    0.4086632091864494    0.6688411369205088 O
   0.5340264151925360    0.2805353871535529   -0.1084760708950046 O
  -0.0078667453344927    0.4012468195801588    0.9535518498056978 O
   0.9159277521586554    0.0631255594484241    0.8319451598932350 O
   0.7115460368405602    1.0656434307112432    0.7114130730602231 O
   0.2844641245518261    0.5840944265100508   -0.0208637585847138 O
   1.2379110180447526   -0.0604043888136061    0.8647896354430317 O
   0.2667510895521568    0.7280165683390420    0.8146594017866348 O
   0.0280563705198445    0.8802294584211282    0.8491925393184262 O
   0.1525817087550395    0.6045677923850744    0.6863218587286666 O
   0.6175005122559791    0.7004687691920056    0.7351257251555694 O
   0.4294360933406302   -0.0470587810845050    0.7486496049104623 O
   0.6991034423676550    0.5308211846211757    0.9153573860674907 O
  -0.0202800465282031    0.7337959689589637    0.6674848343195159 O
