Li1 Co1 H90 C51 N3 Cl6 O45
1.0
  14.6751031265999998    0.0000000000000000    0.0000000000000000
   0.0000000000000000   14.2947483980999994    0.0000000000000000
   0.0000000000000000    0.0000000000000000   14.3417848624000008
Li Co H C N Cl O
1 1 90 51 3 6 45
direct
   0.9760301470957023    0.6852506548420242    0.3787980703533496 Li
   0.2359849217701783    0.1230099090679846    0.2163901119055459 Co
   0.2654763669931783   -0.0508112685282758    0.9833483465697422 H
   0.0442595229278285    0.3335851438444214    0.1202158899914973 H
   0.1579275486724946    0.3300789611118410    0.1436223211449921 H
   0.4362025266927775    0.0678476929841529    1.0277319435980887 H
   0.5559222305233732    0.2521384497455768    0.1820150320441471 H
   0.3700439456167657   -0.1041140604893624    1.0329335276907061 H
  -0.0418529894748549    0.1992428003124953    0.2109096224996515 H
   0.6910004635619486    0.3080729774289234    1.0986526839214650 H
   0.2362929264200269    0.4877595258358478    0.1170300940505900 H
   0.1066570401446054    0.4611845215461261    0.2739080573993927 H
   0.1937269563814419    0.5958010217047278    0.0541090553752832 H
   0.4613407486744223    0.5185979839690874    1.0287109012476914 H
   0.3674811016165878    0.5276948212395695    0.2227875025288386 H
   0.0314085059112487    0.3652618119038736    0.3488115655963656 H
   0.2137159130156406    0.7052461099588131    0.2844025670747256 H
   0.1554417058347788    0.7077246425648651    0.1781577715615252 H
   0.3719049206139702   -0.1416082496190738    0.2537662129378059 H
   0.3246923052052141   -0.1522359288037031    0.9362788913745378 H
   0.5651603938828023   -0.0185231871192076    1.0425069525689414 H
   0.6188858084981792   -0.1152230353084720    0.9890003627433022 H
   0.4581810434512303    0.7533176101253594    0.0893717513961862 H
   0.5536817692662115   -0.1479357481857518    1.1410344380637651 H
   0.5491058559373109    0.0079774541967564   -0.6948890716404363 H
   0.5150763846830465    0.6463349646523361    0.3064430594564460 H
   0.2380653160090891    0.1944004625481454    0.6160586367784532 H
   0.3349968324508115    0.0928540792488816    0.4117242371122740 H
   0.2387494679304341    0.3008703322943169    0.4722270272688120 H
   0.3140675076378717    0.1463065765381350    0.7045552926812673 H
   0.5118494908349096    0.2544532858712967    0.3251799184023995 H
   0.3898400586317008    0.2419270073378599    0.3457094412494413 H
   0.4961298125464582    0.1597989441285737    0.5861571981420186 H
  -0.3017693912264872    0.0811987499377238    0.5155842527442988 H
  -0.1880597984826157    0.2946120899308562    0.6799063383571231 H
  -0.2571019027362805    0.2211711331008964    0.6070081593626122 H
  -0.0443592750990651    0.2114346903091856    0.3335387106413132 H
  -0.0441841485614300    0.0869421179015078    0.6713613768215968 H
  -0.0653812738774461    0.2107330340281045    0.6313398588929038 H
  -0.1267893602278953    0.1150783249055750    0.5759381074635468 H
   0.3507323266417474    0.3998325497886820    0.7180166576265850 H
   0.2312953465483690    0.4110765392261850    0.5794369746186077 H
   0.3490894080338162    0.4232152628446478    0.5356217168923916 H
   0.3912083624743909    0.2936096238782250    0.6664094129843624 H
   0.5874243600833382    0.6181141111776699    0.5927881719651810 H
   1.0090452472841158    0.5172084247095036    0.6288889784524815 H
   0.6874202502205672    0.6072059093921297    0.3330046069663876 H
   0.7152456083442756    0.5733754433683782    0.4466194753829345 H
   1.1967345586462599    0.7118149559003396    0.6004629489232827 H
   1.0285251785346046    0.8085679704678314    0.5399976018050522 H
   0.4089854096098983    0.0061460123783415    0.4443791684540365 H
   0.5294142055613621    0.7997976167331226    0.4253107608169248 H
  -0.0168139831503295   -0.0280308745730186    0.3167597669945647 H
   0.6971448837559407    0.6878075379002009    0.5735813575663555 H
   0.6459275264729368    0.8349063144186800    0.4051016304485100 H
   0.8661215497873516    0.7935519664066106    0.4011704600578697 H
   0.1937058321687310    0.1537589637388891    0.7290159859189493 H
   0.1331508914413137    0.3171658272210385    0.7920123290288410 H
   0.3142446784541562    0.0072254297678809    0.8064582297300268 H
   0.0734232021407020    0.1618577421696719    0.9712842972439427 H
   0.2331863042990985    0.2546701487298562    0.8709773958504111 H
   0.3408741335679439    0.1002770850300889    0.9566738424079234 H
   0.3481190571015499    0.2284332406322047    0.8288829141807863 H
   0.4583536487118644    0.1006044779907528    0.9146755830713791 H
   0.4279174741823378    0.0140293270657814    0.7768147785083734 H
  -0.1836237138133366    0.1827787120021840    0.8596649963438932 H
  -0.2863691587340589    0.2436500177269952    0.7263531374404365 H
  -0.0889497624268095    0.2429518592339554    0.7998474765420770 H
  -0.3595747771704113    0.0662925764209992    0.6434847907595537 H
  -0.2730949760370456    0.0632222180783624    0.7869174262185521 H
  -0.0802574896094018    0.1190979829226156    0.8249489547370132 H
   0.1846673948333520    0.4079614091966199    0.7280356337427806 H
   0.3221035670088100    0.3522465426022657    0.8451981777442117 H
   0.1322527716879942    0.3098477550810696    0.6674357845372221 H
   0.4014263485904953    0.5151887459298591   -0.1431871687103491 H
   0.6046324163280855    0.4499898509200051    0.7544040393232778 H
   0.6700254831925047    0.4614189433006528    0.8588777860971688 H
   0.6500917220818407    0.6603366101815854    0.9161405332293669 H
   0.7536800912323477    0.6030204562219325    0.8993518278966538 H
   0.8487213313495571    0.4658658211490554    0.6997769474015478 H
   0.2409865901991351    0.6259960267498933    0.8485534086629348 H
   1.0608547639492403    0.7077085527398753    0.8061360940931918 H
   1.0907073650669743    0.9467110104854138    0.8255193161026649 H
   1.2014636565886250    0.8052065961601600    0.6897865590799632 H
   0.3806496632500468   -0.0966141033712470    0.7979822972595366 H
   0.5364316008812857   -0.0395742746668554    0.8696909450929207 H
   0.4856729115845939   -0.1479868158911545    0.8868526862821419 H
   0.6141321792120210    0.7143452557694024    0.7450879045965405 H
   0.9583484996305021    0.7105025858272508    0.7495162237080971 H
   0.8662489764898331    0.8037515163349870    0.8222456649880753 H
  -0.2915139266684763   -0.0381310873210227    0.6487860835016677 H
  -0.1740340026688259    0.0029469354357856    0.7284818822440238 H
   0.1160968375214907    0.2062215870124599    0.0901805768046897 C
   0.0938428201437154    0.2867616544510043    0.1514407343394316 C
   0.0730354706235254    0.2724151270208848    0.2587634988884478 C
   0.1553572089839354    0.2582413903200044    0.3273567743725270 C
   0.0331781697954450    0.0973935085688565    0.2801192787260730 C
   0.4338976706581586    0.1947964121544184    0.2111676099144328 C
  -0.0003738942515541    0.1977121682656306    0.2717597892238760 C
   0.1302739099553388    0.5887075075570092    0.2624980410332278 C
   0.2541960374055829    0.5570383947197262    0.0880985486410764 C
   0.2825276952081354    0.6222198147805258    0.1714835674148050 C
   0.1971449902833012    0.6588864272596701    0.2262515065197399 C
   0.3425695219945440    0.7098827777863358    0.1392567557289228 C
   0.3544522323575069   -0.0118480084212263    0.3082629166255788 C
   0.3312483068339598   -0.0844480970060621    0.9731341367342528 C
   0.5517027031056911   -0.0881151779885415    1.0141374013656812 C
   0.5742080986147255    0.7682853447116105    0.2895644071602009 C
   0.2480870513748475    0.1890922194166968    0.6929207575379143 C
   0.4504576224284126    0.2102601330849233    0.3156064935241640 C
   0.3912397080803489    0.0495521628554266    0.3866799345065596 C
   0.4712618373880069    0.1143437894169060    0.3602006640640347 C
   0.5259870405482020    0.1346876242226066    0.4521427070280886 C
  -0.2883248519753540    0.0372154644338273    0.6427659123145821 C
  -0.0955248439896166    0.1397804036107122    0.6419933445968047 C
   0.3010781610993466    0.3766275243652132    0.5719148983195250 C
   1.0399452004965783    0.6561861348918009    0.5962019729996922 C
   0.3338881519965999    0.3405625314291694    0.6703991534907909 C
   0.5521542842593519    0.6167254893252812    0.4674419882615740 C
   0.7025008938174666    0.6361696930467642    0.4046247023628062 C
   1.0658441667063003    0.7414384223795596    0.6524829734291553 C
   1.1709418949263086    0.7365918872695602    0.6659262095291100 C
   0.6239324510574237    0.6919321295584798    0.4509508051717991 C
   0.5928239814227186    0.7752109650333476    0.3951077558105094 C
   0.7931844132802920    0.6807951724350400    0.3919073173406550 C
   0.2975817631825922    0.2816674759476822    0.8274102941266834 C
   0.4105486013505014    0.0679449314917005    0.9597738749649981 C
   0.3802176390287991   -0.0250934321759505    0.8174443100200105 C
  -0.1279927589261974    0.1781532370963935    0.8048022294324442 C
  -0.2282366882062249    0.2311286360968161    0.6782628887986378 C
  -0.2290407711416702    0.0586555060116655    0.7240110300721924 C
   0.1721168867782394    0.3342979930472345    0.7254606404379499 C
   0.3344925770506169    0.5396801318745417    0.0226443524579306 C
   0.6190357222658046    0.4987437695334053    0.8128479504572045 C
   0.5339452810452184    0.5159347821456078    0.8677950862259197 C
   0.6640589152410135    0.5911951344119686    0.7748220000450088 C
   0.7050480650146657    0.6462062460524169    0.8638409061469342 C
   0.7455363665192057    0.5550802630184560    0.7096655352837864 C
   1.2130819735795939    0.6565506044057023    0.7232809954146896 C
   1.0225115921741763    0.7450831175185748    0.7492059415470763 C
   1.0160802915430465    0.8458732790433136    0.7798729752684566 C
   0.4944259676205116   -0.0803263035782162    0.9203059840831600 C
   0.7446021311764128    0.7407381652136951    0.8286862859349260 C
   0.2629782584835658    0.2885315351998928    0.7297509014194344 N
   0.4013793301815583   -0.0260951986709735    0.9173474959725735 N
  -0.1722084618348783    0.1527795830873303    0.7112364694608194 N
  -0.3531284851625187    1.3315411485752300    1.2174321814766200 Cl
   0.7239426511451988    0.2762619943086860    0.0127013780396031 Cl
   0.9411745146965786    0.4170619541224257   -0.3643723301414457 Cl
   0.9923796063076860    0.8391596246768782    0.3743592922925451 Cl
   1.1106465775873697    1.0765293149647466    0.8720867417339707 Cl
   0.5130485965480479    2.1558998341444200    0.7092185895192598 Cl
   0.1798653842858236    0.1505326040496111    0.1012824027996835 O
   0.1067865111257364    0.0676867947342539    0.2572957596773272 O
   0.2300939921287163    0.2191410169217367    0.3043080392833100 O
   0.2849017841463487   -0.0028307108508030    0.2561083203060501 O
   0.0601074524444835    0.2101104277567565    0.0220182100296236 O
   0.3655676568007144    0.1528579335394550    0.1769556896613011 O
   0.4963724139080490    0.2176432640824600    0.1506821118873180 O
   0.5236228322901276    0.0704962180890111    0.2904966481698296 O
  -0.0318237584207152    0.0412253286443522    0.3141701311607871 O
   0.1567309642363573    0.4967999088073436    0.2499075579286177 O
   0.3344789485262873    0.5807412952929909    0.2465565105895937 O
   0.0587078029958353    0.6116557953382479    0.3046629462944551 O
   0.4071925772343417    0.5174464212034084    0.0692543111495112 O
   0.0294637154894173    0.3584327305320759    0.2788760582921405 O
   0.3201001739323613    0.7844101475819176    0.1778216906590264 O
   0.4174943787750731    0.6997748699046410    0.0894170735095938 O
   0.5159025458279058   -0.1497923740780639    1.0835604201567597 O
   0.5918740732769467    0.8386762303695731    0.2434976165662274 O
   0.5294070505860891    0.6969801372596570    0.2580404368637770 O
   0.3992021734199075   -0.0937773972697678    0.3092607003838275 O
   0.2899927194096642    0.2918467387054192    0.5166699614025581 O
   0.4663974081990490    0.1633310104926596    0.5168421854335067 O
   0.6074944064372978    0.1248322566374922    0.4616331575756241 O
  -0.2497901994334595    0.0612186850883165    0.5528460723244435 O
   0.1369627896962979    0.2961231343646898    0.4033703257163426 O
   1.0162860822604232    0.6687075165219799    0.5150372496986342 O
   0.5086395917566117    0.5819660107977652    0.4026619062206189 O
   0.5446943707544467    0.5799108504562299    0.5536113885040758 O
   0.7634326632425970    0.6008000603733271    0.6355408701741396 O
   0.8608582136912668    0.6319982310287320    0.3722905121313124 O
   1.0504718726887476    0.8248879499108419    0.6023818174786288 O
   0.6560487500663013    0.7308527166514257    0.5396210099057998 O
   0.7985104405882928    0.7718495907256763    0.4017882353267784 O
   1.0506074765058271    0.5788412268732060    0.6424472629941630 O
   1.2265742126658807    0.5757139245412571    0.7011756575476323 O
   0.3305253136182755    0.5427480417655496   -0.0639927022686085 O
   0.4586565426650894    0.4986691966923652    0.8212367250172955 O
   0.5382082153128901    0.5391544143319371    0.9517379156262026 O
   0.5994235943293190    0.6487652277834183    0.7249251422364580 O
   0.7889350393943282    0.4811719317504201    0.7431411455098665 O
   1.2128366601416616    0.6783390256724522    0.8155742498944878 O
   1.1017192127252768    0.8819592587076051    0.7939346839006032 O
   0.9443990235529580    0.8864539163406516    0.7989821728076348 O
   0.8362948428658438    0.7408067218593042    0.8353821052434252 O
   0.6932593914695768    0.7972449310205955    0.7952322908706247 O
