Li1 Co1 H110 Cl3 O55
1.0
  12.7054580151999996    0.0000000000000000    0.0000000000000000
   0.0000000000000000   11.7570245851999999    0.0000000000000000
   0.0000000000000000    0.0000000000000000   12.9648252983999992
Li Co H Cl O
1 1 110 3 55
direct
   0.4506511296759316    0.8056974980323103    0.4615122850855861 Li
   0.6484086601005795    0.5066116217956924    0.7028429569602105 Co
   1.1285353893142824    1.1302719660319520    0.1783245123623316 H
   0.0490296380386090    0.3083420695711960    0.1048429205881971 H
   0.0962953878668766    0.4332444195967760    0.0917696244890266 H
   0.2766731434155753    0.2212213875842427    0.2422127623723198 H
   1.0108379400597181    1.0954587361170265    0.1607461806259120 H
   0.2788525217557243    0.4208798966729237    0.1899636973514747 H
   0.1357368624993133    0.1058819162602630    0.0058970443056749 H
   0.2911126071311312    0.0169448733526324    0.2515526491207316 H
   0.3136359982326283    0.0313190969306573    0.0081221417779533 H
   0.4431881952514848    0.2771904803790594    0.0125838293571248 H
   0.4085188429563510    0.0980060290126882    0.0737172408576880 H
   0.3988080556826931    0.2964589609676918    0.1209269012975812 H
   0.3663094240311602    0.3871383664817413    0.2703650892721697 H
   0.6004914579602348    0.2880826920157693    0.1379259733967014 H
   0.4909944214633494    1.1271249112876269    0.3079730005843393 H
   0.6581910701365897    1.0875910992562137    0.2020903551645501 H
  -0.0288108458555430    0.4356412845344808    0.2040888394791206 H
   0.7100766455492463    0.2264250851317510    0.1459669610383063 H
   0.7210853002417941    0.4196465914352828    0.1760576094674945 H
   0.8419026685069583    1.0674329377858074    0.2480886610633266 H
   0.7281413229284809    1.0371531678133825    0.1044788586057667 H
  -0.1392481081975501    0.4749097233009671    0.2646719928901375 H
   0.6923653596018378    0.4499552802891420    0.3328533975488714 H
   0.2384376072059542    0.5240794767373690    0.0550387786010554 H
   0.1992284736663351    0.5949554023562509    0.1537865804829671 H
   0.2501254975458652    0.7940474415909533    0.2267794653247543 H
   0.2898163138388866    0.6979831702427628    0.2912253780747790 H
   1.1045535698760947    0.6613625102381910    0.3035101560285287 H
   0.3559406518198480   -0.0433252226112730    0.1698654704951392 H
   0.5780428378743804    0.6650726326151495    1.0172073935178696 H
   0.4369105781908027    0.8787100186559879    0.2814689797362985 H
   0.6130836840577591    0.7432982068950347    0.1665480328120177 H
   0.5484224967934236    0.9200487091110382    0.3255320493767742 H
   0.9901303040433505    0.5977749932960990    0.3083717718659421 H
   0.7189948600570935    0.7232293537349402    0.1151026808964533 H
   0.6943282955282848    0.5627414695490706    0.1872964805395160 H
   0.9166658135162605    0.9655449140499429    0.2905581882129097 H
   0.8504895293560106    0.7135415284544367    0.0201172127812773 H
   0.9528707263536950   -0.2331818469488523    0.2943484436825352 H
   0.8148150971979767    0.8395708643006198    0.0353365000033235 H
   0.8826174541826209   -0.2056000385031839    0.1881040502335937 H
   0.2379047653365859    0.1588391075536934    0.3447556018939653 H
   0.1670911040798541    0.0728193843940521    0.5634681517923384 H
   0.2596788721550125    0.2340477620557081    0.5039825835529286 H
   0.1455932564876435    0.2449221120303556    0.4514859255313203 H
   0.6039230540465657    1.1344056649663898    0.3711632080220827 H
   0.3630069063297282    0.3727894979582916    0.5921627150770370 H
   0.5543923720949876    0.1336090846129057    0.6285388319274663 H
   0.4443380947657346    0.2648166013465078    0.5628996906036704 H
   0.4220091083049082    0.3870533109481109    0.4421992597083062 H
   0.5848414908545926    0.4419779217899462    0.3970494033448548 H
   0.6118629488444796    0.1992268771427558    0.5405253050393853 H
  -0.0193260244617899    0.4239248847768923    0.6643009798414238 H
   0.6839028547577488    0.2840178880635722    0.4258650635177771 H
   0.9774271020173463    0.3565847176910265    0.3809581722485326 H
   0.9963717161911952    0.3665710878945725    0.5017604170881359 H
   0.8992087490220366    1.0958159693582741    0.4057529529417727 H
   0.7698910968733008    0.1934618130732868    0.4707395594411275 H
   0.9438903338433662    1.2031220305863954    0.4669901838127494 H
   0.7213670689112679    0.4527204356874666    0.5110046604343838 H
   0.8711342003065738    0.0572958989511665    0.5995341989034942 H
   0.8136864483934357    0.4324049214798438    0.5966101332776598 H
   0.1447857295187042   -0.0408507870268972    0.6164229725630223 H
   0.3192485467857532    0.5681135770531670    0.5641469114205986 H
   0.3243290405328323    0.9392967763715993    0.5694713179136439 H
   0.4210693546977800    0.5122797225568227    0.3970802560552303 H
   0.4625656942527378    0.5988815657886305    0.6333904206340076 H
   0.4481411847403104    0.9590721879406690    0.6080217795277839 H
   0.5581852302463701    0.6770773706317451    0.5818486539985199 H
   0.5885351790273334   -0.1647699801392433    0.5739264492918607 H
   0.6600036769684292   -0.2270842157428884    0.4850914689900331 H
   0.8026746454475978   -0.0386398534857084    0.6591748020125409 H
  -0.0033164481240731    0.6693628337314671    0.4792317679719734 H
  -0.0078829108151929    0.7501740962337168    0.5737737283755021 H
  -0.0442810476983142    0.5283220467548538    0.5874939286794701 H
   0.8046777216034950    0.7901740125894247    0.3836755247148514 H
   0.8188196753831259    0.7162964771887258    0.4884220190750642 H
   0.0068880639718223    0.3802378110383063    0.8243933800264188 H
   0.2709929074167108    0.2463399877759745    0.8062442731480532 H
   0.2355923732949254    0.1582326615989086    0.7222979048052176 H
   0.1807836447023073    0.1081974681078172   -0.1013036289013540 H
   0.1025670232463073    0.3318318562939054    0.7601441533050376 H
   0.5344993466174623    0.3504164903921493    0.7918383713559904 H
   0.3523689584621029    0.4477089636459630   -0.0655098569592616 H
   0.5940871237046218    0.2938919849627261    0.7002212478960557 H
   0.7091242989289572    0.2927530913674150    0.8696003139040648 H
   0.8584388689137951    0.3703934835759231   -0.0861078977236795 H
  -0.1647284962018785    0.1519598159936660    0.8972674819332604 H
   0.7350871567500105    0.2985147532155388    0.9970374341099112 H
  -0.1553986475763361    0.0624874335573657    0.8026375913051617 H
   0.7679171420603381    1.0027992377800610    0.9452820124550735 H
   0.9460547579803867    0.4197818297337552   -0.0100041340947345 H
   0.1013508530002985    0.7005807662398355    0.8289904338723627 H
   0.2633599673145925    0.5931658339286672    0.8468541531797553 H
   0.2801141842617767    0.5434993561758635    0.6853348151398951 H
   0.0409894398908690    0.8132113038732203    0.8695463216609077 H
   0.0999563342053993   -0.0549768951077688   -0.0525656023212364 H
   0.1545492500349733    0.5369313678689236    0.8036881260934462 H
   0.0435503393059923    0.8307021238089772    0.7116814871650211 H
   0.4719892034136640    0.9395349318657645    0.9734042579623071 H
   0.5321782968792538    0.9286563291144354    0.8574366328385389 H
   0.5172784011200043    0.7479618018039900    0.9428600746905996 H
   0.6209330665735794    0.6212316083606925    0.8738271352255030 H
   0.3888170738662062    0.5728503197210444   -0.0159219924718519 H
   0.6535056821774323    0.9448168805042126    0.9782172807808792 H
  -0.0151127957898319   -0.0123465513190071   -0.0879174091872004 H
   0.9150916868711547    0.6663229489595164    0.8659828336125418 H
   0.8755574961793213    0.5459115311096219    0.9102641861789238 H
   0.7521373095064745    0.5982980848279259    0.8566730282567462 H
  -0.0117380256753894    0.9374340601850933    0.6782888274078990 H
   0.3445589291124102    0.6599897139253963    0.4268870595489643 Cl
   0.4089304770740462    0.3344481645083768    0.8622033765915477 Cl
   0.5823126563992300    0.9723238400802863    0.7101589059079920 Cl
   0.0366529649732324    0.3811734219082408    0.0708704612713441 O
   1.0681282793083453    1.1392538303833228    0.1344349892177179 O
   0.2517594410034850    0.1462457852443753    0.2675605778990402 O
   0.3285791824746181    0.3614252281099329    0.2085501413994125 O
   0.4507707633009597    0.2515785580922713    0.0865876032543640 O
   0.5635396220296977    1.0984356797940908    0.3106895817328987 O
   0.3760831763706224    0.0198111597804435    0.0527697931482680 O
   0.6740464607694185    0.3057963574496379    0.1368962641879204 O
   0.7248026003142114    1.0921160536453514    0.1615159557497798 O
   0.9158157851279034    1.0517742140444495    0.2783119761471293 O
  -0.0567811873870998    0.4634995234644480    0.2670461089535293 O
   0.7333870999732962    0.4923962904600425    0.2192128381051722 O
   0.1984602998635235    0.5171270374184196    0.1177961225122311 O
   0.2403674864728540    0.7080843654167099    0.2304401394108029 O
   0.3272734444225028   -0.0611332146319377    0.2398101075518307 O
   0.6504975261586350    0.6805467858485293    0.1354986364079119 O
   0.5025744841280706    0.8501628299036144    0.3134886938817125 O
   0.7280854414325797    0.9601268765576859    1.0015110771143532 O
   0.8878042014782448   -0.1869873360788420    0.2646010316562740 O
   0.8320879888747232    0.7673102345942349    0.0729420665095045 O
   0.2070912362586389    0.1974424120471899    0.4610063006354285 O
   0.2004917102990326    0.0167997686122590    0.6070591749640695 O
   1.0192122938116810    0.3271512502782242    0.4390885351847002 O
   0.3794998182538247    0.3125905934760348    0.5412904522566968 O
   0.4503528326766840    0.4401109528267587    0.3860388423296118 O
   0.5588038620178967    0.2091775240221771    0.6000363267648550 O
   0.6633046205432162    0.4264204141336084    0.4029638679238310 O
   0.6931720995074546    0.2001726946767259    0.4452251392783796 O
   0.9029394291709375    1.1301528882848695    0.4766116015433373 O
  -0.0594776663301661    0.4461728607085979    0.6032095280269711 O
   0.7373538991189630    0.4521488625014702    0.5856458513279800 O
   1.0345993817675907    0.6604660249137266    0.3389313814928374 O
   0.0381614898904034    0.8783187632012880    0.6521596669909200 O
   0.3315227993009661    0.5267153477245754    0.6327247734076570 O
   0.5428713391794578    0.6085055994189110    0.6285442311517819 O
   0.3998343862553020    0.9168506210465349    0.5603072916143723 O
   0.5869146156461970   -0.2222224414405743    0.5142557647901981 O
  -0.0390626604571238    0.6773010666851931    0.5475273276590964 O
   0.7713676276664101    0.7654441161863837    0.4493709722350824 O
   0.1860420147602835    0.0634551103634788   -0.0388369946536911 O
   0.0621079544441420    0.4012660906177519    0.7734694389161997 O
   0.2076933397003919    0.2025244801816067    0.7830638605252090 O
   0.6102927575159864    0.3530931880354983    0.7523384175800456 O
   0.7565802819622858    0.2652810045601299    0.9294237193220859 O
   0.9132027348970276    0.4296321110834926   -0.0817954601309493 O
  -0.1356291910404518    0.0799302821721550    0.8729015539142392 O
   0.8572267913970636    0.0197493244074942    0.6674201888603830 O
   0.1999942862791791    0.6076941696280769    0.8050564437985980 O
   0.0340990546804133    0.7444115838302567    0.8213466748768420 O
   0.0252175094527638   -0.0802571008133984   -0.0574634700933411 O
   0.3341311271519065    0.5195927973383651   -0.0343443001005922 O
   0.5326607666959787    0.9112454613802911    0.9359259280337145 O
   0.5305766230178586    0.6665993794438153    0.9563812750126460 O
   0.6745911085886250    0.5694004672769951    0.8437534557870213 O
   0.8535984294800947    0.6286484508932639    0.9011780629733503 O
