Li1 Co1 H110 Cl3 O55
1.0
  12.7879939266000004    0.0000000000000000    0.0000000000000000
   0.0000000000000000   11.8333993792999994    0.0000000000000000
   0.0000000000000000    0.0000000000000000   13.0490460853000005
Li Co H Cl O
1 1 110 3 55
direct
   0.2430331904471206    0.7264119475876668    0.7633827390587367 Li
   0.7043142978559944    0.3453211168422278    0.6517569550375661 Co
   0.1818101397877466    0.1909715557858304    0.1565230538193047 H
   0.0555259853481013    0.3066137272478865    0.1050960762752545 H
   0.3079909942096109    0.2048204925745838    0.2916440418573713 H
   0.0190319892859621    0.2895856532734307    0.2147089162215636 H
   0.2725155316308907    0.1056696093505777    0.1489792073682684 H
   1.0056719636571867    0.0953084277433317    0.1032072792061902 H
   0.3313003577979037    0.4839102024830618    1.0338477199415794 H
   0.3310712366381020    0.2063517516337259    0.0302469728530295 H
   0.1856958157026092    0.4927817022638974    0.3040947603955658 H
   0.1575702158575969    0.4236739189644905    1.0167736749467511 H
   0.5924390492273476    0.2106801781794908    0.0801993138700713 H
   0.5131631279359510    1.1105957188168036    0.1991399620871412 H
   0.6262668726125449    1.1069872882524898    0.2274784320092127 H
   0.5361604801155035    0.2186668941662195    0.3276773271202449 H
   0.7690085731855385    0.4201356288537686    0.0040754352733805 H
   0.9094723558796844    0.4191747891461281    0.3069616366220314 H
  -0.0277494686529264    0.4916180467868341    1.0692219531983691 H
   1.0323141408395919   -0.0090402856246983    0.0226571766830574 H
   1.1303592296311968    0.8446704424752771    1.0915530874510304 H
   0.2085000179624655    0.6718671815985229    0.2422595890945021 H
   0.2225569530088675    0.8825251607723367    0.2194088766323931 H
   0.1044136375935085    0.8765944896481316    0.2615981674358169 H
   0.3052634358294457    0.6132779311408060    0.1976394692639870 H
   0.6470246241037966    0.6708412718315259    0.0086297145372838 H
   0.6565804622361415    0.5333871094337536    0.0009740591470758 H
   0.3948732688163364    0.6954369092025698    0.0640225758449219 H
   0.4031271044535624    0.8815499549476954    0.0598302387466854 H
   0.4724929490959240    0.5859637173937905    0.0923319248643990 H
   0.5755779214196862    0.7877966754005947    0.2852129204212582 H
   0.4982913661028137    0.8852082443886591    0.2822579151474675 H
   0.6588959153220560    0.6588311980188725    1.1696584135674084 H
  -0.0976504245910298    0.5843918951807637    1.0293722970165438 H
   0.7711324403187177    0.5545450195130812    0.2763026905669104 H
   0.7178762373592070    0.7775088454966232    1.1864105959546141 H
   0.8446850245159545   -0.0451214645247260    0.1362786621393955 H
   0.7683853323515386   -0.0529904628586189    0.2336650911314412 H
   0.8748774067000659    0.5521458779739505    0.2036521693101909 H
   0.9317354255709989    0.9287122269298494    0.2753279066695396 H
   1.0192784762187908    0.3780403708443608    0.3451590647513950 H
   0.2245533568347167    0.3729167374693174    0.3597762251747053 H
   0.2675890357034133    0.1954918122468410    0.4044193351914791 H
   0.2245181675780919    0.2015703698695835    0.5638777344030536 H
   0.1544493197867140    0.1134517349299011    0.5078958645234665 H
   0.3039012206063241    0.0473947233354661    0.5556311545920416 H
   0.0485239566863777    0.4658705848586097    0.6075498922201664 H
   1.0173626166914385    1.0633987991407066    0.5812475864610778 H
   0.0772967182400601    0.3551509211335861    0.6596318601707284 H
   0.4471848357313404    0.2734381377645522    0.3850692617570351 H
   0.5272130251310281    0.1480988373269685   -0.4769592671077544 H
   0.6034102774594916    0.3352132859336190    0.4677074862640955 H
   0.4541327589560446    0.0747050497802343   -0.3830397582035275 H
   0.6037160330003875    0.4603489255360740    0.5177103750373249 H
   1.4287875853142413    1.4644078285748763    0.6397499470941652 H
   0.7792635045494970    0.0703184827139015    0.3668043251140038 H
   0.9131085790642511    0.3357211704228819    0.6178456639663746 H
   0.8908064101989092    0.2581441386186614    0.3820452859244681 H
   0.9222577857867091    0.1486160175389966    0.4447012068749689 H
   0.8352699434101090    0.2564540072068047    0.5437467609753541 H
   1.0124908596075997    0.9969090293982656    0.4725032391176698 H
   0.1098883039408528    0.6358978048913895    0.6542935389214476 H
   0.1246518392602815    0.5579793665419739    0.4643355922794796 H
   0.0288788034714205    0.6265632091037052    0.5002248057084651 H
   0.5954504676109531   -0.0148879712965812    0.5358174457347128 H
   0.3462002710363408    0.7379090665168216    0.5792351788238955 H
   0.3475491925402929    0.8536340544180591    0.6351572742192099 H
   0.3581356849000054    0.6616266753740834    0.4096779571283962 H
   0.4370386000711787    0.7599424646674910    0.4101553866630361 H
   0.4715498770183784    0.5990723766241507    0.5200293184912904 H
   0.5958610089382429   -0.1139788548554663    0.4454598830215076 H
   0.5510314599651602    0.5949687375561628    0.6216336803222738 H
   0.6867259254114196   -0.0061845550846547    0.3908758164664522 H
   0.6685213499841700    0.7190869180486802    0.6640865919281311 H
   0.9556797597454998    0.8269333583735475    0.3525197560519033 H
   0.8061801579335760    0.8184852365113819    0.6069145967398831 H
   0.8864194828730126    0.6569500817574759    0.3591922744437332 H
   0.7116508668705328    0.8388462496300191    0.5336126868724991 H
   0.8723672397274939    0.7068123386700711    0.4677159159990571 H
   0.2180660218800576    1.2530146422369048    0.7236940141807224 H
   0.2890748138150590    0.0192421199015992    0.6711851951052898 H
   0.2656184373324224    1.3634393780305596    0.6832680706633445 H
   0.0512881822719461    0.3889620000277785    0.9470137864422981 H
   0.3140607499856552    0.3720302635437985    0.9672221601637352 H
   0.0615989472564159    0.0561575476665193    0.7632478632993520 H
   0.6395340043435894    0.1894918457347499    0.7780566086081520 H
   0.5110494265880190    0.2171330999099596   -0.0156958183733237 H
   0.6587676700312455    0.1585210326781825   -0.0868104419200506 H
   0.3444900731643736    0.1745308024769947   -0.0885071176659461 H
   0.5705372559040482    0.1892628329284433    0.6755487324571997 H
   0.6788114706047532    0.0298174411587275   -0.1226253204134662 H
   0.6977808258759827    0.4640858060876891    0.8254033645289542 H
  -0.0760270173868070    1.1115675443786213    0.9430441476149546 H
  -0.0657822518080957    0.2977320866785798   -0.1569887518144130 H
  -0.1778428305216333    1.1311561674420398    0.8782807929240687 H
  -0.0113128796768567    0.3999199670365511   -0.2099543092568527 H
  -0.0524635091673347    0.0948776132464494    0.7590061739346136 H
   0.6689342372619014    0.3460808309118573   -0.0236442154685598 H
   0.0654081451868806    0.7465785955939405    0.7048512575230547 H
   0.2283483226658354   -0.0755156892501384    0.8519876832394835 H
   0.3048396007829865   -0.1419065863049857    0.9103291125687599 H
   1.1505344034294374    0.8410501809910802    0.9730540040780370 H
   0.3164559653865858    0.5411676293882357    0.8889329125572873 H
   0.4119510060481107    0.6272688389681553    0.8630766164116185 H
   0.4854535433025922    0.8510151957953871   -0.0318907952795718 H
   0.6321278387992818    0.7170317182518623    0.7769392855559769 H
   1.3744475532506857    1.5210356815291335    0.7389388066888966 H
   0.6766743097524048    0.5525227772787947    0.7340595228252488 H
  -0.0393598119837255   -0.0942389650306865    0.7190247073515713 H
  -0.0951097602627164   -0.1958944539939230    0.7736662493722736 H
  -0.1308096521003551    0.7892544137433211   -0.0476535566841554 H
  -0.0187346848907754    0.7528895462858132   -0.0438617086305463 H
   0.3932279755732551    0.9913907503385536    0.1942399870558605 Cl
   0.2439762625246663    0.1033117070178965    0.8038232430274118 Cl
   0.6486175244536809    0.8255795631126502    0.9021982500285836 Cl
   0.2608068929765862    0.1860836957427409    0.1428883406887848 O
   0.0529902475157154    0.2485010938483132    0.1592542879468437 O
   0.0844826772362443    0.3988357477358451    1.0201992126993042 O
   0.5710385073150821    1.1654320324744929    0.2069298035311461 O
   0.5890131795990495    0.2186685842976313    0.0032723114334084 O
   0.9545302440290885    0.3503636239095020    0.3131421650279241 O
   0.9790767054836145    0.0490952490555057    0.0449512967358422 O
   0.7254911924928220    0.0250639465628806    0.3321075360123051 O
   1.0961161730178264    0.8648548368613752    1.0225365483022768 O
   0.1558623639360714    0.8381609013425112    0.2159327604700708 O
   0.2616318855485684    0.6175252313788017    0.2611728489900300 O
   0.6181569219357405    0.5970230922872745    0.0347069923532719 O
   0.3951751144398295    0.6175691747955100    0.0918047598934860 O
   0.5260205003231863    0.8241328106241010    0.3324861077460325 O
   0.8461864327986143    0.5448276089606112    0.2788515358834633 O
   0.6789498816808109    0.7166235515158990    1.2190260068603544 O
  -0.0975894298795467    0.5268775683009876    1.0835448392375675 O
   0.8073898863779899   -0.0963288125214473    0.1813923046349316 O
   0.9805546542618577    0.9022363183631149    0.3257124325346641 O
   0.2267483844646261    0.1375769242224548    0.5149492536676495 O
   0.1734726319181015    0.4354034309627757    0.3567315581745054 O
   1.0338390086266682    1.0658494896878987    0.5080805523530784 O
   0.3093891806728378    0.2466951884347443    0.3584458597298659 O
   0.0151826756029451    0.4092148447360568    0.6512687967493387 O
   0.3367859719139757    0.0024867486304464    0.6156117842015665 O
   0.5309344845149748    0.1030921589474963   -0.4143838118091591 O
   0.5231013559902858    0.2465253302278528    0.4000067521088839 O
   0.6425720101655338    0.3870690528464991    0.5170973034037584 O
   0.8464366675123909    0.2964416713456273    0.6073590736742188 O
   0.8599806213955510    0.1968447624420322    0.4255296905538012 O
   0.0885788631040716    0.5862248426969223    0.5254258815457599 O
   0.3488723085893868    0.7717666240248402    0.6485276002077542 O
   0.3981396138146019    0.7075137432059916    0.4554322594810094 O
   0.5207866848878520    0.5472199899740944    0.5614492043945881 O
   0.6372951856387691   -0.0673413686766937    0.4898186810682150 O
   0.7581100694170859    0.7766046251912799    0.5595494486700737 O
   0.9283025180913757    0.6916349585915983    0.4179122755067368 O
   0.2050209734574898    1.3127016330466226    0.6676707619658696 O
   0.2857865732793380    0.4492126496633505    0.9812155201998916 O
   0.3754636568455562    0.2186136550267460   -0.0302090631547446 O
   0.6096825669569989    0.2383966432025282    0.7255692470398941 O
   1.3641331911422054    1.4668500684650092    0.6776048214482735 O
  -0.1024377274589689    1.1508123957619327    0.8791161030248030 O
  -0.0382970964336554    0.3724494161339389   -0.1402909795346862 O
   0.7104106410703774    0.4090120289666340   -0.0437061417035288 O
   0.7006217718608280    0.4728102644356932    0.7509051986365736 O
   0.7003207082208155    0.1083738196095484   -0.1305921862916635 O
  -0.0004195369993757    0.0481641556607139    0.7191411909619488 O
   0.2386063819637160   -0.1543772209273701    0.8660959942069337 O
   0.1153031485519348    0.6863389318125456    0.7143615312387557 O
   0.3380175958958451    0.6126314558757707    0.8485774722777697 O
   0.4134547602812121    0.8362265459416413   -0.0043061735649245 O
   0.6326290902103157    0.6664697469347587    0.7114655341096958 O
  -0.0883283995193699    0.7216339460863481   -0.0663928575036588 O
  -0.0591189705703125   -0.1736937328334798    0.7076775177537965 O
