Li1 Co1 H90 C51 N3 Cl6 O45
1.0
  13.6450303462000004    0.0000000000000000    0.0000000000000000
   0.0000000000000000   12.8571847867999995    0.0000000000000000
   0.0000000000000000    0.0000000000000000   14.6700166020000005
Li Co H C N Cl O
1 1 90 51 3 6 45
direct
   0.0149064287831829    0.3158853171006523    0.5063988339309176 Li
   0.2465086986073822    0.2916583961093793    0.4808024757135173 Co
   1.0291196367335784    0.0991014685196202    0.1577654861470620 H
   0.3370083141207987    0.1626464835091220    0.2490135083079574 H
   0.3190647849539189    0.1166426335366730    0.1343953694456766 H
   0.5747593427144033    0.0366321166888372    0.1041486415762953 H
   0.3951267631003460    0.2273208281489922    0.1564389709475259 H
   0.5502280671138899    0.2151735344303592    0.2280755633598839 H
   0.5153034104506886    0.1553882849573046    0.0683456827760719 H
   0.4664137427054071    0.0255822638356793    0.0464138739220767 H
   0.5844588447779410   -0.0827066052353644    0.2791552601543539 H
   0.6083928333227849    0.0850478476845593    0.2529596524447069 H
   0.9959720373128149    0.2690399143171160    0.2233168775387321 H
   0.8713874847783883    0.3063373482384459    0.1885302775064985 H
   0.8086422963634404    0.9905812278964579    0.2614824785186020 H
   1.0274970679713062    0.6310445115271103    0.1355528323484579 H
   0.6121861557769497    0.5065864729646682    0.2800591446120028 H
   0.6274525197728358    0.3540792925426293    0.0694411143925439 H
   0.4134280782065851    0.5350079358322752    0.0711766270842289 H
   0.3630954675362640    0.4140310870281035    0.0698644267969180 H
   1.0454640488998812    0.4217973128120337    0.0581691435089216 H
   0.8234161733637317    0.5752422490647563    0.1161772578203930 H
   0.8349126666671480    0.3761502983425411    0.3319350231911892 H
   1.0309027034899507    0.7719486075668542    0.1445425972258897 H
   0.2150400987504694    0.9453271532566226    1.0448340119063213 H
   0.9340586535704863    0.7914964327064625    0.0062366869433213 H
   0.3739634536262545   -0.0514820403981098    0.1936291129086208 H
   0.5545343968551327   -0.1320696664749907    0.1669911062449662 H
   0.5225117491281758   -0.2371432126984976    0.3100822871856761 H
   0.4478614937490317    0.8709632846606293    0.9741094839014554 H
   0.8139504560495910    0.6307481791601748    0.2339187741977172 H
   0.9079282609693958    0.6522318868753805    0.0132503122711872 H
   0.9784440440484683    0.6983664030883678    0.2330796476763251 H
   0.7440986509735080    0.6780765803685588    0.1340061401656484 H
   0.8033040891076182    0.7480436855254797    0.0181248807151145 H
   0.8996549191639348    0.8849647945545230    0.1311847391323082 H
   0.7748145958535222    0.8332404076823081    0.1463046947545643 H
   0.8221211963976364    0.7650264079192787    0.3028784780239610 H
   0.7280942893517828    0.2939154998596337    0.3349254765212842 H
   0.4174175893046795   -0.0101082864371234    0.3043133775589166 H
   0.5074099138979311    0.1383651182509580    0.3190700070756471 H
   0.6037772334741895    1.1014725329248933    0.5537129589814216 H
   0.7473987535645251    0.2454499912484683    0.5719661080585327 H
   0.5077446145093718    0.3271070582821375    0.4694711320272847 H
   0.5082028033034878    0.6328901721747167    0.5624389204764173 H
   0.3686689252765892    0.6407029244735815    0.4554875077707155 H
   0.6570332528133018    0.5272815165851950    0.6902788575998914 H
   0.8064334335587935    0.5631952883522510    0.3528252517651786 H
   0.7858867588437697    0.5349177139042844    0.4621380796580506 H
   0.2134402488823392    0.5941686317865655    0.5494234614500132 H
   0.2450488264418690    0.6770880280368656    0.3822921577495295 H
   0.1390190146134979    0.7081025935589690    0.5864078095063087 H
   0.1630028381519438    0.7868406701120371    0.4100303676670645 H
   0.1880925588278191    0.8643926394221217    0.5641313520989294 H
   0.2925269179933779    0.8090508199026175    0.3764612168364607 H
   0.3041128211382563    0.8982810844608308    0.5117593936448908 H
   0.4131567706384761    0.7709756107399871    0.4564333144713097 H
   0.5746670014027293    0.9900212297227213    0.6146586296140035 H
   0.9259333510107250    0.8549955589567276    0.2960250433805201 H
   0.6753454143593247    0.6777499147672125    0.5234216503853961 H
   0.7497270737803059    0.9672129707715807    0.4027270357822599 H
   0.7828167766643849    0.8076282689862786    0.6305781753334105 H
   0.2898094451069708    0.1861679623565353   -0.1979791691990343 H
   1.1758880900963604    0.2435771084674165   -0.0305717240251014 H
   0.4348198957836921    1.0668273125763985    0.8095104881736112 H
   0.6381494545759635    1.2679016568336408    0.7602133387824233 H
   0.9099795572501547    0.2007535814566457   -0.0275430975957392 H
   0.7501924446764408    0.1549776196298979   -0.0417952968721528 H
   0.7873458981417299    1.1782000604791993    0.7078991512241508 H
   0.9178754722658368    0.3370135815305835   -0.0414837771156327 H
   0.1394953785229274    0.5190860988676104   -0.1256404644251540 H
   0.3896847817990234    0.4304245435658360   -0.2039232660849309 H
   0.4716346178659992    0.3871616513212546   -0.1279710684679156 H
   0.4833852696367849    0.5656452803623478   -0.0879690687482973 H
   0.3977640602764583    0.6379076002563471    0.6361671260636247 H
   0.6955982091856082    0.6175244445075817    0.8232746171093938 H
   0.8853925837156157    0.4823519297760304    0.6574302240179565 H
   0.9275588512432091    0.4117229145555054    0.7561001873363797 H
   0.7867170977812830    0.4370209331648306    0.9050652539268340 H
   0.2154072653945066    0.7774101453112671    0.9090536611377722 H
   0.0389686691497964    0.8938609877645194    0.8258990176840156 H
   0.1946590521024165    0.8791384802219401    0.8299883109430172 H
   0.2444713268101299    0.6692597202331749    0.6420614615879765 H
   0.3639888330833326    0.7755520402597998    0.9838715723765614 H
   0.5533889248698430    0.8006874027329121    0.8781307240813715 H
   0.4570985563866463    0.7734084916947754    0.6852870432082147 H
   0.3022095641031972    0.8417134911610369    0.6219974079481277 H
   0.6717052612237304    0.9407600570397054    0.7572297020771975 H
   0.7796185426632305    0.9814042578243518    0.7003920022557587 H
   0.8245440565277502    0.6633175173896383    0.8304695646587791 H
   0.7045926926631900    0.9609635467077302    0.9206344251279670 H
   1.0102746804765474    0.7051058255542377    0.6984206343436011 H
   1.0685493768183878    0.2309024831351816    0.0564786205413730 C
   0.3717359759857622    0.1484971963193811    0.1817347841744454 C
   0.5046952991949807    0.0737071068911550    0.0938085033122855 C
   0.5358213567576360    0.1345726861743762    0.2500530436005024 C
   0.4367060037180117   -0.0303973313816913    0.2317858522761609 C
   0.9696401061346581    0.2889774048526161    0.0860525475361694 C
   0.9344302174198413    0.2544247397578362    0.1784457626750817 C
   0.8997714451048568    0.1395154478328416    0.1881362765890618 C
   0.4110855403602766    0.4655023625035422    0.0252380287660700 C
   0.5227939031360687    0.4373200655226349    0.0198972031810929 C
   0.5236748099347367   -0.1067196380352796    0.2370987296991745 C
   0.8146987138211719    0.6421884751844656    0.1572453776695460 C
   0.9871314560213564    0.6998706204050433    0.1572044779203311 C
   0.8805256102963520    0.7317944051842271    0.0346892791471430 C
   0.8522581759108055    0.8242415481404599    0.1691124399042449 C
   0.8520756918901163    0.8372031725367346    0.2735506311869408 C
   0.6335917512640525    1.0357730805169889    0.5882387549461616 C
   0.8006774917977793    0.3131444371503089    0.4647517099653791 C
   0.6081700415866825    0.4188908064018306    0.4373343585804348 C
   0.4415578434223064    0.6802605732461309    0.5802196774500965 C
   0.6698686951359915    0.6334050593844577    0.4013289460215977 C
   0.6963948362156849    0.4455702386172071    0.3693473871230184 C
   0.7655518828515538    0.3546686906204869    0.3722710375293957 C
   0.7437146283757525    0.5454029019322580    0.3993909795712991 C
   0.2410986703313690    0.7581073193726684    0.4145334300556233 C
   0.2170826006205925    0.6735965949786671    0.5714499532234408 C
   0.2657677250318404    0.8490105784749193    0.5587845278840674 C
   0.3781641771531145    0.7077067059611470    0.4986049777205290 C
   0.7046007542062728    0.9770907163360986    0.5312207553969338 C
   0.5807893769402278    1.1318431005471998    0.7309522948691207 C
   0.3292816915098522    0.3045469096329719   -0.1200126589331859 C
   0.7920816882690120    0.2768394444368786    0.0357369943895310 C
   0.8991265216582446    0.2742836749939648    0.0063777910781126 C
   0.7694441424253693    1.0596865580860177    0.8290114885992683 C
   0.6713358959770342    1.0918413421118678    0.6781439020078350 C
   0.2580015275730336    0.5187555443900577   -0.0546841711747369 C
   0.3666857856782565    0.4950597661110688   -0.0650529392631972 C
   0.3883752207686240    0.4053308698456576   -0.1339635633903832 C
   0.9761728875018191    0.5642483960289720    0.7508009431631045 C
   0.7722671482394038    0.6232729813160346    0.7865255107773327 C
   0.7244160271034340    0.4305574653545743    0.7595875726194357 C
   0.8063806670949798    0.5055232542098101    0.7870251693802413 C
   0.8991917468704588    0.4838528026591682    0.7312310948262688 C
   0.1053444834221500    0.8979069745697653    0.9470911095701022 C
   0.2011749775158591    0.8612574274244390    0.9030938860146766 C
   0.2960490794529443    0.9156029168598370    0.9392949357072582 C
   0.3160512335761125    1.0125899338995412    0.8805404009726151 C
   0.3820222850989617    0.8416738246237305    0.9397850510353499 C
   0.4074667136704737    0.8018812877283085    0.8479037644241108 C
   0.7214039414607336    1.0119404915730554    0.7443476443994825 C
   0.7545559380868150    0.6730809299936849    0.6992065911910139 C
   0.4627670670485914    0.0831002984803426    0.1869004225002853 N
   0.8861701561893152    0.7201098877341680    0.1314901239264460 N
   0.2745181636142838    0.7472410214764574    0.5143593293528571 N
   0.3859278095754859    0.1832334163711080    0.5154656198527456 Cl
   0.1468636289004723    0.3326782623355740    0.6021085415674160 Cl
   0.1416778580956675    0.2368540192816139    0.3851149221078435 Cl
   0.3122285964198290    0.4503336453050285    0.4298987841731687 Cl
   1.0562232774450111    0.8503374630365782    0.7071009244519736 Cl
   0.6613454454949682   -0.1707678736059029    0.9627434435946387 Cl
   1.1150498230542367    0.1652706971732703    0.1031254661834363 O
   0.9712458189432120    0.0702623403474346    0.1931267276557647 O
   0.8126188357058474    0.1106148754165933    0.2066584096835094 O
   0.6607716102009938    0.4492657598987228    0.2763100009339717 O
   0.5528165553109746    0.3526136528779224    0.0652904715097200 O
   0.9946440813068361    0.3988418132299624    0.1011745481458863 O
   0.2893081637007404    0.9472257026206374    1.0320664735264082 O
   0.1019615667976476    0.9296363155386239    1.0254468491159789 O
   0.5972635066634059    0.6394958172990829    0.3496691544507634 O
   0.7870512853854367    0.9281593203553941    0.2983679173480461 O
   0.7300231967511958    0.2918186178090872    0.5218151082362354 O
   0.7471539758018335    1.1643439945554288    0.6491432531645339 O
   0.8886868233662090    0.3085998964153894    0.4805932053300344 O
   0.7026330048265526    1.0057859560886435    0.4447692513252140 O
   0.5646443047483326    0.3272229467930914    0.4242205356571688 O
   0.5788787912296390    0.4783140318332941    0.4970468336079393 O
   0.6423407241113900    0.4680044654548062    0.7311240738158232 O
   0.7103676889805817    0.6313618438255609    0.6334616076530600 O
   0.4746346111940756   -0.1894220349932569    0.2852186479754605 O
   0.6913505088486031    0.7101504757693136    0.4611604393193174 O
   0.7564144902011430    0.9041859540927851    0.5606323103873472 O
   1.1062055774250132    0.2675986967949860   -0.0248655273471380 O
   0.2489762636582270    1.0620292171128152    0.8459283065370318 O
   0.2933975646463043    0.2776576639907269   -0.0461606634383549 O
   0.3342688552078025    0.2486357586368357   -0.1979519026995577 O
   0.5833976525612425    1.2190573716799620    0.7773210222165228 O
   0.5113794177118295    1.0715312972357847    0.7403108391519734 O
   0.7279748319406489    0.2085702226317170    0.0048944935065861 O
   0.7464540872887487    1.0281563275789320    0.9148607438637990 O
   0.8254132374455707    1.1343599812280487    0.8204402644888023 O
   0.2091060701740838    0.5209146484599081    0.0149892332753067 O
   0.2121078956710426    0.5121615658943109   -0.1390644437799662 O
   1.0352405465359711    0.5595179670113817    0.8117824692424980 O
   0.5765453409409875    0.4879146560793365   -0.0323549530908704 O
   0.4135306063772453    0.5842955528734954   -0.0951980994220282 O
   0.7607347444258922    0.3526590749520144    0.0775713028739761 O
   0.7261258071045095    0.3362078063805961    0.7736979860985709 O
   0.8326422429880517    0.4921178312608493    0.8807217231941344 O
   0.0267906090221195    0.8974799759622912    0.8962765794830421 O
   0.4105371355703903    1.0272253306150951    0.8674736127609463 O
   0.3478335007456959    0.7914536550681910    0.7875466411827310 O
   0.5048412131247767    0.7979441894568448    0.8250203547383824 O
   0.4838938064317898    0.7714998312526237    0.6240778418581915 O
   0.7892352306932827    0.7669024018012958    0.6863204435383774 O
   0.9749959022117516    0.6356847186167098    0.6871309402353191 O
