Li1 Co1 H90 C51 N3 Cl6 O45
1.0
  14.0945372568000007    0.0000000000000000    0.0000000000000000
   0.0000000000000000   13.7552844781000001    0.0000000000000000
   0.0000000000000000    0.0000000000000000   14.2165627073999996
Li Co H C N Cl O
1 1 90 51 3 6 45
direct
   0.7354773650407539    0.7246702716305344    0.3267795070662075 Li
   0.6971383979533957    0.6861192695887905    0.6176908957837669 Co
   0.1293304696626739    0.1722774794569227    1.0811024908081222 H
   0.0117409404853048    0.3001308875634572    0.2817418975414577 H
   0.3127178312273799    0.3207585961689570    0.2119866395082476 H
   0.4780540858018756    0.1356755465196881    0.2442180592565309 H
   0.6152470964533667    1.0533366839608496    0.0424463610592662 H
   0.3425960735795244    0.2306128778470865    0.3080049266353789 H
   0.0035973598973984    0.1594903938622890    1.0829081312099780 H
   0.7812717028214142    1.2541271513915533    0.0814276543160067 H
  -0.1816559728248431    0.1817269386961658    0.2565881379893079 H
   0.7321157789782430    1.0277821415913593   -0.0008327361925424 H
   0.5426502469536542    0.4337339404792953    0.2179064952238766 H
   0.4252961990793976    0.4800119364751970    0.3286737764866197 H
   0.4854573795815034    0.4779907714426407    1.0435202699157335 H
   0.5602452907271100    0.6318630307455874    1.0073912835657037 H
   0.3947801209589549    0.5619524446336794    0.9978446721383608 H
   0.9689557645116090    0.5119856845063790    0.2181885605924563 H
   0.7419351861342479    0.4164083809549228    0.1529822221068903 H
   0.8685580022993522    0.4576600178006318    0.2707596366944858 H
   0.8331967846219471    0.5303557880402104    0.0063581721939685 H
   0.9417806971063126    0.5268974807928586    0.0567458794579143 H
   0.1790447658636324    0.7244492656597136    0.1439104089932416 H
   0.2203331025714757    0.8376951968856424    0.0957813348926614 H
   0.3427230731373946    0.8397155113360083    0.2347129487188295 H
   0.4006575753578237    0.7081936949111770    0.1724686483058054 H
   0.5783823884794089    0.8759503126440833    0.2504945412611123 H
   0.5970960926042285    0.8844924842136407    0.0143586996309414 H
   0.6663853485908933    0.7962529423901002    0.0662742023576185 H
   0.6509758324043852    1.0457883122666611    0.2254160460342444 H
   0.8451524804301727    0.7036194529098446    0.1999492712975110 H
   0.9183723372581862    0.9244502183393924    0.1247609137458219 H
   0.1283598808628607    1.0480652553607765    0.3247930916026932 H
   0.0874787941338865    0.1611144969504926    0.5270490840799258 H
   0.3352031384230524    0.0911871899921081    0.6371154223506745 H
   0.3299663577714287    0.2202103303586782    0.6130730425550235 H
   0.4418926999604141    0.1798789216638411    0.5086475755448262 H
   0.4964252458678137    0.2352663621208513    0.6053827166829974 H
   0.6544076584458299    0.1509140536064534    0.5948239055913497 H
   0.6747588054734922   -0.7210482834208888   -0.6615311197132532 H
   0.6086913650862074    0.1442991413416532    0.4736204870531193 H
   0.4635681189141372    0.0241983900536514    0.4655838046038147 H
  -0.0843090379804203    0.1652728987698856    0.4813150333546005 H
   0.6588178777291918    0.0393794646677363    0.5356557355271361 H
   1.0035301525260076    0.6305478998205379    0.4122432035311462 H
   0.1453082911332831    0.3649714222263359    0.4696736821077303 H
   0.0854765999869034    0.4391209610180545    0.6276264901258842 H
   0.0284594744610346    0.4125964641542574    0.4860863695345262 H
   0.2861408678851264    0.5057779612029499    0.3735059917778898 H
   0.4937549914767486    0.4103106517415764    0.4153839064506190 H
  -0.1107902195332185    0.2871068021448512    0.5069259638934205 H
  -0.0566323577962732    0.6942790426693618    0.5431218862546077 H
   0.1060739416882024    0.8117371732207388    0.3634416743373932 H
   0.1776172624533809    0.9012496803564745    0.5696840734564015 H
   0.2722603128562188    0.7555834817991063    0.5910297395112519 H
   0.3079918867861842    0.8290199855375975    0.3481067439124375 H
   0.4294304249101810   -0.0335386928299809    0.5783704910203123 H
   0.5496684979396720   -0.0515230537055308    0.5341389131809881 H
  -0.0004297322281423    0.7395321961749141    0.6834276015708520 H
   0.2266383822965780    0.0708975332827653    1.0325830269829490 H
   0.0751520325783641    0.0476555566803185    1.0826542020377654 H
   0.1454963072385101    0.2524961039249799    0.9340620251889679 H
   0.1439375473019680    0.0744183619560731    0.8273435425834444 H
   0.0756841536308932    0.2227373591566171    0.8394027163463655 H
   0.0172891893263423    0.2748998572236225    0.9363902954383420 H
   0.0919798287435465   -0.0134147905987538    0.9115171944449534 H
  -0.0559001592279930    0.1163149872797831    0.8495444083268716 H
   0.2643239047314304   -0.0128026622190459    0.9436824941317742 H
   0.3254170775196726    0.1613893004273685    0.9675103354301263 H
   0.4120690887029960    0.2937609720492052    0.7964879828375103 H
   0.3433573614320094    0.1372705698748888    0.7888159454931227 H
   0.5695608856705803    0.1108719882549937    0.7274361297134766 H
   0.4718489867335962    0.0265887441064773    0.7152594873307231 H
  -0.0444609755880893    0.0154104947402207    0.9273656104536080 H
  -0.0860700039169235    0.1413664502683260    0.9671551159509924 H
   0.1855955307676349    0.6103171295705259    0.8279463605906087 H
   0.3771576906886622    0.4347421348225006    0.7165966600630675 H
   0.3726410471947946    0.5480559672249909    0.8313318484184750 H
   0.5064826175585097    0.4279163217940979    0.7188799123982543 H
   0.3911730497175438    0.4309241839772372    0.9713185696084077 H
   0.6323452101132340    0.5010802757350209    0.9551353328629851 H
   0.5819534173881954    0.3941303975015170    0.8945939757350773 H
   0.6284855587455558    0.4995013916316366    0.8297681793053757 H
   0.4717942137399225    0.5880340571638446    0.7678010204265672 H
   0.5724434918363414    0.6619670973433578    0.8862255675306051 H
   0.4588281974266284    0.6721326450077936    0.9457075968652933 H
   0.1169157307598001    0.7595681322138079   -0.0142783210314502 H
   0.0518181696775917    0.8575392066867180    0.6669742573403057 H
   0.3043677876710922    0.7400883460685916    0.7077133594650781 H
   0.1839714973153158    0.7542683508740570    0.8319142676832730 H
   0.5842973042003758   -0.0118917395827348    0.6867547067912566 H
   0.7661693978558998   -0.1366059905116227   -0.2100084744637983 H
   0.3879143403918552    0.2026425366583928    0.1683326274398479 C
   0.3727198011105690    0.2749754645294296    0.2501168128248846 C
   0.5358286679086514    0.2669828999136242    0.3195048934955046 C
   0.6884889476182182    1.0398240590277974    0.0642308110964609 C
   0.7286960143473222    1.1243653858067133    0.1139031555677742 C
   0.4547637858779370    0.3348629936686151    0.2866551808320552 C
   0.4330304012042250    0.4080619886878063    0.3628965355327815 C
   0.8629714407425326    0.4013327203729728    0.0815057322609253 C
   0.8979395983358028    0.5269008249621538    0.2452028261293779 C
   0.7277786376527620    0.5666495485069484    0.1866028665507971 C
   0.8386258383472182    0.5718446428078895    0.1617002225512232 C
   0.8658250285735624    0.5107001422096601    0.0719781127661303 C
   0.9128780100171383    0.5973991851773799    0.3231006993912147 C
   0.3136316604482566    0.6968555070134054    0.2810166870800968 C
   0.1727018829174848    0.8035475934138399    0.1445322189329536 C
   0.0787037632303121    0.8358886184728466    0.1022146761919892 C
   0.1832974773154455    0.8286666667816139    0.2494823415968074 C
   0.1796960820319281    0.9411238102498434    0.2589916725639638 C
   0.2917770940735153    0.8016152451558072    0.2788635646531077 C
   0.5415061157412429    0.8118651240459510    0.1382261939221867 C
   0.6238468821569747    0.8627793745738134    0.0839929720197733 C
   0.6826100742298760    0.9438427652856004    0.1276434670636270 C
   0.7855428611363817    0.9102345908609988    0.1592284577003771 C
   0.0740814050206754    0.1878918420927485    0.3932604152472013 C
   0.0189543734733902    0.2749863694293057    0.4186554426831987 C
   0.0733314690839776    0.3091310649278080    0.5960253211762231 C
   0.4614351648871793    0.1684026050343064    0.5810339337089090 C
   0.3714980511739620    0.1595267435285425    0.6436387994783770 C
   0.6202674812102952    0.1092151704671621    0.5417723335958617 C
   0.4854898744404446   -0.0040729263716208    0.5365850037526491 C
  -0.1489425895048233    0.2245054069231842    0.3785374470932290 C
  -0.0804451296443218    0.2406003121468805    0.4541282929339489 C
   0.0733754577576534    0.3468053130195189    0.4910113293466160 C
   0.3402604169062897    0.3832596663117645    0.4122762635618775 C
   0.0599652977391816    0.7759051262147521    0.5471213762276941 C
   0.0635879778648002    0.7781304527827875    0.6509549139387212 C
   0.2545662236175189    0.7765347024342616    0.6625132634063086 C
   0.0659030591906704    0.1261381210881116    1.0560943360721717 C
   0.0768044458201513    0.2277041775534866    0.9132468671166184 C
   0.1343756867353872    0.0518212284329622    0.9064470518596096 C
   0.2305916869695014    0.0623706285730344    0.9569951354428478 C
   0.5401276384172976    0.0519724430445765    0.6872674889700463 C
  -0.0415257958623384    0.0951071380008786    0.9240778959081173 C
   0.1416345273866217    0.6256057991967210    0.6888719555678777 C
   0.4396173503397994    0.4326975387950774    0.7606881899849749 C
   0.4376137372033428    0.4969467370873452    0.9871705026416082 C
   0.5912243141632532    0.4734100737405817    0.8933932635551131 C
   0.4463195214206148    0.5290467638590917    0.8129469543073300 C
   0.5261412977231472    0.6310255344351081    0.9366526654694647 C
   0.2682793378885640    0.8887061375257389    0.6711735846480891 C
   0.1519527093425307    0.7398244474915917    0.6989763670881974 C
   0.5279353261143810    0.0845352010677293    0.5887647757037038 N
   0.0624414343702840    0.1242021378634536    0.9487153562569317 N
   0.4992121411935931    0.5305256863802790    0.9066573699274534 N
   0.6172904412950787    0.5481890070034785    0.6279465393595595 Cl
   0.8554224167439856    0.6613208002773716    0.6416207307939497 Cl
   0.6706543784216505    0.7641343772885646    0.4741808897442601 Cl
   0.2408410479359499    0.6718985531571214   -0.0642496125891635 Cl
   0.6422348572481728    0.8201324921386325    0.7180702933477922 Cl
   0.8461585439668211   -1.0985032177965655    0.8205184047497053 Cl
   0.2243892839812214    0.9911707577408988    0.1991938144250555 O
   0.3429728152847150    0.2076740574611933    0.0949984452287480 O
   0.4542749440043468    0.1320929234137495    0.1809503047006551 O
   0.5328895150123748    0.1790726860663400    0.3454204405642926 O
   0.7717219036653573    1.1880267372963305    0.0541017804043200 O
   0.7161954265813070    1.1428201113635825    0.1954151232529596 O
   0.7911414841037253    0.3615807253582154    0.1255107433790040 O
   0.9911466313915488    0.5781665767626870    0.3666499041281470 O
   0.4873690422000829    0.3904387253968181    0.2063221197746496 O
   0.6846690279557954    0.4862738207813438    0.1707312381801396 O
   0.6916568416176085    0.6414113610770398    0.2226769873179112 O
   0.8702182199832432    0.6657685454401420    0.1456745485054561 O
   0.1158720640021062    0.7736565358603146    0.3051821627348538 O
   0.0625116743492179    0.7994342651806010    0.0172110065376519 O
   0.0228899407778960    0.9004063680993948    0.1305246135716138 O
   0.3640916356174927    0.6582892381118352    0.2085139294716435 O
   0.4836894605965806    0.7634022950102203    0.0963053715499978 O
   0.5421887915769009    0.8197646335161477    0.2282803108244109 O
   0.6380495477963467    0.9754044535001336    0.2148895915684188 O
   0.7978944550076887    0.8486568022410286    0.2207060467623989 O
   0.8520650876498949    0.9522322682568933    0.1064773099415985 O
   0.0945787079640990    0.1678704459203561    0.3103578160565741 O
   0.1017360908679847    0.1302747131077526    0.4616849718732314 O
   0.0718230832737416    0.2232011808980109    0.6209863477832585 O
  -0.1240705420148732    0.1898154664308803    0.2937659010589200 O
  -0.2335044291938120    0.2479102300304464    0.3954395636558299 O
   0.0035214439605709    0.3346754293907474    0.3400211044814541 O
   0.1136705018341089    0.5917758918079733    0.6171724863657039 O
   0.2683751196780192    0.4434481706875285    0.4069416407306832 O
   0.6163688076320982    0.3167644948410295    0.3152373359115311 O
   0.3256689481512032    0.3070627689179875    0.4542613771427650 O
   0.8594580228063667    0.6637046113902719    0.3441810411143237 O
   0.2874612375901354    0.6459914190249728    0.3452270042142691 O
   0.1275049397051305    0.9776675837210724    0.3266789201641953 O
   0.1119889993081167    0.8329399335463680    0.5040077901510146 O
   0.2220309234764121    0.9402063446736068    0.6111351620302424 O
  -0.0002097888597636    0.7174461389593266    0.5052851734660790 O
   0.2872434227059668    0.1331070791022203    0.9145622342967783 O
   0.3893425532968435    0.1721030010589062    0.7482076766814570 O
   0.9261703939093170    0.3529316857698730    0.0467258765266958 O
   0.0762907716307765    0.3811899163152939    0.6618794955831406 O
   0.1669528470659596    0.5708312141127436    0.7645590272001730 O
   0.4373937938349641    0.3544830895255696    0.8278668758358717 O
   0.1262619049264224    0.7682833281947317    0.7937587717899057 O
   0.3153195484268791    0.9246435985638607    0.7354458014142689 O
