Li1 Co1 H90 C51 N3 Cl6 O45
1.0
  14.3242441639999996    0.0000000000000000    0.0000000000000000
   0.0000000000000000   13.9794623845999997    0.0000000000000000
   0.0000000000000000    0.0000000000000000   14.4482583346000002
Li Co H C N Cl O
1 1 90 51 3 6 45
direct
   0.6871508519337748    0.2390181110241320    0.3243982117952461 Li
   0.9454639578566179    0.7504512264975903    0.3579821904840818 Co
   0.0500791924786406    0.1806832496707829    1.0822563388040989 H
   0.2506468431767790    0.2217091478220451    0.2745167670349387 H
   0.4004774363604600    0.2602814466104458    0.1995146474088710 H
   0.5922090187431687    1.0279540297723102    0.0990063393228775 H
  -0.0755763031546716    0.1715970633421922    1.0775997221765512 H
  -0.0209863372865082    0.2835055156817751    1.0563840162484577 H
   0.7957974221947925    0.9617261610225142    0.1976403730587820 H
   0.3051369782976006    0.6546721497946839    0.0710624868079247 H
   0.3653412019987961    0.3725153764165307    0.2316998415845864 H
   0.4720244574993270    0.4886872974332535    0.2267345372317288 H
   0.6744639696159819    0.4044134557368935    0.1966803957605643 H
   0.9641288170239822    0.4369725046815374    0.1788685603102173 H
   0.9090243388425950    0.5816142615939838    0.0901478321564119 H
   0.7708592826385168    0.5787378991922153    0.2854025081642591 H
   0.9075855194700660    0.4174725416285734    0.2863417217141375 H
   0.8409851467678460    0.6547458293090789    0.1610345768616418 H
   0.1851753258483482    0.6756035698986746    0.2540810859194561 H
   0.1785718360643828    0.7982055665168043    0.2574005171539563 H
   0.0378363126455291    0.7851628617987132    0.1687746101175668 H
   0.5637287027607526    0.9794271278545860    0.2303059019460786 H
   0.4144460617000692    0.8263497103454983    0.1578708737396858 H
   0.6529877928294158    0.7152438639782568    0.0932700077816894 H
   0.7252610652022673    0.8932972061970550    0.2617657491798098 H
   0.7854673832548056    0.8967286686296049    0.0359994371123902 H
   0.0248583154910819    0.2221791229769722    0.6296121620081654 H
   0.2221182873017662    0.2133540339566743    0.3850408151948382 H
   0.0741132703719249    0.0326897186549478    0.6334714506994858 H
   0.2046318498233049   -0.0119121396172894    0.3880294107057999 H
   0.3978574028305707    1.0008056323905852    0.3375167479959796 H
   0.4784373613110942    0.1997083017566904    0.4644053983469809 H
   0.4370832072476812    0.3304379356811850    0.4588517185786837 H
   0.0022155850065556    0.1064464892397633    0.4025640345432698 H
   0.0026623799596942    0.2769601995971739    0.4623699280972849 H
  -0.1746712350581237    0.2065082771337636    0.5537413563640781 H
  -0.1712155553424424    0.1096576284642196    0.4738527654163475 H
  -0.0382116789642291   -0.0012879828425902    0.4479844571853853 H
   0.1653529885055093    0.5813231202118599    0.6364455115866101 H
   1.0796678975542771    0.4598756744309484    0.2972419974672952 H
   0.2540536546944607    0.3818447766761338    0.4558178580963425 H
   0.1075021175965484    0.6878458146496982    0.5936050538881399 H
   0.5555450248886166    0.4643126834012168    0.6495965776597418 H
   0.2012403968821374    0.8126424593276701    0.6926405200919366 H
   0.3327349440592794    0.7254209363209476    0.3604925276582963 H
   0.4414115333562112    0.7637671892205250    0.3105321806542998 H
   0.4817934895262793   -0.2124613397845617    0.5278072962633751 H
   0.4144418729973836   -0.2613502012584399    0.6518176066070961 H
   0.4286799715431044   -0.0443089505632461    0.7073433302909543 H
   0.4118986323500650   -0.1189863574104530    0.5735586930540182 H
   0.4486158227287252    0.0475951559505583    0.6195016008168435 H
   0.5607441124737869   -0.0565333119369893    0.5265962160352415 H
   0.6213288798139759   -0.1462062883012996    0.5896391779553446 H
   0.6083208636236145    0.0954067227770693    0.5813561726803484 H
  -0.0005461662975323    0.0924624035416356    0.8481416156544143 H
   0.0698987373530224    0.3259048572081667    0.9232323272733962 H
   0.1403478297062628    0.2158598527811943    0.9378991469752925 H
   0.0734130589063031    0.0654248830990484    0.9475480608285386 H
   0.0851777285161334    0.1591652547919972    0.7874498713837524 H
   0.1627888043447624    0.2589366166389649    0.7871252647847157 H
   0.4778593901521825    0.3333379041409635    0.7121155317842568 H
   0.4821091082736448    0.0729730989815306    0.7356533169016224 H
  -0.0542243912144473    0.0491767618372307    0.9518572307338761 H
   0.5996460603615832    1.0938564210556043   -0.0746104345406449 H
  -0.0931060238942182    0.2249210023815925    0.8330802847340723 H
  -0.1512996703062901    0.1930578314136809    0.9437026146361108 H
  -0.1041865387320551    0.3063855085742308    0.9274307571875909 H
   0.0340441404807654    0.3542035134165628    0.7291369605478234 H
   0.2867325168138624    0.4904688394779201    0.8671335241353749 H
   0.1470574332915986    0.6999528610684824    0.9580849709857597 H
   0.3225801325149766    0.3668642291959460    0.7398420570665922 H
   0.4590156733801400    0.3057746124063347    0.8279073428978222 H
   0.6190816408231117    0.3235192146789705    0.8658787016107400 H
   0.6320379963470163    0.3219626455204905    0.7446841631793036 H
   0.5193438617373181    0.4436945800671774    0.9486679189889684 H
   0.3730910000844077    0.4816016172207498    0.7284877473497497 H
   0.4985218416303449    0.5619368239048897    0.7191025331004121 H
   0.4661551774844488    0.5380188797950836    0.8761387617901045 H
   0.5914885618812327    0.5394564171943856    0.8968983573796793 H
   0.6181161448540637    0.5365785525889257    0.7356484720270099 H
   0.6843884025125725    0.4172821909608015    0.8212747095533235 H
  -0.1518239562591137    0.5492889841571482    0.7494805890456687 H
   0.7834498247945393    0.6094071758928920   -0.0850241464577197 H
  -0.0327377426711672    0.6613304888236968    0.7999614140080356 H
   0.0658803752432323    0.8034947541812352    0.7890860547528848 H
   0.5501628909960823   -0.1357430819221234    0.7718133846344135 H
   0.6048449385116191   -0.0233932678312620    0.8028704151503635 H
   0.6720924657787759   -0.1063091889239719    0.7346144373597155 H
   0.5985283748616225    0.9466132765504519    0.0001113744828431 H
   0.6578166689088838    0.0922256276264440    0.7028625133993457 H
   0.6968393212457391    0.0080807608470297    0.6167490199120045 H
  -0.0287836073358907    0.6763682631111817    0.6730146251616843 H
  -0.0107289025264063    0.2064818097353887    1.0505023384688950 C
   0.6788202204090830    1.0387276915810730    0.2449962538960928 C
   0.4019581427598458    0.3147356150939630    0.2576919017556504 C
   0.3614226706363479    0.6400943359708491    0.1954705613573311 C
   0.5048356826235959    0.3504294054753216    0.2560840955092484 C
   0.7802622220507410    0.6054234747699254    0.0429289920581401 C
   0.7956347609071655    0.4124995320744589    0.1305208644272354 C
   0.9216525793227885    0.4669865630520665    0.2316306290901222 C
   0.8224075522397666    0.5057004695751237    0.1852887112967112 C
   0.8423332109155187    0.5902340494431033    0.1215606148939075 C
   0.9771172859351437    0.5478890733836439    0.2753999184643012 C
   0.2073244875330792    0.7389607989274319    0.2170953131277077 C
   0.1564184856769661    0.7281663924010241    0.1218492309958230 C
   0.3217305239868990    0.7418972494768624    0.2156113972463966 C
   0.6022228106303872    0.8415627417303304    0.1485880939821551 C
   0.6393689241640604    0.9783526945475837    0.0578345948659378 C
   0.6852156712929932    0.9031101729783182    0.1178155268184528 C
   0.7224867477901225    0.9479845739203078    0.2070172818087840 C
   0.2537618417406921    0.2630769761469072    0.3382711641856387 C
   0.1069129067520969    0.0327705515202549    0.4789964303674391 C
   0.3588961847997720    0.2755824642114971    0.3513281012662992 C
   0.3902213978345866    0.1715419825401688    0.3602738161757896 C
   0.0040425574946238    0.0666960335561344    0.4662672836605609 C
  -0.0578169018845272    0.0701060359359479    0.6361402844860232 C
  -0.0376839024258341    0.1265824567223250    0.5441850488284251 C
  -0.1282234090937966    0.1699045805163817    0.5023723274602530 C
  -0.1187429786818873    0.2390781991717939    0.4218009552546335 C
   0.1955067610225636    0.3515760876265365    0.3394124782193524 C
   0.1532951097076818    0.6585614266856104    0.6469076722498098 C
   0.3363079074501596    0.8715731948119998    0.3307401526629954 C
   0.2494984405237900    0.7099153328838094    0.6297741192452115 C
   0.3631672653049312    0.7719835280782004    0.3097784565895853 C
   0.4713939181217101    0.0169187258989694    0.6857711800163704 C
   0.4732170509656498   -0.1614600937863308    0.5872202012738228 C
   0.5600942352521044   -0.1016573648258121    0.5905437852579910 C
   0.0877719317127943    0.2374658338761992    0.7999925596305445 C
   0.0753328809705704    0.2480692459332532    0.9074629525346860 C
   0.0036767441267416    0.0911368876176174    0.9244781521737506 C
  -0.0971725560848936    0.2330872677828830    0.9086658656884727 C
   0.1524985580802894    0.6580413780742983    0.8309872989014765 C
   0.4610886623392801    0.3661345874029085    0.7758083298148838 C
   0.6237939313444951    0.3701898220349963    0.8064085578673703 C
   0.3669447770102950    0.4181376601963835    0.7688019490002787 C
   0.5504516322345481    0.5024208727824384    0.7148584229398708 C
   0.5253169727106028    0.4928446819163667    0.8872072239048101 C
   0.0030980050390043    0.6396286528264693    0.7332724070920559 C
  -0.0089117036779379    0.5297657727137198    0.7298373909918004 C
   0.1010654778028957    0.6779126715731111    0.7387921035255712 C
   0.6025292840435555   -0.0772994896349099    0.7523702106895467 C
   0.7084804241263420    1.0391239872216051    0.0004166015834300 C
   0.6376906506213336    0.0519551233315030    0.6373466582645332 C
  -0.0071105615230980    0.1967489604843412    0.9475681324519332 N
   0.5402275674725088    0.4302195983534661    0.7992298379415496 N
   0.5660004456623280   -0.0289149394003370    0.6683407054105208 N
  -0.0124748934292181    0.8748308308173850    0.2654575436345272 Cl
   0.5412220353017992    1.2808049551336391    0.5465820159367072 Cl
   0.7914788697258625    0.7416204147965629    0.3925870534662637 Cl
   1.0357493498949828    0.7419938197141762    0.4772780917673778 Cl
   0.4727577597161657    0.1342394035386716    0.8960179744500955 Cl
   0.7468642993036321    0.6240786986136757    0.7901899940395879 Cl
   0.5872921799073014    1.0382147963206732    0.2641404298648745 O
   0.5672791867805529    0.2952956686551518    0.2818221458256290 O
   0.7225935597086071    1.1110545073185532    0.2649211468024301 O
   0.1470015839224562    0.3755798719472882    0.2734391284961321 O
   0.3552150132561787    0.6145962166445529    0.1021665818201102 O
   0.1976499805634003    0.6934232823558879    0.0529025125104230 O
   0.3954461063178510    0.5849441464435814    0.2527286737776268 O
   0.5215231948764762    0.4365523168489588    0.2276869011555554 O
   0.7206346430859401    0.3658978114877169    0.1620222391576451 O
   0.8405062384274505    0.3834070685153436    0.0630033839525199 O
   0.7491185194656390    0.5238326404001790    0.2462040119244921 O
   0.6982900086092110    0.6344868241908285    0.0402719243956617 O
   0.9452629001277055    0.6304494729360208    0.2795235988844748 O
   0.0722939771721138    0.7667873339756274    0.1091092871398083 O
   0.2565096307024944    0.8960498156280435    0.3458776173272480 O
   0.3494227355590055    0.8048217007754357    0.1415304959216465 O
   0.5351406673076032    0.8782901913184923    0.1863352042130090 O
   0.6011386347519119    0.7471084656163509    0.1351809416795061 O
   0.7491855387086098    0.8474156134466373    0.0697315305393792 O
   0.1534780163916228    0.0409654303251939    0.4014510976322864 O
   0.1380531187516276    0.0053639181706018    0.5549859354395323 O
   0.0320384500114417    0.1965307832815212    0.5654328693539500 O
   0.3534208522724815    0.1136964103892096    0.3087914864185267 O
   0.4495843206013645    0.1451196502760251    0.4270687182082994 O
  -0.1861866768581564    0.2553763938899966    0.3693330395762012 O
  -0.0364405558453032    0.2819990199796800    0.4047525336182259 O
   1.0587250822430201    0.5264934008054557    0.3116402726906707 O
   0.2025039888589824    0.4025218236216892    0.4173762004835409 O
   0.3161302284961526    0.6664995001928037    0.5950612847716655 O
   0.3700562849886367    0.3294829633344153    0.4342128318868881 O
   0.2629741951807182    0.7958320846841588    0.6653147351525485 O
   0.4113666671089843    0.9278929572134013    0.3408465611046494 O
   0.4677507241491335   -0.2229896416570383    0.6669633767706844 O
   0.0221203001688795    0.2850885522386299    0.7402704824073253 O
   0.0182422595990594    0.0352019754952887    0.6857511083929758 O
   0.6716282178977804    1.0908377069706845   -0.0739902905902462 O
  -0.1378253118835904    0.0570547471967622    0.6669391523976220 O
   0.2148006237098934    0.5973802470043237    0.8411594592128716 O
   0.0547342373966532    0.4716638709628507    0.7186810290091254 O
   0.3347071249071177    0.4395769682151357    0.8614172642175815 O
  -0.0984438273499957    0.5041140709433402    0.7246374562827095 O
   0.8257571181540773    0.5859613529432867   -0.0350880238267857 O
   0.1128720344395827    0.7112065127234491    0.8948995005395548 O
   0.0874724394707686    0.7822614626687523    0.7293072232842052 O
   0.7940297896614379    1.0310027879310610    0.0005003487017316 O
