Li1 Co1 H90 C51 N3 Cl6 O45
1.0
  13.5598339072999998    0.0000000000000000    0.0000000000000000
   0.0000000000000000   13.2083851371000005    0.0000000000000000
   0.0000000000000000    0.0000000000000000   13.2518469539999995
Li Co H C N Cl O
1 1 90 51 3 6 45
direct
   0.8222208715696574    0.7409213139092848    0.4849379968925953 Li
   0.1183575303777128    0.3708177812473578    0.5438249099929954 Co
   0.1400008633275363    0.3193376046063781    0.2031763184668606 H
   0.3200583785368915    0.2511861999754226    0.1904754473668366 H
   0.0113414703049723    0.2923411174280605    0.0994949218457447 H
   0.5889901386845433    0.1749437229771252    1.0459697825604695 H
   0.6903763362883267    0.2469547970128443    1.1085610577901941 H
   0.3842958910281813    0.1121828334818930    0.1384132704948232 H
   0.6077779794310917    0.1133086334828510    1.2037908023216974 H
   0.7292934796403485    0.1126098349617453    1.2182023783580742 H
  -0.0058460558545134    0.1948356323417310    0.1984818784981570 H
  -0.1075626409859484    0.2633216728842018    0.1514031579118402 H
  -0.1497733350042477    0.3284568117425841    0.3069097833017428 H
   0.8313456146045547    0.0038637630467524    1.1555582803027897 H
   0.1640144317993965    0.4779400361871963    0.2779711756245506 H
   0.3425490669984823    0.4765742371275271    0.1099772342722454 H
   0.0364088864933821    0.4703319903165666    0.1568597557921963 H
   0.5516064211946780    0.6027522659100765    1.0588351590315235 H
   0.5348401391329481    0.3618961758598068    0.2951393485433699 H
   0.3869220293897161    0.6907062427165905    0.1583546417555465 H
   0.6251778975726392    0.5421509893958345    0.3052390727904569 H
   0.5203921745531954    0.6218810236936697    0.3359238521583065 H
  -0.0294768762753664    0.5100973435030592    0.2784443172192101 H
  -0.0974341983413772    0.4436683220221907    0.1819641809455204 H
   0.2797459378582693    0.8555530409738722    0.3230139535914233 H
   0.0471951543046169    0.7197347723983185    0.2162876983826658 H
   0.5394157851492757   -0.0164127504876495    1.0737259135569097 H
   0.5883713995423564   -0.1272665743882960    1.0520881749839139 H
   0.5895852787176122   -0.0692284423954011    1.2606002419879743 H
   0.0474031214537191    1.0235122560461760    0.2141212079229088 H
   0.6690951021690321   -0.1583513736077520    1.2041092484986453 H
   0.8022051396768143   -0.1139780460649512    1.0869165277110551 H
   0.7107571169003385   -0.0453693561612461    1.2849364723352963 H
  -0.0261088409209353    0.8116332132297088    0.2789144403666949 H
   0.0997813441410662    0.2523119999763805    0.3149252697745878 H
   1.0129046231315413    0.1109003148526914    0.6068574067385053 H
   0.2837393496043268    0.0493568338319316    0.4047187909441653 H
   0.2708571859145518    0.0578961063341539   -0.3925202683864319 H
   0.4397841075611978    0.1776215673640709    0.5752806762304841 H
   0.4241577362170821    0.2230094019689319    0.4627265541388624 H
   0.5802990292796888    0.0804764594132195    0.4574988300155402 H
   0.6926241514318139    0.1682366199451908    0.5216861091889727 H
   0.8783801140210002    0.0967638403282216    0.5132127997408806 H
  -0.0695783999162466    0.2602471108103013    0.3673549425901407 H
   0.2218565857197149    0.3809802650488766    0.3411691587364223 H
   0.0957031230966160    0.5198981933916946    0.4205362842134134 H
   0.3305031967380755    0.6007906332251524    0.4163610171587860 H
   0.4214143397821175    0.4988631844094382    0.5711499312716860 H
   0.5247588947066129    0.5680318973532970    0.5893458854535455 H
   0.6215421598241511    0.3910556829458156    0.4280008286156668 H
   0.6642395854680087    0.4583727690824498    0.5737993732794208 H
  -0.0645820260326752    0.4018457983551313    0.3846755470912904 H
  -0.0292799712086633    0.6479265997750114    0.5048142723215456 H
   0.2131507268716617    0.7581406785507020    0.3887761075783399 H
   0.0562129638763234    0.9661615661520504    0.3620092726434607 H
   0.3624077173212589   -0.0415611692044079    0.3538934228020515 H
   0.4442726581154367   -0.1724159241240906    0.5602948406190897 H
   0.6182080481890770    0.7795937174391647    0.5015425774287130 H
   0.8487455327461023   -0.0647736964602051    0.4466284207435317 H
   1.1249627803617692    0.2573436521662705    0.9404335501504013 H
   0.2763159548424036    0.2885208169540633   -0.0917712472247436 H
   0.6048745515374208    0.0225117656181007    0.6646780262083610 H
   0.6668524493306645    0.2951310118487263    0.6855181401153995 H
   0.4019141009290702    0.3343841071074124   -0.0845413116291563 H
   0.6304132124360301   -0.0068718415353482    0.9834796253111030 H
   0.7040874186858705    0.1690633674912877    0.9289740154510390 H
   0.7928562051052962    0.0150725518928736    1.0245554090784137 H
   0.8351812073083857    0.1585359639853562    0.6178551190201137 H
   0.0685818469427824    0.5065469397623112   -0.0366717578830257 H
   0.2500420342003373    0.4568319296998340   -0.1858894485841041 H
   0.3130686174050111    0.5773304602529374    0.0355611922350005 H
   0.7206989790884457    0.5035842763031662    0.9024856322680408 H
   0.8057892543741069    0.3997880146277583    0.8622301115204987 H
   0.9411684937180145    0.6042808403565687    0.7775581405948677 H
   0.9362473419947567    0.4810967430493309    0.7134312303649323 H
   0.7967788195239998   -0.3958270352758580    1.0259069188009580 H
   0.2922106923055202    0.7027402649191639    0.8136768794892619 H
   0.1300162277541528    0.7010844985425029    0.8734934471534949 H
   0.1832366436481477    0.9586080311086359    0.9092590277284303 H
   0.2845092705393008    0.9589812788560954    0.8255144746972756 H
   0.1671708126439257    0.9796749516376578    0.7722366182255866 H
   0.1629318226686093    0.7906654721224255    0.9647516698146740 H
   0.1192240601656385    0.8625251271936581    0.6650704243410930 H
   0.0247597762550214    0.9011786033529772    0.9053441017426347 H
   0.1547370320273923    0.7307732149093922    0.6891221660421841 H
   0.2440013997382954    0.8254994049025700    0.6651888983927063 H
  -0.0139501374200582    0.7788926476335917    0.9502042636554283 H
   0.3115118136753846    0.7846109848274285    0.9175899419310484 H
   0.3521996276834145    0.8175499092670230    0.7934796948304690 H
   0.7147490537020760    0.0002418214162327    0.7265614755755804 H
   0.7742320831782538    0.6739381065893435    0.7513512276109252 H
  -0.0361996724853497    0.8534725444018261    0.7598489110199544 H
   0.0990873828385657    0.3228331114015514    0.2753730472187885 C
   0.3600854174896181    0.1035451386527544    0.2805942062195054 C
   0.3396766129355286    0.2661607784683258    0.0464985355731116 C
   0.6675390359115656    0.1705359169209200    1.0743386583334067 C
   0.6722588577351607    0.0984922878078363    1.1601523569029291 C
  -0.0283278946501849    0.2707147038252606    0.1693629186022669 C
  -0.0212680736631105    0.4537770520913167    0.2126376411364644 C
   0.2659640581333715    0.7261927912336722    0.2306351324165768 C
   0.1253340170107144    0.8507273185756840    0.2856138838713003 C
   0.1248487603294760    0.9015942484104928    0.1765415405958816 C
   0.2223580667884719    0.8001988101265025    0.3099108744053489 C
   0.0418477436729156    0.7702292115804904    0.2836873599619448 C
   0.6081268037627419   -0.0445706211235793    1.0527560064213521 C
   0.6608796623073369   -0.0762345978821966    1.2256730351158567 C
   0.7862064186391466   -0.0321822785441074    1.0947373243411216 C
   0.2849097179221464    0.1835662759098151    0.5357108712198911 C
   0.3603295207745571    0.0370631281052638    0.3762570979206013 C
   0.3983764469778536    0.1642119038691368    0.5105303057365811 C
   0.4221577117193337    0.0610607626919241    0.4607545271383460 C
   0.4125278002548797   -0.0277063339538832    0.5446282697085848 C
   0.8445301418799037    0.0833874890054746    0.5867017257283668 C
   0.7421210703902882    0.0412362347665148    0.5727406529328380 C
  -0.0767488417273115    0.3371081342785265    0.3348183458805134 C
   0.1490164604827630    0.4132128200191411    0.3272148774470370 C
   0.6406618630426710    0.6573721147796860    0.4171960705697115 C
   0.4425979325874364    0.4548540194762277    0.3643447961450099 C
   0.5799037442019628    0.5793584901537888    0.3669527345040903 C
   0.5189096342700746    0.5047292308031317    0.4371898118889187 C
   0.4699412616086270    0.5552008814311484    0.5282128975151761 C
   0.9019703734730568    0.6212685339823214    0.6348980263811761 C
   0.0343026660046028    0.7030514308911838    0.3742392659842063 C
   0.4127534667358204    0.6484838215643222    0.5271431598364051 C
   0.7398585058036022   -0.0719108293512814    0.5436554241841269 C
   0.3293188164492172    0.3231147506754965   -0.0481788331253920 C
   0.6821232853464746    0.1510467820018485    0.7200929432798518 C
   0.6819057310592933    0.0551963061973577    0.6681567865773890 C
   0.9146290830983709    0.0228153606418963    0.6534577034476066 C
   0.1835161455967637    0.4258123920540718   -0.0173612420818485 C
   0.2907283732640473    0.4316170380576660   -0.0424339735398366 C
   0.3411286956184442    0.4991064389758859    0.0289424921923227 C
   0.4470927516550348    0.5175752901994020    0.0045926788327139 C
   0.7957382463063291    0.4822076282822869    0.8681168381232726 C
   0.7946379378437034    0.5326315062270081    0.7659846595146544 C
   0.8975153041548788    0.5542713204081651    0.7240176792189658 C
   0.8820755870144433    0.5125711432644110    0.9318128650189964 C
   0.7265663075929023    0.4733035874946163    0.6965226439031511 C
   0.1289749170643221    0.7798867131354463    0.8913573721461197 C
   0.2056270358959871    0.9388395282000866    0.8368600630157866 C
   0.1745263599671348    0.8092370081167082    0.7066902832116726 C
   0.0211889360566077    0.8178247346875662    0.8873375551209977 C
   0.2943891850659733    0.7807475299485526    0.8357394645021193 C
  -0.0060577103644152    0.3490142074561086    0.2485043396917576 N
   0.6822523429744635   -0.0114931483314795    1.1341937111991189 N
   0.1958835537189029    0.8302342759220662    0.8147748396491179 N
   0.6838755191984842    1.3497005035328742    0.2638516343523416 Cl
   1.6900626224678563    1.6679453121426047    1.0817889405727588 Cl
  -0.0079648133700116    1.2635567404467973    0.5757296702477447 Cl
   0.9412791145420050    1.0421208896867578    0.3317470758800917 Cl
   0.2090356322192147    0.4697781754539569    0.6495420228500173 Cl
   1.1031992394498757    0.1670865929099150   -0.0964294658273489 Cl
   0.2996739105640800    0.2995456317583334    0.1371621241408430 O
   0.3375394186160320    0.1916876320700544    0.2874966402966202 O
   0.3877295614048469    0.1870807100755493    0.0537782755470842 O
   0.3854109489340057    0.0596480237532640    0.1945209211929448 O
   0.7366556642129970    0.1437128044569396    0.9939098695238373 O
   0.4775825793938115    0.5947709722919873    0.0675974813253944 O
   0.4599417290976127    0.3695617609369414    0.3171151531999500 O
   0.0982879630171943    0.9989702702821864    0.1681291283195422 O
   0.2176493070472759    0.6610955071164117    0.1920903166053875 O
   0.1563107976166973    0.8563601040545857    0.1036143476276371 O
   0.3624239417087775    0.7386432155885837    0.2132488766893738 O
   0.2511659417720809    0.2695207652902837    0.5190909992303855 O
   0.2299031444567847    0.1159652792147685    0.5853562529001722 O
   0.5204429126377991    0.0676974559053721    0.4148259103868308 O
   0.3707522148109431   -0.0172319270855220    0.6287977446407808 O
   0.6874972449759337    0.1012276714012869    0.4973995322976774 O
   0.0892767906949273    0.6275281939741979    0.3790355785450614 O
   0.1017046715341812    0.4417595345558725    0.4179349109769382 O
   0.3668753236661557    0.5021371652595678    0.3442698585967989 O
   0.5860660615703941    0.4252824256783687    0.4845021829249236 O
   0.7312846544721777    0.6696196377221854    0.4124070022820760 O
   0.9741393990444663    0.5985715883006011    0.5734620618076299 O
   0.7227329273055513    0.4962685447434780    0.5975575709927566 O
   0.1119658591675411    0.9129650555486148    0.3690648929146997 O
   0.4473429022116854   -0.1114304219874640    0.5145126940167347 O
   0.4223103684564407    0.7184386260623131    0.5908241699574340 O
   0.5824620351247832    0.7302212927838384    0.4622755981309381 O
   0.3320312390534645    0.6551303570104619    0.4682395215202091 O
   0.8448856034609933    0.6981939105104534    0.6244972120283967 O
  -0.0416599163575214    0.7116580848326027    0.4350330559213006 O
   0.8159700575420337   -0.1123677053776361    0.4912035431434851 O
   0.6712617953749263   -0.1224862776794537    0.5753712296457300 O
   1.0056515844385632    0.0403595189621373    0.6337510164547286 O
   0.6925953900175763    0.2280092561762798    0.6536855962093086 O
   0.6579400982778290    0.1688869643976608    0.8106025910416653 O
   0.1402383293630359    0.3490475196282956    0.0084585550519179 O
   0.1414204972354145    0.5176247966298408   -0.0219613555763376 O
   0.2972380400198090    0.4850278064958500   -0.1385217116807943 O
   0.6643863424278360    0.4085718287576265    0.7319954351021251 O
   0.4971267052150967    0.4789939878895054   -0.0587720734855689 O
   0.9656990301739903    0.4828980230508637    0.9126117679279079 O
   0.7467936939956473    0.6256415136766947    0.7924277659900297 O
   0.8654927880261056    0.5772993436557353    1.0132792450449244 O
  -0.0237614670358566    0.7896592931034120    0.7939309526831109 O
   0.8943316368404319   -0.0283740915872692    0.7240388083491899 O
