Li1 Co1 H90 C51 N3 Cl6 O45
1.0
  14.9527516098000000    0.0000000000000000    0.0000000000000000
   0.0000000000000000   14.5652006855000007    0.0000000000000000
   0.0000000000000000    0.0000000000000000   14.6131270655000005
Li Co H C N Cl O
1 1 90 51 3 6 45
direct
   0.9441056518084447    0.6961958206518116    0.2996272813460400 Li
   0.2295187798512426    0.0992723598816904    0.2735055622718797 Co
  -0.0141627909448589    0.1927952731194107    0.1513701704423190 H
   0.2117320870109971    0.3161811459820548    0.1997123217719823 H
   0.4251596944025630    0.1502129556222379    1.0112662038975000 H
   0.3885303157910014    0.0104476311371041    0.9714780054240404 H
   0.4615652346138526   -0.0404476511186345    1.0515820101831304 H
   0.5612513685708346    0.1281617661511761    0.3007967777805401 H
   0.5094825021975936    0.1166947082227348    1.0915187052781739 H
   0.5942369362356342   -0.0452639252994521    1.1129946014770729 H
   0.6722085384145855    0.0577912973789626    1.1972400880510223 H
  -0.0479833219880255    0.2115914439317047    0.2673994085650073 H
   0.7003023642843793   -0.0494650345955921    1.0629539772682819 H
   0.1235001659286374    0.3327624485823292    0.1240392645924057 H
   0.2133973323551169    0.5182348054918602    0.0815938662036949 H
   0.0679745996873143    0.4555300670045135    0.2319778319455824 H
   0.2983750028975218    0.6559629386851815    0.1685136605986080 H
   0.0481742306498218    0.6331887931610333    0.0583640675111599 H
   0.0242221173969494    0.3448714475455623    0.3301963715891977 H
   0.4437122663464576    0.6353610941600507    0.0525726992693958 H
   0.6829664246015382    0.6616120197913492    1.1226037699576177 H
   0.5558382511652762    0.5668550693173352    0.3080867985627111 H
   0.0604094369031040    0.7213798196862476    0.1450190315256450 H
   0.3027407545466843   -0.1696707247061982    0.1679737350943245 H
   0.4672656569992640   -0.0781951571002952    0.9352947848422991 H
   0.5568934415684698   -0.0349269582194251   -0.6770610028266028 H
  -0.0566720237995938   -0.0228612130371460    0.2630779515820532 H
   0.1630761593940913    0.3241851551623786    0.6267085404479541 H
   0.3159202686015316    0.2732637833244773    0.5724361046821419 H
   0.4132100543187343    0.2835842727736647    0.6457147393782101 H
   0.3542844449731922    0.0897853639258049    0.4309470181414950 H
   0.4686906121216400    0.1075290260682210    0.4454395356602122 H
   0.5178023086951794   -0.0472309424809264    0.5997868557026816 H
  -0.3313819974012313    0.1836343969405584    0.5433511594753470 H
  -0.3588752649099730    0.0873233312511916    0.6208726916513377 H
  -0.3278575624761262    0.1951996340860854    0.6707388152218623 H
  -0.1961092360537929    0.2675144632973688    0.6083462830887132 H
  -0.0990160696663778    0.1982795779171827    0.6035286968400992 H
  -0.1706156005044561    0.2168766440234985    0.5023010134449173 H
  -0.2573554885094136    0.0520200071774013    0.4838865496006043 H
  -0.0903514436911101    0.0946249814169785    0.4422342668775585 H
   0.2673118238839963    0.4904082682026428    0.6826164919998724 H
   0.2546051325031621    0.6336220175385239    0.5700711077964589 H
   0.2178827944125514    0.4438024565384215    0.5344274021292640 H
   0.3288817625832131    0.3996705551743769    0.5001004577489417 H
   0.3856947172933837    0.4584281389852190    0.6603844263684849 H
   0.3846868760349144    0.5452860565187164    0.5011701808773271 H
   0.5471711507290553    0.6178618502084217    0.6064247231190956 H
   0.7043176787607230    0.5463995324227007    0.3809993240765337 H
   0.7041116966057074    0.5440996670982670    0.5055175050137184 H
  -0.0069922043666850   -0.0075912552245211    0.5765112078228374 H
   0.2836379159886765   -0.0774543502804660    0.4128781955810333 H
   1.0998629372082489    0.8813192568626350    0.5625148880014027 H
   0.5513297164313870    0.7475717004737044    0.3582170681974353 H
   0.6650125384536500    0.7697025318271575    0.3682224557742795 H
   0.3688148809537914   -0.1665097658568063    0.3782620591625485 H
   0.5899995890467413    0.7605718646381778    0.5288405075765745 H
   0.6916029621011219    0.7172253970108198    0.6271506087315627 H
   0.8711886377061431    0.6872505268097771    0.5516499308099443 H
  -0.0953919875299178   -0.0283963238633400    0.4591388622384794 H
  -0.2136244069624270   -0.0168764002026218    0.5800183284938808 H
   0.3103948641705604    0.2856542751478864    0.8246162153102233 H
   0.1869333068482227    0.2514377881415563    0.7210921719470763 H
   0.2000412621673990    0.1781274354003820    0.9841953382144154 H
   1.1661838409374363    1.0587448931995700    0.8351177321527273 H
   0.3206184005462874    0.2074940063962636    0.6789506099638177 H
   0.5245419378035738    0.1644688525702772    0.8525965372609796 H
   0.4334043307890327    0.0846203132255496    0.8496443970512465 H
   0.5388940788409029    0.0495160938577375    0.8094873521306274 H
   0.6608694882902675    0.0839234467546259    0.9548703348746639 H
   0.6819532331572243    0.3413452345458931    0.7297186623235005 H
   0.6183047472573954   -0.0306956399334124    0.9327053322336692 H
   0.5416246130639981    0.1913315102464951    1.0061981579092565 H
  -0.2028304070210236    0.1444828594977755    0.7510481148495013 H
  -0.2156976039771946    0.0256812008482916    0.7178019795204661 H
  -0.1110299119803412    0.0874352418273104    0.6903910086718187 H
   0.1748037667653707    0.5744890183717202   -0.0120541253497937 H
   0.2806979888670899    0.4049948896394147    0.8319144478871363 H
   0.1589070270747165    0.3715919856557888    0.7393716270426691 H
   0.3884400314048745    0.3769623201735871    0.7998706561715690 H
   0.6107663354024078    0.5906428637652980    0.8859056296830364 H
   0.5405208028469419    0.6849800465936738    0.8876478988007880 H
   0.7561449290369927    0.4611265570055849    0.8428724036540473 H
   0.9330167228723599    0.6539327572521555    0.7433954064662274 H
   1.1497547577552483    0.7349978950072050    0.7561312157947717 H
   0.1462625316043254    0.8131073577304059   -0.0608499783389501 H
   1.2024226559823448    0.8413561961010029    0.7110854157377750 H
   1.0083005254376496    0.8284782410319231    0.8138813466338021 H
   0.6460788995229766    0.8453890962489889    0.7989714646473249 H
   0.7758650452868168    0.6773804259368713    0.9470910279891182 H
   0.9809871579279312    0.9312039110935462    0.7482465242100376 H
   0.8102714216799628    0.7347672081754510    0.8343006585759029 H
   0.1835640273126100    0.2077040961894682    0.1130279321596720 C
   0.0748081245572808    0.2643789074621879    0.2434018070640994 C
   0.0222585991919953    0.0918388886691870    0.2542913312081608 C
   0.1520260193053796    0.2851420954559563    0.1703264142878947 C
   0.0060401795774369    0.1912855101937346    0.2247541898375755 C
   0.4556167642372227   -0.0187589695260433    0.9790513331248087 C
   0.4962395349386298    0.1352965803047122    1.0224766723527263 C
   0.4236315475707100    0.1192302036681745    0.3017000752021552 C
   0.6450402946959011   -0.0014650093919573    1.0769831442686841 C
   0.3184208117106336    0.6038304609805715    0.0112208382138221 C
   0.2230718059085457    0.5843133938190460    0.0456953211730081 C
   0.0558704729872239    0.5778523774532581    0.1936424368252203 C
   0.6355811661227158    0.6670935783173148    0.2732462064212796 C
   0.0827585007222996    0.6525671735963258    0.1215148220254829 C
   0.1852092094598127    0.6603047944114097    0.1008717386766639 C
   0.1944743937961325    0.7509420625483493    0.0468511312829383 C
   0.3168398317935657   -0.0885410495636936    0.2722457360952180 C
   0.3415543465292881    0.2725744691010217    0.6431574496323194 C
   0.1134491730463976    0.2424210912325503    0.3384588057320619 C
   0.4204602249113460    0.0765778562399335    0.3994874956218179 C
   0.4326787118338640   -0.0340179422514418    0.3909657056283536 C
  -0.2029106598086920    0.0446510733523528    0.5363785929915755 C
  -0.3138735142249029    0.1481093114183854    0.6089389009425910 C
  -0.1677733142745327    0.2088589034841418    0.5762860677836621 C
   0.3135233853431679    0.4419205737829516    0.6470826875189741 C
   0.2911234947584490    0.4515939729377099    0.5440373233576602 C
   0.5457485363129864    0.6017309361844290    0.4697449426006978 C
   0.6280501107732646    0.6614884375600525    0.4499395307471810 C
   0.7050580107269643    0.5895690714889189    0.4462201351820579 C
   0.7943673254837724    0.6352478104480287    0.4539639260553448 C
   0.9934905422466720    0.7570305471435724    0.6724858745532134 C
   1.1894484553092826    0.7429819937169311    0.6111820895396018 C
   0.6185354740219420    0.7146267373138283    0.3619575407023959 C
   0.3452172175131212   -0.0911287241734586    0.3719649812279257 C
   0.4807214412756599   -0.0795312183342041    0.4791509375930020 C
  -0.1062374830100750    0.0389553056254729    0.4956792958914958 C
   0.1972357584651570    0.3231951241761007    0.6909603597739277 C
   0.5049766559320914    0.0917922020484748    0.8606844707655773 C
   0.6184244576656673    0.0274319491249965    0.9788118224448351 C
  -0.1859171320199028    0.0925522327709502    0.6985856955080617 C
   0.3195610700687558    0.3558242660782183    0.7931513551239641 C
   0.6048242852487914    0.6639765598168283    0.9076928897659013 C
   0.6100942183056847    0.6592186439119009    1.0094472913621571 C
   0.7974222816010172    0.5868118145950966    0.8337333604224794 C
   1.1085442825142808    0.9380627249305195    0.8185586480555741 C
   1.1563802941505075    0.7847452356477866    0.7001609914660603 C
   1.0372838197041017    0.8835080354924919    0.7717438905479146 C
   1.0640695251349002    0.8340620981826842    0.6855624733635490 C
   0.6608694882902675    0.6885577521897167    0.7435397971904401 C
   0.6779325684950360    0.7101276575266725    0.8443724248269112 C
   0.7729197679793856    0.6815533859469938    0.8716848541386552 C
  -0.2180851244103303    0.1203932497782679    0.5998477598470178 N
   0.2923413308113174    0.3482521081394818    0.6948431700544156 N
   0.5220137743600493    0.0594253291038871    0.9598562629154879 N
   0.6484617385434982    0.0581256559714156    0.3400566841256007 Cl
   0.9535179662554899    0.8299495561523069    0.2107845583490523 Cl
   1.2734864994627364    1.1158055556611164    0.8786176618495510 Cl
   0.6002652581359942    0.3437241924983568   -0.3103975244360062 Cl
  -0.2271403139522511    1.3171580851130182    0.8118879334601924 Cl
   0.6029182815416662    1.9441044758407975    0.7071943936625452 Cl
   0.1663417790789657    0.2214512462853356    0.0247306091967958 O
   0.2164014617068383    0.1340683102392122    0.1379240408685954 O
   0.0979363091900907    0.0565623407455109    0.2743506928140726 O
   0.3583305230181421    0.1240190151309261    0.2475850321688972 O
   0.4994619786237385    0.1505164186568667    0.2695447399413431 O
   0.6709652889789556    0.0701941474255013    1.1339558918721426 O
  -0.0541554301329581    0.0473691958729311    0.2594209656569690 O
   0.0262993270511005    0.3540687118258519    0.2617442192527139 O
   0.0947154973116646    0.4971246878464440    0.1811023419380257 O
   0.2351431627203382    0.6645869187258443    0.1807868721566890 O
   0.3787033619410027    0.6226602736224962    0.0763492666284994 O
   0.5933193793632918    0.5881362041738276    0.2542146877905693 O
   0.6903423245614970    0.6558324907743682    1.0492389114167591 O
   0.0072259145152379    0.5901032213553018    0.2592409904888745 O
   0.2789725539322186   -0.0248955138778819    0.2320223125004346 O
   0.2448751507715960    0.8136456270044986    0.0679814477864468 O
   0.3416626877926405   -0.1640216436000304    0.2254761434586391 O
   0.6863156409402338    0.6990505701947680    0.2136292609109114 O
   0.5390860836353997    0.6561215358820124    1.0548092455167188 O
   0.4919021258989789   -0.0603340918381471    0.3161384633071984 O
   0.1832109150468689    0.1900778371667840    0.3375377160885059 O
   0.0736645223330058    0.2729067679896198    0.4048805918185971 O
   0.4804083216491070   -0.0215876294868371    0.5502427029176645 O
   1.2316747970874864    0.6628602003274472    0.6288463443457765 O
   0.3151672299439096    0.5426260176468476    0.5071346126932780 O
   0.5111930903667461    0.5561705615401835    0.4070868273392692 O
   0.5116156212938204    0.5957296457190653    0.5536876192435378 O
   0.8214011457831125    0.6427787743096662    0.5401491069789671 O
   0.8391804821178218    0.6631773947211089    0.3875167518367323 O
   1.1773102211744333    0.7785929002330602    0.5344718826841163 O
   1.0665513425935462    0.9025129229620871    0.6188238488632199 O
   0.6422281032613532    0.7231635232246317    0.5205143635928374 O
   0.5061655876059346   -0.1609609236715793    0.4794935062969873 O
  -0.0372802752059797    0.0542424276368890    0.5640073816957532 O
   0.9498290131156646    0.7498586583206471    0.6009563521371818 O
   0.9889950485907790    0.6966496420678515    0.7377176347183937 O
   0.3379155513817555    0.5922672835388995   -0.0676130756251789 O
   0.5917390682194544    0.6497378270675802    0.7150770322985939 O
   0.7384518644490270    0.5247556150605571    0.8635018006782964 O
   0.8601445165765064    0.5729357956947047    0.7804504459230729 O
   1.1105011129869293    1.0280903207263947    0.8055970143716260 O
   1.1621992900296989    0.9007793388841735    0.8733101051813338 O
   0.1331325067685403    0.7565849645429522   -0.0197184671089521 O
   0.6819953658707502    0.8076196200928756    0.8474415831117170 O
   0.7206143448432580    0.7246094353308045    0.6859758003655607 O
