Li1 Co1 H90 C51 N3 Cl6 O45
1.0
  13.5399970424999996    0.0000000000000000    0.0000000000000000
   0.0000000000000000   12.8188575972999992    0.0000000000000000
   0.0000000000000000    0.0000000000000000   13.5285482819999991
Li Co H C N Cl O
1 1 90 51 3 6 45
direct
   0.6345834488981204    0.5745298083544692    0.7083275634052988 Li
   0.3635708343102469    0.4349495075032556    0.8090139025162257 Co
   0.1053787542804775    0.1303607428365515    1.0287544051949447 H
   0.1698647358696423    0.1443066033504911    0.2680556380040423 H
   0.0793373896558589    0.2757582547328202    0.2522948929813340 H
   0.2828270943693598    0.1971116208695697    0.3134884506893317 H
   0.2331594321173575    0.1062423689757545    1.0016435879546357 H
   0.1476896940983952    0.0012751369282270    0.9629372915298586 H
   0.2654888335659694    0.2705323600310872    1.0153331573111950 H
   0.5949911211954387    0.2032853379421947    0.1073983409537866 H
   0.5772673359356091    0.0413668530658840    0.2046452866405197 H
   0.8733560269018058    0.0853481513774238    0.1704812366356161 H
   0.2249799620884962    0.5968319517264509    0.2353692040436183 H
   0.0861800794813578    0.4562691920325199    0.1984775886539576 H
   0.0982820023610799    0.6157323879128260    0.2229443675795576 H
   0.0525508254593107    0.4665716701587936    0.3579374179743198 H
   0.5047916775643565    0.6000169469329347    0.2720265001305777 H
   0.4160686301198652    0.5088485264142331    0.2259542988117341 H
   0.4586667191880962    0.6029119006929184    0.0851084400927151 H
   0.6464578975774914    0.4215778011168687    1.0197194372551377 H
   0.6743271798835033    0.6090406839642568    1.0157397049972698 H
   0.6777415085465666    0.5166633413647556    0.3101244533814645 H
   0.6774475646123466    0.3944185946620493    0.2580057792042701 H
   0.8506625212063816    0.4256920522971852    0.9775833567151105 H
   0.1625818686954119    0.8381250604549144    0.0158822392854879 H
   0.1505567552859383    0.8100008694134337    0.2416633014016692 H
   0.4161350998537340    0.8052094908109492    0.0359183876104823 H
   0.4489087406903694   -0.0860462169056566    0.2695169921410789 H
   0.6367525778800406   -0.0775337578841145    0.2369148244283141 H
   0.9019276727290320    0.7642737056977325    0.2345058445939174 H
   0.7813249875973893   -0.1071705642154384    0.0991971653592388 H
   0.1919016683049619    0.3490065916359285    0.3933647225164998 H
   0.2515737640568248    0.0639991350612084    0.3424376026483105 H
   0.1012066706513094    0.3275850259530522    0.4736467289343707 H
   0.1319245503299009    0.0334511710926813    0.4649299769561188 H
   0.2184304776446188    0.2516016559369007    0.5687556033811553 H
   0.2723293077336726    0.1291102413875475    0.5325619934096045 H
   0.0542310326209955    0.1407906894199476    0.5210822694390262 H
   0.0556549620309860    0.1059162868761390    0.3950581784234046 H
   0.3146055355794588    0.2469873601971260    0.4778327656634815 H
   0.5131712362632150    0.1430428401893017    0.5561871447072684 H
   0.5186238223877367    0.1828810235940041    0.3256464440358051 H
  -0.0193701651393843    0.2702390421615765    0.3385657903216552 H
   0.6695361891767564    0.2224430513449651    0.5670123269032660 H
   0.7985177535388668    0.2889208941271090    0.4693856656777389 H
   0.9187829201329754    0.2667332695403513    0.6037272788438869 H
   0.7232252703278240    0.0968008100005232    0.5462279830003715 H
   0.8375539511348457    0.1579778684121228    0.7046782435395680 H
   0.2177790742527040    0.6139779414007799    0.4998388622375026 H
   0.3940671482092756    0.5467531521823158    0.6527266235024700 H
   0.5433253787433389    0.4680785127033327    0.4616467717611388 H
   0.8440029924253213    0.6024406418499095    0.4133979141310500 H
   0.9120207325407177    0.6406932705477493    0.5179388427302950 H
   0.1881483439991675    0.7952608663698085    0.5869205975015495 H
   0.3752133774736753    0.9239142964810351    0.4699934914273015 H
   0.6698943871870495    0.7097867910332685    0.4388843885710871 H
   0.4460317090427459    0.6752759154234810    0.6175055495137717 H
   0.5846513848158399    0.0209367953940396    0.5456691647264212 H
   0.7626137575133078    0.8640930531152052    0.4934626392901542 H
   0.8632688755109085    0.9135912236958385    0.4306726427367014 H
   1.0069417281632320    0.7101659199816253    0.3987104549995795 H
   0.1133292730037906    0.2915989798878270    0.9370616400776061 H
   0.1705183549193527    0.1308787297124958    0.7262186183030397 H
   0.1968388924262204    0.0090706833910450    0.8017847454802025 H
   0.0220057670887782    0.0278547285504761    0.8402293730306696 H
   0.0277553990684337    0.1521216523312287    0.7795495437623482 H
   0.1585501100599668    0.2775267430577685    0.8094352337545215 H
  -0.0138243736769265    0.1504233730707909    0.9066858753293098 H
   0.2718625424913936    0.1336644693721299    0.8094744101679069 H
   0.5562337272054099    0.2547774459549265    0.6920597425414133 H
   0.3278499993291266    0.2376355128043248    0.9074597942880743 H
   0.5377160717574064    0.1541982804393065    0.7801297981870189 H
   0.4895421321359569    0.0264645890731678    0.6357506704872031 H
   0.7649276428045424    0.2756950665747607    0.6861411474097736 H
   0.6538035417225979    0.2162248685314835    0.7779019168673282 H
   0.7174881937423437    0.0383018373496414    0.7787726680931396 H
   0.6729822756015570    0.0712392498136765   -0.0376246104452495 H
   0.2499674121549942    0.4375074577535888    0.9699180848885706 H
   0.0727487619242587    0.5857439901884478    0.7181475379680359 H
   1.0297474938536348    0.4250492493065555    0.7090386522671244 H
   0.8982142302635588    0.6289449537529891    0.8713990145332284 H
   0.8229675373136257    0.5935151194988305    0.7736937787276473 H
   0.2358521948916445    0.7939854016978675    0.7041970389147776 H
   0.1315870317923668    0.7084863631383903   -0.0047563387925084 H
   0.5851897896601775   -0.0340080383911763   -0.0432519695981376 H
   0.4127554831628023    0.8068445819133275    0.7441481104365548 H
   0.7810598472145125    0.6826517677006694    1.0040865699591404 H
   0.5980782710573476   -0.0189895393916593    0.7607456045149664 H
   0.6941580557069758   -0.0471355732532099    0.6744310956955937 H
   0.9226152695668139    0.8198566618692772    0.7162781577897023 H
  -0.0116338266696486    0.7862897081267979   -0.0348393892068308 H
   0.7111957256027592    0.8330036992492305    0.9552624103943750 H
   0.1589120008332528    0.0894756642699256    0.9744581137756110 C
   0.0491645617949920    0.3103923862558595    0.3216726251988254 C
   0.4955451098134906    0.3352167512653457    0.2981956050944151 C
   0.5277825393070059    0.1174344739594481    0.0095023973245557 C
   0.6082082584989604    0.0371387071809172    0.0032393454261688 C
   0.7328523034498292    0.0742317161632582    0.1449456068844446 C
   0.1720087540632120    0.5322252585235839    0.1085211517449645 C
   0.1719762577488761    0.6192545426491038    0.1785168364452898 C
   0.4950394302347944    0.5181985015653140    0.2393363702820986 C
   0.5463154827937992    0.4995077564516101    0.1389183526439811 C
   0.6514143240663119    0.4352389248691823    0.3246271181101736 C
   0.1399769893118128    0.7706135842230323    0.0570145166297156 C
   0.3183293177813115    0.7115599599625175    0.1014280033893736 C
   0.2098773000008947    0.7290076925940984    0.1423311356741773 C
   0.5980797481625448   -0.0372477966679784    0.1788745984090357 C
   0.5101447954249064   -0.1071229780717146    0.1434509897549109 C
   0.6645590832151764   -0.0076531157753608    0.0932822661156542 C
   0.0358174392341268    0.7844112256007829    0.1003916763786880 C
   0.7923951524969471    0.7657340542395512    0.3312087555589211 C
   0.2197273760076599    0.1459011292155966    0.3300881623005764 C
   0.1284836337732900    0.2990427009273756    0.4012059186144685 C
   0.0982760939402916    0.1142992491786950    0.4573482321996270 C
   0.2509002040869537    0.2063721964785072    0.5064692528847642 C
   0.5467933263250564    0.0727963308443765    0.5933847057101408 C
   0.7929483283932557    0.2036480847754990    0.6529483767857835 C
   0.7067407763283491    0.1551133385800936    0.5988287488154895 C
   0.2851129146618497    0.6591722963269181    0.6239696577223630 C
   0.2090227946443808    0.5916325024390168    0.6903019781823476 C
   0.5350948747299182    0.4463194754503758    0.3216866695734353 C
   0.8431913231195228    0.6526880991690132    0.4784109503908411 C
   0.6897548051144636    0.3818215282874285    0.4193763826491845 C
   0.7466580671743895    0.6377429296368740    0.5430793081306017 C
   0.2554186688848385    0.7775869045303605    0.6277350284730278 C
   0.3384748170117631    0.8471656476617190    0.5898322181114570 C
   0.3886284468736065    0.6332862142418896    0.6619389940689278 C
   0.8971861650463873    0.8758585321257347    0.5791274479482986 C
   0.8448198315993096    0.8567944308089783    0.4842911082867066 C
   0.8630820217034771    0.7609153721119791    0.4242209527119756 C
   0.1631372602495161    0.2512872753480369    0.8867894315728031 C
   0.0298240848969521    0.1174664580888362    0.8493515639285798 C
   0.2002458355632983    0.0965933032098587    0.7942865277937587 C
   0.2652281244986838    0.2795253610941679    0.9373203522414720 C
   0.5905140153430725    0.1842781839777635    0.7325629797386416 C
   0.6650679459555724    0.0123369650922177    0.7210865081495520 C
   0.7271034100227721    0.6369745304308421    0.9596021221488220 C
   0.7005938030506775    0.4567305435964257    0.8795210981233944 C
   0.8590340149108642    0.5649502495624389    0.8377915652694421 C
   0.7776735835501938    0.5436011552361517    0.9179368977470306 C
   0.9249173380164717    0.4749086065190594    0.8093990140515804 C
   0.4045257915572399    0.6536741464750276    0.7698884923859860 C
   0.6661410628812552    0.7026402883668144    0.8844713705845648 C
   0.1742724177777456    0.1902397136554234    0.4262683268590489 N
   0.1383566049106100    0.1376398626248589    0.8771047265128873 N
   0.6268027972724721    0.1089922240024165    0.6604125923021192 N
   0.9915650630615713    1.1366961281923500    1.1434208104635717 Cl
   0.4380548239916649    0.0290787065751095    0.3847015609150487 Cl
   0.0809880547136021    0.5984835809640250    0.4330542729994893 Cl
   1.0533597589816461    1.3072667101185071    0.6365556349056315 Cl
   0.3960280053584067    0.3161425086392711    0.6908216200429125 Cl
   0.0245508193433566    0.8143538314130860    0.8294750779675711 Cl
   0.5362547715859297    0.2017454191272640    0.0620002696162163 O
   0.4141373150746758    0.3274867332627374    0.2560299574499460 O
   0.7086713528209400    0.1691707534965332    0.1477958757526353 O
   0.1280907237908653    0.4479452053441527    0.1388784370529846 O
   0.0260035523046902    0.4170961224989472    0.3077990006171159 O
   0.5189894059240154    0.5581246803308696    0.0610105107950266 O
   0.6160546413058791    0.4389756073025755    0.1279467393632354 O
   0.8279372577492201    0.4944466190212619    1.0021233142242041 O
   0.3759822107287584    0.6436748154872961    0.1308731435253638 O
   0.2197842445577477    0.8017349222183953    0.2215990643274551 O
   0.3409851572942100    0.7820412796231946    0.0324361218848478 O
   0.4374006879551355   -0.1264390519199921    0.2053608105680116 O
   0.5066397725027421   -0.1532620349658778    0.0613911872647150 O
   0.8142304600728646    0.0365528515426127    0.1880803163769941 O
   0.7268655960860415   -0.0881384470280701    0.0540474576989797 O
   0.0174326493986012    0.7910678250170970    0.1886154809673909 O
   0.8245923530304199    0.7603248358693740    0.2407829408669142 O
   0.5507794424099115    0.2530659049823035    0.3250240564873050 O
   0.8548486373349221    0.2389336003970526    0.5713579520786014 O
   0.2853773164921281    0.6180625487538585    0.5293108685229438 O
   0.1201542375669245    0.6226768444936333    0.6755258177375517 O
   0.4978844677838489    0.4902630948972950    0.4077690766229399 O
   0.6414313085918091    0.3835728543966076    0.4965832401942564 O
   0.6596440156718743    0.6719355241542139    0.5061528405165802 O
   0.7490657486456390    0.5904749889954534    0.6220330123814242 O
   0.7761108062516773    0.3293285510550634    0.4104515521734234 O
   0.3213440894885631    0.8735299314861359    0.4942991665925741 O
   0.4155346565911187    0.8662180474677237    0.6364551067505293 O
   0.8721041802472758    0.8115907146742387    0.6556471142437100 O
   0.7020812479841427    0.7475904717685994    0.3460898792244855 O
   0.9533907563480918    0.9499798017309239    0.5859840594683551 O
   0.9584638741474822    0.7707524421506198    0.3839912112308342 O
   0.4551675308314603    0.1100976267180988   -0.0476441629629688 O
   0.2092547001603232    0.5294836725645199    0.0238638791295552 O
   0.2353647501766063    0.5150969771355259    0.7457920414435196 O
   0.2797392059548524    0.3888104506090924    0.9141877889038087 O
   0.6257872874494759    0.6681426744692122    0.8088128462060215 O
   0.4213618365936213    0.5744473517087052    0.8243584905439155 O
   0.6454741455162324    0.3995953430186250    0.9436809755845170 O
   0.9962474865363325    0.4965083472056490    0.7368620367244813 O
   0.6892836085565933    0.4527532781019765    0.7872502961142185 O
   0.9229919313920708    0.3890803654570996    0.8488356179560701 O
   0.4072754228816148    0.7503972741475866    0.7986942438884220 O
  -0.0358465350602753    0.7920273488987408    0.0331257745959531 O
   0.6687680944742718    0.8026086350211930    0.8968437254382415 O
