Li1 Co1 H110 Cl3 O55
1.0
  12.7581533275000005    0.0000000000000000    0.0000000000000000
   0.0000000000000000   11.8057863127000005    0.0000000000000000
   0.0000000000000000    0.0000000000000000   13.0185963247000007
Li Co H Cl O
1 1 110 3 55
direct
   0.3929751065848366    0.7703049941380972    0.2797799064857273 Li
   0.4974761237599650    0.3353276140650911    0.6735627592709822 Co
   0.1186139267066274    0.1146272785696819    0.2009711029549333 H
   0.1200782452110721    0.1994442465782273    0.0961815414711274 H
   1.0595112252306484    0.3072371513702639    0.2198517866991283 H
   0.1544931004592522    0.4108490555332361    0.3274532488738363 H
   1.2356182167618646    0.0203846783285510    0.2641929726152145 H
   0.2798607738945909    0.2660539563570717    0.0666991003210179 H
   0.0218988325761678    0.0604936543389516    1.0506971198075925 H
   0.3383229965104838    0.4371556472141227    0.0294918632334848 H
   0.3955828507579911    0.2817632022376694    0.3108239599243621 H
   0.3953955195715216    1.1373504314537397    0.2137028903048125 H
   0.5842480860951230    0.4204104686411940    0.2430294006656596 H
   0.4565673819850085    1.2464918275345671    0.1773326098083159 H
   0.5211801812545664    0.3683978382466018    0.0766492513794873 H
   0.6272935007333256    0.2757695311575923    0.1005101187304963 H
   0.6625674144767799    0.0997488117443893    0.0553281355635396 H
   0.4871878009415622    0.0211490492701369    0.0858910311381644 H
   0.9913273762307353    0.4458234307305768    1.0153553680146545 H
   0.9941647774651265    0.4079030425292072    0.1976957882484545 H
   0.7635412754213116    0.1688592444075908    0.0246478694243862 H
   0.7165525001173019    1.1505134682802516    0.2264861424964681 H
   0.7514799687376621    1.0786419319398699    0.3195123006009523 H
   1.1215813367641940   -0.0139334085204512    0.3086747266812270 H
   0.0942995928028832    0.7301407909718992    0.0616064621942628 H
   0.2640285452941857    0.6032047309495430    0.2604683007081518 H
   0.2422793161638306    0.6526567525715131    0.1546335420571073 H
   1.0076071617661786    0.8619041448729100    0.2284978801175440 H
   1.0449166365609350    0.5454279779291842    1.0610745826791983 H
   0.3593667943947196    0.5326926974474205    0.1279862759964943 H
   0.6192641255274960    0.7584879074735753    0.0207388458452891 H
   0.5642475426426482   -0.0716770421881770    0.0563455263535797 H
   0.5455520469954942    0.6276825583763473    0.2674191268758174 H
   0.5565097456852147    0.7727470169933630    0.1354602000335576 H
   0.5837652575977791    0.7339524811726266    0.3267580894438731 H
  -0.0188864587307179    0.8762361000276450    0.0773661489441113 H
   0.7295112721085144    0.7256531610422429    0.1397617390476948 H
  -0.0696529751201957    0.7605767137035739    0.1077934692265941 H
   0.7724257900599368    0.6179339489274204    0.0864400918680403 H
   0.8253864327685946    0.6302507905293708    0.2790248327623529 H
   0.9255419934676279    0.9331116000760986    0.3208242700002642 H
   0.2209690220310609    0.1221956859280195    0.4178931066460706 H
   0.1507065022925827    0.1547153326360918    0.5110621372963815 H
   1.0300320372678167    0.2905300896993424    0.5951149777645889 H
   0.3216215198523605    0.3774323910645925    0.3608155245883042 H
   0.5038712499122848    0.4483628634465281    0.3358673664382753 H
   0.3446115241633900    0.2239169917514308    0.5618141526074658 H
  -0.3726654802032908    1.1627871107265937    0.6630777579240228 H
  -0.4168152866479179    1.1972702014091741    0.5525205239410290 H
   0.3898657224144416    0.3169069858883759    0.4823762489958542 H
   0.6235656885038325    0.1556623258904058    0.3716746062031002 H
   0.5040750411611638    0.1071678855510851    0.3885627556253894 H
   0.6317463395213299    0.4588949869922712    0.5370465054696374 H
   0.7830817209388174    0.0884132686085595    0.6606543015687366 H
   0.9335682334234746    0.3072939032021414    0.3385796404130822 H
   0.8355603189626269    0.2268299701070533    0.3506285584444672 H
   0.6719049727379129    0.4538483091665081    0.3822717548172138 H
   0.9759881656901179    0.2567356443796935    0.4928059448412032 H
   0.9356845271618327    1.1151409832175014    0.5433098535270078 H
   0.7720895344992866    0.3829728945319165    0.4216070247055980 H
   0.8197994172993294    1.0076174378663163    0.4356930287129636 H
   1.0957155244064847    0.8839433376135158    0.5914379300394684 H
   0.2363489908214540   -0.0196754233430536    0.5467311133071805 H
   0.2013470600140034    0.5064377753448104    0.4083459944305864 H
   0.3068686010585179    0.6972111758066820    0.4656302039874247 H
   0.1436937318936607    0.6493448173082145    0.4781845528529708 H
   0.1937628903057248    0.6154555032546807    0.5869812283680356 H
   0.0379762690777240    0.7711655890811946    0.3738115493347662 H
   1.0117065011186275    0.8253059896500594    0.5213105539975634 H
   0.2692651965778783   -0.1434105106390657    0.5294343176785482 H
   0.5790514092487105    0.5497656813776119    0.6133665614279663 H
   0.4219260049255745    0.7231035638190898    0.4771452703018766 H
   0.6514411961004863    0.7605013269418263    0.5215886177695487 H
   0.9195693422504841    0.9935480658142982    0.5928781774772376 H
   0.7530389717915859    0.8988656812282301    0.4043501719392397 H
   0.8092634097322892    0.5501028041998095    0.3764285749456885 H
   0.7306525031022363    0.7200567527853083    0.4394622522741013 H
  -0.0444439976338731    0.6821660110632776    0.4236886623356536 H
   0.2424776207252397    0.2593199703357866   -0.0508932239064005 H
   0.0838174331542968    0.4665276848586611    0.6934642903990680 H
   0.1902325988251453    0.1665840888788900   -0.1950792753963453 H
   0.1862900219718338    0.2931372857966399   -0.2158879703772339 H
   0.4609974902106380    0.1629316426243264    0.8027863681794307 H
   0.3547132996078189    0.2485413574903964    0.8099415174502680 H
   0.4944349312766950    1.0081934266077597    0.9034231778110706 H
  -0.1005014835129947    0.2940690322901511    0.8970784077652183 H
  -0.1117107860138311    0.4331093263054839    0.8632882825452372 H
   0.8935075767688527    0.0915335182068749    0.9342329509998283 H
   0.8121964360911542    0.1153493821021530    0.8470730167258735 H
   0.7045507631833248    0.0065028414344086    0.7170221296891703 H
  -0.0075498650805817    0.3826289953715842    0.7363129959036419 H
   0.2896678358406412    0.7699018020190868    0.8512439733056529 H
   0.2150982664383565    0.6289395691003206    0.7694302375206974 H
   0.1062568091871053    0.6489162139211992    0.7163738263091824 H
   0.1827471894913233    0.6944938642146968   -0.0224481449774682 H
   0.2586147523864676   -0.0552283284086381    0.7992176270616306 H
   0.3275479261322587    0.6572909208133307    0.9051514747363937 H
   0.2962839971167450   -0.0894623886647709    0.6982658833235985 H
   0.0301125604809831    0.8042129431215010    0.7979509774483605 H
   0.0036587319890085    0.8044983963654222    0.6769363948692126 H
   0.0357860461447727   -0.0190934206015158    0.9450405677728478 H
   0.4489910504016867    0.5023228440125584    0.8145426279314610 H
   0.4617930598937615    0.5569206474055106    0.9770179015511570 H
   0.5503928729688643    0.6233101261949796    0.9099753434879617 H
   0.6534501075269352    0.7752398623846387    0.8513745557400106 H
   0.5829289296648799   -0.0795265828748749   -0.1930944223941077 H
   0.5987321572029446   -0.1650185588658558   -0.2851573430122120 H
   0.4122372986663732    0.9739305669145546    0.8091119349261130 H
   0.4358527853489618    0.5408768198295157    0.6980899811031990 H
  -0.2002612189017055    0.5601283964699894    0.7597725143019926 H
   0.7188028257924226    0.6636259499269397    0.8790119439058420 H
  -0.1100585092729205    0.6421957805761835    0.7883616179747018 H
   0.3905296115982895    0.9646723949381212    0.2813660989971905 Cl
   0.5402315277747629   -0.2867122742988117    0.6187711379464430 Cl
   1.1098084730789579    1.0005446349383000    0.7922806272693677 Cl
   0.0747979460039139    0.1557766765964277    0.1459352156649485 O
   0.2259062569414006    0.2914194840795122    0.0195672141563134 O
   1.1696839096245766    0.0511030049519863    0.2930524587402409 O
   1.0315918241342361    0.3725669802839308    0.2556682440475548 O
   0.3873230346784293    1.2173535735556733    0.1988218697117983 O
   0.5652766884494868    0.3186400343663066    0.1266097835119704 O
   0.5650658428881467    0.4740993956818393    0.2981843484105000 O
   0.3881530921113630    0.4794738788648649    0.0710269862616166 O
   0.5423932826378708    0.0086614439471939    0.0382084634851340 O
   0.7111441938970536    0.1598102918710640    0.0827456843604699 O
   0.7233638307048320    1.1533764711421313    0.3023460874066777 O
   0.9986952136902040    0.4842783026023151    1.0796556949563374 O
   0.1453397381346058    0.6698830511520004    0.0417265462997231 O
   0.2975576924222382    0.6439677929983884    0.2067351652338771 O
   0.5397557535898801    0.7075586441382565    0.2650947595442497 O
   0.6079443054647675    0.8056105628617678    0.0864471586821350 O
  -0.0098469059804455   -0.0043634402855983    1.0078353560595827 O
  -0.0042090994614597    0.8008662791252623    0.1113297183621982 O
   0.7866559059191555    0.6685870764837530    0.1428742097772098 O
   0.9944626262134880    0.9024571404395821    0.2948191622639045 O
   0.2150433995636584    0.4525701223858642    0.3518491201397286 O
   0.2230085021448415    0.1189344884965038    0.4975906388624640 O
   1.0316153385091069    0.2274601695535736    0.5410722851076897 O
   0.3908352984716079    0.3454167345052830    0.3677456111928659 O
   0.3810987796501696    0.2952591266750448    0.5583445005133841 O
   0.5790318139363183    0.4635198377691538    0.5998520476039075 O
  -0.4214037249976764    1.2170232270716101    0.6263341652916563 O
   0.5602109082898542    0.1599221014502854    0.4165388899885841 O
   0.8811311774619367    1.0563901315902902    0.5628949142847678 O
   0.8770318381094876    0.2847558025663738    0.3915669197475842 O
   0.7263987526881367    0.4473709769520721    0.4379144663609787 O
   0.2060366101757057    0.6254963422856634    0.5110943988389876 O
   0.0300679615499785    0.7068852455361281    0.4183493770343558 O
   0.2293315175475578   -0.0970806868126247    0.5800373153880712 O
   1.0215590241894277    0.8716671540403732    0.5851092907649191 O
   0.3709147038936933    0.7151557662294398    0.4234874117603493 O
   0.6776111277065227    0.7768382311421437    0.4483111325317549 O
   0.7949556964359974    0.9659853104517051    0.3764162848342196 O
   0.8374493070772353    0.6257428315853105    0.3553518019083831 O
   0.0301138145809762    0.4092498397334642    0.6731702438359422 O
   0.2275381545574233    0.2390400843833833   -0.1773131511359919 O
   0.4777365898685544    1.0206025958167944    0.8298207727513162 O
   0.4304444791287135    0.2425570038752545    0.7900138698353106 O
   0.4226416257341378    0.4794442323855259    0.7447440123713508 O
  -0.0743339033444455    0.3700504177091838    0.8899808683918919 O
   0.8395420864407227    0.1449794288211672    0.9084928487920181 O
   0.7355419254503391    0.0871540555746925    0.7160174130765825 O
   0.2622469394914865    0.6914665351530523    0.8729897892860501 O
   0.1666241664550179    0.5943184105282472    0.7150680019656052 O
   0.3218190406012739   -0.0837058894194057    0.7667625151999656 O
   0.0017278882871303    0.7525298121687050    0.7452118047391382 O
   0.4804619059160621    0.5865798323785038    0.9115884206182632 O
   0.6583661794998912    0.7119886751937686    0.9004812323781876 O
   0.6352680090644568   -0.1125807132533159   -0.2404482218840236 O
  -0.1645938312854157    0.5916951206278799    0.8156871445620083 O
