Li1 Co1 H110 Cl3 O55
1.0
  12.8759439660999995    0.0000000000000000    0.0000000000000000
   0.0000000000000000   12.8949405203000005    0.0000000000000000
   0.0000000000000000    0.0000000000000000   12.8939614052000007
Li Co H Cl O
1 1 110 3 55
direct
   0.5640275774902823    0.5919179889340369    0.6580250193069656 Li
   0.6686614593669887    0.5115019530192101    0.4356488301829898 Co
   1.2801591500007607    0.3018096325510974    0.2940934196585011 H
   0.1084184962885352    0.3291327519904884    0.2376530459726833 H
   0.0819021491454516    0.2428803184682806    1.0039194934599087 H
   0.4141488575237394    0.2292835128278060    1.1959008343534605 H
   0.4297539269873074    0.1211372210473491    1.1382381830832191 H
   0.5752609286434723    0.2313951937585658    0.0832507690124693 H
   0.6264230027977552    0.1321710059474046    0.0610854319978308 H
   0.3384107211535033    0.2258976887574066    0.0233933694324814 H
   0.8511032287770434    0.2280093696881664    0.2299711554436753 H
   0.7842289085511214    0.2924571272169205    0.1589014530300759 H
   0.9221038484137024    0.0543010849175836    0.1714499627483343 H
   0.9482300882362489    0.3245922114654796    0.1313668584362981 H
   0.7420098680340746    1.0444691263986272    0.1905371922091535 H
   0.9106173119399965    0.0742126153039236    0.2990794746015593 H
   0.0076222359586523    0.5738744780210772    1.0006776658565515 H
   1.0211412474080881    0.4108593794488276    0.0742864176880280 H
   0.1622154840529832    0.4059869257991897    0.3248233084450616 H
   0.0333039329177731    0.6283663928068657    1.1075959322199072 H
   1.3990708200135462    0.3450630309767789    0.2897091968255397 H
   0.6693449044039639    0.6322338011071592    0.0034323976324415 H
   0.6911763134827921    0.5175267966295932    0.0401546573880077 H
   0.8128846716525632    0.3939069941581885    0.3078812692117270 H
   1.1658219018831832    0.9816693020236977    1.0310872496669909 H
   1.0688969693667205    0.7675659491890180    0.2122962149937923 H
   0.2168211892231155    0.8546039621393785    0.2518170405947199 H
   0.2081119248542083    0.7594333021376487    0.3159424070369172 H
   0.6512141948719380    0.9842904851107224    0.2286216865370147 H
   0.3731118662638244    0.8025633963885264    0.0355788875259848 H
   0.5447466610267109    0.7355254756909373    0.0276875501159810 H
   0.4726579658255041    0.8765350442994551    0.2600061452989899 H
   0.5788319289616670    0.8154723353431457    0.2617953549355796 H
   0.6582831911521050    0.7918716060865116    0.0271700675681188 H
  -0.0078516586563417    0.9476404517696609    1.0379974611373051 H
   0.9621397480228663    0.7165715301791116    0.2471256972519668 H
   0.8345296866303982    0.8873299758294504    0.0344102761484199 H
  -0.0508904448967148    0.8531460259844654    1.1203305755804636 H
   0.7173965269979229    0.9350696299233088    0.0404857503598137 H
   0.1061632053307262    1.2255711637693019    0.4171417172406660 H
   0.1727669434533732    1.1479981033565558    0.4769883365805376 H
   0.0050701123950117    0.1015579139848202    0.4378490849463210 H
   0.3434790874163433    0.1689513229448626    0.4442621644803307 H
   0.3569219853083902    0.0883765425987003    0.5344617519811093 H
   0.3499337598053203    0.2573805792260285    0.5872531307210430 H
   0.5091275249689983    0.0130997316299424    0.5274879448496769 H
   0.5726987863969033    1.0686801725456423    0.3974193067255048 H
   0.6682218799454798    1.1175830735716121    0.4712864426714749 H
   0.8491460907166147    0.1160359955010626    0.4805241002273571 H
   0.7881991029022765    0.2151485116067411    0.5241546015388564 H
   0.9169624777946400    0.3188124252087947    0.5797457404816895 H
   0.7745402985099125    0.0825206799926553    0.6522928786810295 H
   0.0691212609687655    0.3479959642416095    0.6457471789268823 H
   0.2539672036247974    0.3796843616682378    0.6398653558302648 H
   0.1563036844831490    0.4796351910629914    0.4920868771982788 H
   0.0687065340940557    0.5177865884444315    0.4146033196938267 H
   0.2462069958867806    0.6034783369453616    0.4086850454255925 H
   0.4486418625546180    0.4263546040825082    0.6203864701637768 H
   0.4749552731202453    0.4816127108475810    0.5121544105085343 H
   0.8002114260692006    0.3587614268493245    0.6058393504613434 H
   0.8341801976910359    0.4046662527822656    0.4249484724213823 H
   0.8726938788087555    0.5801924598583524    0.3670422963024675 H
   1.0551038058932238    0.8409319331972940    0.4085485474212406 H
   1.0279057999899663    0.8449102377051155    0.5206188378920369 H
   0.3276775275046450    0.7002915016152329    0.4141542722817828 H
   0.4338903227451814   -0.0161443737931376    0.6153026950585121 H
   0.4477867796163117    0.7260000343128531    0.6110200701719717 H
   0.4890101649772199   -0.2129364408837241    0.4334439220786012 H
   0.4101406077102981   -0.1378504024118325    0.4869565686824396 H
  -0.0393309040667867   -0.0111478404707411    0.4405798205902016 H
   0.9234008406997800    0.6747117015780997    0.4226404152568868 H
   0.8733540245831063   -0.3011144358275540    0.6641379583427698 H
   1.1012518787307897    1.0659193998267642    0.9767750039581139 H
   0.0218684147617712    0.2382792891028020    0.6788270049474553 H
   0.2538740065743008    0.2439846275558318   -0.0564753355866513 H
   0.0492374372526899    0.2142915863667522    0.8971951163072804 H
   0.0485306929530907    0.0778905694538739    0.7380299121077130 H
   0.3966068426940170    0.2641886757707001    0.6950508785442566 H
   0.5195865639609790    0.1775229018386153    0.8201047661221830 H
   0.4011556354003385    0.0616854539924232    0.7736341756519529 H
   0.4081034755148600    0.2058836375414498    0.8666924656756920 H
  -0.0710683829713160    0.1128735148416286    0.7535689690122261 H
   0.6801052805258836    0.2131632368426040   -0.0985058631312305 H
   0.6866438302603076    0.2806137224521153   -0.2072195435859191 H
   0.7289172357234773    0.1360011903458706    0.7453829665353277 H
   0.1833028700120136    0.6070433010433062   -0.0220241699564475 H
   0.2218181044139081    0.6399484547609231    0.7977989757632936 H
   0.3279610018665721    0.5108970646145121    0.8706167833008086 H
   0.3322643756732525    0.3913827483155064    0.8640245501360870 H
   0.2091246661362713    0.4880718333126191    0.6734601515945290 H
   0.5070034088597632    0.5045085124633554    0.8372290612136009 H
   0.6259181854408986    0.5412740949996734    0.8624967031555575 H
   0.6721136334458002    0.4226896007484021   -0.2360555225620972 H
   0.7884647144961918    0.3842357591646129   -0.2213633737300400 H
   0.9128074426266666    0.4613233578576912    0.8371437499608810 H
   0.9464049793306905    0.3687606974777555    0.7640583753125626 H
  -0.1693625354879914    0.5914441596836901    0.9233546486185815 H
  -0.0860179665130579    0.6419569944637024    0.8556097583905306 H
   0.2920723710045068    0.6670590877607152   -0.0347202681419113 H
   1.1145169255848055    0.8637470830257754    0.6887013946713655 H
   0.1877141970688527    0.6891537999892421    0.6925791788859076 H
   0.1389107849342212    0.9697654084184228    0.8506539501643459 H
   1.0207839920478512    0.7811503468622167    0.6804851454775936 H
   0.2184855332165672    0.9956437751681312    0.7692158283179037 H
   0.4204093693908483   -0.0576864033322966    0.7817938091961925 H
   0.4397663967789919    0.7939227981768017   -0.0700584381333495 H
   0.5049849160744244    0.7635907466730154    0.7876213433138063 H
   0.5931765083172684    0.8457632854553307    0.8068815219505943 H
   0.3807827601617819    0.6727721811932924    0.7013111733802135 H
   0.8393992325188455   -0.2254576308609730    0.7497074714913852 H
   0.7497615327091292   -0.0554273777901359    0.7632642051054244 H
   0.7519221509964753   -0.1122295009830981    0.8718964520916076 H
   0.3337865941646970    0.9638406040442012    0.1289734900190827 Cl
   0.5391936701012885    0.4416140773379477    0.3472244922956286 Cl
   0.7138441660898275    0.6213124634105412    0.5566977422241368 Cl
   0.1538999772224242    0.3307085638345222    0.2967497018454624 O
   1.3538857833644451    0.2852248332910055    0.2962533454660010 O
   0.4487257399000650    0.1967381901611888    1.1339958871525100 O
   0.6373744328731932    0.2061992652090295    0.0501391451613370 O
   0.8371081383608041    0.2990434313465361    0.2083718973686757 O
   0.8813379052423150    0.0975848053132954    0.2257560040024680 O
   0.6710775929011131    1.0188234090353410    0.1682942219545399 O
   1.0161319059438958    0.3376771884558252    0.0927257469622816 O
   0.0566434961988196    0.5736232166837411    1.0602094091182024 O
   0.1641866016709863    0.8175429148823042    0.2916845401044275 O
   0.6174054115201218    0.7321435291103116    0.0524132329361131 O
   0.5378065873330642    0.8610638601023715    0.3005375214662271 O
   0.9952169345282842    0.7505189531479005    0.1865578100481904 O
  -0.0694576272818998    0.9154883065660975    1.0818164227616311 O
   0.1034703542208358    1.1782502785710038    0.4716416477055269 O
   0.3099382455847048    0.1437654758687379    0.5073382025140730 O
   0.0079872577397640    0.3083183868852389    0.6572099090650688 O
   0.3687199552591722    0.3092854328348010    0.6392022547295780 O
   0.5952408229857682    1.0858729622022512    0.4652921638326356 O
   0.7839112619373454    0.1370279496379477    0.5162144505811600 O
  -0.0603157732702709    0.0621327612127179    0.4152284185092110 O
   0.1967698438087722    0.4259536716399072    0.6338881392419695 O
   0.1419855109585215    0.5085240408730045    0.4202462712828284 O
   0.2793004918760354    0.6604495186924572    0.3667514624863769 O
   0.4897712742229421    0.4808426413785232    0.5833334664369838 O
   0.8479655947436578    0.3421998925278749    0.5446184443958381 O
   0.8016451073626732    0.4438413074639640    0.3673726835175465 O
   0.9378774492102516    0.6168944515623815    0.3786756489460940 O
   1.0910312688596626    0.7972721738433283    0.6524464389359252 O
   0.4408311730809156   -0.0156126148455717    0.5405661598916416 O
   0.4265277557559500   -0.2143649081163571    0.4810204566068185 O
   0.9948674455889219    0.8648405351419604    0.4572558438264185 O
   0.1012868249919092    0.1911577068788722    0.9528878531965345 O
   0.0001646856421232    0.1308107825347888    0.7551293893801579 O
   0.3192230017404285    0.2686361565411400   -0.0375044396522683 O
   0.4435719430076031    0.1731839907818392    0.8050085521749704 O
   0.6587849019406118    0.2123388825167143   -0.1738194125892248 O
   0.7795395436269674    0.0803005068980272    0.7249005103141162 O
   0.2279062017375984    0.6307882729195220    0.7203991783978757 O
   0.2395457367025361    0.6177847232144242   -0.0685205089138620 O
   0.3706770933196007    0.4525051706143309    0.8436041384623082 O
   0.5778386037317907    0.5248273343755254    0.8046246515377308 O
   0.6987470205514659    0.5609577840869104   -0.0212316284186794 O
   0.9033634748430112    0.3891632731690375    0.8225322590404863 O
  -0.0940235931507158    0.5877310754763900    0.9047800622309248 O
   0.7229355383657707    0.3731678523545489   -0.2663984084840464 O
   0.1446944385596226    0.9733559639488738    0.7736465845614394 O
   1.1011198495759194    0.9865859590567559    0.9892149357183652 O
   0.5195601581300050    0.8296484379558119    0.8225943035879190 O
   0.4073881881522985    0.7547531719807866   -0.0120256135819878 O
   0.4525996306323736    0.6846194634478713    0.6784012242406986 O
   0.3778656924812384   -0.0035771192373772    0.7417603405221025 O
   0.7476032443480455   -0.1257565118076460    0.7952613537732973 O
   0.8977949510758394   -0.2732189988975641    0.7274210700535686 O
   0.7575310601521956    0.8870895714634807   -0.0015482284127165 O
