Li1 Co1 H90 C51 N3 Cl6 O45
1.0
  14.9778189950999998    0.0000000000000000    0.0000000000000000
   0.0000000000000000   14.5896183650999998    0.0000000000000000
   0.0000000000000000    0.0000000000000000   14.6376250908000003
Li Co H C N Cl O
1 1 90 51 3 6 45
direct
   0.8712343901184177    0.7590911843377810    0.2763700068901617 Li
   0.2266866089522623    0.1170188719866695    0.2771980100617703 Co
   0.0117153904421869    0.2383825674370998    0.1189558098666152 H
   0.2065822132389404    0.3430412337427646    0.2456382456099297 H
   0.4158316374057915    0.1615217495638617    0.9669697412933552 H
   0.5210984990573984    0.1084669005178021    0.2818483546072652 H
   0.5250075461635995    0.1680373415156974    1.0094001216417601 H
   0.4479770385591579    0.0987435481688918    1.0661347349993573 H
   0.6354370419761143    0.0769746442776334    1.1230667847567852 H
  -0.0581452481689698    0.2377286778176961    0.2056365379307232 H
  -0.0506868859043073    0.0090914430028747    0.2268291834641146 H
   0.1509646363225331    0.3878031996597205    0.1584540205677065 H
   0.1416481931177080    0.5458795072290030    0.0559025485435000 H
   0.0203327999623731    0.4951512440572660    0.2129628630234052 H
  -0.0008772306905497    0.3664414345880908    0.3286790389394415 H
   0.2767493050127039    0.6472088883687039    0.1649297978479688 H
   0.5842046161969645    0.6025538477983173    0.2627325487122320 H
   0.3839184462958993    0.6039322251826158    0.0219134282515272 H
   0.6430563088424941    0.6067897365277877    1.1022246059123668 H
   0.0228798997779391    0.7004323504612765    0.0711673198854327 H
   0.0515930255101097    0.7593338226242264    0.1659470393682041 H
   0.2739905588952941   -0.1740428880767777    0.2214068557635721 H
   0.4129280103814412   -0.0577129089417569    1.0232514123219287 H
   0.5521028128464701   -0.0271589911596213    1.0580979121356580 H
   0.5158744407331792   -0.0383902650627120   -0.6964947790067223 H
   0.3179328712049379    0.2345640988105821    0.5562364452357353 H
   0.0116553015867738    0.1282617980108607    0.6211492978403015 H
  -0.0163627963844521    0.0400127453091196    0.4859897219031183 H
   0.4095610315164611    0.3060964702464574    0.6059227840706543 H
   0.3098148668386294   -0.0171902588487126    0.4545788340611432 H
   0.4294564515437352    0.0651552809684124    0.4993552233957726 H
   0.5305381911812153    0.0515229846997336    0.4402220652071519 H
  -0.1438880389197554   -0.0376280792589627    0.6828669599880910 H
  -0.2286941111800457   -0.0209621189908283    0.6049813745240564 H
  -0.0700642064671308    0.1450319419500112    0.7055618984046237 H
  -0.2076696883249545    0.0698435461641368    0.6844498670414054 H
  -0.2705893964819503    0.0437935158967827    0.3964468628758166 H
  -0.2413461535142464    0.1820651244829044    0.4427582006642167 H
  -0.0770852553951759    0.1802501352667819    0.5138698730525352 H
  -0.1719702316700886    0.1926034398899604    0.5862761543601591 H
  -0.1426909353891368    0.1448146641624316    0.3889224182123701 H
   0.2737148178143429    0.6242103429919004    0.6263864862178192 H
   0.2339193041821513    0.3606482741444851    0.5084994663429517 H
   0.2059592921044914    0.4560447379292635    0.5831240036722036 H
   0.2962808536377544    0.4958928672943674    0.4587148875277710 H
   0.3960463802801081    0.4235347717238008    0.4950009651329305 H
   0.4193728739514697    0.5534944425357250    0.5589909904402947 H
   0.5634515279067609    0.5932287238234882    0.5883529939985174 H
   0.7424713171616047    0.5703541707235715    0.3713102715423457 H
   0.7219850233894352    0.5402629792329029    0.4866490112304606 H
   1.1371342518608323    0.8751641313897029    0.6003487924228371 H
   0.3194511162850419   -0.1409138515314351    0.4582580511244255 H
   0.5687099036439603    0.7355703497681204    0.3532226379024865 H
   0.6114722711294759    0.7672510962025617    0.5263587842567782 H
   0.4842878659351545   -0.1121269436432436    0.6265490809000329 H
   0.6766867059093027    0.7937459633283990    0.3644546512229626 H
   0.9168738787665068    0.6575031946515381    0.5551911937072195 H
  -0.0250910364601780   -0.0580213474414756    0.5696703184754313 H
  -0.1069280516091126   -0.0389701294421832    0.4806494976853845 H
   0.7025602993962302    0.6935459468908901    0.6270389144594746 H
   1.1814577945753746    1.1016059695054154    0.8342897479233476 H
   0.2095419231950096    0.2342152205964558    0.9942767666830971 H
   0.3574953736089164    0.2166369677880424    0.6658887959445127 H
   0.1682488617551340    0.2539683075373304    0.6130653361821791 H
   0.5235890485834811   -0.0030336171305120    0.8108467373344458 H
   0.4605488956540795    0.0950950634266636    0.8219796908695396 H
   0.5713442658306652    0.1112798596352367    0.8494581921636328 H
   0.6755062937274099    0.0909215478160253    0.9390191688840955 H
   0.7452761314014980    0.2783699053784101    0.7579365148635359 H
  -0.0110456003343426    0.0402711482299950    0.6960501094951298 H
   0.2048022478108149    0.2531485465469668    0.7347633567934339 H
   0.1283872503819880    0.6344381636425728   -0.0342097471204348 H
   0.2911519360012726    0.4503403392316880    0.7377535959701095 H
   0.1498683485382187    0.3555357346569255    0.6817499755115397 H
   0.3381327414329717    0.3455752273726758    0.7866016840694147 H
   0.3990788645166220    0.4055363571368816    0.6953799188091991 H
   0.6321588610863557    0.5048385433726537    0.8847788126053294 H
   0.5315201766094549    0.5587178827994057    0.8627014607128347 H
   0.7900323138750147    0.4514280304654739    0.7675815221050954 H
   0.7513217379100039    0.6305141405072625    0.9382806611047978 H
   1.1642897409299058    0.7376670461473194    0.7941507228864733 H
   0.1791770215929280    0.8586290861292269   -0.0423572436753887 H
   1.2362521541726228    0.8317401031426380    0.7667118455065330 H
   1.0314352845734105    0.8641501352741919    0.8543988843559376 H
   1.0075419526993186    0.9572533245426174    0.7746386778499114 H
   0.3553194893890135    0.0193062406946701    0.9463454939767776 H
   0.5789815593536690   -0.0765441074779166    0.9483683631113758 H
   0.4188901601463179   -0.0749923191148873    0.8986205388924267 H
   0.5614299385144798    0.7656259680184881    0.8401902952774594 H
   0.9480479769548180    0.6940339651393340    0.7705628800596334 H
   0.7792757411021225    0.7134347467716409    0.8532088005894837 H
   0.7248886504137855   -0.0007641951914706    1.0078650365538027 H
   0.1946826169053014    0.2558771991411450    0.1277386553898826 C
   0.0625906213586033    0.2888458476666340    0.2475490747114060 C
   0.1549538686680133    0.3250606400469402    0.1950248438180200 C
   0.0213349485398736    0.1174301233196278    0.2065861455285251 C
   0.0072140675177974    0.2199667327472279    0.1919307626594264 C
   0.4689839688807844    0.1208366551942989    1.0007586925017624 C
   0.4145196973959390    0.1100447347985854    0.3618797799739586 C
   0.1696422555467686    0.6084162355496375    0.0220172702334451 C
   0.0213863578939493    0.6260623448279892    0.1907666393884520 C
   0.1667780201054114    0.6834517829234290    0.1023615878877596 C
   0.0671567067160491    0.6933869297088130    0.1320194044602617 C
   0.1984568646791925    0.7810376117210998    0.0649743753717100 C
   0.2917421420922189   -0.0842084614864824    0.3232423646492920 C
   0.6820760085859078    0.6913670002450996    0.2672688037118038 C
   0.3481916158291230    0.2676794269781595    0.6126800277755888 C
   0.0892079813447551    0.2572596890387732    0.3476493294256029 C
   0.4540508200643131    0.0450834742444952    0.4325572972339295 C
  -0.1797751063342999    0.0113937650485528    0.6439842862982367 C
  -0.0617846298451560   -0.0056498610270149    0.5281923467256563 C
  -0.0411694788608228    0.0957907635982513    0.6579626467720681 C
  -0.1389540762363916    0.1478476427429989    0.5350066352035523 C
  -0.1904442164398686    0.1326909748668214    0.4495793208514494 C
   0.2620368825917833    0.4049455260551982    0.5635545722772133 C
   0.3333783776618982    0.4629708957951693    0.5193997318580373 C
   0.5750063477411185    0.5986236558930127    0.4525966135970984 C
   0.7354469299638146    0.6002693466437340    0.4395966905344699 C
   0.8212831922674648    0.6541809693001234    0.4586863992998369 C
   1.2172507227831055    0.7381776832190760    0.6594581079458726 C
   0.3354280752854336   -0.0784852137694797    0.4165901578550901 C
   0.6511389275495038    0.6621290867284305    0.4472815437331422 C
   0.4817773535559957   -0.1135533003497206    0.4848018106202335 C
   0.6425008207568975    0.7258840100391764    0.3562525009933150 C
   0.4378838467500262   -0.0560027888155387    0.4103370942992044 C
   0.5173892140127483    0.0598261491121613    0.8510438319006820 C
   0.6628529160853112    0.0435961152569627    0.9972704217144411 C
   0.3294085072809400    0.3876729700709504    0.7214831970138137 C
   0.2579942379303804    0.5928119891394239   -0.0226853366403478 C
   0.1925895217750788    0.2966390604261934    0.6708274386240165 C
   0.5961269127648707    0.5720307738661536    0.8921515933215008 C
   0.6405532741875645    0.6547745420573599    0.7387845009090183 C
   0.5761133179886174    0.5927187721706201    0.9958562578817433 C
   0.7945516634560281    0.5784918750163723    0.8070196137640239 C
   0.7464405198886139    0.6485392864308240    0.8657313238036632 C
   1.1331196486652888    0.9810092577909524    0.8398152344348743 C
   1.1760497975881965    0.7911105277030246    0.7429723387324181 C
   1.0614463295825038    0.9112850213823172    0.8032280150821527 C
   1.0910828207261889    0.8487398624093568    0.7261000661835588 C
   1.0112521056941026    0.7845181688357032    0.7055721459686287 C
   0.4101859556127572   -0.0246435038396932    0.9548899128441940 C
   0.6454645366366609    0.6534037042808323    0.8418360540566715 C
   0.5774145755352853   -0.0131140727202078    0.9891365885781607 C
  -0.1078968174891614    0.0615712256016810    0.5912387080223415 N
   0.4963016578002364    0.0376542189146038    0.9482371942921112 N
   0.2829397924281503    0.3356949140983531    0.6420119718127301 N
   0.6215091129453091    0.0472706459169450    0.2681945003269273 Cl
   0.9404454014371642    0.8883968284465240    0.2601214694037435 Cl
   1.2701289155466247    1.1889221671002295    0.8874575258362511 Cl
   0.6793980485963310    0.2227132062325010   -0.1912283881733862 Cl
  -0.1570187891354136    1.3221785656809251    0.7046355186185665 Cl
   0.4969827582998043    1.8551054596837968    0.7542535403601184 Cl
   0.1805170030686399    0.2761847899626250    0.0413762849808650 O
   0.2462208281931089    0.1908234070371393    0.1526853252037931 O
   0.0933981775288946    0.0781261480099166    0.2066168882205403 O
   0.4585763788270525    0.1405780900140730    0.2887681929944133 O
   0.6618995062460902    0.1068664474137061    1.0724957395627628 O
   0.3364549270590484    0.1413711196677942    0.3817067668109427 O
  -0.0573507399696190    0.0775298335771271    0.2098920096765565 O
   0.0557858923100453    0.5404728544964893    0.1778711048444883 O
   0.0048645932711456    0.3670802449919527    0.2601829547877738 O
   0.5026682295975853    0.6162169879169679    1.0316974545748967 O
   0.3232113433260033    0.6251760982054642    0.0353992224821821 O
   0.6329774048278718    0.6253378570630943    0.2258488331742975 O
   0.6567131703699914    0.5929470166604117    1.0380249837625524 O
  -0.0416495220501785    0.6478655196636608    0.2395102023349057 O
   0.2124555650285955    0.6643237980086512    0.1818239318667056 O
   0.2631118054497286   -0.0165363692293089    0.2770839205158473 O
   0.2485168901238380    0.8312363202597641    0.1031540661708174 O
   0.2897104711253075   -0.1662195168861347    0.2907384579671188 O
   0.7501980763137791    0.7163183040345668    0.2259690712586235 O
   0.1443128000283040    0.1923224181457722    0.3577780216882012 O
   0.0500400624246558    0.2962120444588051    0.4104552828707294 O
  -0.2297289748010490    0.0473035460235817    0.4486652381421984 O
   0.3611347552851026    0.5368432187736882    0.5782762227268781 O
   0.5401381202528004    0.5652231249260288    0.3799216411612618 O
   0.5418400369342837    0.5666006112657724    0.5333038999684721 O
   0.8591592007961827    0.6231698771195160    0.5372171713936299 O
   1.1077534721796274    0.9086941379846799    0.6522950607063379 O
   1.2067218200068339    0.7623092260181796    0.5798639119767283 O
   0.4668287819333016   -0.0775914275391837    0.3230524431297316 O
   0.4572034152462583   -0.0805915060131143    0.5702475979143828 O
   0.6685132862652243    0.7289601700097044    0.5182403224665052 O
   0.5384430136415971   -0.1736659076882326    0.4690671816369595 O
   0.9768826157057130    0.7670598643327360    0.6307738099538510 O
   0.8517989836620282    0.7147123675793645    0.4127179450030460 O
   1.1359832164526971    1.0646118558491533    0.8035559371303145 O
   0.2731780240393192    0.5547280594508222   -0.0944702056667052 O
   1.2644071212034005    0.6628460348855544    0.6827904448435199 O
   0.5784120505351427    0.6141463374555229    0.7002666404977440 O
   0.7507041580071472    0.4996319644136241    0.8003081425116452 O
   0.8658998350656334    0.5978285699826266    0.7719681626701934 O
   1.1934755656579927    0.9600347543911919    0.8948549007060350 O
   0.1536519434673963    0.8024967062748629   -0.0107318948139158 O
   0.9871745013300772    0.7447926609097099    0.7847045183866119 O
   0.6095407482549194    0.7385327302031965    0.8767112470496149 O
   0.7047688986596359    0.6987277136861645    0.6949515706337878 O
