Li1 Co1 H90 C51 N3 Cl6 O45
1.0
  13.5452341692000005    0.0000000000000000    0.0000000000000000
   0.0000000000000000   13.1941638004000001    0.0000000000000000
   0.0000000000000000    0.0000000000000000   13.2375788223999997
Li Co H C N Cl O
1 1 90 51 3 6 45
direct
   0.8428129364170491    0.7927462142301812    0.5792915391917342 Li
   0.1839184582179235    0.3661174346307231    0.6883998602357588 Co
   0.2524798421260505    0.0732402156983002    0.3147930197135927 H
  -0.0320785458540111    0.2387975055004608    0.1982815321755436 H
   0.2605380269190599    0.2456133978419879    0.1068123884412611 H
   0.5187671543234024   -0.0326035513737489    1.0631020672289795 H
   0.4370397374200310    0.2245427180925390    0.0439277770505901 H
   0.6583583918303486    0.0460607744373748    1.0747597881816107 H
   0.7903531567540469    0.0435248047081688    1.0703919199501364 H
  -0.0607262602569374    0.4277317977914529    0.1574538243861509 H
  -0.1441238586955562    0.3967302120761384    0.2488330725272917 H
   0.0900972673750444    0.4201701211661426    0.1632600221078930 H
   0.2528076326939017    0.5998859436973222    0.0534672858757474 H
   0.1271250510024737    0.4717320094594633    0.2800147565450314 H
   0.1493011164914723    0.3337235666701751    0.2526630780502207 H
   0.3085608216433551    0.4780687505568768    0.0745572452818878 H
   0.5637420135536124    0.5845822834537016    1.0474020662855803 H
   0.4277761840231235    0.5812213277561032    0.2980271138800845 H
   0.6244593839384002    0.6365059225993085    0.3562620834574167 H
  -0.0733831104714454    0.5062499225981643    0.2651918042036285 H
   0.8301450121968704   -0.4119129244958468    1.0127446711414114 H
   0.2245364344837775    0.8684281608170296    0.9964229552975448 H
   0.2146303672778589    0.8984406728633023    0.3110408229813662 H
   0.3380494222102060    0.7686886077913119    0.1335567051135008 H
   0.3197367081661749   -0.0224028291426122    0.2455779455453783 H
   0.4932727999485459   -0.1705683384976449    1.0719443186384241 H
   0.6536548924885012   -0.1229306094601333    1.1854741430997471 H
   0.7168247121691111   -0.2168115115573505    1.1356470554692000 H
   0.4814020564832451    0.0663136683715776    0.2147943705829805 H
   0.0345338130560815    0.7028610181737214    0.2538966873241740 H
  -0.0651248553093195    0.9879817773904557    0.2344928368583053 H
   0.8782372040233684   -0.1131088426577482    1.0285020843963968 H
   0.7994227673983091   -0.2198446708090787    0.9881336750996946 H
   0.7893734763857168   -0.1228426918006629    1.1848501619238223 H
  -0.0704381632300972    0.7918117101428797    0.2592798469605432 H
   0.0488155890359962    0.2172508577324999    0.3037607907871913 H
   0.3671334524365559    0.1022280322652284   -0.4673401890028092 H
   0.1080098406808428    0.2664847470359134    0.4627362369948429 H
  -0.0810286039864620    0.2333981485516074    0.3263034327614959 H
   0.4460792267688690    0.2072092967814388    0.3131794315879563 H
   0.5408595741562353    0.0523226339420669    0.6718092130376193 H
   0.5074555964657763    0.1662972686934114    0.4276208275807426 H
   0.8070291327599560    0.1547345806513412    0.6353833676115616 H
   0.8476094574065298    0.0620504197981216    0.5546589379906572 H
   0.6790357752185858    0.1740650970719625    0.5156183394844192 H
  -0.0710103201897475    0.3606665397435594    0.4324065970065532 H
   0.1662561574402818    0.3797848411240799    0.4454829308529731 H
   0.0425705881047944    0.4363348439349727    0.5697218133604788 H
  -0.0201363381387824    0.5979820716232739    0.4962897293637346 H
   0.4013211227429859    0.4955552698611926    0.4601580464920413 H
   0.4529350698528638    0.5738871759702154    0.5583399736735228 H
   0.6264637789647878    0.4016066105333146    0.4886673762617263 H
   0.6298302766886653    0.4853230943294695    0.6209154650918107 H
   0.0065269144479635    0.4704035433084315    0.4181024706598539 H
   0.6690558813081963    0.3596175911167749    0.3519312310584123 H
   0.7095011030855881    0.5476322343732725    0.3982508797061273 H
   0.0516638232944873    0.8072063954804864    0.6770866131526454 H
   0.1522342514601051    0.7753294227247557    0.5839071868732127 H
   0.1808708918573607    0.9681555872690272    0.5661297667605720 H
   0.0801793878964105    0.9938965137224113    0.6610791541721985 H
   0.1832001243834207    0.7875484615694236    0.3763231538059181 H
   0.3804030642981732   -0.1782270277127156    0.4281345166844096 H
   0.5979578118344459    0.7621917959207937    0.5842456173415109 H
   0.7665012250735567   -0.0521144505784561    0.4436009401706707 H
  -0.0128924618960880    0.9450286953631718    0.3893247761047605 H
   1.0817397766306311    0.2218119652729547    0.8853203118510483 H
   0.6094681333285192    0.3067063183327554    0.7415274003573664 H
   0.7198826142683000    0.0511001237289141    0.9633005840631571 H
   0.8009495036467693    0.0860443617249607    0.8163001373721663 H
   0.0733415585283066    0.4617440328060277   -0.0231207377803935 H
   0.3539568622225721    0.5550880308517896   -0.2048798065859818 H
   0.1604784795483815    0.7278402442153147    0.7104212588548718 H
   0.3564182445496352    0.3811528702218734   -0.1667550099920605 H
   0.4532895118610291    0.4432220556881908   -0.0972823358468601 H
   0.8259642059226778    0.3630107580258172    0.8660154220801506 H
   0.9540454172423685    0.5021963121678936    0.7802980854566337 H
   0.7347978233725757    0.4298903279136222    0.9338737526745622 H
   0.8997864807914081    0.4199874646494843    0.6986328493508664 H
   0.8184213315268759    0.6631699844771317    0.7651744739045551 H
   0.1291552853754262    0.8225063419609053    0.8471486788976750 H
   0.0691400807768621    0.9217714427898259    0.7968743795768765 H
   0.2668000079922900    0.9959451467702426    0.8290819309516454 H
   0.3152997232274679    0.8316073355378047    0.7859086280638909 H
   0.1673192619846642    1.0116088904622631    0.9141548899201212 H
   0.1998871743950005    1.0439754736319411    0.6739939025785090 H
   0.6403690387519003    0.0039535209270646    0.7460720380745145 H
   0.3349582980940053    0.9180895118440749    0.6720985408710083 H
   0.3986500725752252   -0.1008920775456527    0.9470189057523704 H
   0.6340324927071546   -0.0878052307691434    0.9091781490157709 H
   0.6413250945747998   -0.2148758072272871    0.9676540992167351 H
   0.3019252774455017    0.7890354826718451    0.6537462422173520 H
   0.8110763126990562   -0.1028990254963214    0.9193605246456644 H
  -0.0167152086535963    0.2544339644016111    0.2771388529896486 C
   0.3237329476791900    0.1243211337614493    0.1828391312091304 C
   0.3207843091026183    0.0553921729149553    0.2736268814559017 C
   0.7222960092374570    0.0196634971813928    1.0385945644331485 C
  -0.0695337861003275    0.4311492178479352    0.2378484353854947 C
   0.1014591971931311    0.3992063068476017    0.2448081673150302 C
   0.3155367069488197    0.5496872338723069    0.0336932770851774 C
   0.4153009475016142    0.6033420172075371    0.0574476210040142 C
   0.5406579534263251    0.4542199485592495    0.3300072822839655 C
   0.2229941946273783    0.7651635643930641    0.2158398789939733 C
   0.0507321302840633    0.9008614401421677    0.1862612071497356 C
   0.0711976310304688    0.8568237876777967    0.2956037099910202 C
   0.1769868689351415    0.8257274631052943    0.3046431273652546 C
   0.7204385293529665   -0.1371179428017373    1.1470449101693878 C
   0.8099224013081745   -0.1364267280996943    0.9888898556772986 C
  -0.0015652306291027    0.7650286562604285    0.2944856807653920 C
   0.3453796756971315    0.2063490679581726    0.4336986006447909 C
   0.4173754778972493    0.0575158391376795    0.3400944743446501 C
   0.4364542916535760    0.1603863219157432    0.3829580529198995 C
   0.6854682959791439    0.0479858680154331    0.5965273194700671 C
   0.7989502764896947    0.0720677276017426    0.6200731660468273 C
   0.0938484022292159    0.3461722525046666    0.4633121731310719 C
   0.0045394995636042    0.3889214565112821    0.4026557637700718 C
   0.5464856858238567    0.5120217775752633    0.4342617700959435 C
   0.4554743393531438    0.5583020276341180    0.4755352542677979 C
   0.4088374195251783    0.6449816397187678    0.4289498470514505 C
   0.6416639591483217    0.5830209870872448    0.4204908983643598 C
   0.9206351421340180    0.5806851058244196    0.6538912838466228 C
   0.1319141893215074    0.7888725318374820    0.6626844326211579 C
   0.1595992034981319    0.9780864932348928    0.6472964222657213 C
   0.6699314660232223   -0.0643926064700093    0.5619530210926679 C
   0.4171672865906410   -0.0319706958077337    0.4235539207300049 C
  -0.0236718990158985    0.7279213406770676    0.4044574527586686 C
   0.6694574985805185    0.6654187059913439    0.5036179576826358 C
   0.6402021903997960    0.1651240226859962    0.7444788464279943 C
   0.6196916553636631    0.0619791761775163    0.6902430976077404 C
   0.2059845219172603    0.4665788219571269   -0.0892650087038926 C
   0.3087992818987964    0.5090271505115307   -0.0734486722870159 C
   0.3706638454443590    0.3350423315622308   -0.0166051958404994 C
   0.3738369172025225    0.4173931357842506   -0.0931833989696584 C
   0.7078053036838893    0.4751297996247363    0.7391515882529066 C
   0.8072262500608937    0.4393477669668055    0.8906747653316243 C
   0.8026091279632774    0.5092523182481863    0.7982228134740025 C
   0.8969057627829496    0.4730109082404143    0.9493667671261895 C
   0.8901572637272557    0.4952195153513186    0.7319999783346484 C
   0.1414850832891276    0.8930329788950163    0.8080539164080059 C
   0.2098537794985853    0.9571052469666292    0.8726571200205041 C
   0.2915349070582534    0.8564539271793351    0.7077999335758652 C
   0.6286490494171294   -0.1312752080012445    0.9796366529849204 C
   0.5238010281677575   -0.1068090876101808    1.0240836026797080 C
   0.8373217061384962    0.0039307836013395    0.7041383878619329 C
   0.0032556531728535    0.3682282163688698    0.2910620939744819 N
   0.7235171029294072   -0.0949151925233817    1.0451184160497196 N
   0.1822913176513827    0.8820137129377759    0.7032749369126808 N
   0.8493008272059605    1.0183558129157575    0.3449918956079930 Cl
   1.7049442110873418    1.6359849498037615    1.0625045259333905 Cl
   0.7567679123561003    1.2945006338470801    0.4508070162424206 Cl
   0.2948504643560459    0.4701526748145979    0.6382502060651147 Cl
   0.1195629816635094    1.2127455475590583    0.7435171902089236 Cl
   1.0275686939579911    0.1769557690824801   -0.0408354576053807 Cl
   0.2486113228117701    0.1887632623315238    0.1725011379978319 O
   0.3007041837535514    0.3284204644002246    0.0479375737598025 O
   0.4511430742552393    0.2800839415520949   -0.0059484132148664 O
   0.3960491577767119    0.1230948339940089    0.1203586722750210 O
   0.4986990553444939    0.0266233925858455    0.2783973912936328 O
   0.4984022572271796    0.5472800331977907    0.0380279066099440 O
   0.4706881036503004    0.4722332917006159    0.2750297059640041 O
   0.3871523016209119    0.6419484804670397    0.3292322160775503 O
   0.6168257026960989    0.3998497731656220    0.3053222545773085 O
   0.8962989072721981    0.5591721092985318    1.0029173453331701 O
   0.1980038551639453    0.6748910758884200    0.1922094248001386 O
   0.2919955856941524    0.8217878424679922    0.1691629142491488 O
   0.0901829063522308    0.8667607569305222    0.1111296431875213 O
   0.4238434354759534    0.6877929924156985    0.0963928093134978 O
  -0.0195855909234287    0.9750146805294320    0.1765086684315871 O
   0.3228056842710342    0.1628737853500690    0.5229751984165983 O
   0.3072585185764866    0.2810624044691317    0.3914996451186684 O
   0.6539228834257310    0.1022939705098312    0.5101472483603046 O
   0.0732071939261694    0.3691991001773315    0.5700579775533198 O
  -0.0085160148550472    0.6325049111825487    0.4115713669618195 O
   0.5695395508290154    0.4384410782079743    0.5114292803865299 O
   0.8911701661125978    0.6705527941400712    0.6695467147060272 O
   0.9799253684946770    0.5549020395273583    0.5837795200224484 O
   0.0569601510732367    0.9207778216556392    0.3805527792344940 O
   0.4211362102230020   -0.0167313821959151    0.5174185176227110 O
   0.3866694749736715    0.7197025553383019    0.4826152347731005 O
   0.6154864862769950   -0.1149884615843563    0.6177623205054782 O
   0.5901329194275647    0.6955896214068348    0.5494443137057999 O
   0.4066506725387473   -0.1201543819890987    0.3782933026035116 O
   0.8490896828311734   -0.0858968112299501    0.6855791027165050 O
  -0.0573339231864950    0.7814980591939750    0.4697719646947150 O
   0.7531673839790496    0.6996164017927498    0.5103528750868018 O
   0.7153991185057763   -0.1006010397763714    0.4843304351359932 O
   0.5836169744909544    0.2420716804048750    0.7101047357159946 O
   0.6979066191484178    0.1745812343659223    0.8202963364286346 O
   0.1733162051888434    0.4307247877677334   -0.1696467774756447 O
   0.3357910633204382    0.5913526253526927   -0.1438686495733904 O
   0.1473292052150519    0.4826118198189230   -0.0101002298527398 O
   0.6440485617027349    0.4192879129280087    0.7815536020600081 O
   0.6961473287808739    0.5070877930511342    0.6472012386965125 O
   0.7941921453865388    0.6163091140685609    0.8246589166840420 O
   0.9725869940702598    0.4185557710396606    0.9462400624201929 O
   0.2653810587323574    0.8906796656824685    0.9405214940161353 O
   0.4709543227466228   -0.1066597791712527    0.9301812345293794 O
   0.8501970833982383    0.0337159223903612    0.7980483102637861 O
