Li1 Co1 H90 C51 N3 Cl6 O45
1.0
  14.3029483266999993    0.0000000000000000    0.0000000000000000
   0.0000000000000000   13.9586791340000005    0.0000000000000000
   0.0000000000000000    0.0000000000000000   14.4267781256000003
Li Co H C N Cl O
1 1 90 51 3 6 45
direct
   0.7944151375132299    0.5202544594145264    0.4917940097941947 Li
   0.6015388201982744    0.6996767368347189    0.5212450761584894 Co
   0.1613135004824796    0.1201261989693358    1.0527838530939027 H
   0.0827898300932481    0.1227804615714294    1.2067357597957069 H
   0.0863765031922647    0.0263128812887003    1.0747991635973899 H
   0.1019474187065337    0.2814022035532234    1.1334019917991884 H
   0.5183825315203850    0.1241495022819829    0.1517302784961879 H
   0.5681245905524999    0.2500382044386063    0.1012332102209592 H
   0.3871375701933725    0.2399269325449629    0.2541349864038003 H
  -0.0253997518484931    0.1292997030502557    1.1506047239573554 H
   0.8072824146505208    0.3287505230937275    0.0761111769544410 H
   0.3253531059126511    0.2823822389755348   -0.0024912656788021 H
   1.1104017366931458    0.4085278422304338    0.2447967960727976 H
   0.2485074112422578    0.3258419384339435    0.3347988733693179 H
   0.2116702509613633    0.6292488696588446    0.3353617156012637 H
   0.4053457042124154    0.3526481997146823    0.2097813549533695 H
   0.4094917025510448    0.3706635146012806    0.0415774788783655 H
   0.4629894837442838    0.6369960210162102    0.1657126103962019 H
   0.6628730276611076    0.4982758755488992    0.0729538538429715 H
   0.9736369274161395    0.3295299664705367    0.3033864543208928 H
   0.7298284537820486    0.3826925897299589    0.2374139972889859 H
   0.7919247418838541    0.5565256563622935    0.0430213216975074 H
   0.8314823202989151    0.4321559374702365    0.1835343303784177 H
   0.8610335701773042    0.5475162079185879    0.3200263442471140 H
   0.1985533749358952    0.7554384598837215    0.2126662679698209 H
   0.1506066170831928    0.8458238027867544    0.0804662726974406 H
   0.2595687670121491    0.8609892778268944    0.2191167726625400 H
   0.4306369932346041    0.8129933325394826    0.1736596377228755 H
   0.5737428028374449    0.8158102179784655    0.1127506813121069 H
   0.8148444918900849    0.7855688179184992    0.1008311800552836 H
   0.7168751803891673    0.7721363148714669    0.1809772798936293 H
   0.1508289488659389    0.2182164256201463    0.5124078708663551 H
   0.2634302086351255    0.1725903320703123    0.5370003610891326 H
   0.2645852152549258    0.0209842968799629    0.5910827066556380 H
   0.8321709895001882    0.2317384786874921    0.3346567765004154 H
   0.7601529708042025    0.0327654975524133    0.6106088959092268 H
   0.6282417062939357    0.1497443308879199    0.5891044409783309 H
   0.7999685379860347    0.1038495872771453    0.5169042247601530 H
   0.2450235141560200    0.4447875051355844    0.6159579765790864 H
   0.1209868498629511    0.4121875008205916    0.5174128414406146 H
   0.3393439276250140    0.3620101170383418    0.5945027356857129 H
   0.9837411378697435    0.4084382922101202    0.4036957532787857 H
   0.0902833899909597    0.7483589934778135    0.5572268453020007 H
   0.1121718840866544    0.8733120770222010    0.4681765397649446 H
   0.5876584652207349    0.7627650843456948    0.7518011969390372 H
   0.3516742525322767    0.8246799683904820    0.3804015709551754 H
   0.3836354950368473    0.7791326788585238    0.5770474176786282 H
   0.3739074308068828    0.6977281283926960    0.3971738535738863 H
   0.5073515960519631    0.7622492762286888    0.5733619794236617 H
   0.4650327687602441    0.8792395719667955    0.5805513185191283 H
  -0.0210677778676925    0.7135061255717807    0.5248097667326616 H
   0.1447399944762048    0.0548428013604342    0.8984410067137519 H
   0.0487101432436443    0.2050074394238167    0.6827476638960477 H
   0.1304401455689558    0.2217926952313882    0.8874524132371052 H
   0.0426470576462423    0.0617603613296152    0.8369511860291281 H
   0.0121596371480513    0.2458623078913449    0.8766066097848189 H
   0.0747970724191822    0.2738348686366473    0.9838370659914546 H
   0.6655067503831340    0.1865687320411759    0.8287670995357974 H
   0.7556916528617414    0.1222252514454854    0.7704124209879850 H
   0.5906144991120882    0.3172702104895307    0.7685318902302645 H
   0.6338398527859096    0.0998886107786364    0.7408666695881192 H
   0.5458765901590441    0.2503140185011720    0.6776675275439159 H
   0.7602368695901444    0.3197031054414091    0.7942049820859415 H
   0.8332784534746215    0.2846682718940991    0.7119336676131796 H
  -0.0949098960013654    0.1010498954420625    0.9115007486990863 H
   0.7479247227531691    0.3756733009377017    0.6805559063376576 H
   0.7022446304339973    0.2413583000696547    0.5488576169858220 H
   0.9151112318127118    0.1048690247083947    0.6320925561763808 H
  -0.0978938961546993    0.1748949913931018    1.0139456596232663 H
  -0.0723816736628636    0.0486846255635121    1.0255823534532005 H
   0.2574258521878828    0.3190540468941765    0.7546466000943792 H
   0.0496812716909219    0.5906427813014302    0.6798391835940221 H
   0.4036901015031618    0.3534391054940915   -0.1328585579200682 H
   0.3860238138099936    0.6278855601495911    0.8631143387936544 H
   0.4806903097709980    0.6591951128518575    0.7284834473298528 H
   0.3608688603149605    0.6981873408968640    0.7123488677325583 H
  -0.0223451368836581    0.6224301729120898    0.7709142655396215 H
   0.6055379956615055    0.3478662286299388    0.6468740963195395 H
   0.7014329096800093    0.6029562672946244   -0.0695679193554007 H
  -0.1668468125376074    0.5758218947394568    0.7622269481837384 H
   0.0476264505918947   -0.0243781614100680    0.9302374338859432 H
   0.4085604260270896    0.9546492858727530    0.7063114836928439 H
   0.3180098646730854    0.8647195734730755    0.7259298626223548 H
   0.4017408530431114    0.8994828913587949    0.8201289962174366 H
   0.3362396725451634    0.7437224516260593    0.8618015023560861 H
   0.4435364315731728    0.7575289155579209    0.9703531128657868 H
   0.5573760374228620    0.8656071932744234    0.7972957622734371 H
   0.5961860776551805    0.8628562166503913    0.6785457555092796 H
  -0.0955538191834695    0.8498091368907885    0.6777042647831931 H
   0.6530841368113351    0.7181419510233724   -0.0628443114122055 H
  -0.0194911798485341    0.7840894515829193    0.8412515224909408 H
   0.7923302526825734    0.8485618842078615   -0.0552577249237238 H
   0.0889417085724386    0.1056964668960919    1.0606691895848090 C
   0.0479089098378991    0.1519823649955961    1.1437819947836572 C
   0.2597169882006465    0.2950718350540458    0.1909885241744097 C
   0.4003914809025457    0.1287466421247992    0.1122072474329868 C
   0.4203384172602347    0.2413253456621793    0.1141168907199458 C
   0.3682631399826408    0.2863073954659183    0.1986666071833555 C
   0.8361100375001610    0.2825914278229873    0.1971964244568073 C
   0.3970411227172654    0.2948891530126063    0.0241993783893090 C
   0.3477470901936458    0.6301465190624677    0.2278144873502941 C
   0.6245242909201597    0.6291894084453564    0.1002399184495572 C
   0.9980081264191653    0.4800106802856179    0.2831026461516430 C
   0.8067999966313548    0.3784830223750596    0.2377557229298102 C
   0.9565089902660987    0.3979318539868373    0.3328102103601399 C
   0.2669448686095420    0.7879852356666399    0.1980205862964422 C
   0.2853732369416825    0.7958376978478944    0.0929153447242227 C
   0.3478778324684053    0.7382119015760449    0.2531208999686566 C
   0.7212938497821079    0.6712077107767982    0.0643206026128171 C
   0.6917558838781594    0.8620094316583063    0.0574583635780096 C
   0.7376303417180967    0.7748006070758355    0.1061525345068207 C
   0.1594404600863264    0.1078091309753291    0.6202520746417766 C
   0.1980667619774321    0.2930315273912220    0.6302660915443891 C
   0.1949869773768146    0.1960717801968497    0.5672552105225952 C
   0.7786890092449684    0.1063913750537250    0.5910043800888771 C
   0.6966527763509690    0.1822259142560501    0.5994996933828772 C
   0.8026658839540672    0.3488906808623257    0.4091605909101415 C
   0.0971938533263750    0.3379254599749724    0.6453907436392883 C
   0.2613530145265138    0.3722567885626993    0.5841650151841856 C
   0.2388247921880119    0.3738235557181051    0.4804126051194645 C
   0.8437825814745487    0.4085683188396155    0.3304562544245634 C
  -0.0925656240908385    0.5814542328170976    0.6475748764876396 C
   0.0199237706304256    0.7665347820008138    0.5709373909469089 C
   0.2327980627311848    0.7447483366587714    0.3999069655450223 C
   0.3305156778742766    0.7505769683809396    0.3614139634925003 C
   0.4537425790516962    0.8072198636298276    0.5991371730783110 C
   0.0016233479468465    0.8738350491408322    0.5472501894785777 C
   0.0662708582978356    0.2228264606658878    0.9310602094146621 C
   0.0687025247770519    0.0467267039193767    0.9034185560580907 C
   0.4723333614502893    0.2728175804058854   -0.0456471244977029 C
   0.6847069875459401    0.1513612460547014    0.7644200920530445 C
   0.6034845728755772    0.2904861576138297    0.7021033369069533 C
   0.7637151734239860    0.3100424492499836    0.7207734791698361 C
  -0.0612832625958479    0.1122651399861313    0.9801217527362456 C
  -0.0129771382766944    0.6308915752314762    0.6948044099335671 C
   0.0768658766491997    0.7771152960009002    0.7456958836644327 C
   0.3939249819760730    0.8880469955646736    0.7437397989617835 C
   0.4018729936309699    0.7083057767921324    0.8506576420568336 C
   0.4251702881739392    0.7147576766556828    0.7463869596561199 C
   0.5568284580132812    0.8269774637116463    0.7311174380704861 C
   0.7169583800185597    0.6767612448365632   -0.0464657410936734 C
   0.8017730610403353    0.7035159253056013   -0.0946379659625643 C
  -0.0074677846665089    0.7403431920595074    0.6756109352998477 C
   0.0424261241765953    0.1272966481958822    0.9708383216864297 N
   0.6889662492455910    0.2303601247748260    0.6925606657158224 N
   0.4597781877967023    0.8075666013084816    0.7084928439193630 N
   0.7462872981142028    0.4311834242496314    1.0043267413317485 Cl
   0.0393994754737409    0.8868255332875967    0.1196108408805402 Cl
   0.3707150820017932    1.0070682857634916    0.5241933435838076 Cl
   0.6105803126966142    0.5500336380896425    0.5553578902404299 Cl
   0.6805498027025185    0.8227148827447214    0.4991618364201122 Cl
   0.3113727715485309    0.4415716564461005    0.8193644457471949 Cl
   0.0394050687261370    0.2513327395322589    1.1457082738016100 O
   0.2148989559070278    0.2865968211315716    0.1160653507125563 O
   0.3249503917401299    0.0973425246010816    0.0855741352678948 O
   0.4752892555103326    0.0728416390432949    0.1417627030092654 O
   0.5154617274284052    0.2521315257134558    0.1442622215910347 O
   0.8544559053594585    0.2101884453990774    0.2441334462994328 O
   0.8292750830720934    0.2707278411318484    0.1064942601476450 O
   0.2155226035491960    0.3242715892777251    0.2700623125191345 O
   0.2759514032804060    0.5866631783986962    0.2487436232509990 O
   1.0801792965272212    0.4706670025100958    0.2405650820013329 O
   0.4186716280461888    0.5864016923393806    0.1876336517573927 O
   0.6068859694889721    0.5362822653302778    0.0999335437370941 O
   0.9643339503682807    0.5628306941925297    0.2820525156326800 O
   0.7957316492959684    0.6143978942900458    0.0893130158086778 O
   0.2110004589869271    0.8213666176388806    0.0403346511420615 O
   0.5618237917282625    0.6850234879107724    0.1250320097180382 O
   0.3628327910625507    0.7798168410137194    0.0598026153371731 O
   0.4272481814391005    0.7898464432888367    0.2367922368431049 O
   0.6022911126455535    0.8751009282279846    0.0817895064668797 O
   0.0281087963556084    0.2832698587768827    0.6740846069811967 O
   0.0852851198184704    0.1136664187039977    0.6645849114284655 O
   0.2002215624630402    0.0258500867837199    0.6205300299804591 O
   0.8138502912766733    0.2545565402635467    0.4028764435273572 O
   0.2944699628074341    0.3426443878454152    0.4225343323179776 O
   0.0811789734031634    0.4242222355105537    0.6263948183111163 O
   0.1563774552428972    0.4124186115130168    0.4567346919342714 O
   0.7725818767849468    0.3880727549503969    0.4780249618286263 O
   0.8142816708677245    0.5030023256210483    0.3515046130640549 O
  -0.1016497651386988    0.5598261119109695    0.5646925454785966 O
   0.1787749353066395    0.6726448095027899    0.3770695726682744 O
   0.2091679696706458    0.8065285374730069    0.4553329929669796 O
   0.0582948803809580    0.9177783187089341    0.4865141753545954 O
  -0.0596521303658273    0.9216991767983425    0.5866257170603035 O
   0.2377956337471245    0.2657689192069654    0.7156066983854468 O
   0.5412030082881500    0.2243230206053678   -0.0279772055608025 O
   0.8553165670719127    0.1330393118985495    0.6504674142141297 O
   0.4598474042951043    0.3075200042777916   -0.1299798833027393 O
   0.8479845123371393    0.6474339713839575   -0.1416526212164927 O
  -0.1605348272085777    0.5415843429330023    0.7005735428110118 O
   0.1577960438818650    0.7861598480525686    0.7220724524982433 O
   0.0479571516398157    0.7837205054992276    0.8369303913653862 O
   0.4747659368330199    0.7395895390885485    0.9097900410285908 O
  -0.0914420795157665    0.7825484748333638    0.7030716750818651 O
   0.8335203616407540    0.7984962588509630   -0.0938879717569419 O
   0.7300291117117598    0.9144492071537575    0.0013924843527158 O
