Li1 Co1 H110 Cl3 O55
1.0
  12.6867433008999999    0.0000000000000000    0.0000000000000000
   0.0000000000000000   11.7397068816000001    0.0000000000000000
   0.0000000000000000    0.0000000000000000   12.9457285446999997
Li Co H Cl O
1 1 110 3 55
direct
   0.2162092812507219    0.7189963536593518    0.7393124102172184 Li
   0.7349657378058979    0.3749264343046457    0.6654169939262869 Co
   0.1843531941198875    0.1652925801700708    0.1511500697425867 H
   0.2681721833418546    0.2668104470145939    0.2601389146058324 H
   0.0222506788231440    0.2046027609654114    0.0783815116234167 H
   1.0465886583799699    0.4009313425258629    0.3100920707968566 H
   0.0321573268114488    0.2093797115797317    0.2053772225502518 H
   0.2997673682126294    0.1013167920541720    0.1603430633689456 H
   0.3241747352299816    0.2165613218916673    0.0445371436925461 H
   0.3010687266155246    0.4908850364852196    1.0293872396896313 H
   0.4854816956896311    0.2310003536076702    0.0038845069419123 H
   0.5648133236834443    0.2016836080133294    0.0943843189806600 H
   0.5335980629496746    1.0620176948745734    0.2103657405604212 H
   0.6479575928612695    1.1021209108022130    0.2466533854293788 H
   0.6174414871265113    0.3969082437827397    0.0044030563597239 H
   0.4995806646494044    0.1894209509085227    0.3179996983704249 H
   0.9912395444785176    0.0350856563161365    0.1179707860493680 H
   0.7256788785067394    0.4329542885662979    0.0103006773191296 H
   0.9305856806973051    0.3594243436787513    0.2651984985275743 H
   0.9022490152920472    0.3681664699545661    0.0698020022032634 H
   1.1456921059850622    0.8164442722094342    1.1088883659836284 H
   0.2399096110255562    0.7146061247959055    0.2608997833329951 H
   0.2586070808469226    0.8894409840219872    0.2391605664918373 H
   0.1422438846360185    0.8655042705389244    0.2923124611591872 H
   0.1829659192627734    0.5348503590614554    0.2905605319478115 H
   0.3247832444286703    0.6342378490360756    0.2050419768369639 H
   0.6124236509103813    0.6952095587405045    0.0413703848764281 H
   0.3586051630899835    0.6931430676223980    0.0370022722742871 H
   0.3797532224174680    0.8858966025123247    0.0308508301422332 H
   0.4556079928006389    0.6356518536758353    0.0770385976313635 H
   0.4958034935611709    0.8656439673828524    0.2886208960352170 H
   0.6004221469476426    0.7906966106154504    0.2848420434329023 H
   0.6289424686265980    0.5645001623751614    0.0509506104753014 H
  -0.0000280883329006    0.7001824256603336    1.0451994050145257 H
   0.9907114341635935   -0.0890885581427275    0.0606989996497111 H
   0.8824488196041450    0.5019457896462306    0.1189541219779753 H
   0.6765685603405477    0.6793428934243587    1.1846121845864321 H
   0.8385289587868719   -0.0639107574547673    0.3035408751876515 H
   0.9008144469738950   -0.0753454552162930    0.2026180112878912 H
   0.7537404536136263    0.7862424960002077    1.2379193428214568 H
   0.1944093603852639    0.4214761484935506    0.3508097483056905 H
   0.2485887493503766    0.2463525256693492    0.3828118097245986 H
   0.2291353723767532    0.2160280888166737    0.5585925695437620 H
   0.1674686403049771    0.1154347765721476    0.5020418704098984 H
   0.3070016913027395    0.0544493527263332    0.5634829856977389 H
   1.0579863824901237    1.0142396706311303    0.5893023128098343 H
   1.0009583507218229    0.1487904645760572    0.4907053126029541 H
   1.4510896306378345    1.4571553287852235    0.6059626343402359 H
   0.6360364877822955    0.1757204384832858    0.6337138728093200 H
   0.4167769083910526    0.2737961410210206    0.3630732527853203 H
   0.5236798359456590    0.1552787015284962   -0.5097219677374994 H
   0.6571585357062091    0.4833235189026016    0.5103596718861301 H
   0.4702878831068286    0.0798669379360358   -0.4226724057055996 H
   0.9583311778395882    0.3924319821068742    0.6349683406396878 H
   0.8411222169004547    0.1140022024738659    0.3816840246061644 H
   0.9761135191898695    0.2537573102075601    0.4056764943175087 H
   0.9153650684865809    0.2914362748070335    0.5639588183230507 H
   0.7433674211592955    0.0358095176600103    0.4151467994901127 H
   0.7771656930900896    0.4877801889479162    0.4879484187072752 H
   1.0693052841652142    0.9553455255751194    0.4721246665489723 H
   0.0707456302387965    0.6842706144129185    0.6000278582683666 H
   0.0889957827411787    0.5905868443586779    0.4264941716749051 H
   1.0538166756752749    0.7896182191251279    0.4194377901290863 H
   0.3122528419266569    0.8622716514980282    0.6191260495479312 H
   0.3256818201883920    0.7434058217057076    0.5636815067768056 H
   0.6106966513581443   -0.0254715524089172    0.5140674585768722 H
   0.5400914551501896    0.5889982186640083    0.5940459624073026 H
   0.3649645571508909    0.6630579893864528    0.3822842225767283 H
   0.4647837124663581    0.7366586345059873    0.3969176207161909 H
   0.4905980599495902    0.6064807675955901    0.4827219843844499 H
   0.6159202141297895   -0.1051170673634240    0.4311559409829527 H
   0.9897498004558213    0.8661806076979419    0.3425560606409863 H
  -0.0294577056251692    0.6283663225409776    0.4452602070634240 H
   0.7841304434522832    0.6443641666008117    0.3713037667832074 H
   0.8271391169202246    0.7766093764393396    0.6301690742418584 H
   0.7567199416590192    0.8326014047437474    0.5394040009636106 H
   0.8031952258210446    0.6826385464070274    0.4859724773833339 H
   0.0743652352793385    0.0420641627495811    0.7553200067989372 H
   0.2784167352270322    0.3702840696741097    0.9707964854202988 H
   0.3178153411690742    0.1862581802895906   -0.0701321848720287 H
   0.3126792713003493    0.0523250237076004    0.6841729873925185 H
   0.1169294290359578    0.4056852942695366    0.6919670639986828 H
   0.1318117353553902    0.4543500527479132    0.9281801121435806 H
   0.0459497159100433    0.4545970776548591    0.8252426841418505 H
   0.2990209197525799    1.3280379653546459    0.6741163884494409 H
   0.2193274967818262    1.2337255595027290    0.7198001827571875 H
   0.0093068526492235    0.3359953089699636   -0.0398143083118343 H
   0.6467807739057745    0.1886943569580920   -0.0608905265453538 H
   0.6470393114927819    0.0641215703673008   -0.1066523388647182 H
   1.4774636174100160    1.4130656419454908    0.7137279095955367 H
   0.6617357545103351    0.4725183087487760    0.8457668283862296 H
   0.6777304030333808    0.1820706822118447    0.7509363214926952 H
  -0.1731688186158971    1.0807830697022263    0.8972123687202777 H
  -0.0712632334443043    1.0469576936511098    0.9564210874380671 H
  -0.0418269950699133    0.0505858831816985    0.7778324516562269 H
  -0.0709030149160650    0.2186363311100133   -0.0524962519686256 H
   0.1976481742420151   -0.0934600471856469    0.8400352081267907 H
   0.2689793250769028   -0.1723325445434178    0.8985641659512774 H
   0.2701230386096714    0.5272019568563944    0.8480146740674922 H
   0.0720534520813668    0.5316458497513497    0.6868935758768505 H
   0.0117673737821596    0.7129246518086250    0.7111927104457416 H
   1.1372186942157569    0.8300613072523239    0.9839050562831937 H
   0.3251182397776893    0.5285963698656031    0.7397225841198818 H
   0.5919786877036615    0.7384380656460222    0.7808025432866236 H
   0.4422184257564354    0.8470906932511635   -0.0623180244212896 H
   0.6331705040433937    0.5515109113199240    0.7464398576746096 H
   0.6661978925592688    0.7189273570474117    0.6757424074044435 H
  -0.0093720150774679    0.5852545136087411    0.9846543381769477 H
  -0.0472633784162294   -0.1207154125220250    0.7306315546275183 H
  -0.1152225054791090   -0.1999848533509573    0.8045455098519033 H
  -0.2292344284520748    0.8306056138576290   -0.0784044114701867 H
  -0.1325263946485562    0.7464987439026758   -0.0456793316465840 H
   0.3976033510619039    0.9568617474177532    0.1700713686987805 Cl
   0.2192959678078009    0.0958385462471324    0.8109290826044645 Cl
   0.6056126042965612    0.8569401725581154    0.9283500523669064 Cl
   0.2641057339169387    0.1728319506920661    0.1541912272845558 O
   0.0529394056906909    0.1583758827755841    0.1415546267691701 O
   0.2696713860567586    0.2989526464583820    0.3288086690294990 O
   0.5646950900308494    0.2448593026973621    0.0286797897173584 O
   0.5790975253656163    1.1285610939456694    0.2235778204684326 O
   0.9979946271634428    0.3367236065404421    0.2931629347313762 O
   0.8569261151306473    0.4225340965432984    0.1076707863591544 O
   1.0982567645639658    0.8163497212967756    1.0493552159303992 O
   0.1926886666278319    0.8437285990866268    0.2348270907970323 O
   0.2698558305548068    0.6356586681560269    0.2634496591384409 O
   0.3745722237607571    0.6245578799238901    0.0733468780162812 O
   0.5980945204402233    0.6298493237926772    0.0905465280190736 O
   0.5503769947016002    0.8293083071911508    0.3324307131530178 O
  -0.0524609297843037    0.6430276766732318    1.0144479491481824 O
   0.9484153155086243   -0.0166756769205910    0.0746800590682712 O
   0.6977844069621867    0.7215279330505359    1.2470806657698323 O
   0.8720284936887763   -0.1218491716639045    0.2594243932123039 O
   0.1472333447755257    0.4891780091972207    0.3484244055346464 O
   0.2247016104044423    0.1704911767462472    0.4959688247926869 O
   1.0717408974086702    1.0285160066325585    0.5183005150488029 O
   0.3442303156074887    0.0185809103327689    0.6209969369156348 O
   0.5422732601527419    0.1009072417946561   -0.4569887439839792 O
   0.4712290229814845    0.2176763412130199    0.3822919471323341 O
   0.7865739389392457    0.0617430612374209    0.3549732837771697 O
   0.7204166927419131    0.4487034040991383    0.5300804623475150 O
   0.8978901346330465    0.3379681009854354    0.6266381798744871 O
   0.9492744800508145    0.2064358561369551    0.4637218949610778 O
   0.2886187229972757    0.7819280782288931    0.6231405010962202 O
   1.0523821073571227    0.8659625443318104    0.3887875259411780 O
   0.0451163184218755    0.6455115547030745    0.4653857642385484 O
   0.4114800407547986    0.6985656902348737    0.4328908761719958 O
   0.5263566458404089    0.5469230625309209    0.5275908380757939 O
   0.6631159353482935   -0.0807382644779304    0.4887625868681173 O
   0.7730101743135522    0.7611132484836127    0.5726891110686275 O
   0.8162955145285657    0.6160218916738716    0.4345786915718441 O
   0.0540373233886877    0.4510075502139273    0.7004764344539361 O
   0.0013751874761084    0.0165273667270265    0.7274065526621331 O
   0.0553552345029461    0.4487621789907910    0.9048983015479620 O
   0.2525818939106836    0.4491259018710183    0.9835033793916966 O
   0.2224118186658533    1.3102436539542976    0.6853625689557983 O
   0.3481375437135767    0.2463235641285349   -0.0252512036283838 O
   0.6550382122030061    0.4674909259874139    0.7629333288039279 O
   0.6582502264318358    0.4566627169629417   -0.0267813608483194 O
   1.4186857275833100    1.4241050998559031    0.6682248698889637 O
   0.6809030060446788    0.2205154240228505    0.6825840463044233 O
   0.6850995124874490    0.1370329308154538   -0.1134445406088216 O
  -0.0964265076139135    1.0969844963577851    0.9001013525168142 O
  -0.0415282580410234    0.2751130393180498   -0.0066041263961928 O
   0.2026084700805487   -0.1748394214439072    0.8596710284765129 O
   0.2895070518404391    0.5767466350895130    0.7915867953677593 O
   0.0793703022609882    0.6851164617667025    0.6743257239063557 O
   0.6099478382250429    0.6851616076979719    0.7222187411173362 O
   0.3736500012705164    0.8365921347059605   -0.0292617928988699 O
  -0.1540260020364231    0.8186138323404388   -0.0791027112969431 O
  -0.0862442254524359   -0.1967428643997976    0.7320327890143945 O
