Li1 Co1 H90 C51 N3 Cl6 O45
1.0
  14.6964516364000009    0.0000000000000000    0.0000000000000000
   0.0000000000000000   14.3155435894000007    0.0000000000000000
   0.0000000000000000    0.0000000000000000   14.3626484796000007
Li Co H C N Cl O
1 1 90 51 3 6 45
direct
   0.9941479535109696    0.6795594756809186    0.4180364957360020 Li
   0.2273179540784951    0.1229889235225187    0.2493302154533919 Co
   0.5593282325265816    0.2270925498146770    0.1703712406089708 H
   0.4803593066448040    0.0099914680016698    1.0787329552697855 H
   0.4935910720267527    0.2566492339432002    0.3243484129348920 H
  -0.0499755110941808    0.1798997907146843    0.2087659698807519 H
   0.7165584985233627    0.1505317127667884    1.0971362463045433 H
  -0.0579093990070432    0.2036837286331933    0.3231104796926175 H
   0.1468509114713532    0.3249595984007601    0.1478517171060877 H
   0.0391051753456305    0.3156710932755717    0.1163429044631563 H
   0.1602779620875207    0.5686566664312881    0.0734427387398802 H
   0.0695063913026439    0.4454690285335704    0.2283104153497548 H
  -0.0097297419361989    0.3629798102495798    0.3281722202276769 H
   0.1935499390311864    0.6806624725668833    0.0212392749382735 H
   0.3283062767511616    0.5617624818420924    0.1844891103241563 H
   0.4612898736324249    0.5575483212254694    0.9920650958030568 H
   0.5005674771166765    0.6479225352342176    0.3132132800081789 H
   0.6846963857096668    0.6700243854380953    0.2760745864895268 H
   0.0906992620517014    0.7009041069966482    0.1628607873556440 H
   0.1360884496259206    0.7178758690874640    0.2802026552147491 H
   0.3538886424338276   -0.0573521151448229    0.9743664101907858 H
   0.3479069264267973   -0.1379463302924963    0.3135036164322669 H
   0.3514363498062156    0.8189317592089675    0.0944513988368377 H
   0.5595486258623428   -0.0822201893312339    1.0364454899138893 H
   0.4744736002076284   -0.1206497464461557    1.1732593931985800 H
   0.1976366397863023    0.2207022929984611    0.6123217631059734 H
   0.2230679485979001    0.3255924769179761    0.4452791035708835 H
   0.3253123567840437    0.1160070021322609    0.4090883549956265 H
   0.5756006638533165    0.0508701112991073   -0.6503200139839479 H
   0.3771337092330732    0.2339256818846622    0.3442166148480219 H
   0.5277687097604716    0.1881558516362908    0.5829664530042991 H
   0.3952918338336430    0.0321464073526870    0.4799349402507952 H
  -0.0507001758134946    0.0421558072127175    0.6309993768052171 H
  -0.2756258981431421    0.2241244473647315    0.6796255059618260 H
  -0.2921400885072218    0.0729985060765547    0.6298888573893411 H
  -0.2346772382292436    0.1826513453276133    0.5210404091229570 H
  -0.1190023772451517    0.2185088729719069    0.5306139916133522 H
  -0.1385547159394999    0.0977771669625202    0.4947881478818951 H
   0.2046410516366458    0.4202944343765696    0.5587529522356939 H
   0.3169436700395931    0.4583224000350372    0.5249722048554926 H
   0.3851832713264833    0.3357478719326402    0.6315563771391990 H
   0.5826914911208927    0.6322919726500846    0.5869497016426862 H
   0.7234431535750214    0.5746310815462913    0.3573270102091179 H
   0.7118716529021109    0.6689800660305479    0.5459470271821607 H
   1.2123659342415609    0.8228875992122723    0.6299125299035353 H
   1.1863936785268132    0.7233754856062734    0.5703441291858545 H
   1.0436959680940581    0.8168382306040047    0.5604385744964062 H
   0.5383238426481813    0.7885291414332606    0.4495268577428702 H
   0.6339460400852384    0.8233283788418122    0.3874704757833765 H
  -0.0829331264412992   -0.1190361157896779    0.6484864022905750 H
  -0.0181038721714988   -0.0231724839667023    0.3535763092101681 H
  -0.2662154633374057   -0.0848439108661822    0.6226137367771216 H
   0.8587710578341736    0.8212124969117380    0.3616402815453892 H
  -0.1780581290329078   -0.0509674466598848    0.5422626788479965 H
   0.1140640856496317    0.1460142454700603    0.9626659219250813 H
   0.3695971961522102    0.1175179472015083    0.9447862112042664 H
   0.1408365345192271    0.3138416133234871    0.7715430935763330 H
   0.3175574236328523   -0.0163442416865853    0.8275209308910837 H
   0.1288173067239612    0.3746300838810675    0.6669224170949541 H
   0.2809540302894117    0.2627495960743779    0.8433759453978749 H
   0.2121115623909610    0.1856830150458443    0.7289548480400867 H
   0.2992264681978170    0.1890241386085860    0.6447155100295183 H
   0.4540749347734845    0.1488405440138305    0.8568539609793988 H
   0.4091114962273166    0.0154813049407430    0.7413258254578219 H
   0.5578732554661979    0.0379268375182081    0.7949767938773636 H
   0.5974174947409757   -0.0103835878373537    0.8989207149529547 H
   0.4847064103934236    0.1182807544209342    0.9732997545512109 H
  -0.2374398098352660    0.0456289551018983    0.7350129229225560 H
  -0.1591134200046133    0.2758598212522027    0.6755037034903608 H
  -0.0819696285609722    0.0920365536573538    0.7426723737652228 H
  -0.1857470598575514    0.2014358223766801    0.7742299239373777 H
  -0.0167715777861314    0.1656495459561791    0.6584866470368002 H
   0.1890155111537152    0.4303876592057677    0.7591526211469085 H
   0.3376731636301035    0.3696348142600837    0.8234193196817255 H
   0.3341042749420278    0.4425786038883869    0.6761038713502262 H
   0.3774426273387712    0.2597682213376475    0.7752736033131760 H
   0.5770704063826290    0.4568461026197125    0.7626944470206152 H
   0.3485410931107414    0.5569741900408117   -0.1004527655292293 H
   0.5900109450041398    0.7022697554526717    0.7317767509821218 H
   0.6436374951060700    0.4663904136091443    0.8703020377929712 H
   0.7410249485819211    0.6272638715828435    0.8885347474754471 H
   0.8244967981378795    0.4654711331139387    0.7163325242216423 H
   0.9879893240513369    0.5370080603430446    0.6738459312463476 H
   1.0686638997471085    0.6839379332371103    0.8051636337354730 H
   1.1543893545146795    0.9505495345475965    0.8180045801850051 H
   0.3187413828925761    0.6947387805143656    0.8061411693216108 H
   0.5446889845419095   -0.0836305444374801    0.8083851844171400 H
   0.6359431207905771    0.6879775982095826    0.9069067072414184 H
   0.4051527175071594   -0.0923944449639608    0.7927898713160678 H
   0.4365009647846808   -0.1410799870565479    0.9212696571035559 H
   0.9927272023993009    0.7731325902213875    0.7775078709028603 H
   0.8229426815004028    0.8110808523050047    0.7554771151930463 H
   0.1093173616290376    0.1862718854542472    0.0975615494517084 C
   0.0877944792472409    0.2748266785072110    0.1524706423756316 C
   0.0590031757089095    0.2697699372421709    0.2541580158481789 C
   0.1300951662008356    0.2733143363551442    0.3331135094405127 C
   0.0332527422462712    0.0928650237692943    0.3110862349827860 C
   0.4310303925684003    0.1895256913407725    0.2093334139709958 C
   0.4386270562231481    0.2076200094770255    0.3124822170698279 C
   0.3489092091794256   -0.0124428879132396    0.3435997369781371 C
  -0.0034357056416897    0.1853686714114655    0.2709627159244091 C
   0.0779084194285465    0.5814460515396236    0.2496637194033635 C
   0.2106214067709637    0.6249950090840384    0.0665143508355644 C
   0.2242573513484733    0.6549303026566354    0.1744958280821058 C
   0.2972137374562864    0.5869671132797116    0.0140121956048600 C
   0.1268855479088140    0.6693272411111840    0.2197388764601928 C
   0.2787160751139912    0.7459202110639203    0.1793946460194755 C
   0.4861571687483990   -0.0618563101547661    1.0452843889637626 C
   0.5356009404817232    0.7803631923535094    0.3018316744336789 C
   0.4685544843453651    0.1160726650247756    0.3696861513697559 C
   0.3852030039808120    0.0643847919531661    0.4056189391653376 C
   0.5278536282177207    0.1503717467839601    0.4503123674638680 C
  -0.2289751815645964    0.0471573637063889    0.6593263250402777 C
  -0.1649311508498083    0.1576666147257773    0.5398180740071923 C
   0.2761984605961875    0.3996113217758548    0.5481364562449595 C
   1.0387818567298477    0.6579466044638523    0.6181946353773937 C
   0.3210861665759144    0.3733887757959761    0.6413052754847149 C
   0.5641928081240631    0.6088845485514205    0.4491468442650112 C
   0.6351095862542773    0.6845575394675414    0.4261625736084620 C
   0.7137047484456144    0.6487307476452761    0.3457323520068697 C
   0.7997016973192943    0.6999128767362405    0.3634157201099561 C
   1.1885030312309188    0.7521763479294680    0.6391482916913706 C
   0.5855336737805862    0.7698662105894869    0.3927947027258247 C
  -0.1994034175257458   -0.0470081139495315    0.6205486580388843 C
   0.2395270236171306    0.2220399997980952    0.6709488332592249 C
   0.4377871255851003    0.1034758677831028    0.9146531893862699 C
   0.5432510864340655   -0.0166515999068668    0.8447183162027709 C
   0.3909710629720071   -0.0179173569412987    0.8036137803061686 C
  -0.2013630742314957    0.2134095206808731    0.6987264399148959 C
  -0.0695822846970220    0.1061568697136491    0.6708652832091276 C
   0.1770616052486409    0.3662881023660641    0.7237872774415709 C
   0.3210439795218323    0.3030184127211205    0.7944573910659256 C
   0.5976331930658794    0.5042051145752211    0.8195829798814259 C
   0.5129531607159177    0.5243402912941432    0.8729429156264624 C
   0.6451344550896290    0.5880840809938710    0.7780593012335023 C
   0.7249156178497584    0.5567368955239262    0.7173636710899259 C
   0.6835335199769841    0.6596545382106438    0.8537605203745475 C
   1.1165747844572684    0.8210399571835346    0.8268490492382182 C
   1.0627992187933384    0.7525898844440285    0.7736297560775123 C
   1.0867825590390210    0.7467018789014089    0.6667859520131286 C
   1.2525252879823101    0.6913291998934703    0.7003779459051519 C
   0.4248812892177539   -0.0694948604701707    0.9579369890895760 C
   0.7179329799628121    0.7473564122023266    0.8024371171006320 C
  -0.1626169868024974    0.1330444271155914    0.6448018450812855 N
   0.2655938599853847    0.3163535682328785    0.7098344190753274 N
   0.4503002821313051    0.0028097637682291    0.8836289670339027 N
  -0.3215621565477165    1.2361977863560623    1.1937340292253322 Cl
   0.9337830421739556    0.4079547003736777   -0.3411778661198893 Cl
   1.0136002680609617    0.8381737808814079    0.4089999311926069 Cl
   1.1565470182000728    1.0826199647197310    0.8615132687731564 Cl
   0.5611822855098550    2.2123954356264468    0.7093031800067923 Cl
   0.7421075228245767    0.0869930846790985    0.0304116779381183 Cl
   0.1452396381799588    0.1130137521915651    0.1335103510068920 O
   0.1120717679987860    0.0618882049547888    0.3193716149507649 O
   0.2032774571788948    0.2317266735268301    0.3180369029004610 O
   0.2986943669672975    0.0036927201101286    0.2765717092876055 O
   0.0907720687418109    0.1957084813582985    0.0121622582456230 O
   0.3547670857696342    0.1610650186841168    0.1843575189952531 O
   0.4964399501801908    0.1967514036830264    0.1523599385592527 O
   0.5168277694588175    0.0529147420053889    0.3157678227899028 O
   0.0928501213735332    0.5029443870389393    0.1980875772279038 O
   0.2810901175606443    0.5895077083869020    0.2239289114725707 O
   0.0244928045970268    0.5750162572796169    0.3163171643692924 O
   0.0046301869242682    0.3504381977792757    0.2597677054617929 O
   0.5226263119987686    0.5672060054857004    0.9570854748290013 O
   0.3655145780152312    0.5567742674893468    0.0564869523230575 O
   0.3032832297532617    0.7742265060690255    0.2558735768768428 O
   0.4971797886302470    0.7028348754531437    0.2656837452590968 O
   0.2937986273847035    0.7820795085972175    0.0941972674344585 O
   0.4455359348090863   -0.1229730951749198    1.1084586705935577 O
   0.5322902773908114    0.8585998302433417    0.2633882076326744 O
   0.2799755628092491    0.3238293583998159    0.4859396593750219 O
   0.1154766715250264    0.3145310736948913    0.4067663598533400 O
   0.4840473397388440    0.1686644506805765    0.5298309187688156 O
   0.6106703536499654    0.1543485430295566    0.4444101134248301 O
  -0.0373772319598201    0.0424806289682422    0.3474527867884560 O
   1.0078260851425613    0.6567961067620260    0.5409863125826773 O
   0.5103891404386236    0.5747663191632152    0.3917468458475215 O
   0.5595838044219564    0.5833935849899526    0.5371412696521594 O
   0.7472665912770057    0.5848693934262905    0.6399956284494402 O
   0.8687591831062925    0.6613841267411369    0.3943633549164009 O
   1.0352565159685663    0.8247352412410097    0.6295170596664083 O
   0.3682825931121029   -0.0980728880836612    0.3695329762779109 O
   0.6828088552576703    0.7169041979865287    0.5064256951098597 O
   0.7980189782105028    0.7927616038348185    0.3402117824466930 O
   1.0333322419533371    0.5901308073243817    0.6812958107133538 O
   1.2617520049718824    0.6077403377222816    0.7019493830973980 O
   0.2928473773587875    0.5920406195385853   -0.0774932117625006 O
   0.4346230965289417    0.5046486883704001    0.8405477762020825 O
   0.5805542405261843    0.6355904851868328    0.7201472802589999 O
   0.7695325101597325    0.4807110014876094    0.7587738609198009 O
   1.1396980531487608    0.8983950358142869    0.7802476162956332 O
   1.1369252749973959    0.8126756223434198    0.9076621389443812 O
   1.3015030968989336    0.7437903583056517    0.7635619750407917 O
   0.6689674189005995    0.8091479882242801    0.7654495099225724 O
   0.8116127357339302    0.7536376965586246    0.7929103226382913 O
  -0.1377803793661862   -0.0971417323844903    0.6845807201830114 O
