Li1 Co1 H110 Cl3 O55
1.0
  12.5151389629000001    0.0000000000000000    0.0000000000000000
   0.0000000000000000   12.5175883358999993    0.0000000000000000
   0.0000000000000000    0.0000000000000000   12.4965873077000005
Li Co H Cl O
1 1 110 3 55
direct
   0.7988765055696400    0.2155486420784269    0.6991893817695524 Li
   0.4765740515611450    0.6543855691760975    0.3413444846075414 Co
   0.2190691201693776    0.1701461264540674    0.1476275969170613 H
   0.3176457323554023    0.0989936028129420    0.1088378067075920 H
   0.3203504566177812    1.1330919972197837    0.2904986028996221 H
   0.3383318790108614    0.2846034773074247    0.3204267737506794 H
   0.5711794733235290    0.2387320215132431    0.2306190548618208 H
   0.5803915164611855    0.1137398937954157    0.1988343771558316 H
   0.4412552267913740    1.1507711215096696    0.3266500728070610 H
   0.4879538692700967    0.0859398103718398    0.0230857150673640 H
  -0.3382542959490289    0.0696297996476118    0.0568382500286575 H
  -0.0852239453162932    1.0346225503164257    0.1546543153192841 H
   0.8542566337531625    0.2640795558374087    0.0497435930781658 H
  -0.0577994795538716    1.0606179730183183    0.2717342799507867 H
   0.2704796559938163    0.3345699711092861    0.2247422504037950 H
   0.1729745460931241    0.6069587019498143    0.2311439981794222 H
   0.1932795543517871    0.5033668625951798    0.1111752448641679 H
   0.1429101575861017    0.6145871681876868    0.0628840606279598 H
   0.3312180946362794    0.5698908588838090    0.0244421173860639 H
   0.0814610596352310    0.6384575809207093    0.3202531263422655 H
   0.5117953943929515    0.4637897502388657    0.2914596652844381 H
   0.3853645169819547    0.4561940379140473    0.2965866650342436 H
   0.4497992789442892    0.6448134378050442    0.1308214085690959 H
  -0.2704396274490687    0.4855758956753535    1.1572576414513676 H
  -0.1550601654806017    0.6199396369062695    0.0720199948785574 H
  -0.1699725048923532    0.4370905178442760    1.1044832332260406 H
  -0.1036895812700828    0.5402621484607054    0.2579425145866698 H
   0.9658015398175951    0.3339963781928768    0.0526815151760955 H
   1.1920794907372700    0.9995838521079129    0.2008893381918079 H
   0.1496923435651482   -0.1473423460340527    1.0815169630809780 H
   1.0724883296293646    0.9418650662993162    0.2198385116076645 H
  -0.4214327570980358   -0.0246203041536468    0.0936767074942684 H
   0.5238448011512011    0.7465079468303303    0.1404472365682234 H
   0.6400161041075609   -0.1937202891666793    1.0222127721245111 H
  -0.0748708840850836    0.6870508070020865    0.0022319016554875 H
   0.6737864043217958   -0.1581870867586437    1.1308904428005029 H
   0.8219357780919426    0.7946074675881130    0.1592851796164785 H
   0.8426387044252481    0.9016656295949759    0.2213589267043760 H
   0.7883812165928755    0.7748512658850459    0.3156030568017443 H
   1.2998689450932297    0.0158194903511949    0.6276946626113475 H
   0.3656044487371594    0.0989092415149297    0.4820725055222110 H
   0.4137077899613068    0.1493713579426133    0.5950113395613547 H
   0.6002458705148318    0.2550762241271958    0.6184985519316590 H
   0.6330269687684092    0.1241748111688674    0.3764436672243616 H
   0.6574078406791830    0.1561665965874288    0.5004503229490929 H
   0.4515347770529708    0.3265252905128492    0.6327080313381356 H
   0.9955015696056677    0.1778976195848745    0.6279355283714055 H
   0.9113235190763843    0.1391066011418568    0.5465325040934734 H
   0.7973327752077740    0.0757952843982694    0.4468700947225088 H
   0.6912947996060641    0.3321102321265226    0.5788085159412421 H
   1.1971453553823166    0.5347538989361341    0.3911028694120760 H
   1.2294981723346725    0.4196606428439720    0.3820636015528903 H
   1.0660481294654727    0.4398698071982983    0.4828567196247253 H
   0.2913615655574831    0.4236054921771603    0.5486730885059489 H
   0.6662978738086449    0.5158445057169025    0.6391713959361033 H
   0.3405675713258204    0.5100806158953244    0.6277466768120246 H
   0.6289383205998440    0.5832001318467325    0.4739638917459071 H
  -0.0426499873618914    0.5986264260192445    0.6507297515449981 H
   0.7704788983953568    0.5106294436579611    0.5833625592651289 H
  -0.0390241386889746    0.4783165101162847    0.6116062702327243 H
   0.9767402917088707    0.3445679033500417    0.5088942282651451 H
  -0.0624946731249691    0.4946447352116745    0.3676244594449631 H
   0.8276888104964120    0.6651616065708679    0.3618444814220437 H
   0.1958812034502527    0.8647815279924443    1.3410758266437841 H
   0.0542177344903223    0.7780267976994290    0.6552725918102776 H
   0.2400620952197418    0.6988318303144655    0.6529807661066032 H
   0.2028815252413021    0.7424512548672015    1.3655545097008388 H
   0.1840243634710972    0.8813741810200506    0.6298400483346547 H
   0.1825101973035320    0.8023198157984410    0.5209991330903843 H
   0.4990076818094617    0.9631790760622693    0.5617766659841859 H
   0.6102617401245571    0.9645291763808371    0.5086261550770407 H
   0.3732264176408029    0.8259162140881089    0.4026700274241624 H
   0.4846874253160035    0.8279293814270386    0.4488298297603227 H
   0.6784759247637167    0.6878464874265207    0.4326310072325699 H
   0.8577084531958441   -0.0304779021215966    0.5062471055599232 H
   0.8984670897169523   -0.1771963394688937    0.6196092551707303 H
   0.8217440103451270   -0.1959771136636936    0.5169252208496695 H
   1.1904974068260410    0.0456977935805293    0.7031248562146194 H
   0.2009718380959297    0.3223319907660074    0.9080856136545167 H
   1.0678619327374372    0.1033896572703475    0.7808292707151826 H
   1.1302104214208732    0.2118067072309879    0.7527920161133512 H
   0.4787586058102866    0.3065350181628352    0.8964344327028750 H
   0.3603548066680812    0.3050259415345661    0.8556953102957273 H
   0.4560229413607352    0.2410639403475033    0.7305835528612284 H
   0.4092156304921503    0.1622148862394273   -0.0432208276388546 H
   0.7185130351374309    0.0481584912144067    0.7525199418328872 H
   0.8498859271903226    0.3316860290086767    0.8672904759543321 H
   0.7656359637559833    0.0960051677409309    0.8531586177396351 H
   0.9775313336644852    0.0216340041414638    0.9114465312367209 H
   0.0730311891948988    0.5433705746971241    0.7325897005704156 H
   0.2029582323400284    0.5596956042888013    0.7574204797551297 H
   0.1974672825228738    0.3992996920632980    0.8125787388084059 H
   0.0771327816863741   -0.3539268677972118   -0.1209697342864586 H
   0.5862236530612163    0.5081169788639398    0.8421636159349952 H
   0.6059933096933523    0.3884285884330781   -0.0142183495161530 H
   0.6525553176524689    0.3382160408453476   -0.1185898845508692 H
   0.6459856742594764    0.6226230611489142    0.8314326862261000 H
   0.4100658008363663    0.6252817202377863   -0.0610469744511718 H
   0.8382919688307602    0.4349966640366036    0.7928437508530911 H
   0.2116924541752025   -0.1172039527687916    0.9658693895142720 H
   1.0737987425659381   -0.0528818982009130    0.9242740333421341 H
   0.0859085532000250   -0.2424085814835061   -0.0529403612210479 H
   0.2947518595147280    0.9589769886802179   -0.1823464910852847 H
   0.3453753485449443    0.6802811323869717    0.7298969654122924 H
   0.4951275810655585    0.7205237083914318    0.8181994733554067 H
   0.4131428741404790    0.8208753069815036    0.8396669343025006 H
   0.3585026498467535    0.9915471602707574   -0.0799073236166416 H
   0.6355591020586541   -0.0990782568350719    0.6916233161172329 H
  -0.0037491807912876    0.7604195722430764    0.7666325948042573 H
   0.7127871698304272    0.7988574875258533    0.8236785692328715 H
   0.7689223835170365    0.7294487502606863    0.9214972752444557 H
   0.7465926274649116   -0.1163651330442376    0.6678728318696560 H
   0.1579191799035393    0.3171856320368865    0.0906680460834180 Cl
   0.8370055268625386    0.0676977981029819    1.0251015608082630 Cl
   0.5909291541487052    0.3641108051802936    0.1536532420108704 Cl
   0.2569776085534383    0.1021474052020794    0.1634399139228606 O
   0.5684355964795086    0.1592167048810928    0.2629078702051407 O
  -0.4129869859153635    0.0572393138896499    0.0838331400489224 O
   0.8888866926989542    0.3326638531447282    0.0314429167119802 O
  -0.0577174988421079    1.0036021980264906    0.2233714761613388 O
   0.2997530025452244    0.3542295088250475    0.2959368876350174 O
   0.1965811557261298    0.5808059006900769    0.1115473464536262 O
   0.1609507083677833    0.6426061436155749    0.3051169939452669 O
   0.4076631107752220    0.5874892967049519    0.0051105275646455 O
   0.4485232243956868    0.5059887733913572    0.3132264079400426 O
  -0.1955655087694576    0.5056580387571044    1.1394367760809654 O
  -0.0639465147748192    0.5552163069596828    0.3233099609051275 O
   0.1450044211877842   -0.1361996245882630    1.0007909236303185 O
   1.1521917993996162    0.9337644643879091    0.2204090673781673 O
   0.4762776105858592    0.6982630306536250    0.1858172232725656 O
   0.6087260000854752   -0.1728384712808536    1.0898872482976105 O
  -0.1441078300405933    0.6907088598770702    0.0413220138574810 O
   0.7937882680207983    0.8370285782486291    0.2160366736474139 O
   0.3664498248877051    1.1641602820654076    0.3509431051786225 O
   0.3851767443965310    0.0816126989070334    0.5567160843675526 O
   0.4735912640658834    0.2543676211789297    0.6523878042188856 O
   0.6653086718479875    0.0976146630733680    0.4448199349973641 O
   0.6735283168958731    0.2606619646167972    0.5983778586728626 O
   0.9250029516825670    0.2016609829435252    0.5926250880779896 O
   0.8683515631441123    0.0393156536781584    0.4691001638733743 O
   1.1938693230408830    0.4723560968163825    0.4319356173804423 O
   0.3490804612198781    0.4369690887031977    0.5989268085446227 O
   0.6050712264440804    0.6511860710838701    0.4418247172568425 O
   0.9912986598212916    0.4189784028013347    0.4991939799481260 O
   0.6965020929643871    0.4901798176492628    0.5732029855452085 O
   0.2260678438958702    0.8123241390466216    1.3920337389377770 O
   0.1593366631654183    0.8081627943369056    0.5990332376013925 O
   0.5615303595295886    0.9144556332046041    0.5459387419872841 O
   0.4455723981915611    0.8037569935931768    0.3843274196100465 O
   0.7872505859189416    0.7291403841524218    0.3850244098991179 O
   0.8415839818177621   -0.1420833457990632    0.5726172256237386 O
   0.2229915696240359    0.3242924322936793    0.8295521728170097 O
   1.1024919916832288    0.1437983994678622    0.7201334998359888 O
   0.4103973992319018    0.0914148266578002   -0.0012051967252467 O
   0.4246033941095489    0.2588533095154732    0.8663782268963052 O
   0.7468443226326071    0.1130784245269102    0.7782677713864598 O
   0.1333281625035467    0.5379326262542297    0.7878735939237884 O
   0.2877731115951954    0.6475575766182280    0.6894427207811601 O
   0.5969171020430236    0.5732740984395102    0.7957373408476747 O
   0.5911209218955208    0.3831408286646753   -0.0943720727156713 O
   0.8107693020013234    0.3595923629306960    0.8029104992302649 O
  -0.0610636063143573    0.5246816712340610    0.6693996487141431 O
   0.0656607556524953   -0.3179494903731267   -0.0542555202797033 O
   1.0318016060133122   -0.0129938633333643    0.8682027250123590 O
   1.2429938275168235   -0.0107896847600149    0.6798681067642376 O
   0.3215681818100605    0.9273255244070469   -0.1136741424776594 O
   0.4247727889525694    0.7446082198731976    0.8342414530626565 O
   0.7001464791861627   -0.0979310710022532    0.7325536907391776 O
   0.7014608872841284    0.7434857991941515    0.8831588082531682 O
  -0.0194551190619445    0.7539095323046092    0.6886457031830944 O
