Li1 Co1 H110 Cl3 O55
1.0
  12.6340855314000002    0.0000000000000000    0.0000000000000000
   0.0000000000000000   11.6909798942999998    0.0000000000000000
   0.0000000000000000    0.0000000000000000   12.8919958276000006
Li Co H Cl O
1 1 110 3 55
direct
   0.3739141035620740    0.7364552009363897    0.5283046554528656 Li
   0.6569793076966948    0.5483537740344260    0.7825368196444792 Co
   0.2727188095439618    0.1653687684590581    0.1138265504754809 H
   0.2261440100828095    0.2528370567672579    0.1962885690966821 H
   0.0924423665565117    0.2355972700408889    0.3241764479051979 H
   0.2976925204798127    0.3055751510565661    0.0202636905327507 H
   0.0473740473192504    0.4447397048159338    1.0115192083666418 H
   0.3861642976592521    0.2583934772373394    0.2188645925372809 H
   0.4499987554833342    0.4743146423426486    0.3136846666628842 H
   0.5519768524969952    0.2821049199484124    0.2176925474790866 H
   0.6545802420955740    0.2901324763079744    0.0942397461220847 H
   0.7372676671097244    1.0160836007417715    0.2879237213103424 H
   0.6797755757197501    1.1093007655862119    0.2136737748473828 H
   0.6779258177818355    0.3189795022244614    0.2348559101545764 H
   0.9070441020300848    0.1214348976762999    0.0885542804284734 H
   0.8402723520760920    0.0566112467204468    0.1753569768429608 H
  -0.0404303289644896    0.1539026637174567    0.2448000647846564 H
   0.7460265123561786    0.2675466877438576    0.0019816492451313 H
   0.8622050831242799    0.3099049848649948    0.2964018500238194 H
   1.0082386045385958   -0.0275200244726162    0.1514778192542703 H
   0.1764150448610283   -0.0249564241353500    1.1024438421995568 H
   0.2994979538800623   -0.0159919916457263    1.1105961873760108 H
   0.1625834145807293    0.5748485591423039    0.0415887051911816 H
   0.0685833385919767    0.6147955955945433    0.1740383291931062 H
   1.0644991069891627   -0.1020861436415515    0.2271619889552189 H
   0.0832324399883554    0.6751061945669845    0.0215389779451778 H
   0.1608682132750121    0.5206640505957747    0.3312994722396772 H
   0.1144157811981995    0.7338232573116299    0.3060465940698735 H
   0.0008226765422925    0.6090843549112407    0.2735900213564230 H
   0.6310779475082824   -0.0111088252630834    0.1290538281309488 H
   0.3347517915158001    0.5975857464784657    0.0637772013577408 H
   0.3733426336300353   -0.0789888496215990    0.2800583759165038 H
   0.5027417892663388   -0.0439897303262613    0.1333813194477364 H
   0.3664620406671375   -0.1506517904165343    0.1866849358302999 H
   0.4746938550395763    0.7127625761517857    0.1418928021900037 H
   0.4035228947223272    0.6429583332757985    0.2348202291005216 H
   0.6060021318338817    0.8073457513858072    1.1046622729516653 H
   0.6148092591660068    0.7158786537029722    1.1996359307447220 H
   0.8359982002298193    0.5159587136182626    0.2390670502081415 H
  -0.0035396494735496    0.8447865821765106    1.0512647998834357 H
   0.8546224211451519    0.6214990542189320    0.1712257313234751 H
   0.7493057366337911    0.6970957970061556    0.0516135300304291 H
   0.8757003218240853    0.7050592013436647    0.0139021464323081 H
  -0.2670195025841473    0.6447545898932818    0.3022496645133804 H
   0.3298808414302516    0.4940922830614332    0.3562971533054796 H
   0.1873141320690236    0.3851322120051933    0.3603640177926488 H
   0.1967156831116211    0.1915641774640222    0.3718471117976178 H
   0.2648005474939411    0.1582487493714721    0.5221357114768106 H
   0.0615698511670438    0.1078587046253321    0.4971830195661209 H
   0.2562870702238469    0.0434830058554675    0.4655796894496351 H
   0.4319412554424334    0.2748052751990780    0.3340174377485540 H
   0.3707488566670287    0.4715082052179045    0.5943130541042342 H
   0.5098194681199260    1.3493747393143183    0.5201848886301139 H
   0.5470940297674294    1.2390247077802641    0.4713289932030011 H
   0.3768498126727824    0.3355101952670715    0.6314120422202609 H
   0.5887274347885296    1.0682178106634879    0.4457867882253176 H
   0.4680048074001596    1.0346192583136105    0.4502391632312973 H
  -0.0286216389228394    0.0030392616804793    0.4917455371981911 H
   0.6767266807360756    0.3423111649649808    0.5038468442484155 H
   0.8326580297129174    1.2717850070419823    0.5927958336318132 H
  -0.0368828620830434    0.1516479339823682    0.3691904246207049 H
   0.7984608573947303    0.3665580632201225    0.3744432963176551 H
   0.9315096638019900    1.2009184066807979    0.5683837872575639 H
   0.7700812806450809    0.4402422203898734    0.5317044393642261 H
   0.1705618313604383    0.8407809299195229    0.3544564763213002 H
   0.2480901967942173    0.5381108345133013    0.5054912754352930 H
   0.2050186188278064    0.5978141276769743    0.6111552872932300 H
   0.5068505156059687    0.5936177300744159    0.4518471376890317 H
   0.5872473118343575    0.6480502931062165    0.5371333893061863 H
   0.9916406482022370    0.8172200306202010    0.4199793023674869 H
  -0.0346636274633065    0.7982430071366374    0.6039097062948231 H
  -0.3301305206327677    0.7511827944791644    0.3519378593100779 H
   0.8684263485894103    0.8498366293525206    0.4477988894039781 H
   0.0542421344304498    0.3772791491456154    0.9097196097978668 H
   1.1717486579465597    0.0065007337183989    0.8381325559125253 H
   1.0624728424101888    0.4997008805094511    0.7559164262942675 H
   0.2755840743001668    0.2170102908514075    0.7003284467771029 H
   0.1639733054403691    0.3034983362626379    0.7744535095508704 H
   1.0157262853655846    0.1422714744391056    0.7992665799456933 H
   0.2458597227381439    0.2753646808313800    0.8590602697908060 H
   0.3248563384820777    0.4932069851571022   -0.0188641533438406 H
   0.3665206123776234    0.1236682434040374    0.6768433321331926 H
   0.4753088579996788    0.0049725470170677    0.7915998073744211 H
   0.5509534305826933    0.3504550503245322    0.7949817507587541 H
   0.5846685735537730    0.2522785064952500   -0.0601038502154285 H
   0.3523779188240679    0.0048338075773745    0.7843294047731934 H
   0.5192819654018128    0.1809508669355782   -0.1407213134770096 H
   0.5202278193752010    0.4166539495611422    0.6887778690394649 H
   0.3886900047965588    0.3260789926649904   -0.0590372969692226 H
   0.9312405505375950    0.2873534107126396   -0.0179421859340658 H
   0.9026907992236959    0.1859153780821843   -0.0882569775398242 H
   0.9089674703609075    0.1751164543699338    0.7407240540177663 H
   0.7046598460706697    0.4371723322945651    0.9582768703160420 H
   0.9715917100048136    0.4037568270476125    0.7289322413277135 H
   0.2613804345073218    0.7998057503938479    0.8687019111365075 H
   0.1858759591237130    0.6602220700904007    0.7720582248786640 H
   1.2406337385356541   -0.0195785173586345    0.9406147485588719 H
   0.2766090792336711    0.6765517534639115    0.9052749915427687 H
   0.0844794633649855    0.6921595127492529    0.7066300311932316 H
   0.3536522492819381    0.7511049566924068    0.7152632949243385 H
   0.4971458163861264    0.6986970314765979    0.7515904863276563 H
   0.5975298130630479    0.7548214971700091    0.7951252506500617 H
   0.5631118095661367   -0.0193683553343890   -0.0447025110701797 H
   0.4076395361579687    0.8673236152038670    0.6892424984172665 H
   0.6201179140609977   -0.0436411710064402   -0.1562937665467043 H
   0.7653171843556893    0.8534984267713044    0.7996133067100962 H
  -0.0918853391735239    0.9773186722158950    0.8086336323101899 H
  -0.0581963160192826    0.8546822454182552    0.7607442280429116 H
  -0.0453342850004065    0.8348909189347660    0.9213702496218762 H
   0.7556884700575583    0.5570989776806873    0.9616277866968489 H
   0.7043543233646213    0.8632059107483602    0.6943914296524046 H
  -0.0931034724497116    0.7055843925642051    0.6708752880049683 H
   0.3326590401303288    0.8878488408196423    0.4274847345204240 Cl
   0.7587808980692967    0.5896873495233037    0.6340881212743777 Cl
   0.7102320736628475    0.9347217295727207    0.4262839894839682 Cl
   0.2845684997829521    0.2447222536577038    0.1429275527575955 O
   0.1685474394254820    0.2472626737310016    0.3197651836788902 O
   0.2437804270158924    0.0108141446091820    1.0663827073514744 O
   0.4396426438617358    0.3024915771965532    0.2608999769142928 O
   0.6283599035378935    0.2622058180678741    0.2021231971097446 O
   0.7303007996002998    1.0446440809597553    0.2138560584930979 O
   0.9167638399323493    0.0766913428392038    0.1504329849105326 O
   0.6755164625558995    0.3046812995492947    0.0132468561178392 O
   0.8072489884964275    0.3695732082566122    0.2979291542723863 O
  -0.0311145775626580    0.1981487410075393    0.3092671970358713 O
   0.0788920387884655    0.6142686936534149    0.2562932425657714 O
   0.0928659824950534    0.6077106462790129    0.0636632546872916 O
   0.2946159226600976    0.5674907498929749    0.0030981559670141 O
   1.0646890692934414   -0.0881754191795848    0.1504927118923201 O
   0.5675197265350056   -0.0356413283204050    0.0935226345030903 O
   0.3796636293049119   -0.0707773907988184    0.2031975071068320 O
   0.3981168841463935    0.6994523146162349    0.1723527872265567 O
   0.6213787888556481    0.7279315356062848    1.1216728276347894 O
  -0.3436233848037696    0.6729241704568893    0.3182518415819100 O
   0.8596010165364583    0.5949786083022329    0.2439925870178925 O
   0.8140781333352498    0.6536862620836438    0.0295561260564676 O
   0.2218231591700684    0.1187969665294816    0.4715461822276831 O
   0.3268738964554387    0.1917822943390022    0.6467991089438878 O
   0.2087822469813298    0.4677386324020718    0.3736474536772135 O
   0.5679408096428237    1.3204122397581362    0.4779935935603840 O
   0.5173973810414472    1.0999858919841201    0.4569309122167653 O
   0.4192248621901711    0.4029656187756258    0.6084861893149066 O
   0.9031261295043349    1.2564312897639709    0.6209094015267133 O
  -0.0170658361987603    0.0898728726505017    0.4852515853602012 O
   0.7613271844562335    0.3624959571837282    0.5070015148319206 O
   0.0965814868648262    0.8137994448043364    0.3351033828719636 O
   0.2675550009059835    0.5929163346333033    0.5649731438949694 O
   0.4073268898655099    0.5264351664996602    0.3516097487477906 O
   0.5156283570828509    0.6436306464669137    0.5104369797973359 O
   0.9425670529302175    0.8444435826986008    0.4737118670737973 O
   0.0384066076325059    0.3688008179110944    0.9838741482249842 O
   1.0291740334893202    0.4266163309058219    0.7809490127390366 O
   0.2015058992178511    0.2388690231655905    0.8011933568646573 O
   0.3164623791617590    0.3427593737590575   -0.0484594157921243 O
   0.5673099764906978    0.4179275810389672    0.7517549294463440 O
   0.4130882882523652    0.0022234190320243    0.7423940824825527 O
   0.5270094736379537    0.2574021146565475   -0.1144670387684046 O
   0.8736028213810070    0.2301306624016815   -0.0284912119978850 O
   0.9412531469922893    0.1246211147715976    0.7970124681395302 O
   1.2318242366747256   -0.0378953737672583    0.8628222939683322 O
   0.2747355760077215    0.7216976697833239    0.8404285541734485 O
   0.1334439886139649    0.6262839397037898    0.7196125051435942 O
   0.5501413417319015    0.6868177877129753    0.8064617420633705 O
   0.4094980007014962    0.7831219478586047    0.6713399173827701 O
   0.5634371200122141   -0.0064727724693885   -0.1211409472268452 O
  -0.0210867049726613    0.7906054950711574    0.9899321706634338 O
   0.7206166796300877    0.5036937023620282    0.9146451466076179 O
   0.6950936610310305    0.8455675261249688    0.7672955798374246 O
  -0.0974354044968691    0.8935190242088311    0.8174065175571636 O
  -0.0303623268377140    0.7551157411111586    0.6688026841694321 O
