Li1 Co1 H110 Cl3 O55
1.0
  12.7060326945999993    0.0000000000000000    0.0000000000000000
   0.0000000000000000   11.7575563660999993    0.0000000000000000
   0.0000000000000000    0.0000000000000000   12.9654117091999996
Li Co H Cl O
1 1 110 3 55
direct
   0.3752191153518898    0.7627368225047833    0.2281423390898640 Li
   0.5413040020133933    0.3161567818477753    0.5992936845257678 Co
   0.1454227603306328    0.1677177741444330    0.2354517868826212 H
   0.1600055970392733    0.2045919328982055    0.1091239820480255 H
   1.0673942585606544    0.3701986235549534    0.2109543002525111 H
   0.2884689844106676    0.0944087485985146    0.0397791266615955 H
   1.2640016544366057    0.0468849279506241    0.2327785204428517 H
   0.0118473917798099    0.1284579155796968    1.1648152556454261 H
   1.0137898002398864    0.4969239356526260    0.1787694372215979 H
   0.2951791827903896    0.4438550852408999    0.2591949588623866 H
   0.3270844997169145    0.2595565854057029    0.0059644349392412 H
   0.1400048614746621    0.4908580493596516    0.3079053287422621 H
   0.3343086272007837    0.3636615509178528    0.0899168789042591 H
   0.4951589924661424    0.3429046867871686    0.0341246051049851 H
   0.5670996227140466    0.4368340685066733    0.1492161913552819 H
   0.5917839602676006    0.2675378356823815    0.0588009368078170 H
   0.6004577928201360    0.0792057596070792    0.0509611549111979 H
   0.4998811588135893    0.4545792524125368    0.2433281275874473 H
   0.6567035161845759    0.4388310821095763    0.3044700348234122 H
   0.6979972868375498    0.1530021313175901    0.0380496173715751 H
   0.7247349797245186    1.1618316559796467    0.2153081920737746 H
   0.8717234256769469    0.1692010755598771    1.0610391450075156 H
  -0.1063316682062522    0.1252718793972119    1.2073900702661076 H
   0.7192147672643532    0.3208626916709705    0.3253810560914541 H
   0.7220016324370714    1.1225803025835770    0.3279540557576605 H
   0.0815613631893480    0.7843110333443217    0.0554895109184614 H
   1.0841579490940909    0.8483285873804816    0.2379761957277932 H
   0.2403587666351542    0.6693134983209375    0.0929989252670172 H
   1.0018505896580916    0.6313846986525143    1.0523313613649887 H
   1.1810568025437009   -0.0033955879654645    0.3132534041875484 H
   0.2218581059135818    0.7873397239064758    0.3295182174252463 H
   0.3438828194702322    0.5210420424403259    0.1586466670503376 H
   0.3554765248809389    0.6392911034449275    0.0413519729743377 H
   0.6471702493568051    0.7610842682328750    0.0301721274552675 H
   0.5813314450575269   -0.0942881992125821    0.0030124268689660 H
   0.5379984855701806    0.6256054365436022    0.2243915904757269 H
   0.5970979714639275    0.7684454917137632    0.1419144563912604 H
   0.5520233196220978    0.7298668971592166    0.3038854024052514 H
   0.9230455035964489    0.5263501182051118    1.0398905686144164 H
  -0.0148804632606018    0.9405441776136790    0.1219042935195402 H
  -0.0668362559039310    0.8201866852966428    0.1544902236447062 H
   0.7736432436127506    0.7635966950569703    0.1311164961613774 H
   0.8711252846062704    0.6659012246519227    0.1463562744601101 H
   0.8230213630525535    0.7165154833864862    0.2923107603216905 H
   0.2772735150285957    0.1051991710340638    0.4038698864367259 H
   0.2257066714867510    0.2917222827856803    0.5176279400242897 H
   0.2058932485205885    0.3443403592580800    0.6221699345556483 H
   0.2895810545854914    0.1014155617010681    0.5250083458414146 H
   0.1936541803757307    0.4918472004755700    0.4183661480453437 H
   0.3589331506472700    0.3990149855140485    0.5585205866977299 H
   0.4529365290981707    0.1645929751763472    0.4784274879754468 H
   0.5767934431976305    0.1285472198506954    0.4827050227922276 H
   0.4468559528981083    0.4989362585591288    0.5482594393478468 H
   0.6776392406859816    0.4059475484941431    0.4706452437811954 H
   0.8160907969099506    0.4727811638757932    0.3853344164192583 H
   0.7370181214219524    0.4386550251181789    0.5748579005255428 H
   0.9111220335691455    0.4396543824364971    0.5486196284498008 H
   0.8385974287496071    1.0660549516257700    0.6022716077005947 H
   0.7253756202923222    1.0288703542156690    0.4770769716638379 H
   0.9377314409370087    0.4911455240605806    0.3582731855174245 H
   0.2945338200562386   -0.0567523383365530    0.5999893816777216 H
   0.2631628949546997    0.6543299426810987    0.3529135408290348 H
   1.0447199898156636    0.8563634202197593    0.3488866729461620 H
   1.1603579733873921    0.7477532668649446    0.5900506305689880 H
   1.0480648576451053    0.7674835571375778    0.5485656386486514 H
   0.2752185856397317   -0.2237768406100127    0.4748865283029188 H
   0.3294030833935109   -0.2640479637292003    0.5787891293320937 H
   0.5788271228379309    0.7619033159754626    0.4731380300285513 H
   0.6387372472879895    0.9492449651595467    0.4228210779230440 H
   0.6878706011054498    0.7740019184036120    0.4029975655067261 H
   0.8115323323292152    0.9309418421891584    0.6012149501638133 H
   0.8365118052794847    0.6574751540539842    0.3959356995163826 H
  -0.0657013619250946    0.9379586063390517    0.4742024003940683 H
  -0.0908594901688425    0.8226412769738055    0.4113898944539658 H
   0.2681982983365273    0.0247855229459269    0.6941931005718410 H
   0.1923288256875473    0.1375261264119589   -0.0417050887027608 H
   0.2899312819229270    0.3864137276177069    0.8056828112282557 H
   0.1490123937824170    0.2679537384301752   -0.2183687420732662 H
   0.1114806943556816    0.3927738927465434   -0.2267147940480921 H
  -0.3992547299879038    1.1331607324047495    0.7030520556575864 H
   0.3628651411592442    0.3994700120377083    0.9026099299489263 H
  -0.3724139364690157    0.4060997910132740    0.9628394095454662 H
  -0.5389741878761622    0.4282047243776045    0.7585651404822881 H
  -0.3737762814602541    0.4184178267930201    0.8402517096213523 H
   0.5396559659581344    1.0124043476772526    0.7906620772656151 H
   0.8467746468079359    0.1678402485732311    0.9452310215420213 H
  -0.1273862338940688    0.3535301940022736    0.9729355023604066 H
  -0.2013849416417352    0.4436382034399032    0.9148347634949009 H
  -0.0490006336096241    0.4603916846792483    0.8518980810121548 H
   0.8560851847896520    1.1441494103219156    0.7541503173140131 H
  -0.3020150935335529    1.2001474408223973    0.6951410072234501 H
   0.9245015048869116    0.4476815606239750    0.6728308788227648 H
   0.8666785779624245    1.2521310317122734    0.6794454007464417 H
   0.9871095603768116    0.0687478042147049    0.8337112308535376 H
   0.2039500770686141    0.8898618775297832    0.8566029065408894 H
   0.2924891220277941    0.7957428305490146    0.8913646256523768 H
   0.1619448333526249    0.7394130984705380   -0.0212508211524430 H
   0.1019734781455943    0.7407637192547841    0.8286516152029638 H
   0.0588780436255246    0.7177079080335348    0.7202038441998818 H
   0.0110820860204337    0.5557006047564654    0.7920079658799827 H
   0.4752763110602173    0.9830615157776991    0.6920905834585082 H
  -0.4626112488438741    0.5143510262503610    0.6990382995835642 H
   0.3824833812497123    0.5801759286281598    0.8733783090408861 H
   0.4809366144553570    0.6525191922719928    0.9132921977477748 H
   0.6255458755963967   -0.1377606678178543    0.7200611568682728 H
   0.6417051288373600    0.7072788702146268    0.8550911921087058 H
   0.6428478930934421    0.5946398184624733    0.9169789298834062 H
   0.6281572335865349   -0.2702788502943055    0.6860375554667851 H
   0.4834078815105208   -0.0249567858969433   -0.0182180597653057 H
   0.8841033717845035   -0.0110540670912480    0.8178845062880234 H
   0.8108964139277590   -0.1840857699938830   -0.2439568226865945 H
   0.9396439183077246   -0.1801223613952767   -0.2392782207755609 H
   0.3376778928896871    0.9251838430019126    0.1130021465928753 Cl
   0.4984881197410925   -0.3369746819435577    0.5940119394076080 Cl
   1.1484581141918260    1.0510518340979982    0.8271630392569872 Cl
   0.1193060323183532    0.2199250509702390    0.1786313775872301 O
   1.0419811333341444    0.4452091080926126    0.2370213475303221 O
   0.2455633809777652    0.1578815465815826    0.0179665219913308 O
   1.2181966408663707    0.0690689593835534    0.2914546363320354 O
   0.3463462162481504    0.4470538791763846    0.1981078127104447 O
   0.3684553990868967    0.3311454405888141    0.0283450277432552 O
   0.5728968689332622    0.3481081489773561    0.0543054374509673 O
   0.5693827901430372    0.4704839178189615    0.2152164094118206 O
   0.6448902300387129    0.1363098872926440    0.0877840503739952 O
   0.8318998228134782    0.2111324076027727    1.0053602343649979 O
  -0.0586629729842251    0.0865295603458345    1.1577117403799104 O
   0.7582592126804931    1.1782466315060636    0.2821961567177844 O
   0.1286291627436625    0.7152090894793062    0.0404576627696126 O
   0.3149036716236753    0.6369266665556300    0.1059766851541640 O
   1.1169612646543552    0.8562060745994283    0.3058768547847912 O
   0.5206618388532539    0.7073469115639591    0.2387528775814712 O
   0.6520112568906627    0.8057278985635294    0.0953352953476144 O
  -0.0009413365278907    0.8575184221246750    0.1325518535890783 O
   0.9577849073591664    0.5788916481595128    1.0932941947799231 O
   0.8378812335202442    0.7377852091877628    0.1710026186848178 O
   0.3177605822638807    0.0139136209945522    0.6400999475173690 O
   0.2402698325022772    0.3609101288542280    0.5580123112840518 O
   0.3101508111949700    0.1483421494051943    0.4652231251800472 O
   0.5200550404776070    0.1758095916137766    0.5108591615259002 O
   0.4346861431930130    0.4195056378654702    0.5334731753787694 O
   0.6596690366507725    1.0275605582410221    0.4373211959460296 O
   0.7192360170129167    0.4020164595364695    0.3458316214839788 O
   0.6683696281459434    0.4141125104140189    0.5459425055956634 O
   0.8850399347767471    0.4063685543431367    0.6146761501561095 O
   0.2807230575454056    0.7377690493672964    0.3617493574285733 O
   0.1967613658323508    0.5229454991878969    0.3494273422405298 O
   1.0885574340744624    0.7188424975336508    0.5945117307096768 O
   0.2750470135957744   -0.2112623354340697    0.5514008744918691 O
   0.6173718056489661    0.8026277645845765    0.4165196968460338 O
   0.8888570192409334    0.5098756064980291    0.4125036269233909 O
   0.8330410130141112    0.9959638566448361    0.5609208190002581 O
   0.8141114221826458    0.7314369512950593    0.3695423995830545 O
  -0.0345989706831806    0.8676438254221877    0.4439943353680973 O
   0.1748442177584006    0.3438053841489548   -0.2302056203338386 O
   0.3591401389388331    0.4203561547321239    0.8260292534328495 O
  -0.4632440191344320    0.4383369318100505    0.7255773719799957 O
  -0.3752724211646702    1.2103961690655747    0.7097845838609184 O
  -0.3393390963437731    0.4509900712352580    0.9041216443811099 O
  -0.1289162157906415    0.4343718221777108    0.9479305115994920 O
   0.9103586166763082    0.0670124946516713    0.8475557584339947 O
  -0.0019749400385743    0.4709559546799543    0.7947537329098672 O
   0.8247465278248207    1.1836644239466481    0.6930492880703470 O
   0.2233810045606335    0.8055782075949983    0.8642000428454857 O
   0.0372989947917743    0.7188739666577171    0.7945346885737752 O
   0.5479803582009587    0.9976989110528096    0.7177665903194226 O
   0.6397092265278391    0.6802656040128376    0.9250696872270827 O
   0.4062476833932387    0.6412455912044978    0.9169018015960498 O
   0.5564487765173801   -0.0255335213842212   -0.0352577809060725 O
   0.6684325903639093   -0.2091760175601681    0.7267620624737886 O
   0.8722113828661830   -0.1350568746987621   -0.2408524091205031 O
