Li1 Co1 H110 Cl3 O55
1.0
  12.6622320888999997    0.0000000000000000    0.0000000000000000
   0.0000000000000000   11.7170253756000005    0.0000000000000000
   0.0000000000000000    0.0000000000000000   12.9207169646000004
Li Co H Cl O
1 1 110 3 55
direct
   0.2527458051653846    0.7861215105824866    0.6796079510415809 Li
   0.5400261183408801    0.5281097795252606    0.5062979090264841 Co
   1.1094683738118416    0.3714983580102643    0.2393908937696289 H
   1.0730924807808038    0.3603146321242657    0.1266603073795189 H
   0.0422878478881614    1.1018782731908927    0.3212950174261880 H
   0.2769974535196422    0.4732127404406233    0.3173231016152770 H
   0.0055272280596841    1.2189130969658459    0.2563512529045280 H
   0.3885212346417647    0.3750999547165306    0.0000056484731155 H
   0.5009105819549863    0.3428110428235983    0.0588191804202661 H
   0.6348340472724914    0.2833514122717336    0.1130914009109120 H
   0.5539280906601453    0.1025969176701934    0.1254862239256701 H
   0.5324808451750412    0.2465110038777306    0.1881677300850361 H
   0.4739098132437802    0.1461280173861809    0.3142048536023854 H
   0.3953304606450997    0.4681303924818992    0.1592784663527928 H
  -0.5364594415746573    0.4831521231991963    0.3142636738677068 H
   0.6874851118967472    0.4510646276149557    0.0647011295573164 H
   0.7434420707508755    0.3352596381655309    0.0050831530850760 H
   0.9192096593066895    0.3925301465487764    0.2242570586631299 H
   0.8090331919820257    0.4127101830700245    0.1813987558679225 H
  -0.0622950163890516    0.0741856111031498    0.1605810256493172 H
   0.0723584150146149    0.8115878717479560    1.1449954381659191 H
   0.2925934399629104    0.7532394447296361    1.1761546997690513 H
   0.1833220263380636   -0.1096920311256205    0.2741699235426033 H
   0.1569751707712280   -0.2517963576612056    0.2957120717656928 H
   0.5428858037222388   -0.0002521384144266    0.2041002824785304 H
   0.3707565942197031    0.5805411757462952    0.1975967734062224 H
   0.3857326267760983    0.7601840400848231    1.0946886322989644 H
   0.5499588062838102    0.5458856222262358    0.0905476054854684 H
   0.4238317546875904    0.7678924811869552    0.2665952664807590 H
   0.6391058059656065    0.6435537558451235    0.1201691815209627 H
   0.5401177293611058    0.7758834171966167    0.2915397026821736 H
   0.6609392392859729    0.9691312704201189    0.0786186234930383 H
  -0.0286467625102196    0.8822098917124409    1.1029466879697398 H
  -0.1432365117592439   -0.0016669172911986    0.0920541782285548 H
   0.7165550260647774    0.8076030719798144    0.1453659257025716 H
   0.9011164828120938    0.5906734402242084    0.2442675581352855 H
   0.9465508103430448    0.7123288906739781    0.2279310033931366 H
   0.7594218757788829    0.7163538030120710    0.2140587081876090 H
   0.2260893675301997    0.3661949641873403    0.3825795422841717 H
   0.1923164910738536    0.3575972188747983    0.6366327816665902 H
   0.2431590277988243    0.1648059661815929    0.4172401575756440 H
   0.2754171634207472    0.2495843095031489    0.5145118494982686 H
   0.0175369589611819    0.4630403633927588    0.6263686453680124 H
   0.0402194921815117    0.0752819644512233    0.6420628208967833 H
   0.0789376657671761    0.0500118988408347    0.5195649746598893 H
  -0.4848998116913674    0.3696079464689420    0.3524782715059645 H
   0.4098966128610020    0.2467559465921142    0.3613283995842511 H
   0.6008479382690680    0.0903336515771436    0.5716139439115595 H
   0.3679529811007238    0.4221417577621927    0.6156192418805335 H
   0.5478549118193142    0.0291103566704134    0.3885614084771823 H
   0.6027180666819534    0.3294987903533750    0.5634263177689978 H
   0.6956882469578282    0.3822553544286957    0.4856233597168847 H
   0.8778583401771816    1.1151922325789863    0.3641672513368663 H
   0.6909165764043429    0.0787225988023233    0.4807621743684179 H
   0.8195882030623517    0.3884147675635593    0.3571854406333925 H
   0.8282146442168898    0.2778133172416478    0.4371988023402136 H
   0.9112647725526244    1.1107286423482345    0.4852479935500312 H
   0.8708295636253743    0.4361743295736692    0.5258339766217712 H
   0.1593270467904731    0.5709192797115922    0.3786765080997555 H
   0.0608608371011897    0.6632840195075561    0.3881736590965770 H
   0.1839356622235416    0.6465630520504068    0.5111126573233814 H
   0.1698962733739376    0.5850610942667659    0.6207133864377072 H
   0.4741980720574217   -0.0671078440981643    0.3374527895197944 H
   0.4465765597091685    0.8593773048207958    0.6183040774121099 H
   0.6190279872828434    0.7057751795110825    0.5931344215105833 H
   0.4324092313313181    0.7033155108600257    0.4239944267264272 H
   0.3523451484048402    0.6579763583899565    0.5185588385425501 H
  -0.3764418407461118   -0.0981404644385790    0.5885758509481777 H
   0.7116554159830458    0.6376555011444111    0.5388046190759912 H
   0.8831338713419087    0.5634984542706003    0.5598645959136174 H
   0.8647089997740818    0.7086777933494739    0.4315868846580399 H
   0.9413463566940101   -0.0656424551065389    0.6247781763517571 H
   0.8713823887474266    0.7651921371161906    0.5466965959902271 H
   1.0472123675670151    0.0914710562999969    0.8247500515254805 H
   0.2678600440022930    0.2842876567235758    0.6958570493366072 H
   1.0634259386466332    0.2654287746339153   -0.0227605030359942 H
   0.2453719077873820    0.3283679572643222   -0.0733611006492119 H
   1.1626422530515239    0.0765495216616846    0.7738968363517248 H
   0.0761845966593559    0.4631735029866397    0.7291717640834235 H
   1.0836830306189760    0.3847431872246119   -0.0488794870617733 H
   0.5886281338211904    0.1560964177485484   -0.2736394603632938 H
   0.4548697262901266    0.4907129159055501    0.6889704345888509 H
   0.4191832851613054    0.4602111470227889    0.8480459723961780 H
   0.4117454180191796    1.0429127953624706    0.8741358558696402 H
   0.5882150944799999    1.0900066594031759    0.8836322329156022 H
   0.4550245173243012    1.0415728648343099    0.9934094228258922 H
   0.4775789925538584    0.1882496296707943   -0.3163267200185536 H
   0.3360897205659811    0.2511708896635634   -0.1277907427446784 H
   0.6882764415714563    1.0453195495595491    0.8318549204156134 H
   0.7303661771139912    0.2518997435941680    0.8604911022168031 H
   0.8120050218881437    0.3517578528406102    0.8499498915105274 H
   0.9204969520908968    0.2020031204104820   -0.0975400994505893 H
   0.8190693371977970    0.4776763306713752   -0.2757175184210288 H
   0.9526950666995683    0.1151625642639613   -0.0088724966280189 H
   0.1120919309119457    0.9205182494748748    0.7368810885948195 H
   0.2071472095981667    0.6960295319307851    0.8461265742646388 H
   0.0611589677920107    0.7740254370948295    0.8559325316543975 H
   0.0378229265691500    0.8275543815064467    0.6836858981202422 H
   1.0603143229596532    0.5870231963586394    0.8796386464806254 H
   0.3159692553738024    0.6340965773849015    0.8105170952194298 H
   0.0648741105622367    0.7534007484683765    0.9719090679492154 H
   0.3809404227180798    0.9567049083245650    0.6713522172233838 H
   0.3490732134324653    0.7717321929361241    0.9385672649223167 H
   0.4331871352530631    0.8752226234104974    0.9569021607836730 H
   0.5103686300431258    0.5625366060507041    0.8469856597186745 H
   0.6261760161109788    0.5876863339512387    0.9588370379324019 H
   0.6660236509085048    0.6726234206347296    0.8632850648195678 H
  -0.3762499314537422   -0.1560246097961860    0.7038295171402303 H
   0.9670606223711832    0.5080295976994230    0.8483323342141899 H
   0.7398747692132898    0.5208613527891658   -0.1757586691142494 H
   0.8725354240019928   -0.1542442944574961    0.6984613939787965 H
   0.7289185650443886    0.8982856442146289   -0.0067913427668460 H
   0.1694161052679266    1.0262532769486510    0.3984749450364103 Cl
   0.3189047567718998    0.0922270502247388    0.7538793713218338 Cl
   0.7403928453276702    0.8318967805684095    0.8352680437059714 Cl
   1.0514059409928684    0.3401311817672769    0.1997886022403026 O
   0.4477430207166987    0.4107677105336591    0.0422270671043130 O
   0.5663516506530080    0.2393043966294574    0.1186119923916656 O
   0.5512611043213305    0.0192729537199996    0.1250110180979423 O
   0.4661884257890591    0.2280071607050860    0.3126468905222288 O
   0.5009863979717248    0.0145427429179118    0.3324739636406849 O
  -0.0131188525319812    1.1359398192920986    0.2745120098224986 O
   0.7274662144737400    0.3764774374378372    0.0707636414298860 O
   0.8500354415344664    0.4302479107280973    0.2407669783978049 O
  -0.0722363915838996    0.0315045735557347    0.0984878769333367 O
   0.1700076281485225   -0.1906613872196725    0.2430369762686938 O
   0.0134337329552753    0.8106994209964813    1.0920726783938828 O
   0.3817183266398247    0.5049801889241885    0.2262182501410817 O
   0.3669768498852145    0.7347680329965265    1.1663332633621029 O
   0.6222485884938849    0.5704037905147711    0.0742042399757560 O
   0.4720602183354283    0.7814932027772538    0.3259549755511870 O
   0.6896166476173459    0.7446630358904724    0.1922750872963581 O
   0.7289264625461324    0.9241113115917898    0.0676549904076520 O
   0.9235848752726459    0.6599000548297489    0.2795929972150610 O
   0.2143307771841484    0.4430318721174725    0.3534549974906429 O
   0.2582250918750967    0.3156428845414713    0.6263562621542607 O
   0.2791400457426819    0.2371570939486598    0.4405670364807211 O
   0.0921788541155540    0.4557458498741667    0.6527247679371397 O
   0.0149836966474749    0.0571779667896890    0.5668425368627937 O
  -0.4801218231364873    0.4545851457223842    0.3622927423551776 O
   0.5526171053707071    0.1936161794549182   -0.3361096779380187 O
   0.6358101784880007    0.3947696227945685    0.5328970521654918 O
   0.6268646782630211    0.0444532354504121    0.5131535657398608 O
   0.4483866671088024    0.4473469604935111    0.6170378938059816 O
   0.8096484073678524    0.3636038628602729    0.4340310214723144 O
   0.8527047971238043    1.1309214807535095    0.4357484184295263 O
   0.8932900585841828    0.4819538668542678    0.5892244217684316 O
   0.1389270100365709    0.6550899602713326    0.3939736468376072 O
   0.2155588387052788    0.6430698446289025    0.5826915025634629 O
   0.3717185099320739    0.8817541446410794    0.6359230687284364 O
  -0.4044242689240477   -0.1608466527796943    0.6335083420468225 O
   0.4167129466159062    0.6450933957641057    0.4820105571047778 O
   0.6353963493966360    0.6314423200966341    0.5615076935883181 O
   0.9090060870539537   -0.1423342750176983    0.6341522691619197 O
   0.8499011840048252    0.6979711510082155    0.5038994353129196 O
   1.1161022752764684    0.3230901672094523   -0.0092210067000480 O
   0.3166713432788088    0.3255762930874982   -0.1019701941703192 O
   1.0841647782253359    0.0558986318459228    0.7641032621757179 O
   0.6493520247277578    1.1163017291946606    0.8306862546177812 O
   0.4726430539641062    1.0313740305594563    0.9214629509275520 O
   0.7992126485638548    0.2778833008743288    0.8886706530108927 O
   0.8110991784381525    0.4993721102614218   -0.2021790296047145 O
   0.9818368481334653    0.1607930022685919   -0.0665449154296693 O
   0.2751336431081518    0.7031405517783232    0.8134503689769029 O
   0.1018666405294150    0.8374271944680792    0.7255071067637309 O
   0.0824236230368027    0.7166499532625625    0.9070132883808438 O
   1.0432320266882389    0.5077317405310613    0.8668142807388495 O
   0.4387509252314318    0.5348734415861991    0.8163526846999966 O
   0.4112810449166557    0.7996036013808017    0.9762896298139379 O
   0.6267849134954108    0.6021388075588012    0.8791046203875762 O
