Li1 Co1 H90 C51 N3 Cl6 O45
1.0
  14.7152457286999994    0.0000000000000000    0.0000000000000000
   0.0000000000000000   14.3338505693999991    0.0000000000000000
   0.0000000000000000    0.0000000000000000   14.3810156983000006
Li Co H C N Cl O
1 1 90 51 3 6 45
direct
   0.9747403902555940    0.6011348272595172    0.3978791185017894 Li
   0.2309437726664607    0.1391075465971922    0.2240221356257081 Co
   0.1572154761770587    0.3302739039366283    0.1279197441817314 H
   0.0417467961885181    0.3282214198635205    0.0857266186939588 H
   0.5592101223461509    0.2541066525261303    0.2012949509221523 H
   0.5059438287040910    0.2690747170361666    0.3306515999257345 H
  -0.0398427349776778    0.1615334815156316    0.1796163708732581 H
  -0.0615671428396892    0.2216575909325246    0.2863765630745289 H
   0.7268641354346533    0.2591199599868211    1.1576119655559474 H
   0.1841942985031928    0.5832958663493293    0.0466501020007443 H
   0.0509073635677696    0.4705318193004100    0.1829805282467682 H
  -0.0034695741166200    0.3693101696832875    0.3110910900214687 H
   0.2114911583318112    0.6963939478558299    0.0131267396657049 H
   0.3430322848401351    0.5710260998167094    0.1502644802380300 H
   0.1801563095293417    0.7046415572073866    0.2708241149935189 H
   0.1229571287940595    0.7198893790638935    0.1649484222091776 H
   0.3400000554895253   -0.1323435879853327    0.3107496676836445 H
   0.4686985519275667    0.0407369103767936    1.0937604254934088 H
   0.4170106621007215    0.8122079081006720    0.1146244384807160 H
   0.5134621944887836   -0.1057101304819467    1.2030628581571750 H
   0.1586038321975195    0.2018290041460295    0.6215482992801845 H
   0.1764866460391371    0.3026881552164537    0.4554903482912082 H
   0.3037091222733405    0.1195789489852166    0.4115728661571291 H
   0.5547096878158027    0.0404473859409202   -0.6449220517780512 H
   0.3871205734056918    0.2590327538314375    0.3607996791084345 H
   0.3736386374830677    0.0386502414907755    0.4650092865130879 H
   0.4974831680875185    0.2001058105156502    0.5972148302581483 H
  -0.2748595375347033    0.1638566534950500    0.7147169619191096 H
  -0.0401145619028782    0.0770690876573190    0.5688879019975696 H
  -0.2829463885594135    0.0354417526219031    0.6157253447853988 H
  -0.0347337479185374    0.1865372303872094    0.6249659994643105 H
  -0.1630754715172533    0.2578795396326451    0.5624328641930441 H
  -0.2675405975736841    0.1952390093960037    0.5492531275196181 H
  -0.1689265460821907    0.1543797861772064    0.4837262537737396 H
  -0.1937599744011810    0.0227529081889718    0.5299699971887902 H
   0.1880039528598756    0.4193790605598331    0.5704232594760130 H
   0.2942672140265066    0.4090775718366825    0.5139259287557605 H
   0.9867150458779822    0.4905535851623108    0.6272690356819759 H
   0.5564884552575825    0.6394678625691632    0.6275416172632939 H
   0.3285670150155989    0.6566600328661021    0.5235682935865278 H
   0.5053042675188066    0.6702830296355022    0.3493707228060345 H
   0.6637153428740487    0.6285866273250226    0.3388645107852896 H
   0.6834329884607686    0.5471837974049921    0.4343842590991993 H
   1.1905254378546952    0.8118297822109289    0.6253505341950982 H
   1.1291659460292218    0.7742334645019633    0.5270188148182003 H
   0.9785554811507808    0.7712949658901584    0.5620504155457868 H
   0.5570144403578451    0.8208001561783046    0.4854216069053603 H
   0.6655576498595940    0.8220559248158281    0.4348902734275795 H
  -0.0996494154929443   -0.0676129006164579    0.6682571002502998 H
   0.0171763604196591    0.0109975184432663    0.3713538710503808 H
  -0.1958938157640037   -0.1171815769857233    0.6198822139004965 H
   0.8549245181657870    0.7615034587636910    0.3946589008918834 H
   0.6864305598784153    0.6613210274590433    0.5927819027558483 H
   0.2428117362207077    0.2383537326176418    0.8475128673032998 H
   0.1011335041043500    0.1424925407245609    0.9476142808752335 H
   0.1753381772801656    0.1654221783964958    0.7441967990108747 H
   0.1114207940885570    0.3113285410918580    0.7963634898579393 H
   0.2710287301911293    0.1679267391791120    0.6564408277724048 H
   0.1006170329464693    0.3486088236937136    0.6715621519237792 H
   0.4186681267771306   -0.0496051783543717    0.8031370030814535 H
   0.3505815981202617    0.2642651231544518    0.7902929867842017 H
   0.4416631896009910    0.1551437120983665    0.8727572594669850 H
   0.4778223547151849    0.0440472560351540    0.7665763031260149 H
   0.3484001870455289    0.0683017296196762    0.8895078148556754 H
   0.4095897870427521    0.1204105468829543    0.9904951185668922 H
  -0.1602980799090188    0.2078573912553851    0.7460798370777340 H
  -0.1935832868998008    0.0862124786369757    0.7603486484263132 H
  -0.0396578926685416    0.0821068128415172    0.6920217638296881 H
   0.1497293626570413    0.4247565409254057    0.7455409321656897 H
   0.2836564500013112    0.3525596113572109    0.8431918929504698 H
   0.3203761901919995    0.4073585641017615    0.6750250505843994 H
   0.3861318029652755    0.5936078895760503   -0.1178327168504736 H
   0.5932720747756928    0.4249958346157782    0.7700864863466595 H
   0.4880607838095871    0.5339778553530984    0.9940226858169579 H
   0.3499693079712479    0.2957005003978789    0.6346739368540530 H
   0.6576420497977601    0.4267322835817758    0.8707622682506559 H
   0.7700166598102078    0.5389973718920525    0.9014193518147965 H
   0.8298471251814292    0.4239200594829665    0.6766737519346665 H
   1.1499994411438890    0.6938545046110604    0.7720654842559215 H
   1.1253304681146450    0.9173555090682387    0.8368446361283531 H
   0.5903648858106751    0.1135784678455838    0.8681491009481237 H
   0.5763338594991464    0.1090207253406167    0.9861525880175807 H
   0.6337498222072759    0.0147501737217322    0.9261526535135107 H
   0.5485128494020104   -0.0555721723303373    0.8000906257657554 H
   0.5112157488221966   -0.1209963230468223    0.9558563969042154 H
   0.6482477112628361    0.6821409738199389    0.7454150717926832 H
   0.4021994925138678   -0.0752535551265449    0.9707350400048759 H
   0.5751412188648299   -0.0231489237587252    1.0815366713658905 H
   1.0351872231797072    0.6641472045427140    0.7897937174592368 H
   0.6812998266652589    0.6145345762711354    0.9215180712699298 H
  -0.2223493712591271   -0.1203119291393720    0.7722170729924708 H
   0.9030827353689057    0.7427785530797304    0.8776602511248229 H
   0.1136429792020698    0.2080443612525275    0.0715322109913005 C
   0.0931839256768660    0.2933466318517655    0.1252050541473818 C
   0.0472322635390610    0.2773062804551327    0.2259086504984515 C
   0.0379296665913923    0.1099465058861687    0.2932828902828178 C
   0.1215381922445137    0.2826900396638929    0.3035498980587327 C
   0.4305435655718206    0.2039533460911733    0.2225222415672828 C
   0.4436192561547326    0.2227194130804750    0.3243780513883621 C
  -0.0068300344794092    0.1908068437547891    0.2411280205757593 C
   0.3261579488910109    0.6024345477993539   -0.0024632579188539 C
   0.0961590713731837    0.5942008914326586    0.2186129210311370 C
   0.2414675520755920    0.6356531165080642    0.0465026854312560 C
   0.2526015829317981    0.6581885823576654    0.1545068787778781 C
   0.1647382863319782    0.6738054606637555    0.2048851006781325 C
   0.3087120968316528    0.7519058981267965    0.1620835341606325 C
   0.3423581540656383    0.0030924548700563    0.3327265576773993 C
   0.5013375515647430   -0.0310135236758372    1.0791877413105542 C
   0.5632503538921350    0.7914598196118126    0.3343829080006116 C
   0.3660648597796732    0.0738368787141822    0.4019928752239237 C
   0.4579020621557282    0.1276144729668804    0.3726145608639760 C
   0.5114020182226902    0.1378615450490717    0.4696382363311365 C
  -0.0638701964634492    0.1158339678484245    0.6271021489995364 C
  -0.1959142027833937    0.1876450973852023    0.5493844812459214 C
  -0.2071610418135579    0.0295061528618757    0.6038597016639485 C
   0.2444352225314668    0.3695989964699178    0.5539755338798328 C
   1.0434473638692328    0.6155350052856956    0.6025691113197497 C
   0.5342042198431209    0.6353112683789607    0.4960196830911764 C
   0.6864862843980813    0.6237072685190010    0.4122786577516130 C
   1.2239669453274675    0.6813861173389387    0.5858435889334251 C
   1.0658615325539400    0.7171601752250092    0.6499663198549279 C
   1.1525478185676423    0.7519491523798667    0.5971758900322457 C
   0.6229256740457982    0.6914134299095633    0.4770214422344964 C
   0.6002743363688536    0.7865232535678593    0.4325959987607421 C
  -0.1730698679895569   -0.0543812850724192    0.6624974236226058 C
   0.7821822738475491    0.6558040172448570    0.4115881641030195 C
   0.2816673564761577    0.2873224306378683    0.8035820342346256 C
   0.1451049070920705    0.3493608895777415    0.7371646114295792 C
   0.2047688784716067    0.1954601642060565    0.6809272762533439 C
   0.4155251279545016    0.0998117553321115    0.9177026244926562 C
   0.4836908262033351   -0.0144143552355066    0.8137808966152110 C
  -0.2011536667666304    0.1522045158373186    0.7208778619458354 C
   0.2939376238797012    0.3466100586123221    0.6404941099041314 C
   0.6232287610673966    0.4770604906819702    0.8236202572673745 C
   0.5387813775231068    0.5124888075561607    0.8738774863228604 C
   0.6801533966082264    0.5563855816262937    0.7832677528146745 C
   0.7345099472732259    0.5956540948059704    0.8655122913655793 C
   0.7378833194149622    0.5179124164896850    0.7009905322884589 C
   1.0786095357785230    0.7124894135426650    0.7588529265349491 C
   1.0603067493374709    0.8020487398231074    0.8100356813167974 C
   0.5793416244264883    0.0672503722103718    0.9250122611835073 C
   0.4731865503760869   -0.0548347570804138    0.9783381191123499 C
   0.7959387549646255    0.6793943287499778    0.8424005719312356 C
  -0.1666431999105078    0.1232827688166677    0.6274011543055739 N
   0.2304680755473602    0.2977557750679589    0.7128791223287443 N
   0.4878539914762409    0.0195276757382658    0.9109249391020809 N
  -0.3366933673446513    1.3224078689968821    1.2507368204407323 Cl
   0.9377610553513394    0.3836908135306601   -0.3982635351324348 Cl
   0.9693908363676513    0.8373295596943285    0.4219048206669601 Cl
   1.1452669343761510    1.0469068805583444    0.8804333514980264 Cl
   0.5450785200722980    2.2338726520811170    0.7206136246986394 Cl
   0.7485022382479136    0.1980051886447707    0.0860833389776733 Cl
   0.0715628120464307    0.2014208793388344   -0.0090879638505262 O
   0.1724656462481110    0.1489492844691606    0.0988348722384066 O
   0.2020084760461972    0.2447644315121990    0.2956478136452212 O
   0.1113983683672279    0.0732773640212413    0.2755045910747707 O
   0.3630265143232464    0.1765189872567446    0.1774169434709406 O
   0.5058430148932074    0.2201988063652682    0.1690427088183606 O
   0.5084740956589529    0.0685159079372982    0.3141026992783252 O
  -0.0008566377981317    0.3691629656930000    0.2425423852094342 O
   0.0948189646319460    0.5172730418878899    0.1625007508667313 O
   0.3059183956079063    0.5902668473509949    0.2034457030420916 O
   0.0430909803336338    0.6038612405014292    0.2839963417662352 O
   0.3868698130671945    0.5599177099790257    0.0409662197413248 O
   0.2995590046928443    0.0248423676719622    0.2589445646485321 O
   0.2968835481815599    0.8107847036448123    0.2211579429383398 O
   0.3756521954314893    0.7583521771327502    0.1009042671006567 O
   0.4753917463067747   -0.1008112374971192    1.1435927888698507 O
   0.5745499953025192    0.8633951307138567    0.2881803299672294 O
   0.5109624061279099    0.7221511579099218    0.3029894369502066 O
   0.2138247924846562    0.2863436287498431    0.5088000043046305 O
   0.0946137353034198    0.3264305542565635    0.3733676370184843 O
   0.4681038625719596    0.1843738200844537    0.5345707153430594 O
   0.5822318242086809    0.0957172519245420    0.4814494396260525 O
  -0.0159172085888567    0.0647862750838536    0.3533871289634123 O
   1.0217983879789643    0.5480606727386050    0.6602750493014528 O
   1.0398973042261161    0.6104812341689069    0.5163506531793713 O
   0.5056578463917609    0.6266143729148678    0.5861516339347614 O
   0.4754624213073268    0.6139290167281518    0.4381006169087744 O
   0.7353981417513181    0.5415132345924064    0.6201756563171194 O
   0.8486181335011389    0.6071129836233717    0.4122369360810031 O
   0.9889793641649011    0.7767945348732680    0.6310295489262799 O
   1.2893345251650199    0.7115629353478700    0.5236629322426946 O
   0.3653764580916034   -0.0808598644438440    0.3549071884959657 O
   0.6677254695880668    0.7177078298808179    0.5608231030686796 O
   0.7879049101903294    0.7447724346164204    0.3998490767157526 O
   0.3272948650056613    0.6218033837346668   -0.0937127237097246 O
   1.2312111328840567    0.6062192949430009    0.6303981609777171 O
   0.4618031862727409    0.5087808436882058    0.8399209139746551 O
   0.5514603367086891    0.5325492092331426    0.9638099380448125 O
   0.7916486465176511    0.4499301673876707    0.7287389200499137 O
   1.1367206958478524    0.8556065745642391    0.7998542029656327 O
   0.6171948828952620    0.6213736318009366    0.7457683152705136 O
   0.9848842915367578    0.8302233045044319    0.8438490092625753 O
   0.8683473317321798    0.6849504073217759    0.8958808000413347 O
  -0.2166342101567899   -0.0556510066948040    0.7513054763216216 O
   0.7723040833857687    0.7430004055390262    0.7851201949897533 O
