Li1 Co1 H90 C51 N3 Cl6 O45
1.0
  14.4586800349000004    0.0000000000000000    0.0000000000000000
   0.0000000000000000   14.1106624100999998    0.0000000000000000
   0.0000000000000000    0.0000000000000000   14.5838581030000007
Li Co H C N Cl O
1 1 90 51 3 6 45
direct
   0.7274657500000999    0.3256980127177055    0.3033503905657138 Li
   0.4377643395055444    0.9195808338389723    0.6754659145698629 Co
   0.1667077845129637    0.2425063122940767    1.0015346383886850 H
   1.0069151873102289    0.2189858006161527    0.1801113966515943 H
   0.1460129493497434    0.1949699188558862    0.3236365177283980 H
   0.5347970559508601    0.1091369533437152    0.1687735189218331 H
   0.4411221840586302    0.1697060446564131    0.1160940431223558 H
   0.6448862892804508    0.1744606052893695    0.2480433521741321 H
   0.8509548925560061    1.0608314670178491    0.0072524739854842 H
   0.8379281155925927    0.2520877193230783    0.0739796728602331 H
   0.2698714202251857    0.6107930623392273    0.1267592593430213 H
   1.0875366546354834    0.5239075594217699    0.0871901689195968 H
   1.0453149581509866    0.3865881378605912    0.1518458994773449 H
   0.3271747147168070    0.4501393712426706    0.1240123867584780 H
   0.5831684839312731    0.3755681024093357    0.1033306166898324 H
   0.5551545850814255    0.4065713244612549    0.2157946840454115 H
   0.5026973069502793    0.6115903317850576    0.3098143865353817 H
   0.8594321532536731    0.3672439007109146    0.0356125963261506 H
   0.9984420763689612    0.4317920398080604    0.2561708311418285 H
   0.8098335731433857    0.4643197119088024    0.1818160210263258 H
   0.2109172143127166    0.0889309565085901    1.0346788171503098 H
   0.0849651913338365    0.6503078621264365    0.3121772729373627 H
   0.0567254074106546    0.9433153680703548    0.1205537683569712 H
   0.0842355258336294    0.8172015154190256    0.2265558968117176 H
   0.1408582602757684    0.9158467780966787    0.2789446402158264 H
   0.3205489369992864    0.8550679163342335    0.2162479248787573 H
   0.3910954874131503    0.7337688624517680    0.3346020659989961 H
   0.5830067817569144    0.8990297079192966    0.1918017188417785 H
   0.7183438938084111    0.8654508449127766    0.3270821080272822 H
   0.7829846492400299    0.6871806881411517    0.1329846353278112 H
   0.8064321561481074    0.9430864631539074    0.2867759012712605 H
   0.7917060539391880    0.8694761697592801    0.0373816755243837 H
   0.7261219205527990    0.9619672209990746    0.0900899502875532 H
   0.8974653622791610    0.8301959443601331    0.1941008361098698 H
   0.0709991861720523    0.1836104237916949    0.4651466027432453 H
   0.2823310638140304    0.1508713512681162    0.5149375767688790 H
   0.3238362356935844   -0.0126921961347335    0.4587299879257472 H
   0.3341919527879931    0.1751430679350004    0.4090110455938245 H
   0.7029642049666047    0.0045805578236877    0.6668467961505646 H
   0.5363778364885601    0.3157743113399609    0.3781735266860201 H
   0.8182727944073926    0.0158578455494645    0.6519762455412311 H
   0.6754271131270346    0.2178214328832645    0.5698184933512582 H
   0.7446900055613873    0.0641121358308783    0.5682061627982641 H
   0.8225546513853852    0.2249500847549158    0.5826639968303043 H
   0.0711631015498239    0.3015751196807098    0.4927782484404223 H
   0.2417914019233761    0.2767938592524460    0.5979733887911375 H
   0.3865591120426682    0.7050905489722854    0.5508361364162951 H
   0.2243893984629863    0.3562975683906515    0.3280359022771822 H
   0.6313746824443880    0.6443910598124473    0.5283061585682243 H
   0.5516672681286821    0.5079373665668475    0.4335799900713008 H
   0.4458031092770205    0.4818585766911431    0.6273318752064657 H
   0.4307235861480956    0.5068007083764765    0.4263500788053436 H
   0.3506471201632801    0.5832996684272365    0.5442646928844711 H
   0.5526049747497065    0.4570744815270719    0.5576725304140872 H
  -0.1555747467244895    0.6189989138176895    0.5924350737972893 H
   0.2417997014361747    0.8093811880103694    0.4209571300091797 H
   0.2412477838350702    0.6885413613287021    0.3956112992016266 H
   0.5473719936049983    0.7375695344855354    0.5395920610254171 H
   0.5348760396476598    0.6984799450694358    0.3862399792782734 H
   0.5699413428963810    0.6755986663160798    0.6409983548576220 H
   0.3993908504553154    0.6374296573534324    0.6481692968169713 H
  -0.0294525837332388    0.8003738149823657    0.4973421984960190 H
  -0.0418721130102238    0.6671646186051222    0.5783315355876238 H
   0.0902367652130580    0.1658203305484238    0.8361620749033148 H
   0.0805941145932592    0.1168346784287015    0.9445586314821813 H
   0.1816932464968383    0.2844979624929990    0.8958911256008674 H
   0.2433316531735764    0.1682801725452924    0.7699320009970616 H
   0.2784427420679030    0.2697686752377647    0.9697090407503947 H
   0.2835517838214859    0.0561479455799967    0.8050475373923761 H
   0.3491110186694792    0.1542347653035926    0.8412697768210039 H
   0.1366206673660347    0.0233436741328479    0.7649298952795770 H
   0.3267154750086197    0.1006589672277429    0.9889110926369523 H
   0.6671628732578642    0.1069045988953902    0.7979431073253634 H
   0.6054878103995991    0.1602196012769593    0.6632626965501134 H
   0.7295925001547321    0.2217170685665797    0.8013036721123945 H
   0.7234328784060643    0.1114394675032734    0.9562311257424609 H
   0.8303541185378362    0.2844412677768511    0.6872577188225815 H
   0.6608379528792915    0.2716516484978280    0.6844806758951225 H
   0.8921253174193513    0.1810896349749672    0.6747308553061009 H
   0.9064682587874037    0.3187727531402350   -0.0866849457510798 H
   0.8682656013756118    0.1573721091584291    0.8380655492654445 H
   0.4981343039762353    0.2722618253803702   -0.0040490621948559 H
   0.5496796039760325    0.5310514479983860    0.6616547544106340 H
  -0.0820562791026730    0.6493794861495139    0.8385071333753912 H
  -0.0480953643570140    0.4569210514514965    0.8001750270115063 H
  -0.1510397546061406    0.5810531402998745    0.7660455122778426 H
   0.2625699238406486   -0.0078412544843255    0.9590808517687619 H
   0.1438758248041131   -0.0382778128483461    0.8684703980282550 H
   0.0475253974734460    0.7055738714274464    0.6804741914938529 H
   0.8336013029202745    0.0409473834967826    0.8074261946554266 H
  -0.0136295625827758   -0.0402989794790201    0.7907646227802851 H
  -0.1902639437182224    0.8119912710050301    0.7277463190153202 H
   0.9699671395831533    0.2635669819751321    0.0273143806451365 C
   0.5836601609019814    0.1811342820639337    0.0491247958146703 C
   0.5224493589571466    0.1760232534031971    0.1326527615557396 C
   0.5411517854129010    0.2571200840651596    0.2034460998279777 C
   0.4675467953701594    0.2441518764302706    0.2816736848704650 C
   0.9049017257466746    0.2645031534755249    0.2456578380149644 C
   0.8883296735661411    0.3086229815818504    0.0758577767067294 C
   0.5343737116355267    0.3581847937544260    0.1584442906109096 C
   0.4412224698382796    0.3744342080863769    0.1116274609916232 C
   0.8949561429097282    0.3491044262793818    0.1795697018583368 C
   0.9821162430681184    0.4168197448257369    0.1825051390861026 C
   0.9639499928041940    0.5176341473432101    0.1474849135468169 C
   0.2189635919709248    0.6814828691682839    0.2237246844049330 C
   0.1827486678743890    0.8997695739650271    0.1460353657076446 C
   0.1512865981071645    0.8527576066512049    0.2377634935152523 C
   0.2254026306504777    0.7785300495345170    0.2789316121132038 C
   0.6838863915469715    0.7816404633991834    0.1525699877073194 C
   0.6725568649508645    0.9888057909395567    0.2564135652643768 C
   0.7414552704481467    0.9055368439651762    0.2681422860728173 C
   0.7634807941634035    0.8482581722409143    0.1822006928984997 C
   0.7847884100215846    0.9125223416785539    0.0989140899007552 C
   0.8810606836067320    0.9636361717056795    0.1052676898429365 C
   0.2250471348522725    0.0706490366027356    0.3972926101295597 C
   0.2682052930308739    0.1582714290933258    0.4404841987716918 C
   0.1239148048974992    0.2129534828180121    0.5945120276311838 C
   0.2015311569636068    0.2460050849643564    0.4293965977502078 C
   0.1164217280925286    0.2357263329267352    0.4963008416827024 C
   0.6671303668327364    0.2042997430819812    0.6456706438718701 C
   0.8293782341579383    0.2129159225685641    0.6540463424790084 C
   0.7537800469540149    0.0566730803883170    0.6408735593482893 C
   0.2472137502851049    0.3400254761722414    0.4484796824891323 C
   0.4836291762955776    0.6411870996661370    0.3753327146246714 C
   0.5685482005105355    0.6693253959743105    0.5635877689874971 C
   0.4001793041711790    0.6306376303589093    0.5733315555079356 C
   0.5139184834068009    0.5079464377214312    0.5986062803027534 C
   0.4911571110543021    0.5599825490434933    0.4425844660523848 C
   0.1020684123334780    0.7504165571646583    0.4077020641250544 C
   0.2039013594936635    0.7577237973921755    0.3804513875761480 C
  -0.1609950202080186    0.7540428929462707    0.5318464426024867 C
  -0.1152066080983388    0.6805651234506392    0.5961501401135787 C
   0.1206358057159997    0.1091284491362930    0.8814395313442936 C
   0.2803626960286376    0.1300594296541600    0.8236242403530467 C
   0.2146651359673350    0.2383562590720477    0.9460589203526207 C
   0.2569421625371554    0.0732740019603851    0.9773489944041592 C
   0.7324855719910983    0.1478948786703495    0.7868287644090224 C
   0.8079668743897752    0.1060357523704230    0.8379181259989252 C
  -0.0888113908946379    0.6282344830781885    0.7654578762806000 C
  -0.0037545256046172    0.5738387376700493    0.7400544475456625 C
   0.1078829126749389    0.0190072370314824    0.8345198482832495 C
  -0.1081098330294997    0.7152226034318737    0.6989185563594619 C
  -0.0458012406942775    0.8018011044613902    0.7026713356043958 C
   0.4952614967836188    0.5969375823966231    0.5404635725219110 N
   0.2199671413934845    0.1365991651618246    0.9047296646959154 N
   0.7465387220372676    0.1525395932907693    0.6843723369364711 N
   0.2215544232162099   -0.5042098725150904    1.0631664777587557 Cl
   0.6385447698762811    1.3816619049113679    0.4209310738039345 Cl
   0.4338372866996903    0.9963702834415953    0.5477510817152526 Cl
   0.8389600216838810    0.3977633750973016    0.8573073711494819 Cl
   0.3164455195464628    0.8416971762146941    0.7146379907081026 Cl
  -0.4547140865231458    0.9219570511295228    0.7750589022238789 Cl
   1.0351328391992813    0.2244993617615398    0.0680196587551782 O
   0.9683777828822282    0.2005281270902396    0.2319008473350613 O
   0.3934691480735397    0.2069091173926901    0.2611749939281482 O
   0.6596870871045574    0.1366516077742615    0.0470601843937867 O
   0.6339793462110040    0.2446118123150208    0.2400214694066405 O
   0.6960797591001956    1.0693066183980140    0.2820206438139945 O
   0.8484643470903702    0.2529622353196602    0.3072931058330937 O
   1.0254998713444141    0.5536773879238907    0.0940086664185230 O
   0.1574033390397065    0.6213340274390327    0.2399885563052780 O
   0.4213361455468527    0.3402983194937034    0.0352937506567017 O
   0.3837435023257553    0.4284691624946297    0.1577503727238507 O
   0.8873752295943063    0.5595211957908395    0.1518349284435574 O
   0.8049043541671050    0.3928550300467938    0.1977267627766359 O
   0.2817756880825932    0.6705322847443097    0.1602469686001168 O
   0.1230578802010474    0.9657891535513974    0.1129892405604956 O
   0.2591733482278362    0.8887169390519866    0.1112249611895446 O
   0.3180355678734544    0.8080205148228189    0.2685365575995552 O
   0.5880705911657452    0.9677047262732459    0.2258434653051423 O
   0.6003262050649586    0.7946200099773019    0.1515003119130389 O
   0.8982759480291540    1.0348206399331270    0.0528967743687324 O
   0.7124823628944250    0.6983431690667289    0.1266831477961206 O
   0.9485924359965172    0.9323236799771732    0.1527729518323880 O
   0.8397042113314855    0.7872702487126736    0.2031683955352319 O
   0.2045397303530864    0.2342983347637590    0.6363678929096886 O
   0.2672563820675713   -0.0105037800914231    0.4117661464537084 O
   0.1648915744622112    0.2626456928377280    0.3404509983869527 O
   0.1568279061523394    0.0727198111100390    0.3476713099983458 O
   0.0620536946273329    0.1761097128453227    0.6386183262153480 O
   0.4807116208964556    0.2779249188395974    0.3635230824420481 O
   0.2808779574482151    0.3568021513643682    0.5283879613389022 O
   0.2610269060861822    0.3936175739789836    0.3772601881232113 O
   0.3932132464289173    0.6767750816761495    0.3726880097922741 O
   0.0470903646775879    0.6852247204340478    0.3628545350706228 O
   0.0733244330077834    0.7980202755782745    0.4742322643743567 O
  -0.0996782196522248    0.8148139591852456    0.5000938023388830 O
  -0.2413958588180446    0.7484790152403024    0.5108198323712119 O
   0.9617644544339055    0.2627604996379276   -0.0605457720627687 O
   0.5572293941184600    0.2352720665135998   -0.0253253251568612 O
   0.7873294441900783    0.0978695871932644    0.9326365462032362 O
   0.0590714030283821    0.6033426679534364    0.6914911664853298 O
   0.0093469469739832    0.4875580965054953    0.7731869695838880 O
   0.0441039233222378    0.7811706059391071    0.6981149281345280 O
   0.0072865929217396    0.0092954321553406    0.8289218782931818 O
  -0.0725090728800577    0.8811942589031071    0.7164893526597418 O
  -0.1979064117535672    0.7460198819273857    0.7231357420661267 O
