Li1 Co1 H110 Cl3 O55
1.0
  12.6205776327999999    0.0000000000000000    0.0000000000000000
   0.0000000000000000   12.6230476415999995    0.0000000000000000
   0.0000000000000000    0.0000000000000000   12.6018696820000002
Li Co H Cl O
1 1 110 3 55
direct
   0.5578135978660528    0.1437639207681844    0.6163261910408319 Li
   0.5067525435506626    0.5486447502722226    0.3886940957734624 Co
   0.1317261273508895    0.1244532117444243    1.1762708800482895 H
   0.0821974117732872    0.0112052829883855    1.1514967784365315 H
   0.5342655473213912    0.1937803682954294    0.0953751603078988 H
   0.5773515308493384    1.2209023730695954    0.2504011246527347 H
   0.4712636766357310    1.0192315822844529    0.1443573364116304 H
   0.6364518368497160    0.1299368320210270    0.1173137302960407 H
   0.4284985975955051    0.3195178324217092    0.0934921063961531 H
  -0.0388508511865330    0.2939938853411164    1.2692491467314950 H
  -0.1438817014825597    0.2404806594404353    1.2687174795924856 H
  -0.1051655654849402    1.0046946807999599    0.1341644044704699 H
   0.0567446940494050    0.3717247176930753    1.0433144186437397 H
   0.2642620578500467    0.3538550235903120    1.1734379670837163 H
   0.1648632794027180    0.5255726675019571    0.3144551119077347 H
   0.2213456386686979    0.6216271255398190    1.0696438450203614 H
   0.3088749128541393    0.4577586162280844    1.1193586901829697 H
   0.3116941182055275    0.6456062792746482    1.1453389620205405 H
   0.0663635881707406   -0.4498660973349708    0.0050344387540065 H
   0.4119486419534463    0.4156657702620328    0.2583832735352675 H
   0.5481674466721799    0.3613017197186081    0.0590807046801518 H
   0.4926866263505942    0.3524060866521573    0.3251828851200780 H
  -0.2289911181235549    0.4794364239785838    0.2052459203569155 H
   0.6840273137787215    0.6317902813515117    0.0564554593130096 H
   0.7754613220764847    0.3802084058673224    0.0234628026285917 H
   0.9169992177237931    0.5936695347883618    0.3025846511130427 H
  -0.1482990904184757    0.4173048356119737    0.2894746917047193 H
   0.0181945805636675   -0.3281094468304664    0.0308769215139389 H
   1.2299405200090010    0.9831864042166367    0.2394638587169608 H
   0.2529923676553322    0.6809947221200862    1.3249075543884044 H
   0.2730572178838885    0.7971687271335157    1.2677017572970644 H
   1.3463694222948308    0.9433069698444638    0.2315650308039743 H
   0.5462119101889797   -0.1432555140678207    1.1824207611338478 H
   0.5304487648094077    0.7305413940298758    0.2754085249792222 H
   0.4382136838274812    0.9274312474603091    0.0638759455074962 H
   0.6404888945409253   -0.1552027081434413    1.2680588471665484 H
   0.4143154115949855    0.7158294159661963    0.3245464716193531 H
   0.9719887768542992    0.6767556507389677    0.2332520820540255 H
   0.6845114437589627    0.7427666509077339    0.1054091475804868 H
  -0.0631952202747992    0.9572893301279133    0.2466064496396845 H
   0.9321253082684813    0.8236607447107870    0.1144411406793026 H
   0.8678255572102596    0.7253833686584571    0.0674099449158230 H
   1.1610371761763090    0.2318060506526861    0.6091669359241989 H
   0.3166170307541995    0.1404303359481983    0.4464720301890200 H
   1.2253923922077170    0.3255472796804817    0.5766915961272356 H
   0.3175504270172504    0.0257457580948183    0.3873284254059468 H
   0.6023408783400863    1.2116336129950143    0.3672790195339841 H
   0.5021418195653540    0.0833399231999299    0.4467561150185206 H
   0.6090402547442424    0.0300138707986353    0.4408323908503023 H
   1.3546574740023971    0.2203500216408468    0.6568281175707527 H
   0.9419505320900703    0.1999064641635266    0.5557931098989443 H
   0.8950905533151692    0.2236804376539699    0.4426075242681596 H
   0.7626576291947865    0.2326537064885667    0.5894357368025986 H
   0.8960413814269359    0.0415622942965856    0.4501913195629569 H
   0.0806726796603934    0.6099920589402142    0.3498300214449083 H
   0.1807571636476578    0.4956131830147334    0.4862296227243273 H
   0.2009273973252683    0.4828492289701476    0.6112071093785176 H
   0.3573481299920046    0.5124134048011989    0.5327012983389776 H
   0.4003818179738046    0.6352997349524002    0.5557089953963547 H
   0.7650220217660463    0.6071741974371985    0.6091994707789741 H
   0.7001240413541716    0.5626271105556722    0.4645661706422969 H
   0.7028204314077899    0.5024633512510501    0.3543357020647533 H
   0.8347525860559754    0.6652354533881505    0.5241636763261364 H
   0.1450321744183043    0.8370093436216157    0.6455916896776555 H
   0.2786354094729197    0.9648231684449449    0.5523428282266852 H
   0.3437996217560892    0.8081605259399103    0.5899443914833525 H
   0.6211339959691548   -0.0380753675852466    0.6499204124288451 H
   0.5625043498841017    0.8123663248489661    0.5814400978583298 H
   0.6482452748626619    0.8687766324242405    0.4559134863381774 H
   0.6598287383342596    0.7458887178696078    0.5417785228212614 H
   0.9889135172437461   -0.2171211942485076    0.5701846251721935 H
   0.9653329800719325   -0.2637335510030624    0.4526004858824091 H
   0.7267575291215159    0.9482265424994338    0.3902375175426766 H
   0.9011679296628777   -0.0872175412989610    0.4575537191386740 H
   1.0397352798176751    0.2882710201463493    0.7096797988535173 H
   0.1925204921037313    0.0919436299341171   -0.0107548849750119 H
   1.0776416272067735    0.0670574844548957    0.8464547412624164 H
   0.1627041072322478    0.2516895215169525    0.8558819138167945 H
   0.2423201144575110    0.0706145493789023   -0.1255629282661233 H
   1.0298308203201054    0.1676892047863409    0.7142973676324673 H
   0.4851196192944510    0.3320742296167617    0.9072076310572975 H
   1.4365713158310964    0.2755110271103423    0.7405228411804171 H
   0.6098690599149991    0.0043904469485925    0.7638606479838060 H
   0.3647764746151818    1.0985468180679643   -0.2518608539043611 H
   0.7208370394122489    0.3131445696182898    0.6771211380870078 H
   0.8130000159290331    0.2573878284585306   -0.0115564327020470 H
   0.9495175391462134    0.0575750675775696    0.8391542372640763 H
   0.1353899850082304    0.5670737387863238    0.7606769934140951 H
   0.1552393141981196    0.4436605944941314    0.7591296039796643 H
   0.3047625812707485    0.5311545207913161    0.8295762934314717 H
   1.0536252938170667    0.6638205811237743    0.8789181780637302 H
   0.0827435040521452    0.3437283090575450    0.8785928295159782 H
   0.3382396543725336    0.5639302823781240    0.9515978694993776 H
   0.4512954939318711    0.4339347340295472    0.8449628991410164 H
   0.6327919409761741    0.3959407397409216   -0.1754404477026078 H
  -0.0524996717882398    0.3903501722326891    0.9883305140736337 H
   0.7545740055312502    0.3900317071429470   -0.1481960777270637 H
  -0.2307295488545683    0.5220125129912589    0.7693939538947218 H
  -0.1275805458630798    0.5957197528287906    0.7504729520103284 H
   1.0472626690358280    0.7298585161508767    0.7720364189289035 H
   0.0657777195825404    0.9091472318601947    0.6937083592910621 H
   0.2661518287221830    0.9541205232648087    0.6752912508891631 H
   0.4181852820098759   -0.3289578948680627    0.8342660737173618 H
   0.5254331465198385   -0.2625840663134711    0.8207680766508658 H
   0.4144936918659418    0.7532149993371059    0.6801254541889333 H
   0.3668413563312351    0.9956239711543228   -0.1789192965644255 H
   0.4262736598139711   -0.1371848723198278   -0.1162809722586687 H
   0.5155247252384699   -0.0577880397595916   -0.0891461098430997 H
  -0.2999102175531922   -0.0104395691707377   -0.0331555292542661 H
  -0.2842508709091549    0.7225504553228415   -0.2160018892107759 H
  -0.3143612201385261    0.7264734382193652   -0.0888866245379413 H
  -0.3173991159556206   -0.1081847441104092   -0.1018053424828298 H
   0.1165620036817306    0.2880317752281848    0.2142739457905148 Cl
   0.7962614793781406    0.1007772336062226    1.0468377053559821 Cl
   0.6689392563585039    0.4736200789813551    0.0870699641234395 Cl
   0.1475637542658831    0.0491714709967874    1.1491558559588031 O
   0.5649154915041901    0.1391612287995248    0.1422560609129778 O
   0.5855952105783555    1.2658677424570515    0.3162849991055796 O
   0.4860236983573891    0.3023318083996607    0.0445713497499728 O
  -0.1079388141442597    0.2904511592681653    1.3124094089564637 O
   0.2926006973644928    0.5945821511649361    1.0892837878419825 O
   0.3270309756483241    0.3935728488124666    1.1543058854098058 O
   0.0776552266477018   -0.3715450747047587    0.0057790108085328 O
   0.4486735854136744    0.4195404288538940    0.3266501277171356 O
  -0.1890278125860014    0.4854096249155362    0.2800364096877351 O
   0.9643663048249698    0.6526687575707929    0.3105342651408002 O
   1.2850727033562723    0.9508011980757064    0.2771408076127413 O
   0.2894819811578981    0.7237997574286205    1.2710187254180492 O
   0.4418743720577829    0.9451607218593799    0.1409649826515322 O
   0.5984472372224018   -0.1934985312857777    1.2108847913969405 O
   0.4894292477110335    0.6872142977906449    0.3299829664989865 O
  -0.0562826999022555    0.9515617117228515    0.1686727759243622 O
   0.9353422767132918    0.7468171782804974    0.0996171498974560 O
   0.7162279001404598    0.7038885595043020    0.0445158024369419 O
   1.2339577687812153    0.2460799411675414    0.5870892595935669 O
   1.0310748204330002    0.2260253547326674    0.6646031543289846 O
   0.3525432786005436    0.0703555786380151    0.4454785268188111 O
   0.5769109804908865    0.0970557076060208    0.4662190999714863 O
   0.7035169129996589    0.2500029240640650    0.6380523322332828 O
   0.8846552147885298    0.1783062921811733    0.5047729028801109 O
   0.1507133723861102    0.5764042905947357    0.3698714919864380 O
   0.2263263932608357    0.4612252909363210    0.5423935109298172 O
   0.4160950448775088    0.5612526405788005    0.5188462114029977 O
   0.6519748981310668    0.5327737810983626    0.4096608258434773 O
   0.7713957395419224    0.6226696629977805    0.5349049396002157 O
   0.2614246282931830    0.9119199378654115    0.6076497007454135 O
   0.4099233780753833    0.7628719382524176    0.6036637842689285 O
   0.6338053652719653    0.8169436663627208    0.5617731749132366 O
   0.6571149164319255    0.9120229240884624    0.3899859675679512 O
   0.8915487185988382   -0.0285451017242875    0.4118906536951443 O
   0.9316578177801960   -0.2418767056647975    0.5197103688871491 O
   1.0149582839385551    0.0565889348817714    0.7965780153589752 O
   0.1251875993689739    0.3112963630153840    0.8216250923376276 O
   0.1815645751858997    0.1034467157278736   -0.0831049427844734 O
   0.3225755535879373    1.0342992589185160   -0.2274049590429656 O
   0.5910529639398963    0.0210218663934604    0.6917895963923680 O
   1.4258824231413192    0.2118140481533584    0.6904056747648566 O
   0.1883004000010068    0.5146830627168977    0.7442421305543540 O
   1.0388716109494871    0.6602081412998350    0.8003861804337613 O
   0.0260289367141367    0.4173365236806048    0.9904809886209708 O
   0.3611522347958311    0.5511425622820648    0.8793387505766781 O
   0.4893103941970626    0.3665793675491090    0.8336233119522906 O
   0.8264486872132130    0.3416899740428529   -0.0262905161900880 O
   0.7086894179276698    0.4124684441371601   -0.2047376876611633 O
  -0.2050167796421179    0.5901474059600209    0.7410521277202967 O
   0.0733855330118135    0.8354090961557479    0.6670623132301647 O
  -0.3408283129863114   -0.0324360796714938   -0.0908371287583674 O
   0.4492781536214061   -0.2623606654296223    0.8139040158263398 O
   0.4351948045726220   -0.0661560664833354   -0.0813837696135604 O
  -0.3380978515920214    0.7534035433454606   -0.1634961883348890 O
