Li1 Co1 H90 C51 N3 Cl6 O45
1.0
  13.5959162095000003    0.0000000000000000    0.0000000000000000
   0.0000000000000000   13.2435322450000008    0.0000000000000000
   0.0000000000000000    0.0000000000000000   13.2871097123999995
Li Co H C N Cl O
1 1 90 51 3 6 45
direct
   0.8302764911799304    0.7326759541936690    0.4684301545573502 Li
   0.1447662352776726    0.3697048139365178    0.5634327568781520 Co
   0.2638468455912854    0.2110726634546734    0.1808439087364151 H
   0.5261632606856939    0.0027475769928176    0.9994026649608686 H
   0.6272272845313168    0.1076667159577713    1.0614078728527803 H
   0.4024597916377737    0.1956825095116457    0.1341565543435273 H
   0.0477150340443189    0.2103568423410442    0.2972627562873167 H
   0.0456077836348187    0.2738391508707351    0.4100961739718916 H
   0.7413372846294312    0.1262795750832560    1.1295694233783093 H
  -0.0595443795567325    0.2274693464530466    0.3682488488548953 H
   0.7599884734196957   -0.0221279617913597    1.2094942545106160 H
   0.8901415261991431    0.0036702915506814    1.0866782294064443 H
   0.0974233427442336    0.3586752791192377    0.2015173287612117 H
   0.3173673284177060    0.4797774873768202    0.0833915637172729 H
   0.0619406292171442    0.4918651991019485    0.2346449245685390 H
   0.2133213797517703    0.4742433142692136    0.3035064015793082 H
   0.5483692669119637    0.6425368600369198    1.0703007022609492 H
   0.5560270075449378    0.3292443091340848    0.3486810116331286 H
   0.5290529519278735    0.6172709420167232    0.3220153177637278 H
   0.6282246428403159    0.5407950456120930    0.3107510170061054 H
   0.3936086044028955    0.6812780350126296    0.1397303775152352 H
   0.8066274781200137   -0.3571979354137934    1.0436937119032139 H
  -0.0253032153110520    0.2890027791448926    0.1502623895952892 H
  -0.1494213677030825    0.3044676865586474    0.2199419527237530 H
  -0.0832272263055976    0.4123074964808982    0.1551009136529330 H
   0.0040041144679872    0.9637381771255693    0.2396588065520548 H
   0.2787829482320259    0.8173920238376705    0.2936344277009268 H
   0.0419096143297690    0.7014116364617949    0.2030232996181638 H
   0.5646785024635231   -0.1818648024517269    1.0852151572695552 H
   0.6337358565640107   -0.0702639113406712    1.1711194678913595 H
   0.7005684249616513   -0.1528181710180900    0.9809434209786272 H
   0.7377214930018211   -0.1489898872141871    1.1593313511834926 H
   0.8566822143741601   -0.1107787823036331    1.0250365317213832 H
  -0.0453003965094788    0.7915597916452990    0.2612142844700788 H
   0.9700412536806168    0.1063332348536899    0.7812002068826991 H
   0.2515034332449561    0.0856068912376480    0.4162363355093448 H
   0.1973320196637683    0.3487640260206124    0.3505068413677442 H
   0.3039794848038410    0.0819462364287089   -0.3607772681613641 H
   0.6073661736036606    0.0391902715150598    0.6328338546307676 H
   0.4684838819725443    0.1770847520974190    0.5637917514302589 H
   0.4361478486206465    0.2405655504559841    0.4689283817973813 H
   0.5111179340708484    0.0969777247293590    0.3342203799262429 H
   0.6994710366157614    0.1231844793609290    0.4809008726884245 H
   0.8806305820297723    0.1322568323991724    0.6498601308410763 H
   0.9224188654558654    0.0419274566805723    0.5808074911128330 H
  -0.0306254016856222    0.4044546066267383    0.4453787907446345 H
   0.1061288980136385    0.5168315746793426    0.4445566405376707 H
   0.3440525473032484    0.5824934376863443    0.3883043767889586 H
   0.4272532660021171    0.5068740348357116    0.5546896966856417 H
   0.5246330953272561    0.5842967330276621    0.5919859944303293 H
   0.6389668390814158    0.3956133097707423    0.4378949961382574 H
  -0.0906941743535022    0.4949590866873749    0.3511149495398668 H
  -0.1505143429591096    0.3766108264948012    0.3771544726181710 H
   0.6467419679047411    0.5095706492539294    0.5968433337160709 H
  -0.0371935504314642    0.6360710623618071    0.5148045740765145 H
   0.2132544478888508    0.7059172320156192    0.3272602507482852 H
   0.0565640147342657    0.9204445912911355    0.3854542460366958 H
   0.3122150460028547   -0.0100843470631048    0.3570018581071230 H
   0.6305297467786662    0.7907669518042540    0.4869287599967722 H
   0.4093295015242422   -0.1634950808774959    0.5002931412537646 H
   0.8591366278528697   -0.0619232362128779    0.4408176031491530 H
   1.0322268384526998    0.2957034084300671    0.9118975547324991 H
   0.3136801918373134    0.2831606821447354   -0.1218411813284848 H
   0.4303847210172820    0.3269148701725383   -0.0740407180413281 H
   0.6209849689203470    0.2872086958474423    0.7151873554059448 H
   0.8446484538332062    0.0037208822833957    0.9558544432238266 H
   0.7496427197512731    0.1212854391702355    0.9990391547540182 H
   0.0874085708155232    0.5212977245633610   -0.0350901854422773 H
   0.2999128224952451    0.5792714120808937    0.0084316949754277 H
   0.3017170407341646    0.4762327382017862   -0.2281118474525286 H
   0.7218836489991094    0.5201205008656661    0.9379701926122556 H
   0.8015752257420530    0.4340124309864584    0.8804226885612872 H
   0.9415981539997147    0.6011453347354310    0.7811354824980424 H
   0.8937963001205416    0.4889248204114596    0.7232229630219758 H
   0.1643419663941994    0.6738238303356809    0.8126630313079284 H
   0.3355624979221449    0.6988828549116429    0.7645901235179148 H
   0.1531099171783256    0.9465924492487993    0.8073676735120687 H
   0.2737181920994539    0.9653578356579897    0.7606065634250374 H
   0.2606767760398207    0.9333308815075867    0.8844295795370060 H
   0.2069415228400757    0.7327665644612170    0.9198586540452627 H
   0.0679961240239210    0.8632989608053013    0.8895209802602849 H
   0.1341343662831434    0.8452425997396738    0.6639903671425637 H
   0.3582825555659365    0.7830665892337999    0.8635695124494787 H
   0.1877416398768664    0.7265786382732516    0.6584985783653624 H
   0.2692190469843010    0.8363182434717588    0.6355537840045931 H
   0.5375018124702573   -0.1024328215768995    0.9116078002197922 H
   0.3727935305498912    0.8280863006650232    0.7359337785157611 H
   0.6954132004868914   -0.0390245114323728    0.9074247987090777 H
   0.6932802070531913   -0.0032357210076019    0.7242450062122512 H
   0.0295301617495600    0.7406889221871638    0.9303673352424754 H
   0.7684616059563250    0.7141189713998389    0.7511485245648087 H
  -0.0482608442924591    0.8236116636192778    0.7777382049126942 H
   0.3276549764029347    0.1352983170465335    0.2787922231682167 C
   0.3359449657102566    0.2859726207809750    0.0404913384359209 C
   0.7085296390741925    0.0868565578442475    1.0628905128268911 C
   0.0083083481141985    0.2629734696206042    0.3399251570855118 C
   0.8400419235313911   -0.0300873187098885    1.0336230492161191 C
   0.0763199470201913    0.4113545785005184    0.2614588824353509 C
  -0.0748305873265907    0.3412879238623396    0.1944315138595604 C
   0.2602200212390181    0.7303238626652356    0.1771523609836164 C
   0.1193777292968246    0.8321584771057428    0.2706798494215465 C
   0.1202721155090243    0.9102705684166210    0.1808559504823977 C
   0.2143650755043291    0.7728533019100147    0.2702335522110654 C
   0.0285585464647608    0.7548686739728626    0.2639123881793108 C
   0.5599725305367991   -0.0732095001215440    0.9843610190103212 C
   0.7150830775204917   -0.0703688682339143    1.1599853685121742 C
   0.3068251922503877    0.2048235753361130    0.5536021012406734 C
   0.3166685891894250    0.0717352143616123    0.3708784651338513 C
   0.4060785253252924    0.1739896563750919    0.5089932274652993 C
   0.4082174028788096    0.0781602374163283    0.4510543666698956 C
   0.3970088901422043   -0.0172312319159532    0.5144575460094777 C
   0.8637497777894788    0.0515782052599971    0.6340643705483671 C
   0.7612042796769046    0.0359192408565771    0.5849363047666258 C
   0.1586586421658544    0.4176187683303367    0.3379367637801308 C
   0.4624483931731456    0.4502506215251790    0.3715701129187283 C
   0.5866628980271813    0.5833372458028850    0.3670612316573589 C
   0.5344422908198565    0.5092844869273015    0.4438542304423217 C
   0.4779156111788775    0.5607925806428238    0.5274887472073132 C
  -0.0788516477066039    0.4186207668723050    0.3745933437694913 C
   0.8903665937821474    0.6326686468153798    0.6416890535827409 C
   0.0232267983954877    0.6941167548386181    0.3579147729744308 C
   0.4072075408151992    0.6459966620861276    0.5011183018972240 C
   0.6442699020665805    0.6603848174871869    0.4227251055929951 C
   0.7407348978631553   -0.0713104599308506    0.5360412467696484 C
   0.3479257691728568    0.3332258753072564   -0.0654752736020616 C
   0.6807926337713429    0.1570455363436161    0.7151813345329535 C
   0.6751394656570606    0.0536033447396949    0.6665996629751739 C
   0.8976709930201044   -0.0137782256368116    0.7190843654495721 C
   0.2025402012168822    0.4369980393021650   -0.0709760936887498 C
   0.3144833741923481    0.4414060778012626   -0.0744621791507200 C
   0.3471284709376393    0.5109186582042410    0.0157726443700859 C
   0.4554883620474846    0.5310865329871064    0.0265929057445991 C
   0.7930064762583957    0.5199215358198419    0.8956878594216371 C
   0.7831535176246556    0.5767748726842775    0.7962832463350616 C
   0.8788219507009899    0.5700016041679521    0.7357651940720044 C
   0.8835630802436212    0.5471996058480544    0.9606267376785659 C
   0.7101205579697419    0.5088192787119989    0.7358020719190762 C
   0.1636241037765127    0.7445844086061648    0.8536847442159907 C
   0.2282633665123280    0.9191284771550008    0.8092047923835430 C
   0.2042966109822876    0.8074973826214291    0.6724368993402517 C
   0.3336663403110833    0.7796022566712147    0.7895925512234654 C
   0.0650371472708950    0.7811766100698613    0.8711415128451785 C
   0.6708094889866495   -0.0767297090157838    0.9775973208137052 C
   0.7308201559713355   -0.0232024485473664    1.0572015404592243 N
  -0.0183415660524412    0.3607185406524450    0.2980898737144983 N
   0.2309833008977842    0.8134172534345651    0.7834798599190349 N
   0.9560686756599269    0.2332706688328073   -0.0973098869345045 Cl
   0.6992261101283744    1.3101593520150787    0.3270879032589089 Cl
   1.6720395488253761    1.6829752978413199    1.1036036559941487 Cl
   0.0353679441231040    1.2597641864615703    0.6109412078252300 Cl
   0.9436105229771642    1.0204624698673053    0.3695200056651863 Cl
   0.2245585775724841    0.4948794251604889    0.6321444646732621 Cl
   0.2516225866712524    0.1808367722594691    0.2485087372401608 O
   0.2611195560560578    0.2863199601399090    0.0945211474417147 O
   0.4021486688024443    0.1280170269634889    0.2240662507228023 O
   0.4148046750140572    0.2357866139283900    0.0679299618755815 O
   0.2222527381191566    0.6986465131304552    0.0999722953262246 O
   0.5169954342531579    0.4661168569156151    0.0039724859162366 O
   0.4742053058767050    0.6252227480796230    0.0552575294471157 O
   0.4847222874318053    0.3531238900607970    0.3510088316533950 O
   0.3537716422111493    0.7101947917294475    0.1973426059508601 O
   0.8717801303098711    0.6162840451860130    1.0358846396334811 O
   0.0337777607425317    0.9605049007452316    0.1726291801488926 O
   0.1911639910654893    0.9216263001970739    0.1275441305808180 O
   0.5160260255132900   -0.1322073554931719    1.0599591002892457 O
   0.2672412472107770    0.1489464885959508    0.6241058466207355 O
   0.2664910219340963    0.2843318198527933    0.5239091876921529 O
   0.6120661143075721    0.2195145200478952    0.6804258451906000 O
   0.5025936324927746    0.0639910568285100    0.4019928315347083 O
   0.3860467749229402   -0.0117364742747300    0.6074513593176403 O
   0.7628459491058766    0.1139052328784510    0.5141454390057905 O
   0.0877535273398009    0.6274615767736215    0.3786228130189275 O
   0.1333981157910283    0.4489847960875334    0.4383192419014078 O
   0.3876869733219577    0.4833097776400664    0.3291169374569813 O
   0.6022249239134663    0.4419091913118229    0.4866025340459204 O
   0.9600397210214948    0.6009626040292092    0.5799660741122971 O
   0.6969254192798870    0.5484445154156077    0.6437481921457698 O
   0.1192960871343622    0.8848702451662283    0.3637030897464542 O
   0.4102959682042014    0.7253478488057246    0.5503155324574529 O
   0.5935657060876210    0.7415308425897973    0.4425835251975051 O
   0.3918698469969413   -0.1001962581395897    0.4610159762949351 O
   0.3394040926477365    0.6447938107844279    0.4285597078261392 O
   0.8388577444181990    0.7069539644934809    0.6178817691659658 O
   0.7350309792154504    0.6507899452394167    0.4331345176467635 O
   0.6694399600992186   -0.1228042749783783    0.5617499228770800 O
  -0.0524488665722826    0.7143757004912248    0.4144282673500536 O
   0.8070452506270279   -0.1122051389319511    0.4702945178791102 O
   0.1558931058518157    0.3631227330847186   -0.0987865060356239 O
   0.9635172358334030    0.0281116561361912    0.7816111314643562 O
   0.7363306341800532    0.1748542293446124    0.7827498290688383 O
   0.1651525038990054    0.5280865025371484   -0.0389804220037893 O
   0.3337950554320824    0.5017001885587208   -0.1619973937440460 O
   0.6713214074107375    0.4297673399518347    0.7642499441939055 O
   0.9667468820980158    0.5057760649186986    0.9452223341302920 O
   0.7522817474892441    0.6755794042694233    0.8155681025262368 O
   0.0116468505954277    0.7737911181791364    0.7770503201734367 O
   0.8734512203379285   -0.1040351131413733    0.7258412901640729 O
