Li1 Co1 H110 Cl3 O55
1.0
  12.7710155164000003    0.0000000000000000    0.0000000000000000
   0.0000000000000000   12.2047231957999998    0.0000000000000000
   0.0000000000000000    0.0000000000000000   12.3959494972000002
Li Co H Cl O
1 1 110 3 55
direct
   0.4468748590017178    0.4470827408668922    0.2570789554539425 Li
   0.6237730858575906    0.1364874132068187    0.7462476150527633 Co
   0.2531565132035297    0.2440277464813718    1.0375653556434046 H
   0.0112064508900028    1.2838792692399852    0.2912562486169791 H
   1.2429211864801271    0.3286499032833723    0.1812154647054187 H
   0.0519864498909599    0.0089061501974421    0.1764647193096504 H
   1.1174965483264079    0.3084478883712398    0.1666808782228991 H
   0.3931845319388872    1.0907491210026907    0.2778413827337677 H
   0.3549330710920441    0.2575954446047495    0.3005802620800952 H
   0.6628576832695203    0.2919411641491511    0.1854507191336381 H
   0.5665787304782542    0.1789381916217109    0.3270147034332175 H
  -0.0077841297485185    0.1279718575213145    0.1661121440568239 H
   0.6978713436496031    1.1778055812725670    1.0632995682643946 H
  -0.0468241731467700    0.0762295943115010    1.0044819681955424 H
  -0.0479435046503331    1.3173417241804253    0.1813517995622510 H
   0.7803518635931677    1.0986804766301015    1.0124200450667193 H
   0.2658649779134489    0.5496602413898722    1.1552247572349847 H
   0.1936420604159685    0.4617328068398371    1.0910586358596381 H
   1.1432188567503665    0.6600584846260378    1.1176237650636887 H
   0.6129947730583277    0.3798743341836276    0.0976809197934782 H
   0.5192935322710701    0.5335943301148441    0.0857149142822824 H
   0.4796694319518617    0.4202972091710567    0.0452917099030467 H
   0.3938947338792382    0.6640126914708605    0.2315133462949520 H
  -0.1935730356466486    0.3638584035587309    0.0806184107821455 H
   0.8296102799808199    0.5369823627098176    0.0810071668028996 H
   0.7458119321810145    0.6440900765865119    0.0700255957638478 H
  -0.0958032068968069    0.3684590814355813    0.0068773552699014 H
   0.8735378751888586    0.6583165360657200    0.1946166164314340 H
   1.0344021382822537    0.7094934443806045    1.1658653297889301 H
   0.1609727711598225    0.8410261284280753    0.1778450088956853 H
   0.1743201827091314    0.9059845865005063    0.2835997153258877 H
   0.3033576893885168    0.9513031071360530    0.1736597708054754 H
   0.4136879914847427   -0.0194087484246686    0.0331549227990025 H
   0.4103256903470721    0.9003474246496193    0.2106371721819119 H
   0.5601485448838084    0.8149542548677227    0.2330840206514745 H
   0.6338325834625403    0.8446968384705132    0.0587113354055203 H
   0.6657611328779233    0.9786777550195032    0.0812937926882989 H
   0.8904198529550851    0.7634283013568386    0.2603025891101644 H
   0.7837736744854872    0.8884176170116955    1.1764817008890001 H
   0.8846176518768041    0.9551213010641250    1.2303218686107831 H
  -0.2246011085114211    0.9922790466946086    0.3302972272938698 H
   0.2277309705297290    0.0819962142397776    0.5450722229972139 H
   0.3462039297127354    0.2408707719738910    0.6353242847898750 H
   0.3591449522796384    1.0984428637032473    0.3978192836066244 H
   0.9865359369441538    0.2696219361232553    0.4750791982437668 H
   0.6754964589246532    0.1597915058467794    0.3482135635979316 H
   0.8774529906262951    0.1601397316878589    0.5769027818494523 H
   0.8664593464779732    0.1345111291393275    0.4468401351466584 H
  -0.0183760830529594    0.0239296781430082    0.5174220619444103 H
   0.2377121658259299    0.3682042620554031    0.5412758215992710 H
   0.3066839714641629    0.3484553504141341    0.3586693983872937 H
   0.1540798189206717    0.3897573932309240    0.4554356848481207 H
   0.2393048347858791    0.5504550156624536    0.4738836464223151 H
   0.3195459086992297    0.6143769897608480    0.3342388374150660 H
   0.3220100823555522    0.6544409872932352    0.5048639275283929 H
   0.5904985197548169    0.3607309258283768    0.3695334310320233 H
   0.6023613195302499    0.4896097192893618    0.3915833756580271 H
   0.9800916569341331    0.3989972586658736    0.4432631602638537 H
   0.9129709178747200    0.5760770633716236    0.3716510582461330 H
   0.9492875286723820    0.5889991098178938    0.4997824289296589 H
   0.7114802849101328    0.5146959088807294    0.5252359046856928 H
   0.7965330356960931    0.5797756314813479    0.4534100231587381 H
   0.2425528145527765   -0.0207876162392039    0.4765942092563756 H
   0.1914863978561159    0.7836434259476940    0.4301629132810243 H
   0.1128928045188386    0.8828132293576160    0.4520176328457654 H
   0.5301141283170573    0.7643345078985655    0.3571487403687807 H
   0.6498117356088940    0.9344899441738144    0.6321829360768300 H
   0.3543716435383157    0.9602996241597073    0.6148272667875516 H
   0.6315868732476265    0.6705568792183946    0.4699952794996452 H
   0.4217077139467878    0.7745600573025000    0.6037276733251000 H
   0.5424193361369205    0.7131698899074838    0.5372422459533478 H
   0.6611029285304612    0.8254993526905303    0.5046219129896375 H
  -0.2728909253398517    0.9959825309338541    0.4407050665892092 H
  -0.0194341038487723   -0.1111978436812914    0.5595438856996572 H
   0.7751244014611023    0.8511205810447799    0.5626206972023675 H
   0.2370849643328525    0.2586040705114998    0.6851397507321558 H
   0.2365885276953855    0.2056991426699408    0.9128955995792100 H
   0.1244682348211637    0.1313598901162881    0.7807322666800193 H
   0.0910466952848686    0.2462342692814355    0.8338859198268661 H
   0.6210489485362223    1.0994097025090681   -0.0426562121376372 H
   0.5055734017321172    1.0621536342881619   -0.0920254032704531 H
   0.3908017926836633    0.2850807054024247    0.9459709198757803 H
   0.3523028965411742    0.0751513232365348   -0.0200774657444528 H
  -0.1001607303786738    0.0597102520236414    0.8914934472019415 H
   1.2985393163843513    0.5481657380154510    0.9688896966959161 H
   0.1765384871159830    0.5536037966207326    0.8341924715759563 H
   0.0744505992478836    0.6159935770183770    0.8723178285812225 H
   0.0263510257087890    0.5642308299355588    0.6901026622068998 H
   1.0287017302053458    0.4210559318271499   -0.1358066400464328 H
   1.3469144827293180    0.4627070198399394    0.8876050802792715 H
   0.3741077404584336    0.6308640494648522   -0.1674823095938678 H
   0.6631497508811530    0.5674721979998190    0.8974308705527403 H
   0.4853768872365568    0.3335504650610111    0.8733423567952870 H
   0.9435323089793500    0.3666294618988035   -0.2014345292358618 H
   0.6672590560442864    0.4396749530334809    0.8916063873200273 H
   0.8081554473836673    0.3715062623837569    0.6797984898618243 H
   0.7393034442778198    0.4592264001389848    0.7388226090037479 H
  -0.0975775372130531    0.5324824654881503    0.6771363299355150 H
   0.0504790521452381    0.7439571510335130   -0.0144582108406043 H
   0.1583363324242527    0.9488614294738956    0.7732870927527742 H
   0.0871657979563552    0.9949173695376109    0.6780705060551108 H
   0.2733491125836527    0.8034578859825779    0.8593216478500579 H
   0.3088795682014774    0.9333838150315620    0.8890894361169712 H
   0.5329377095705365    0.9567763980029027    0.6813812649452846 H
   0.4454458418670534    0.6908711457545926    0.6822484837091580 H
   0.4727091397271869    0.7012417209794005   -0.1223135227956905 H
   0.3483267053029137    0.8891386493414600    0.7312475539407041 H
  -0.0581844287046535    0.6765815959465301   -0.0240430353049858 H
  -0.0030608561824862    0.9401680737707108   -0.1829179968756867 H
  -0.0739897497255851    0.8641565178249563   -0.1150506664876411 H
  -0.1154116710536643    0.8551272266044947    0.7148542958005429 H
  -0.0885641584529866    0.7322010466386688    0.6714167196695958 H
   0.5851277643977415    0.6811970222119440    1.0125410523360971 Cl
   0.5009332069156673    0.2666460390531359    0.7177383023873781 Cl
   0.8102328076347711    0.1767955785054217    0.7359297285504918 Cl
   1.1850557803148138    0.3267219611561721    0.1238063892521229 O
   0.6300928651967008    0.2203828021946133    0.3277318731830627 O
  -0.0003846398740720    1.2669759772365259    0.2176596273814642 O
  -0.0139822272998331    0.0465732887818060    0.1495381817277254 O
   0.6726861890636611    0.3201245153388258    0.1092653490485697 O
   0.7110942545280016    1.1025396383041826    1.0479639136585948 O
   0.3322199203932995    0.3334808198927952    0.2793063774083670 O
   0.2172846595195606    0.5423737180846485    1.0900986448559085 O
   0.5028547455723612    0.4578064580623006    0.1129520371889435 O
   0.3655837511280466    0.5957210975831085    0.2627251546431059 O
  -0.1267404490834309    0.4026442074156263    0.0746694514049992 O
   0.8205037214733424    0.6199117322467117    0.0714099995970416 O
   1.1009982518730501    0.7313800530086415    1.1355570423854631 O
   0.1713439119535921    0.9190451039282882    0.2024506270509461 O
   0.3776477878369638    0.9685833024027984    0.1783330715488421 O
   0.5034905603194009    0.7827331226313661    0.2789732040600137 O
   0.6812172256018355    0.9009373601921539    0.0958004668273488 O
   0.9190706677262463    0.6874355905742483    0.2507171999451924 O
   0.8345589858937397    0.8898432945728209    1.2396394283528658 O
   0.2781466950406876    0.0438168149593127    0.4961465638424237 O
   0.2756371060452907    0.2615865224209807    0.6155379828163633 O
   1.0201354576282347    0.3291833033364140    0.4368497749868358 O
   0.4038344289518022    1.1326591251702594    0.3414839459902733 O
   0.9154765917546794    0.1494364983654552    0.5043314955431312 O
  -0.2402075416681309    1.0502566008470458    0.3887324443914886 O
   0.2245550288868804    0.4158505700192014    0.4743838098024097 O
   0.2641924405985761    0.6232473261267932    0.4516949467940916 O
   0.5522165210075619    0.4308685263513103    0.3721802633708781 O
  -0.0386721197829395    0.5918775036525110    0.6500065001410354 O
   0.9178804726332656    0.5390045306528393    0.4440900432712679 O
   0.7115123888567199    0.5654934558675671    0.4688610380280116 O
   0.0205133850055683   -0.0477048838191071    0.5303133697087810 O
   0.1863388040789742    0.8628537435018588    0.4271998486115291 O
   0.3881661369711810    0.9051324573835117    0.6619483041983557 O
   0.4442266749198356    0.6958266043118840    0.6070957089894460 O
   0.5857009372977822    0.7323690143973073    0.4663763554301229 O
  -0.1048486896034604    0.8078258670620951    0.6493780690554006 O
   0.7102329291317656    0.8817234873137670    0.5365452440817323 O
   0.1052865182469868    1.0031109187394815    0.7589961342392681 O
   0.2836959796617102    0.1986584258407733    0.9791188445339772 O
   0.1445269372533263    0.2126947949784980    0.7904063945092014 O
   0.5803990879724056    1.0765251195882433   -0.1097158593383431 O
   0.3996131514871580    0.0109498671748647   -0.0379468512279960 O
  -0.0998428230051539    0.1060360875980663    0.9583378628061809 O
   1.3095094698400485    0.5316188654022730    0.8920662149436624 O
   0.1019630550544556    0.5561118420314252    0.8231001385496675 O
   0.4405848345399321    0.3505414280409304    0.9373552022960884 O
   0.6684915343839916    0.5054699724794228    0.8483261206392713 O
   0.7917777364857825    0.4472400570115681    0.6830108295062375 O
   0.9843747932226887    0.3582876094563790   -0.1387640577100237 O
   0.2648533120844153    0.8845338746900087    0.8456236249565027 O
   0.6032625791039478    0.9940324662238089    0.6748799477191855 O
   0.4167167247871436    0.6978913787107555   -0.1751041541344043 O
  -0.0012297566923971    0.7115909929762834   -0.0692035129373325 O
  -0.0795147606308956    0.9250427819440575   -0.1663456479768466 O
