Li1 Co1 H90 C51 N3 Cl6 O45
1.0
  13.5285972479000005    0.0000000000000000    0.0000000000000000
   0.0000000000000000   13.1779580809999999    0.0000000000000000
   0.0000000000000000    0.0000000000000000   13.2213197784999998
Li Co H C N Cl O
1 1 90 51 3 6 45
direct
   0.8653247568455171    0.7638755928973272    0.4672463863513684 Li
   0.1772674638807997    0.4030533797157857    0.5773090748256574 Co
   0.2344012513560667    0.1877142518662714    0.2385350284340375 H
   0.0791856024959491    0.2633192882365490    0.1934812811546883 H
   0.0493569371431801    0.2335005562611791    0.3093963354514745 H
   0.3583527571384048    0.1078946019983170    0.1837462469707861 H
   0.5509597918702928    0.1901486199074213    1.0983561499597534 H
   0.6084999038076804    0.1291308207114034    1.2654650344746594 H
   0.7386782192478399    0.0989721271143266    1.0355424510315652 H
   0.6697642008232971    0.2011586716247045    1.1516881933421879 H
  -0.0472680104435264    0.2211200342563907    0.2070888485544696 H
   0.0965273856609714    0.4495243880644121    0.1943639464404170 H
   0.3045726063461311    0.4013687484653640    0.0940645797950057 H
   0.0273797879567667    0.5179068259550946    0.2869084140502017 H
   0.2111497645806120    0.4663701693785954    0.3202772461631221 H
   0.5142321850907261    0.5711539296176640    1.0042089679194124 H
   0.5380642937781250    0.3805263692202816    0.3324068975660621 H
   0.5524381417415704    0.6229873013586801    0.3094122188884927 H
   0.4017046279386859    0.6370319658554391    0.1231615237041594 H
  -0.0566023115307734    0.4135588009008480    0.1138099610711265 H
  -0.1630043259911747    0.3738735934669270    0.1867951105241471 H
  -0.1067996814100057    0.4980195339794237    0.2053719246482107 H
   0.3258475393436877    0.8204260839081052    0.2724877659459146 H
   0.0828556060513958    0.6954674226437161    0.2062235794140466 H
   0.0264927780340001    0.9759949502984006    0.2022595273467767 H
   0.0060035879930277    0.8035084401707622    0.2487473220826311 H
   0.4980951831533014   -0.0198960609897542    1.0799510282263156 H
   0.6231119139353886   -0.0646010142441885    1.1816851986823760 H
   0.6488854655912429   -0.1703905448703332    1.0960129648224890 H
   0.7475327958018573   -0.0783231705060695    1.1264191577544334 H
   1.0476991711908763    0.1185396502780088    0.6343722131990940 H
   0.2289594454798937    0.0630697515647986    0.4996826338050742 H
   0.6399015334234888    0.0353560498095502    0.5896860540335959 H
   0.4818906945442529    0.0468024361975507    0.3896553427047116 H
   0.4947172276149256    0.1957890992247117    0.5179461660428063 H
   0.4062512929678003    0.1965502186590238    0.4228102022303718 H
   0.7531741789106529    0.3153174806566604    0.6149074393102957 H
   0.7377032475077323    0.1652646433471380    0.4629290412635639 H
   0.8870328463553580    0.1554892290372585    0.5913893635652676 H
   0.9409563970851456    0.0889736129902021    0.4931603651174785 H
  -0.1473234689065327    0.3216932787494728    0.3410535381371420 H
   0.1554632816293258    0.3345587013709366    0.3529577960052515 H
   0.1232626039080919    0.5286402111374269    0.4404729623717420 H
   0.6479459742480460    0.5464324972077591    0.3336299222164676 H
   0.3566245661388812    0.6344177520456631    0.4110839901276955 H
   0.4264337254104826    0.5639364988582558    0.5712219366769474 H
   0.5464542249676000    0.6206652420675582    0.5844301490888412 H
   0.6346275202577057    0.4283000831849436    0.4476964469859865 H
   0.6309907795743627    0.4686736370185302    0.5992395632230036 H
  -0.0416894572042602    0.3449814086792890    0.4220912119813455 H
  -0.1100106573304207    0.4509858436162983    0.3697435635169710 H
  -0.0034467635591146    0.6568218299904607    0.5251919631042906 H
   0.2573844176298845    0.7445896004516210    0.3403092856597152 H
   0.1074723489329754    0.9370101548663441    0.3490610594567732 H
   0.1956950950262755    0.7803515900636138    0.6626008625512498 H
   0.2849356850059502   -0.0373843545921050    0.4374613870776667 H
   0.4137132639430742   -0.1294767707722533    0.5910164809724104 H
   0.6546739445122306    0.7968313814444286    0.5012588758405999 H
   0.8613391255925527   -0.0536888532617271    0.3770915440232728 H
   0.2812819432990876    0.1714089943537437   -0.0764932796152927 H
   1.0006684267359207    0.1969812414294020    0.9359101887409204 H
   0.4056695622934526    0.2171710157756724   -0.3226063798589939 H
   0.3964934446424322    0.2155440565860759   -0.0318199784702379 H
   0.4933001553458124    0.0169123729890547    0.9561782107303561 H
   0.6348507510882686    0.1168648839853598    0.9601437755059137 H
   0.7396591043874327    0.0105373337391481    0.6746261370823556 H
   0.0512603126024501    0.4335512760916636   -0.0769660009551217 H
   0.2921130736310032    0.3925016691134822   -0.2033179860811881 H
   0.2823552253056351    0.4909449174548486   -0.0092065022811066 H
   0.7154622128692958    0.4850083376357949    0.8883786252867236 H
   0.8164911647225385    0.4028097911430896    0.8515767017154292 H
   0.9637577263247962    0.5839579618480651    0.7861308903670732 H
   0.9458127764122926    0.4834762338093979    0.6953638549950454 H
   0.7595384751065030   -0.3674506648098663    0.9898858894996659 H
   0.1166218562863127    0.7014713877127866    0.9094589716265216 H
   0.1322953216215983    0.9685643605668106    0.7654453608903005 H
   0.1924434644844003    0.9592966121607744    0.8920582881959525 H
   0.2629326646967895    0.9505987547768403    0.7754541952742315 H
   0.1558964381416102    0.8030091215388804    0.9817149956849900 H
   0.0220880345925284    0.9176429662297391    0.8999349602487190 H
   0.2537853748682591    0.6912793686477352    0.8688699828575891 H
   0.3151228502025040    0.8047544602217497    0.9061763946427490 H
   0.3174911666962907    0.7788156920226889    0.7688587871409376 H
   0.1168613489654597    0.6970518866305991    0.7388731271129053 H
   0.0761061997140777    0.8224559886805728    0.7120997031332790 H
   0.5150954674980587   -0.1233521496811931    0.9855603001516948 H
   0.6399311004209143   -0.0502490183706633    0.8630279034514466 H
  -0.0346532509919143    0.8183756903771865    0.9796705704344976 H
   0.7576225336733272    0.6807458702751659    0.7223808250089517 H
  -0.0590430671682528    0.8524143477505723    0.7808893561510494 H
   0.6904625773710552   -0.1457622983692355    0.9210523679415595 H
   0.7670041419564552   -0.0305767748860090    0.9319211769869075 H
   0.3000126361681753    0.1932742938355686    0.0853559181841402 C
   0.0139467618514025    0.2673965511683130    0.2423674748802991 C
   0.6169952413429773    0.1449876020667241    1.1207139784483051 C
   0.6600366586702902    0.0839591790700279    1.0299537502635709 C
   0.0628875343400487    0.4432550556312548    0.2692324177113163 C
   0.3233698249594263    0.4221048897036631    0.0093211488236148 C
   0.4297299282009769    0.4379624299018894    0.0176781057576475 C
  -0.0932683450382015    0.4174326939339123    0.1858496678444892 C
   0.2867488811230723    0.6986856754063460    0.1811368251749301 C
   0.1588287451112894    0.8270302937155017    0.2616053425259795 C
   0.1550678230387590    0.8997297206002548    0.1634124221708461 C
   0.2589041612975579    0.7725514438369991    0.2629221550902071 C
   0.0720946973383659    0.7573503027521127    0.2635937975698361 C
   0.5258600720857668   -0.0405236876925531    1.0063645772290326 C
   0.6665561816026246   -0.0891070870374853    1.1137237534519859 C
   0.2914862532855815    0.1017085146319035    0.3421358809168145 C
   0.2907256422768091    0.0480029256742026    0.4476760254241059 C
   0.3543212970394306    0.2590439673064248    0.5509263077612657 C
   0.4166100905158427    0.1786946450903648    0.5013224095886730 C
   0.3928626173585744    0.0659783964219456    0.5023088466629209 C
   0.3848536569309278    0.0302930499434179    0.6104139393424172 C
   0.7156684426763391    0.1720449047086326    0.6634789897121163 C
   0.7124182904843352    0.0625431145883154    0.6184048208708863 C
   0.9370239864275469    0.0255639409557475    0.6514310245566988 C
   0.8933882724519805    0.0772988148876173    0.5615708578029989 C
   0.7837471934236100    0.0435189229450395    0.5305091327346870 C
   0.1453521076847224    0.4196781100915691    0.3458730267409665 C
   0.6013875625769637    0.5997348370454267    0.3716677284586109 C
   0.4505737743760688    0.4943641118188802    0.3784605450234175 C
   0.5307725547905288    0.5442538592257949    0.4452034280928500 C
   0.4875377693000528    0.6009634037095857    0.5332508408702807 C
  -0.0858943358802686    0.3756523212376425    0.3573325483725649 C
   0.9244395331482961    0.6361729556863052    0.6425030202441525 C
   0.0599034851248748    0.6997366728305956    0.3616399852210866 C
   0.6617049765000270    0.6832485341778194    0.4140577477145846 C
   0.4348334876266015    0.7009257796636635    0.5123103444116579 C
   0.7748697024465878   -0.0644545575634086    0.5003705378987933 C
   0.3134700550464156    0.2286143667920505   -0.0246557920208616 C
   0.1652684371505748    0.3372518348428946   -0.0776467196844754 C
   0.2821209068510376    0.3390335979852325   -0.0663150219031668 C
   0.7930630151374660    0.4870539504564083    0.8678443666386961 C
   0.8048617254601329    0.5450628616474501    0.7687317196447916 C
   0.9183642543522806    0.5575451444858789    0.7283537536819589 C
   0.8637532709323490    0.5353347991348797    0.9450401396098416 C
   0.7542637227657845    0.4757984130591650    0.6880211689677497 C
   0.1170498385740476    0.7824057778090605    0.9113392680278253 C
   0.1908771527957817    0.9317711034461136    0.8154675985397882 C
   0.0092552185349029    0.8317009717994412    0.9064804490085271 C
   0.2756538653391336    0.7691928051368340    0.8438467623665457 C
   0.1410619363582747    0.7771690029175470    0.7264764826972300 C
   0.6894026005133492   -0.0616794690576463    0.9286174220871106 C
  -0.0214937196127364    0.3729227633062160    0.2615107982580137 N
   0.6368021729183552   -0.0263014539558847    1.0225566067379270 N
   0.1778750656778949    0.8181571436203751    0.8234320076732270 N
   0.6707147797905286    1.3185844449872020    0.3267236525301020 Cl
   0.9680567677504717    1.0307606427952181    0.3186957096485902 Cl
   0.0700272250433841    1.2655405670431803    0.5916253460581102 Cl
   0.9073135890644802    0.1962838647991599   -0.0249621154490708 Cl
   0.2367910039229870    0.5091206013148040    0.6892835240336290 Cl
   1.6071252418557260    1.6700577135718089    0.9906967011417407 Cl
   0.2396678727724933    0.2327720670718075    0.1462764626905813 O
   0.2162471149367773    0.1502570072031784    0.3133097117911147 O
   0.3553494893749042    0.1146232620422311    0.1042935132347612 O
   0.3669752327626316    0.0806961545759678    0.2891661311692250 O
   0.5893227492774669    0.0890616387672511    1.2058136522213911 O
   0.2274700079845815    0.6542842593141498    0.1263518254823973 O
   0.4953835199019104    0.3805825235952957    0.0193314959158334 O
   0.4404057578789147    0.5463494797938870    0.0219673901067198 O
   0.8339231272297087    0.6116243876902950    1.0045099968686155 O
   0.0640709534120065    0.9379397374256984    0.1438341951604888 O
   0.2290991495427294    0.9197624144650669    0.1094314269330945 O
   0.3859284172873466    0.6805235293038264    0.1795242781405054 O
   0.2954785371129667    0.3091769238645827    0.4997606895527067 O
   0.3656750240508429    0.2747922341262454    0.6489267359868206 O
   0.4698877501868691    0.0092268120411848    0.4536730817942979 O
   0.7343895262712634    0.2423775005708337    0.5902079383927670 O
   0.7530174738242973    0.0966963572404461    0.4422559916301627 O
   0.1350694451550508    0.6424205093280718    0.3862895667651292 O
   0.1128978929605644    0.4549971630995659    0.4466650068401868 O
   1.0089885798114713    0.6233310571949147    0.5896300838269600 O
   0.4678882080684725    0.4061805713297442    0.3358445271492984 O
   0.3675170479904549    0.5320128884313454    0.3704015916220130 O
   0.5936291824524986    0.4669433234251915    0.4978360707985806 O
   0.8022006956918332    0.4071731378502630    0.6480773502834160 O
   0.1602923114838542    0.8843290038311967    0.3503128255646403 O
   0.3697131367242378   -0.0679239873277906    0.6238520834140038 O
   0.4517680593195805    0.7717303758131449    0.5737375705589813 O
   0.6056163823837533    0.7552710731907815    0.4537040923141907 O
   0.3690087030105740    0.7071831982632029    0.4407587886026563 O
   0.8586662690252826    0.6933942638256295    0.6040325794317978 O
  -0.0198047048848017    0.7064531913880201    0.4094022366891200 O
   0.8289174345655627   -0.1001922642024225    0.4255273288562945 O
   0.7297319850018033   -0.1303327455697649    0.5458227325410575 O
   0.7514082899894116    0.6865039702428235    0.4007737486174894 O
   0.1165294594193579    0.2571992202029224   -0.0930407955717384 O
   1.0322637201848663    0.0588672795536114    0.6766819076450039 O
   0.4013875218912969    0.0827875256237886    0.6863851749548695 O
   0.6967780880211534    0.1904324271541140    0.7504929958229737 O
   0.1234784429892984    0.4262269243668571   -0.0659413829561660 O
   0.3304489033180393    0.3496665047784348   -0.1546307134953774 O
   0.6578657018843189    0.4962744229494260    0.6681214914463087 O
   0.9501665167832053    0.5077920419209747    0.9529614365570880 O
   0.7625905284157557    0.6376102041495028    0.7817599197704784 O
  -0.0461829016380086    0.7920764717979678    0.8213943896100281 O
   0.9016914245040114   -0.0489111783280987    0.6943594166921768 O
