Li1 Co1 H90 C51 N3 Cl6 O45
1.0
  14.2738320052999992    0.0000000000000000    0.0000000000000000
   0.0000000000000000   13.9302636367999995    0.0000000000000000
   0.0000000000000000    0.0000000000000000   14.3974097254999993
Li Co H C N Cl O
1 1 90 51 3 6 45
direct
   0.7585846951876345    0.3808531881898202    0.3767438008722522 Li
   0.7538221338814093    0.6322260330475069    0.2920105034764505 Co
   0.1497404831517126   -0.0136562154572187    1.0339335440551292 H
   0.2704915189884816    0.1154770189812091    1.0537384954621154 H
   0.0628745315600439    0.0486046306123991    0.3341826727469137 H
   0.3531476690371806    0.2753131899290459    0.2908088984426395 H
   0.4755730275079225    1.1179756338034046    0.1338119077967057 H
   0.5300176923821793    1.0904384665249165    0.2409777125780527 H
   0.6842647788816205    1.1162154373965523    0.2608201707317592 H
   0.7117661534146991    0.3198392675519733    0.1210401659691240 H
   0.9453733584568967    0.2248633191783269    0.0414654353861050 H
   0.8302851327169530    0.1868417846396117    0.0511498163031146 H
   0.9163110856316337    0.1632636235535341    0.2760361022206015 H
   0.1856964899065513    0.6327062823934221    0.2576230678585615 H
   0.3329442646610522    0.2299823895605714    1.0709686781637047 H
   0.2027682895402810    0.2231038406329783    1.0812420539180967 H
   1.0580501784869218    0.3370679436386185    0.2347592328857349 H
   0.5059882656751363    0.5903625037414697    1.0704498348340763 H
   0.3532597622718078    0.5346425245481468    0.3160301019037635 H
   0.4050167116127900    0.4778741229860311    1.0707193277549540 H
   0.9244238334877807    0.4394838086356812    0.1908193845337405 H
   0.9063726192164955    0.4504074353499676    0.0611356403326524 H
   0.7588929515828594    0.3591644385812447   -0.0042615399901644 H
   0.0393832924957551    0.7497227325124129    0.1558887956577936 H
   0.2403125173132446    0.8862779370366668    0.2654661453393671 H
   0.2745429888375401    0.9146693595044509    0.1086559938576501 H
   0.0498885303284774    0.8389119993054573    0.0755201722691989 H
   0.2986108074774428    0.7930693636849088    0.2347606220245024 H
   0.6057805989092041    0.8014669075541412    0.2916486328275398 H
   0.6322822419059511    0.8574134438380036    0.1476102231734045 H
   0.4980248119958585    0.8584055284359928    0.0027800044218447 H
   0.7015663696463360    0.9636634071258483    0.1404839412965833 H
  -0.0743240847101243    0.7950004111296203    0.2417271529430713 H
   0.0035575941261705    0.1277668079230160    0.6393611794207876 H
   0.1563336670959440    0.1066171723036518    0.5281549950774859 H
   0.1672991877733544    0.2152102355392803    0.4864828463063524 H
   0.2923672143087052    0.2261382412087387    0.5840415062861579 H
   0.0143991116627746    0.3133655925124164    0.5812366962008773 H
   0.5752825518649094    0.2895900195128459    0.3671399900037526 H
   0.6259755962927356   -0.0164716682743780    0.4650507272041586 H
   0.5462518753201570    0.2705552038831174    0.5093809096584080 H
   0.7503955838153976    0.0867604052522895    0.5510296653326983 H
  -0.0795210073005300    0.2927715816968464    0.5074731706606526 H
   0.8257817870158034    0.0233208305937436    0.6325363406564948 H
   0.0945927134632563    0.4406122869193565    0.5285859059231369 H
   0.1153187525458343    0.6312504592641006    0.5608471257436258 H
   0.3007819133156293    0.3737578450881368    0.3620300430478292 H
   0.0168525523356784    0.6661011995413694    0.6347700757944926 H
   0.3574380375925385    0.5547357551787981    0.5918526335753130 H
   0.5223086693280239    0.4166851015702235    0.4850691892396961 H
   0.5081519453365289    0.4813159673940106    0.3849605566814915 H
   0.0534881243254448    0.8074201330035806    0.4689347591978412 H
   0.1698591170191542    0.8320348861008715    0.5582699955023238 H
   0.1555763371794936    0.8847180239893219    0.6741250716446452 H
   0.5914256590497524   -0.0630723656427390    0.5759651924063039 H
   0.6236377517680411   -0.1434943898921917    0.4793865698269072 H
   0.7376554871172946   -0.2234526756103123    0.5802862474562144 H
   0.8404989281396444   -0.1623870689442055    0.6060892222331301 H
   0.7911022419702823   -0.1462035992068167    0.4315869994096599 H
   0.8722423310206480   -0.0695008154075685    0.4914602694238647 H
   0.7950612349007734   -0.0195771371389958    0.4177414533148690 H
   0.1736345572779431    0.1952400463703476    0.8330210149856306 H
   0.0873977289656199    0.0617572890815456    0.8750355170059927 H
   0.1036687625544812    0.2259236006191592    0.9300169348507578 H
   0.2115192682510869    0.0405617103259503    0.9036871986532394 H
   0.3545579420453347    0.2321503313014742    0.8296224869911583 H
   0.3555065310433678    0.1170965145333537    0.8823507217551819 H
   0.4040548115431448    0.2170479609885225    0.9402910051745335 H
   0.7007494901989899    0.0308540692126293    0.6524635362750134 H
   0.2471340912230290    0.3524215654778339    0.8643190059847964 H
   0.3105830655183492    0.3713781342036689    0.9699602309689093 H
   0.1828696386457954    0.3470706258299233    0.9706270175772667 H
   0.0974111577314151    0.6183346950911455    0.7853846683735540 H
   0.6112199231194914    0.6228593761484007    0.9451425723197183 H
   0.4854105399536245    0.6605133655972676    0.8130326972613459 H
   0.4428628905365306    0.6284184956323582    0.9718536271088911 H
   0.4867696704234800    0.4014147516654270    0.8695616156930075 H
   0.4262878040487428    0.5478464383286510    0.7905001718845471 H
   0.5100858338669354    0.5855750853738932    0.7133154545508595 H
   0.5254884951787938    0.4082748515523774    0.7558092094459786 H
   0.6090172910590660    0.3809946069060314    0.8465359460537775 H
   0.6171804808707951    0.4929492719907660    0.9791424382214995 H
   0.6640922001450145    0.5123957811928150    0.7276972082098713 H
   0.7034859662893277    0.5231066337574313    0.8460483583464161 H
   0.6633068469199074    0.6287400975859757    0.7893221822097820 H
   0.2304062777030616    0.7926472611207861   -0.0049568039432539 H
   0.2921108010344954    0.7990175641038231    0.7489503367818843 H
   0.1528713873113949    0.7925611177403528    0.8069948056087918 H
   0.7656984120901661   -0.0860740839414176    0.7544957787413911 H
   0.6038596011007797    0.9669196269062243    0.0031522936115110 H
   0.6078529225843754   -0.1515581281622453    0.7815381431265915 H
   0.7681609603383834   -0.2146502578530438    0.7407446940827842 H
   0.2686889196591322    0.1944776774535136    1.0502003590215183 C
   0.6115260777665670    1.1752329851928593    0.1573112737556230 C
   0.5383541362996793    1.0970011563909212    0.1656565249008478 C
   0.8564687111604451    0.3241629473882176    0.1165199084199668 C
   0.8582558976700332    0.2755802344083889    0.2169185236958686 C
   0.8747230944194923    0.2507544300290367    0.0407618366004111 C
   1.0274669405843102    0.3759250689675361    0.1011796490114412 C
   0.3595860242010831    0.3516319178238627    0.3176553942616349 C
   0.4841641332428412    0.5665775985423523    0.9989904529302756 C
   0.3698866918806107    0.4185745848338761    0.2336715372308517 C
   0.9261654821208015    0.4077022852170978    0.1211387948216102 C
   0.1771949186427910    0.7549423035051629    0.3253338587985022 C
   0.2281756223339794    0.8144838901991053    0.2501883971753749 C
   0.0712850270706696    0.8218268955195343    0.1478970803288750 C
   0.1805619191779070    0.8138406862918706    0.1545968966041009 C
   0.2100277276478281    0.7268150540707072    0.1083698312715633 C
   0.0343285881967827    0.8901314175880465    0.2192870052943052 C
   0.4591915820829533    0.9416688485167348    0.1102118292771510 C
   0.6334851424300447    0.9370860206776873    0.1643312865167373 C
   0.6321582387651448    0.9443098609885170    0.2685944858435779 C
   0.5611990177497989    1.0010905523395743    0.1178604273305190 C
   0.1624483530448603    0.1969564532254797    0.6372587178963103 C
   0.1289766126024479    0.1768146951571842    0.5383541213647598 C
   0.0246556426311677    0.1765691865229495    0.5164441176894948 C
   0.0088189703264869    0.1263483135918822    0.4222929664862930 C
  -0.0055787050786665    0.2824544761669603    0.5129188043888596 C
   0.4144066217609711    0.2763160424495893    0.4737355533210771 C
   0.7558222975367893    0.0249173545777728    0.6006139317813776 C
   0.0928860939660565    0.6417527730619181    0.6303394176958335 C
   0.0372710356057479    0.3427756604538234    0.4365323334216449 C
   0.4723728357175862    0.4394768453790962    0.4342805394796708 C
   0.3975744214162572    0.4993240257151255    0.4790068487448353 C
   0.4442542478113413    0.3393306430979979    0.3857877888174850 C
   0.1325061483277734    0.8267937792630132    0.6244869760687286 C
   0.0319410022992223    0.8488773526985743    0.6022711743308996 C
   0.6352232881494835   -0.0751087494737715    0.5144337838480723 C
   0.7626978163157380   -0.1562213564896973    0.6122062947954269 C
   0.8006918181926433   -0.0761625701610713    0.4639947733701106 C
   0.1672242254226974    0.1836681189321510    0.9068870798039719 C
   0.1478636220544226    0.0754792117230549    0.9241450452809091 C
   0.3483311628617911    0.1947648220549577    0.8960906933036494 C
   0.8618470846744036    0.2885584525321581   -0.0571877270285441 C
   0.2482347066705252    0.3338490526564303    0.9386761313574177 C
   0.1000978924488870    0.5453820197867570    0.6784070918951913 C
   0.2562367624574778    0.7046948696984620    0.6600496230838477 C
   0.5758165360113648    0.5515226070886389    0.9433776715157219 C
   0.5447683914181369    0.4217603824007478    0.8249008043207264 C
   0.4912678318125281    0.5855097599770647    0.7891256190741933 C
   0.6549587032710432    0.5488141156355175    0.7943967061271364 C
   0.1523683689210051    0.7251905334880374    0.6731366994116319 C
   0.7350577264048082   -0.1479838957357700    0.7163132160109337 C
   0.7379259120458329   -0.0721590565554371    0.5502343139314168 N
   0.2591658987948311    0.2262301274812008    0.9496350470935272 N
   0.5665192428982945    0.5284632445112203    0.8408515902175294 N
   0.6050940278471124    0.6657135543294199    0.2625961846458948 Cl
   0.8724588110800218    0.6840226119789986    0.2002148245871284 Cl
   0.6766816715590872    1.3036052864374601    0.4852708921887242 Cl
  -0.2253767241975038    0.5393751700829978    0.4141477513235754 Cl
   0.2406544016788577   -0.0997708814303005    0.8324584137848290 Cl
   0.5849805082335006    0.8118414420043161    0.9207805511862384 Cl
   0.1261049240478411    0.0478594903716517    1.0171291323857519 O
   0.6556102451973140    1.0146344453281884    0.3114237177510268 O
   0.6035513447055548    1.2476623394611157    0.1096019973582574 O
   0.6862558349616869    1.1701677544233855    0.2140457847248615 O
   0.8280292563700796    0.3151401461493408    0.2860955506048122 O
   0.9056524201840154    0.1899422284737043    0.2123927095916417 O
   0.2145892217144406    0.6446242190763589    0.1457758654310376 O
   1.0842603790736378    0.3567416560065602    0.1728668496730975 O
   1.0519403966170204    0.3725647592691367    0.0187349577349500 O
   0.3593800528824556    0.5116085024818057    0.2496702484151304 O
   0.3803926302960494    0.3845688393325067    0.1554901128315465 O
   0.7646832677340730    0.3637802880494584    0.1093977939594479 O
   0.1693301770682568    0.6595320489218324    0.3198057810735880 O
   0.2106169177123376    0.8927286405081083    0.0977491708253184 O
   0.2304798388882857    0.7270311303832939    0.0197365267862537 O
   0.0677169592959410    0.9695642286855244    0.2337055711306533 O
   0.4493858760925767    0.8684132356578229    0.0531223933528389 O
   0.3933085732559740    0.9719819862296836    0.1592414820729414 O
   0.5959058855212602    0.8697283579324369    0.3147673747641864 O
   0.5921409540032174    1.0318703000298697    0.0276178055831631 O
  -0.0396935804547527    0.8596380966376916    0.2669893359978338 O
   0.0354348083060103    0.3187129428528088    0.3547794332513247 O
   0.0804052128730289    0.0906246537262233    0.3829622805645700 O
   0.2523282114825690    0.2248891621924569    0.6477800549206854 O
   0.3319158092333472    0.2479885096556265    0.4846870371647812 O
   0.5154471664068998    0.2944987564745326    0.3361809488638353 O
   0.4823235623302619    0.2539402993820589    0.5326608055834620 O
  -0.0694606394927346    0.1192299989220833    0.3915534092716266 O
  -0.0296717446963604    0.1277617828924907    0.5781398196897484 O
   0.0871896558988431    0.4229044382790514    0.4594338140550684 O
   0.2741856916521658    0.6341850770908591    0.6111442982077407 O
   0.1041963013399457    0.4691966418448509    0.6369940869611185 O
   0.3375309797054559    0.5387331865403192    0.4306118239949370 O
   0.4062546412727046    0.5038838101999071    0.5726138256729852 O
   0.1427101355924350    0.7967369181068534    0.3915770246306727 O
   0.0065630939796136    0.8283694852634377    0.5135334552301375 O
  -0.0197332782812221    0.8850202436823418    0.6573651124158251 O
   0.1154357498594765    0.1757737959769494    0.7064538036092303 O
   0.9114462392488112    0.2685961598397651   -0.1231225040543492 O
   0.0949997520214965    0.5490330633941186    0.7692005071638259 O
   0.4225186690344017    0.4896760388927545    1.0052790841303476 O
   0.7832136805833898    0.3411863150848304   -0.0678820118294618 O
   0.3207036834397569    0.7548532886787152    0.7022613828091824 O
   0.1294544100150466    0.7290949822061733    0.7702048544926644 O
   0.6360899089696954   -0.1517383113996515    0.7145267835560425 O
