Li1 Co1 H110 Cl3 O55
1.0
  12.6982378233999995    0.0000000000000000    0.0000000000000000
   0.0000000000000000   11.7503433642000008    0.0000000000000000
   0.0000000000000000    0.0000000000000000   12.9574577146000003
Li Co H Cl O
1 1 110 3 55
direct
   0.3954398225592143    0.7049559681240825    0.5132513262849803 Li
   0.6612609582903302    0.5381455235908773    0.7486169409891411 Co
   0.2604935391589888    0.1122989040575870    0.1352844358754763 H
   0.2181545935921268    0.2163864155533219    0.2188000470266262 H
   0.0844899053412700    0.2759361647233659    0.3098889030350160 H
   0.3117864830350079    0.2938973419807905    0.0418278314494759 H
   0.0494839457599444    0.4819114222102163    1.0445746886018550 H
   0.3737643740577857    0.2532261900673896    0.2293013353963872 H
   0.4067658035339108    0.4192979327830424    0.2786675007421752 H
   0.5803284687360567    0.3055497674254083    0.2031959058090029 H
   0.6067951332192719    0.0175617576188208    0.0878184889631436 H
   0.6548017943385528    1.1511063347569574    0.1730418425192767 H
   0.6401225921852820    1.0378415595287818    0.2410598148262160 H
   0.6771293018197513    0.3394372877861471    0.0493970631738048 H
   0.6915958760448365    0.3115019339138437    0.2204485185455362 H
   0.8885129628702335    0.1779415815601022    0.1112967056550814 H
   0.8102005218977162    0.0944522766442206    0.1735295925192538 H
  -0.0754097617021640    0.1851864762292543    0.2663795964705992 H
   0.9812502399930441    0.0279953846372043    0.1883010086578021 H
   0.8415064405242709    0.3384611460986671    0.3299962424328080 H
   0.9687051922300823    0.3332842761030777    0.0177687137686413 H
   0.3138064483527729    0.5165359423105870    0.3095585913261708 H
   0.1566405464571321   -0.0146098979901332    1.1168959741997320 H
   0.2723699902144329   -0.0716460184869940    1.1136623151808962 H
   0.0773548208311154    0.6242587518291988    0.1905931249551631 H
   1.0236576990034327   -0.0857962432801330    0.2348849924372648 H
   0.0416397707346156    0.6840859397003050    0.0301373900576186 H
   0.1550040989209467    0.6111765809312535    0.0222535441481779 H
   0.1368874119286721    0.5483647994263264    0.3244496296957261 H
   0.0571094920244475    0.7544609044455415    0.3230380873698429 H
   0.4988447215901906   -0.0552090520074915    0.0698445155858213 H
   0.3422757529151602    0.5859977422514068    0.0261440990016349 H
   0.3741297790899272   -0.1345990724593331    0.2346372586556309 H
   0.3844201833032744   -0.2283035682236544    0.1504363278842600 H
   0.4989541855976640    0.6534221549212351    0.1066806766996015 H
   0.6171091627579731    0.8241788671134158    1.1097803808456350 H
   0.4156725511923601    0.5819127552419001    0.1777202293861461 H
   0.6438309807550111    0.7446892751032174    1.2103556656510488 H
  -0.0396788196368094    0.8675699395439800    1.0739631696131362 H
   0.8226447682725010    0.5024129507641779    0.2661565588914956 H
  -0.0287904584387531    0.6224571023502141    0.2543363389553407 H
   0.8470583919824556    0.5765307848568750    0.1559713642764057 H
   0.7211582456602676    0.6828434228182467    0.0743071193830805 H
   0.8359387388491838    0.6979612789092626    0.0304094264460553 H
  -0.2830472336623508    0.6396463872706342    0.3041995153770548 H
   0.1725907911144470    0.4186162505758310    0.3538195885551094 H
   0.1624232385929405    0.2436554059196996    0.3923456645026712 H
   0.2539753118938265    0.1408779837994719    0.5678561735925481 H
   0.2501897472612743    0.0493141914359242    0.4784945082486343 H
   0.0617183204945013    0.1218819431663055    0.5119933634685836 H
   0.4339609155488737    0.2552559179877383    0.3367846111033760 H
   0.3770671945422717    1.1633698061750808    0.4817011557959524 H
   0.4410965513166198    1.2665497697235368    0.5132775660001689 H
   0.3471646202417432    0.3284546300032964    0.6217834188431857 H
   0.3655356732369955    0.4579223359968883    0.5741760861713660 H
   0.5655201148041841    1.1025205205126374    0.4251823527922717 H
   0.6066242433658782    0.4976590471318645    0.4737597831697422 H
   0.7206959767941749    0.4972650160932392    0.5212104493067592 H
  -0.0450000304173701    0.1908126947958895    0.3927732175089802 H
   0.7299586793546241    0.4090931246099185    0.3739786356269496 H
   0.9261008555084109    1.1980496438078716    0.6131173670239716 H
  -0.0409215117504286    0.0484732798392380    0.5090051229623944 H
   0.1442057502124890    0.8424013133316569    0.3872343223351891 H
   0.2387109891826221    0.5502787860480725    0.4754360379164991 H
   0.2331976257558490    0.5878802404316210    0.5924721134648124 H
   0.4458011411054417    0.5578743087688739    0.3968087313537279 H
   0.5488469351910374    0.6139654356042021    0.4125703108624829 H
   0.6076629701706080    0.9778603336058587    0.4368212099910934 H
   0.6495632721967312    0.7122051179880363    0.6318162511211967 H
   0.9735720092530016    0.8618279796787421    0.4639306945626079 H
  -0.3240009476526245    0.7310054196603304    0.3872204307212658 H
  -0.0392143457403502    0.8183262721833372    0.6205655873559011 H
   0.8607295802539568    0.8700583774639378    0.5159980070601681 H
   0.3095200268227164    0.4871155254525358   -0.0443849137205349 H
   0.0774771212653645    0.4170971460316706    0.9374163223094081 H
   0.2616125920699221    0.2286201006078341    0.7213994105315558 H
   0.1482976565637978    0.3204106097504095    0.8061868761130258 H
   1.0520159645366560    0.1736983013039771    0.8520292020602446 H
   0.2471932684955449    0.2819708819909517    0.8775589014261369 H
   0.6050846596636440    0.2942309492532335   -0.0555832524067190 H
   0.5497730479449133    0.2107627501035677   -0.1339458465486166 H
   0.3992072744423285    0.3074909872938843   -0.0449631135622799 H
   0.5656713168864496    0.0191452858122769   -0.0751858631652941 H
   0.5006575715556857    0.3984976895540105    0.6770596941570513 H
   0.6349730587689600    0.0392533024613790   -0.1883562112612568 H
   0.3488632811346941    0.1473654537939447    0.6930481700265552 H
   0.5687284339872541    0.3669769085419047    0.7896489097372184 H
   0.4641863692959065    0.0261115503258223    0.7854991759557672 H
   0.7866381974113501    0.3257985374081567   -0.0142292297425176 H
   0.6935103149093538    0.4715925748164104    0.9296061482591411 H
   0.9302037870115515    0.2160196177614266   -0.0407994109912725 H
   0.9484582884017242    0.1771901141581450    0.7925862143256883 H
   0.9941339174194128    0.4498698053543982    0.7907448037245088 H
   0.7732741383694505    1.0805892465053486    0.7189043223196473 H
   0.8845517833192168    1.3015104502132313    0.6800278689986842 H
   0.2825336051817138    0.7802865327352270    0.8575704125030230 H
   0.2094407860907350    0.6599053697209063    0.7462970414639334 H
   1.1601490786818083   -0.0700052153715088    0.8456081894023176 H
   1.2310644302859954   -0.0618173695343288    0.9480048191443549 H
   0.3078402661900487    0.6529498282982609    0.8865035572801483 H
   0.0903611136960713    0.6654711645213592    0.6921089425740676 H
   1.1032120445787239    0.5004317320645671    0.7693563488204477 H
   0.3524409429041313   -0.0221068703993303    0.7988791154329884 H
   0.3928717496932371    0.7663167282016743    0.7407951905939379 H
   0.5387415960262965    0.7150467370765242    0.6906387467671744 H
   0.4237083118560928    0.8773849718732799    0.6740351811033956 H
  -0.0260417305849024    0.9723115595846120    0.8231500802261550 H
  -0.0216740379356282    0.8362900025576427    0.7913043270630902 H
  -0.0462442975526796    0.8465799146267980    0.9579141704097134 H
   0.7344451286393443    0.5990058727598047    0.9275378412972127 H
   0.7307454026889115    0.9602097855689485    0.6831534821314492 H
  -0.0926562492105671    0.7135395470778084    0.6668817716891737 H
   0.3260026288113409    0.8667520911031182    0.4233332246278014 Cl
   0.7018539923135333    0.8230648571143648    0.5116792586426488 Cl
   0.8214485392987446    0.5341413852826005    0.6833880960554888 Cl
   0.2726582191837514    0.1901233532380353    0.1626462847665992 O
   0.1587376878377201    0.2874115740642383    0.3281447989993505 O
   0.0688133994537231    0.4037281750040998    1.0140594433501204 O
   0.4379472954469346    0.2817538670560716    0.2650853611067358 O
   0.6415440492607462    0.2883366534140995    0.1660396973455542 O
   0.6703858464528812    1.0688108672946042    0.1758340569178800 O
   0.8860086783827121    0.1200305079081427    0.1682052456049464 O
   0.7772290178337061    0.3841747038519278    0.3092560628451723 O
  -0.0552258587414165    0.2352522472255603    0.3255995466260519 O
   0.9094292509169545    0.2734868745955825    0.0150988999238297 O
   0.2273976083814477   -0.0129322448876664    1.0809707170811622 O
   0.0518796325019222    0.6375647459737064    0.2626111103157124 O
   0.0874634675414060    0.6251421302700045    0.0594180875799808 O
   1.0343599713887841   -0.0324989922476192    0.1752907404622093 O
   0.5705570341696519   -0.0376179915939073    0.0336449608327707 O
   0.3942451686071483    0.5045873553077800    0.3000351182253512 O
   0.3704513159323130   -0.1451468493334635    0.1570850086592649 O
   0.4274119753607513    0.6244595970238328    0.1137786740093955 O
   0.6226855270523568    0.7449309701679466    1.1362130351165483 O
  -0.3437107690846023    0.6910908413826485    0.3240344247906823 O
   0.8524685914885163    0.5760346291430121    0.2373175683865179 O
   0.7842614896807398    0.6355605492221672    0.0455909924856920 O
  -0.0567835551930887    0.8052109107659398    1.0253656735711096 O
   0.2202785103414493    0.1233236031650773    0.4994013872033508 O
   0.3095239643769421    0.2057492795883586    0.6616701011989116 O
   0.4425274585222256    1.2031473671801520    0.4638573777113455 O
   0.3999057965619611    0.3875516264464533    0.6015788381479299 O
   0.6287627482442447    1.0543517153588711    0.4107327590429488 O
   0.6771434770149637    0.4619460482012525    0.4694888836446259 O
  -0.0176444236921694    0.1298187325101929    0.5118752847502346 O
   0.1980510167375828    0.5051541472553489    0.3623251150578753 O
   0.0725064315619723    0.8265073097088347    0.3676116459120580 O
   0.2877272392053630    0.5853509526415682    0.5321647586416890 O
   0.4925430598074398    0.5795528242049497    0.4544666466991273 O
   0.9341098408034090    0.9046965141876734    0.5214018448763705 O
   1.0659864069293079    0.4445312379563493    0.8131635533278887 O
   0.1934677036189113    0.2522057943539733    0.8234742178843676 O
   0.3254828716535534    0.3285295214318040   -0.0222667632073308 O
   0.5509716394512051    0.2862490548444496   -0.1069035047777319 O
   0.3970991079099087    0.0178998753977535    0.7468797174923870 O
   0.5679566733590242    0.0593012187391037   -0.1451201064373335 O
   0.5600319517244553    0.4187515657705209    0.7255329374300963 O
   0.7136879177833402    0.3561457356939898   -0.0169222734528344 O
   0.9839356519749461    0.1413341406822002    0.8466963658263174 O
   0.7457025961705143    1.0059616400754232    0.7426682432046097 O
   0.8859850530573581    1.2166278243115241    0.6761281842678544 O
   0.2857513744949254    0.5644136921399259   -0.0263870158970111 O
   1.2312691831057301   -0.0901254784712498    0.8774971609198107 O
   0.3035648698118240    0.7084248029263219    0.8281433436752880 O
   0.1477259236902315    0.6171568317053793    0.7102660537282800 O
   0.0008067979071175    0.8963563323765972    0.8428375841809285 O
   0.6069612980075949    0.6734471016574209    0.6841258951060871 O
   0.4147535260360904    0.7954426855794570    0.6745152135400818 O
   0.6834175759181348    0.5459929538439316    0.8922917297482315 O
  -0.0307834908856146    0.7575944298974173    0.6686938555498484 O
