Li1 Co1 H90 C51 N3 Cl6 O45
1.0
  13.5321856189999998    0.0000000000000000    0.0000000000000000
   0.0000000000000000   13.2064685352000009    0.0000000000000000
   0.0000000000000000    0.0000000000000000   13.6493424307000009
Li Co H C N Cl O
1 1 90 51 3 6 45
direct
   0.7582121319185845    0.5205234653970948    0.3362983410157285 Li
   0.3738691923200111    0.7153742684820568    0.5181038245105649 Co
   1.1764298655013889    0.2400799092618278    0.1181325198328479 H
   0.1314279420763242    0.1324175166842599    0.2852394710710128 H
   1.0048345249276025    0.2663632414845811    0.1354176016012815 H
   0.0886706213972751   -0.1343025372507836    1.0348543372778143 H
   0.3781633988610750    0.0550849582279327    0.1490526906867017 H
   0.5366830985161053    0.2632905048258870    0.1936643636000005 H
   0.6448490697207012    0.1173112829876240    0.0810618695382278 H
   0.6017821168715082   -0.0114157870439144    0.1030226344264911 H
   0.3854438192435498    0.1123250900606893    0.2692137906317844 H
   0.8617696827426292    1.0710590594221854    0.0670846394285267 H
   0.1421970819701331    0.6319378829666528    0.2571143066574834 H
   0.2884003676553470    0.5287642755508407    0.2149877351453852 H
   1.0326696441467131    0.3804096268589579    0.2102710244080828 H
   0.5317842594174956    0.5653227997856229    0.2820737508013819 H
   0.3712399053000309    0.5086514801209322    0.3172988909457590 H
   0.5972233558748082    0.6628749952545451    0.1758276069037650 H
   1.0207573038538291    0.5065247192896670    0.0519974657389852 H
   0.7126385625511866    0.3900556574886042    0.1780145254422626 H
   0.8826155392762500    0.6446490782080276    0.0791181861604609 H
   0.1347644319288287   -0.2184696252983808    0.9393127383604283 H
   0.2265500484559973    0.7288699277890814    0.2135195325486853 H
   0.0254310218163732   -0.1358699509726902    0.9197931167117875 H
   0.3308606188060004   -0.1749068818998264    1.0401696116486017 H
   0.3649615403416970    0.7846123087320162    0.3404091617592829 H
   0.6933563854257385    0.8730969779594739    0.0881633105411281 H
   0.9395080488586668    0.8374099206099775    0.1621763998257663 H
   0.8911810440116607    0.7504616197118670    0.2514100025567322 H
   0.2557234585107415    0.2663193236121799    0.4928896208412420 H
   0.2959616000298377    0.1429169170069443    0.5268971931735156 H
   0.0473639163506659    0.2360856544874040    0.6115211232906211 H
   0.1456096866520524    0.0248626471736055    0.5815189453777179 H
   0.5374093670049295    1.2369974398574219    0.6621997551376884 H
   0.4982494696372817    1.0460728188446622    0.6015045235390836 H
   0.5849509850490029    1.1184479581525244    0.5380775852528265 H
   0.4997104309746905   -0.0019787449105223    0.3627303835724845 H
  -0.0150761080319172    0.1789575889497403    0.5215014021034381 H
   0.7316805715255686    0.1544385436700026    0.2999412782107219 H
   0.7315409045084870    1.0940371931443966    0.5072590090367393 H
  -0.0247885080610348    0.2827597519841778    0.3783135518518295 H
   0.8901989410185315    1.0410540661157748    0.3014915360423671 H
   0.1841104887152819    0.3587906755670957    0.6206754104392066 H
   0.1390083879029002    0.4887964371697373    0.4478881122983503 H
   0.0034116667476966    0.6688076940521963    0.4060885162447887 H
  -0.1682228397091868    0.5319530916895194    0.6304868721033808 H
  -0.2656121334349249    0.6556974519357275    0.5655879215130870 H
   0.1530933262392755    0.9210969408799474    0.3662572934030801 H
   0.6107355855432565    0.9627560716713167    0.4944447873342635 H
   0.5723086813726628    0.8831238825514965    0.5890665617206333 H
   0.8033888696025283    1.0145723462625194    0.5857574645806560 H
  -0.0235751046639556    0.7170787362540431    0.5567117430000840 H
   0.6980282101981711    0.8808605977134392    0.5606062163250729 H
  -0.1244095181443727    0.7981935321697536    0.5284336774478664 H
   0.0864337321871907    0.0418649214304607    1.0021985516776621 H
   0.5232916623429594    0.1484119514899762   -0.1286141653719190 H
   0.6366161055021514    1.1780316385211751    0.7213549858090161 H
   0.4291071280863133    1.1508146729075470    0.7524927495626803 H
   0.7228061735989405    1.0412903139811056    0.7589846373917012 H
   0.8224730003757127    0.2407719943544957   -0.1439086750569026 H
   0.7709846436817488    1.1222945580111163    0.6348504522760079 H
   0.2033032493906408    0.4918701581945371    0.9003247795849879 H
   0.1476093636267760    0.6068812223523481    0.7831103417376732 H
   0.2475030569339399    0.4788466160158258    0.7826026249714491 H
   0.3102054188353799    0.3844652152138041    0.9970239434239239 H
   0.4194235482353237    0.3918388745490342    1.0599288052778415 H
   0.3542906846450936    0.6144260099490036    0.9352063134330315 H
   0.4633835571170198    0.4324475352648474    0.7828348705917855 H
   0.3487173055825049    0.3705720234410785    0.8259973894450682 H
   0.5573349730815572    0.5332476088387811    0.8746400257750551 H
   0.4622295676256198    0.3265587432480630    0.8810652437256830 H
   0.5599387653285781    0.4356018228693625    0.9603042257859001 H
   0.3909019175936269    0.5937467496855889    0.8139836238858440 H
   0.5172457808938365    0.5568050041538708    0.9997925749673016 H
   0.3530344204702858    0.5029974326516199    1.0550765568756741 H
   0.9793944364088167    0.3526777620516600   -0.0522397901745243 H
  -0.0841536411310440    0.4363762161125479    0.7615261517669266 H
  -0.1889999712026563    0.5822016496769369    0.7546261856712582 H
   0.8613226004921829    0.3863847291196172   -0.0619223078980703 H
   0.0450922951310427    0.0446113028649318    0.8851174535871336 H
   0.2359882873034362   -0.0513590919928488    1.0355635289512701 H
   0.3024513129611099    0.0046028783120922    0.9342765983156602 H
   0.1591211773415743    0.0974225444274316    0.8946658989178671 H
   0.2060108681768149   -0.0056928339472140    0.7648779615872371 H
   0.1044160453811759   -0.0897417980621457    0.7647233753856884 H
   0.2284603089806317   -0.1330652647765830    0.7862782599153830 H
   0.2848495739141989   -0.2330851903516372    0.9326391567968855 H
   0.4390693029925397   -0.0873149570096285    0.9289591260367940 H
   0.6055686448901644    0.9791048782750292    0.7632280652560154 H
   0.7184794519851169    0.9109875009759982    0.7205205133750634 H
  -0.1593602654453805    0.7962785614921200    0.8648615327320641 H
   0.7313738952711302    0.7934526735645085   -0.0138013084188070 H
   0.5803692418076932    0.0707053339135418    0.0967783775743587 C
   0.5193355682198613    0.1067505490845172    0.1879857017601697 C
   0.4213567171066751    0.0590201510360238    0.2170339875668338 C
   0.5264350126632711    0.0841086142475846    0.0015847807694638 C
   0.5923202306984258    0.1102382339169335    0.2773650990603688 C
   1.1151958547266214    0.3689773503500953    0.0733171741042384 C
   0.2855870748827038    0.6508331689649410    0.3368126515061892 C
   1.0179329263972905    0.3475416425948038    0.1370294008591357 C
   0.3351400457685371    0.5710056210334051    0.2734528226799409 C
   0.4194523684134516    0.6194122028759383    0.2089024603109594 C
   0.8430779497793408    0.4029610000141804    0.1659956314308545 C
   0.9361833826689842    0.4025137191999146    0.0892439486799167 C
   0.1937475128939110    0.6933479410634381    0.2787417221537815 C
   0.1449608631547105    0.7703071976043547    0.3421132731564506 C
   0.0979795389326014   -0.1445823482114618    0.9528371994058775 C
   0.4172590789600223   -0.0471982521851789    0.2645754719492958 C
   0.8129113520475719    0.9277308112266255    0.0114240826026374 C
   0.7253711694523276    0.6946359462523093    0.1688316654886515 C
   0.7523985847049295    0.8399367126824424    0.0479716307744812 C
   0.8025870774674304    0.7645827300982612    0.1152752393302882 C
   0.8713704969538668    0.8135761455806387    0.1988609509345277 C
   0.8424690311440222    0.9034911744799232    0.2663689649416717 C
   0.2674739624187533    0.2466827342159464    0.6551994179064170 C
   0.1412637515861435    0.1572296001815715    0.5303028517417588 C
   0.1441361626728954    0.1065143012191864    0.4339184283397202 C
   0.2450622095401809    0.2076018854164089    0.5444678564649998 C
   0.0535979425734184    0.2259292678922673    0.5328914013498727 C
   0.0561984094152707    0.3259272345311210    0.4830029174571671 C
   0.5676397386180430    1.0892319721399428    0.6095356796593552 C
   0.7438559883162359    1.0682468011791126    0.5810368708724142 C
   0.2412402105330595    0.5910753315160785    0.4253209445711207 C
  -0.1304403251623769    0.6510194413202982    0.4676012963851386 C
  -0.1595464881348226    0.6974232167403952    0.6465316010792930 C
   0.6361320743053872    0.9304476616779301    0.5629670626562134 C
  -0.1027869947591502    0.7193700376658737    0.5487005145797276 C
   0.5617947109021251    1.1641778213926712    0.6907227409134972 C
   0.8853032056314125    0.2407121751834664   -0.0033993421174371 C
   0.2491753662442871    0.5288517326932949    0.8482643961923237 C
   0.3700383255657735    0.4323962725068894    1.0156790545615335 C
   0.4226270218810838    0.3924484243297756    0.8459097040038041 C
   0.3537342335135463    0.5570669969788851    0.8767317016301340 C
   0.5248342365129953    0.5014456930669324    0.9396197128554468 C
  -0.0363180572700656    0.5695964630930823    0.7228715423834516 C
  -0.1363292482265203    0.5909307054190330    0.6903666798047167 C
   0.9164075676207292    0.3499404670735478   -0.0097791366344345 C
   0.2615968630174316   -0.0620720240399668    0.9598880885229633 C
   0.1120290062805116    0.0350425071143360    0.9243999320451454 C
   0.1747165886034245   -0.0718535943102998    0.7985968020615468 C
   0.3209013998154794   -0.1657954377859608    0.9624332660783202 C
   0.6764736728741734    0.9838056050313558    0.7264871011732292 C
  -0.1302984412085162    0.7759673027112396    0.7219059281007917 C
   0.6525684435854323    1.0163919091483846    0.6243635001955874 N
   0.4143349393484255    0.4699493722381408    0.9178347806134949 N
   0.1634951936066848   -0.0636114211881002    0.9077485804394591 N
   0.1307480814640753    0.1049294717892586    0.1544763951893811 Cl
   0.5904852721263874    1.4164019486165171    0.3001705932869530 Cl
   0.8537244191713744    1.1574250699086313    0.3732935297996399 Cl
   0.2843345056025277    0.8303558016567014    0.5910410158115047 Cl
   0.5005632126557072    0.6230967609294639    0.5052853095609749 Cl
   0.7831164607157611    0.3321537287510427    0.7500516063230573 Cl
   0.4897215789292226    0.2150164338052540    0.1668923779270424 O
   0.6754028924098813    0.1496832981755227    0.2505535510419906 O
   0.4598338718442612    0.0221715416819842   -0.0258121434339260 O
   0.9061335436075798    0.1873519602159511    0.0715346706522569 O
   0.8175499227683185    1.0030264890491707    0.0760499064823275 O
   1.1275331079021611    0.4457176232927629    0.0216795216987478 O
   1.1913875379497927    0.3057606018472862    0.0819307758654164 O
   0.5114385216518660    0.6276551332028345    0.2441832807933350 O
   0.4041377691436173    0.6517183412552352    0.1247093934409193 O
   0.7562220616699035    0.3858796735870029    0.1221971845067456 O
   0.9526692635370951    0.5041469451014877    0.0807343812344729 O
   0.8497184144115900    0.4228831313014916    0.2503528087707851 O
   0.7455608126993429    0.6271599213312756    0.2292572870295789 O
   0.1640494278014529    0.8667463021693141    0.3153845130090440 O
   0.3617913207476230   -0.1142979463720155    0.2347938174803081 O
   0.6373927723537532    0.7124332854405664    0.1374140347729418 O
   0.8702901097635320    0.7096126979458310    0.0531616243847717 O
   0.7691674945018355    0.9062670868975607    0.3164336477987018 O
   0.9104240552540118    0.9747865398904721    0.2596865917458134 O
   0.1098859673940747    0.1633235835795928    0.3578195242882133 O
   0.1395655780133738    0.0900943173739959    0.6061384464054144 O
   0.5718872416909611    0.0803861959592306    0.3613391077585459 O
  -0.0065652877370570    0.3469404220657246    0.4084087745400724 O
   0.1137382645371767    0.3914034818485045    0.5126010026434057 O
   0.1743877429811954    0.5293985102046904    0.3932285560751911 O
   0.2680998775693782    0.6022001829181324    0.5111809855181554 O
  -0.2111708169512362    0.6130925724783383    0.4497906215314393 O
  -0.0650037412334138    0.6376608360633532    0.3979921555181765 O
   0.1777042804026882    0.0204625306818185    0.4257700504552409 O
   0.0864485117657179    0.7452210060068837    0.4102249792492635 O
   0.4641965078339057   -0.0671634684197252    0.3463977286382375 O
   0.3456845360687333    0.7263120903240570    0.3816895386610077 O
  -0.2639050921150389    0.7052580137358384    0.6202871133452690 O
   0.2233391850209737    0.3316600312888769    0.6757908860615306 O
   0.3202784405805600    0.2049751423239964    0.7115391283286840 O
   0.4964846401653545    1.1428291921774856    0.7698957857313478 O
   0.5575228215246373    0.1533246955613433   -0.0581499649986651 O
   0.8300793104647112    0.2016093674477284   -0.0759412982612702 O
   0.2099740121588706    0.6250586782982850    0.8217114686912286 O
   0.0290934013754013    0.6349492860449244    0.7222641871176512 O
  -0.0204935625410445    0.4750395725305828    0.7512164976048702 O
   0.4164269886889437   -0.1556254215062857    0.9216752586633455 O
  -0.1533161568067019    0.7430584293934704    0.8138502841290578 O
   0.8464166565686243    0.9314948757732909   -0.0722773854937571 O
  -0.0925994312803847    0.8606969938483907    0.7082708390153716 O
