Li1 Co1 H110 Cl3 O55
1.0
  12.7345474320999994    0.0000000000000000    0.0000000000000000
   0.0000000000000000   11.7839425435000003    0.0000000000000000
   0.0000000000000000    0.0000000000000000   12.9945085421000002
Li Co H Cl O
1 1 110 3 55
direct
   0.3333745261648386    0.8536136555883402    0.7190689621563752 Li
   0.6427934529865058    0.5241084848302069    0.6380016407885015 Co
   0.1263809118212692    0.1558938585298271    0.1534761983986275 H
   0.1719553621968719    0.2441868891653087    0.0677317474722875 H
   0.2838478348267395    1.2406114691949151    0.2331329239028243 H
   0.0419261319608556    0.2912085033623025    0.1839552271912004 H
   0.3514725387741485    1.1597387055606700    0.3000942866339293 H
   0.4637835578838513    0.3184150175502763    0.2782919999924512 H
   0.5386821756074583    0.3828637364061669    0.1574201721036706 H
   0.5947493428002432    0.3541916685687038    0.0575429819971598 H
   0.4297909874915311    0.0247609211198120    0.0397384533187239 H
   0.4173225428258209    0.1942333190569158    0.0052157240791691 H
   0.6729091678986263    0.1712155557744892    0.0265797409714260 H
   0.7643635369062217    0.2590155425939005    0.0007844676131440 H
   0.9948138152256967    0.4684004739012074    0.1906057288027091 H
  -0.0772800359924304    0.2893805922094362    0.2354846865647973 H
   0.9309167663247750    0.3014750164205092    0.0656333225944511 H
   0.8217868575149080    0.1419061800095410    0.2771853786875044 H
  -0.2476001837295006    1.0260483049002400    1.1409864192296668 H
   0.9451065128362615    0.0165557724912374    0.1497469307743078 H
   1.0567948164515755    0.7823454873246345    0.0237606347404119 H
   0.2400041094822002    0.6533148174628997    1.0142636582522147 H
   0.1661216252387184    0.7465764738179878    0.1523765030962848 H
   0.1100117396059654    0.6250721475100002    0.1450564878997249 H
   1.0545803679091077   -0.0263080651535426    0.1932822440312242 H
   1.0036401987779440    0.8932998640261064    0.0454475649607415 H
   0.3206265270022780   -0.0273243633878382    0.2891142638390893 H
   0.0966356066174756    0.5243265782221691    0.3311697212062891 H
   0.4171348643855196   -0.0673972845054376    0.1247532960440856 H
   0.4683349563775190    0.5276938723050724    0.3072719339991852 H
   0.5927304253524828    0.9737737798229107    1.0770978929871935 H
   0.5174760823842878    0.5222551153047380    0.0769298637082928 H
   0.3634627567865384    0.6154463368289589    1.0078224758305150 H
   0.5502247923187112    0.6389512036405152    0.0291203064643834 H
   0.4660993056681553    0.6166887054119656    0.2118700959086116 H
   0.6025407465017910    0.6323863379587259    0.3017380579186068 H
  -0.2256527999304117    0.9731627788804483    1.2463232232777246 H
   0.9473602246507588    0.5829741825743483    0.2151283953558608 H
   0.7346129704239762    0.6397107117564926    0.2863046154494089 H
   0.8318084150677354    0.6956809439232989    0.1384867896519292 H
   0.8927450132576275    0.7538592656071702    0.2305025820250024 H
   0.2678056471408979    0.2963188473560636    0.3896944432099039 H
   0.1765899988272422    0.3893462866832078    0.4181841701434453 H
   0.0684869816340365    0.2362379366263582    0.4570305796374686 H
   0.0483797103418855    0.1139513593895350    0.4942870867559564 H
   0.3027852961920415    0.3140336316253696    0.5591968136045942 H
   0.5789906359384551    0.3301682995684745    0.3344772722276111 H
   0.4236439296225816    0.0062564181323734    0.3486471039995054 H
   0.5845071256586097    0.3329822983534814    0.5255664536272112 H
   0.4692560727393327    0.3843691748394003    0.5510572214332301 H
   0.6206152011478832    0.1523763600485685    0.4667523786259192 H
   0.3755589856334082    0.2786753465300448    0.6647952666399133 H
   0.9668819235038608    0.2795494173227339    0.6172136287505837 H
   0.7270170978171356    0.2300176075871241    0.4214940298323019 H
   0.7307423970673013    0.3024322512303668    0.6116774440024707 H
   0.9008332472957188    0.1724333145973133    0.3734891362282849 H
   0.2624721242684012    0.7687659913784100    0.4105778801725876 H
   0.1097153804286862    0.9206082117044905    0.4553029267656985 H
   0.1519625040794150    0.9431473575819882    0.6129456720348435 H
   0.1780804326334847    0.5569743952477376    0.4239258263021431 H
   0.0120042519700907    0.5382616427724098    0.4938430530334570 H
   0.0013617065068437    0.9099581258324045    0.5108140680807379 H
   0.6113624184613947    0.7434739468101514    0.5855910399725097 H
   0.3522640863382646    0.6568204353702770    0.6475087336962287 H
   0.4696188653728859    0.9714400956676728    0.5909556137672132 H
   0.3471763515486729    0.7261978951620301    0.5442782039956253 H
   0.3459654722392810    0.6741813482604070    0.3776578202400349 H
   0.5017338660967521    0.6941076164964585    0.5916589878094394 H
  -0.0185970710904915    0.5811598492202034    0.6022411502324730 H
   0.8313765190754100    0.8307316702931273    0.6315019721225905 H
   0.6774448610834821   -0.0659376711428888    0.3820335147740593 H
   0.7123420572633639   -0.1972231042047935    0.3415525686654972 H
   0.7206540919520236    0.5781447292916360    0.4422335598519919 H
   0.8127688691951563    0.5491671609829417    0.5161386249715073 H
   0.9005662570459176   -0.2579820562581479    0.5086585421592109 H
   0.8284003630555687   -0.1746330415820904    0.4439419738276397 H
   1.0023288054921564    0.0958487592442494    0.8407288152303195 H
   0.3156848515846363    0.4963749823293594    0.7762577352132671 H
   0.1122919933923547    0.4823703315606717    0.7952788470313257 H
   0.1232924628434232    0.2396357807563847    0.9032398365104460 H
   0.2220364509360286    0.3758160102573483    0.8965062228676896 H
   0.2524065918509007    0.2092961895134515    0.9283196614952957 H
   0.4057869935035334    0.1730977781222410   -0.1121098365652057 H
   0.4340110039692692    1.1185555448138713    0.7305592004763748 H
   0.6556725914776453    0.2896521481838639   -0.2276086255449890 H
   0.6585050439218584    1.0076249292601618    0.9737696296942896 H
   0.3578567468061565    0.4489884647917283    0.6682805850614040 H
   0.5642983195449902    0.4536150997060400   -0.1975066791164105 H
   0.4959299692253411    1.2268469757411118    0.7770934728608138 H
   0.6226867313801632    0.2837508974145823   -0.1022995386545932 H
   0.9865292648274576    0.2172052572686579    0.7969087663107951 H
   0.9943583612701536    0.3688972731963830    0.7036924668196990 H
   0.9031262223822456    0.4389816271340681    0.9282427059108069 H
   0.9251136547188046    0.2464654135132409   -0.0517235589728106 H
   0.8233628852541748    0.3113613511145171    0.6929917927965529 H
   0.1453568511931602    0.9308679358633365    0.7284290698977292 H
   0.2502424002966308    0.5072015795848231    0.9080803427747819 H
   0.0172042011911429   -0.0908088039507845    0.8683173922694989 H
   0.3378646739541402    0.7761743778057653    0.9067797933969238 H
   0.4025155776780296    0.8828619312590421    0.9096117589061060 H
   0.6504906248351826    0.7622240382319629   -0.1076841209012637 H
   0.5095166318784534    0.9533816233682317    0.7101590445842799 H
   0.6384784193904561    0.6376867711345863   -0.1410936183511642 H
   0.4753410946384754    0.5336570717810204   -0.2603932436488417 H
  -0.0095798680361806    0.5005925860571895    0.7931364035591617 H
  -0.0497313538056031   -0.0721766696553649    0.7656994290214250 H
   0.8189897420155214    0.5301064774153784    0.7832868583004601 H
   0.7732872933731023    0.8420224585423786    0.7391066572455287 H
   0.8970090046000387    0.5799548195836804    0.9506675632307983 H
   0.8077266798011191    0.6408071190032445    0.7254793623442793 H
  -0.2139971049957137    0.6986765457662043    0.9716302644455052 H
  -0.0963305755811776    0.7426940719960919    0.9999576150957755 H
   0.1837288469476586    0.8816662363591402    0.2895236675485690 Cl
   0.5526025760728219    0.0058391554054169    0.4663960742697367 Cl
   0.6323305762560661    0.9275753196734008    0.8281927505171193 Cl
   0.1728709817006014    0.2198758405546701    0.1448956507281436 O
   0.3440321487245450    1.2440313772478637    0.2781419366026983 O
   0.5288263090625958    0.3892928241007423    0.0812169823645708 O
   0.5266770375516971    0.3701506737408508    0.2897060522838070 O
   0.3873379672422792    0.0181979223853469    0.2810985701587521 O
   0.6559592133634611    1.0151860659231327    1.0485704578172528 O
   0.6879729148454911    0.2495738808080178    0.0093365417173671 O
  -0.0290341911144798    0.3241609722466821    0.1805168516762477 O
   0.8420639817218589    0.2039669035153082    0.3285324533258633 O
  -0.1910830594392568    1.0247923585185121    1.1937548635135311 O
   1.0158824869967638   -0.0007790879975959    0.1320140554405893 O
   0.1456081361341494    0.6849986107792498    0.1030138051595502 O
   1.0159138976143876    0.5441841088521936    0.2158594734085030 O
   0.4518969949096193   -0.0488347364284652    0.0622525868122804 O
   0.4624800172524696    0.6094924720896319    0.2889226444337126 O
   0.4923656493904968    0.6005124554602764    0.0641987165884138 O
  -0.1520318090786469    0.6825512125597202    1.0146022628239648 O
   0.8440192926689316    0.6928677937507121    0.2165120567649667 O
   0.2112736028072829    0.3164699978834380    0.4449677917688735 O
   0.0107471205262479    0.1895888632817823    0.4771829385475101 O
   0.3573934401962076    0.3349044054849774    0.6069639144525412 O
   0.5456836022757712    0.4102026341316741    0.5360778169125152 O
   0.6524687084800324    0.2333110723894798    0.4573484062014067 O
   0.0606067644111579    0.9611973437572284    0.5032908901411279 O
   0.1164193485481030    0.5108353379676337    0.4024775353493128 O
   0.3007318270648950    0.6995896527302173    0.4357723689783252 O
   0.3604960239519842    0.7312114973399012    0.6194168671344938 O
   0.5750438918340428    0.6697380136288340    0.5770520483176496 O
   0.6745919917378137    0.6459293435708866    0.3337800546321440 O
   0.7367771619782461    0.5323442683671465    0.5063021621621686 O
  -0.0452898924736182    0.5826228570324326    0.5290702413889792 O
   0.7310195957678300   -0.1127547697466419    0.3454180476743618 O
   0.8828506687061758   -0.1787301423462681    0.4991129714592393 O
   1.0043704956376940    0.1779357175291543    0.8620070343414299 O
   0.2178156491928498    0.4524771104507040    0.8593597622350205 O
   0.0513093001210998    0.4871021944150741    0.7464497591174353 O
   0.1902614701479384    0.2591190733091510    0.9396552190904731 O
   0.3796329427391964    0.1546277287990580   -0.0430729817204419 O
   0.4293261103507010    1.1939632444627593    0.7627897383719093 O
   0.5950870069396975    0.3046836199808564   -0.1777352503495878 O
   0.9057568616082268    0.3124628500357894   -0.0084281932283297 O
   0.9525272712498501    0.2985269368731286    0.6876503056771960 O
   0.7474520603776454    0.3275146885308640    0.6816693176507386 O
   0.3002410361645254    0.6373727845391544    0.9681826542604138 O
   0.0038739277043837   -0.0361925329002263    0.8135557983473788 O
   0.1983057293213566    0.9263872622852796    0.6743631544593864 O
   1.0037030200131911    0.8318586275870022   -0.0069207872393661 O
   0.3615419975188519    0.8347320292414152    0.8604294448594126 O
   0.6642845975646111    0.6836586517679333   -0.0870192377985277 O
   0.4480460531889592    0.9654234336092594    0.6669477143380607 O
   0.3576792768165828    0.5209295827045628    0.7137844221695400 O
   0.5586923095646082    0.5236689035966021   -0.2402116416166944 O
   0.9009981530382430    0.5162953102784703    0.8955211913862351 O
   0.7834431313162707    0.5631225922312644    0.7223888260712154 O
   0.8340307162646090    0.8148872277976921    0.7054016503511918 O
