Li1 Co1 H110 Cl3 O55
1.0
  12.7146612252000004    0.0000000000000000    0.0000000000000000
   0.0000000000000000   12.7334198305000008    0.0000000000000000
   0.0000000000000000    0.0000000000000000   12.7324529795999997
Li Co H Cl O
1 1 110 3 55
direct
   0.5655672601286226    0.4848993434199483    0.6219559579358275 Li
   0.7750341073240032    0.5427549713507421    0.4281865402161708 Co
   0.0321657341360715    1.1576392761347585    1.2883805670504309 H
   0.1013160390028195    1.0599514580499012    1.2627609947242942 H
   1.0169768492905011    0.3200033431348818    0.1877583992362093 H
   0.3220059142814950    0.1261410474704288    1.1351657856469120 H
   0.3789103010508420    0.2359143855529377    1.1276888289165372 H
   0.4850106505691030    0.0952933250809459    0.0711254140306631 H
   0.6323665231964155    1.0854905515792810    0.2666497174770371 H
   0.4623737910490435    0.2880103667449717    0.3077470614718185 H
   0.6839125288973805    1.0991004067719057    0.1513828476640134 H
   0.7238632590822510    0.3201360647463967    0.0352701392669198 H
   0.9095024954090428    0.2953139820531892    0.2527081776744235 H
   0.7455248665070818    0.2429282122537647    0.2336898470834546 H
  -0.1991224022848611    0.0244075919460040    0.2691794735304549 H
  -0.0724906366811595    0.0121064032563157    0.3081515396983041 H
   0.1169654532086526    0.4703510129269667    0.0505073131493475 H
   0.2055041865701694    0.5289841224873449    0.1251066854401250 H
   0.2156200675772921    0.4861236806527990    0.2943121011955800 H
   0.2928930662516666    0.5731081683037106    0.2715442967148203 H
   1.4635715244790004    0.3691551034892268    0.1571452879508578 H
   1.3659833954661109    0.3830037005155824    0.2228129170667572 H
   0.5022498043395214    0.5204600966211738    0.0406375731863300 H
   0.5744978952425922    0.5215548535824270    0.1451208964023245 H
   0.6578394787288901    0.4239149409313117    0.0678897452977011 H
   0.7681507151163888    0.3433160119977244    0.1692702100100517 H
   0.0919662027866265    0.6696729573680571    1.0841622593789986 H
   0.0956530489534037    0.7818486351524842    1.0486074451789920 H
   0.2071778450045620   -0.0882483338850122    1.0518746867754583 H
   1.2859183444223314    0.8129918790947069    0.2685378061303796 H
   0.5446787759373481   -0.0143256161446172    0.0559085504529673 H
   0.6414678274270501    0.8354634541946354    0.0484601035471002 H
   0.5433370178127834    0.8340341445321671    0.1166016471593238 H
   0.8148322577455879   -0.1220106699834615    1.0047038862264766 H
   0.9548202580921722    0.7959147699681275    0.1959532066442692 H
   0.8075682026233841   -0.1862871967056517    1.1075827267844371 H
   0.8737720900169123    0.8687930707194473    0.2657520114326234 H
   0.2196760152023684    0.1324017379260320    0.4806587544132649 H
   0.1093687112829958    0.0768106234082753    0.4363609273642528 H
   1.0700101144366903    0.1844026935855612    0.5912140419336923 H
   1.0750594035103744    0.3128701455171894    0.6093935710763376 H
   0.2377685145561121    0.3201965355398089    0.5453391424986935 H
   0.1780484806086046    1.0020722700697260    0.6195699290968697 H
   0.3619204657596070    0.2050004594246933    0.5837881358532623 H
   0.5018479060970522    0.1971620309955192    0.3822967182834959 H
   0.3774694447295041    0.2355342834229187    0.4625703310459057 H
   0.6488372726950287    0.0830317329809178    0.4460095002038172 H
   0.5547765675910916    0.0163285211724489    0.4422655240763281 H
   0.7778529004766644    0.2808324050334547    0.6510218418305448 H
   0.8866548555974340    0.2655851264088264    0.5890707000306258 H
   0.7884060719393896    0.1426385793822272    0.5378504048491008 H
   0.8119049284726513    0.0415303918616838    0.4538610901653252 H
   0.0738103906960555    0.3977075273344809    0.3399427429054583 H
   0.2170853052010108    0.4405923145533877    0.6007330246618584 H
   0.1472124250459970    0.4369640669486602    0.4367379167792297 H
   0.0673660978793815    0.5964758106151097    0.4122548104603251 H
   0.5258532645249326    0.3598261092691928    0.4482667243259913 H
   0.3561137833248700    0.5854732675540207    0.6005146849590176 H
   0.6421560093490865    0.3822851190094513    0.4817331742459490 H
   0.4517057915170413    0.6190691126368418    0.5241743284262000 H
   0.5562693324916917   -0.3448777424412905    0.3805719917099767 H
   0.7721956518307125    0.3566274398981853    0.3416305559320944 H
   0.7873466650262662    0.3382403920260029    0.4725283493635969 H
   1.0151993736975842    0.7232752110505385    0.6650097199154160 H
   1.2263414523146079    0.7328335230845509    0.3435068636662189 H
   0.0825540762753189    0.6905848571989405    0.5096790854203391 H
   1.0980328823020129    0.8048369606688435    0.6322077138393550 H
   0.4340922667810350    0.9057902015979555    0.6497777767611210 H
   0.4517860138668101   -0.2740523073260653    0.3745637229087828 H
   0.5201637696403482    0.8164426409940949    0.5110739462557535 H
   0.6035014206585201    0.8903348092037920    0.5748636968482993 H
  -0.1881925003756725    1.7034235267532436    0.6633054136018747 H
   0.8585141136883335    0.7193736668729875    0.3512162972024960 H
   0.9353624058051084    0.6683944320216294    0.4402407767600565 H
   0.7236375354118232    0.9834990978074308    0.6303596803113537 H
   1.0585509023177524    0.3266292143558959    0.9734137647833956 H
   0.0592678089689445    0.1379430615405248    0.8480255145728572 H
   0.1991548235340552    0.2614448403975445   -0.1046353764144711 H
   0.0447366313993987    0.2475428405925911    0.7903477048706242 H
   0.2899979832173625    0.2341096857703266   -0.0185238469427601 H
   0.6549381037455846    0.1478429942905667   -0.0255616110046867 H
   0.5525303417975648    0.0205249586347564    0.8813341001752933 H
   0.3837535287947280    0.2345824574279123    0.7993318338662918 H
   0.4779392863850693    0.1621839963489924    0.7615519967233070 H
   0.8312070550219286    1.0412369254913181    0.9364138244926442 H
   0.7365155820305936    0.2031941889721234   -0.1086181125047789 H
   0.2765630991119614    0.3954159198646552    0.9062939410252208 H
   0.2280820590683401    0.5331283351735240    0.7563126292497430 H
   0.2282629526021325    0.5109284859764602    0.9536767981201271 H
   0.1735347936936710    0.6212947519683998    0.6961749636147856 H
   0.3885511399083532    0.5262323087196037   -0.1105533248349935 H
   0.5195888428003382    0.4589518757012918    0.8178192376978349 H
   0.5049002878563931    0.3509314052927550    0.7591675386735783 H
   0.4783309602104112    0.6092854094637479   -0.1218331622889475 H
   0.6779155150053490    0.3545839982818432   -0.2275362818807766 H
   0.8778146672503605    0.5431162254412562   -0.1106837003410064 H
   0.7993579956700834    0.3577159141796036   -0.2006459410683218 H
   0.8286824104850865    0.4530767847205633   -0.0300987571533949 H
   0.9820250725873031    0.4200683702023171    0.9894279609737676 H
   0.1010848885263778   -0.0070340164615842    0.7901882697638735 H
   0.1182812570435862   -0.0394226446141051    0.9017857759377891 H
   0.2497468124676716   -0.1438822491591451    0.9439771746306177 H
   0.2371196573153349    0.9236801324281915    0.6952607642834667 H
   0.4188500203249599    0.8274765974543590   -0.1495842955989329 H
   0.4542791986586449    0.8017513795348664   -0.0282063488296725 H
   0.4426170711844095    0.9600882620721659    0.7529024458334314 H
   0.6034841177987660   -0.0127536111163958    0.7763535436288366 H
  -0.0374978050107269    0.6951217373748085    0.9593787630216524 H
   0.9362826033465742    0.9759598820054000    0.9154516422307007 H
  -0.1543433877349832    1.7622686767580540    0.7650737061748826 H
   0.7475508740855571    0.8808086959039342    0.6737016821144766 H
  -0.1648509425674477    0.7144598259070180    0.9521295707294928 H
   0.6699200208117236    0.5679610828488657    0.2904974395527828 Cl
   0.2597392139756403    0.9946115877656327    0.1969420184639690 Cl
   0.7319963896602837    0.5651472276177535    0.6066423337416210 Cl
   0.0423717237178316    1.0793884987895122    1.3096333453197526 O
   0.3535490276131435    0.1741250147104383    1.0838795173177660 O
   0.5533105434737478    0.0676692457148148    0.0500467577473841 O
   1.4167908836530279    0.3283538099706104    0.1997089636909763 O
   0.9884192657600529    0.2866030464619259    0.2491173534967688 O
   0.6946269315532687    1.1065925024751739    0.2251541784126865 O
   0.7950582350211999    0.3061437514188149    0.2360106881694060 O
   1.0384088005767780    0.3779720593027061    1.0284856351546010 O
   0.1611947087145266    0.5392099692538288    0.0606738537371979 O
   0.2806733147971754    0.4995112860462596    0.2563209929012852 O
   0.5407982163906880    0.4763933802583028    0.0931347629321663 O
   0.7267685665336825    0.3980640694151186    0.0405435614509701 O
   0.0443596650048478    0.7318440010105344    1.0801174771141426 O
   1.2897407034407280    0.7433899958773530    0.2956763316410276 O
   0.5618353478771223    0.8554345227202237    0.0441242540380973 O
  -0.1476574054272900   -0.0167071444695817    0.3129063186946999 O
   0.7721185754554444   -0.1855301337855311    1.0403529477802274 O
   0.8835246109691998    0.7975105706462240    0.2274710925255652 O
   0.1516199353215308    0.0975939639030344    0.5025453461365162 O
   0.3232226199196554    0.2216377809628209    0.5196363183434158 O
   1.0374492783540530    0.2471077650140156    0.6295711441183605 O
   0.4669173647217341    0.2640552938689977    0.3861655721546962 O
   0.5808354608743288    0.0761320154525946    0.3972977554211176 O
   0.8115101086728087    0.2649474344055713    0.5825511393353694 O
   0.7637683726368608    0.0675467334580318    0.5120886760977330 O
   0.1937830720740452    0.3871832532758333    0.5478940311797764 O
   0.1028964192932652    0.4638060312088286    0.3713546005137921 O
   0.5684615566693014    0.4061216063035392    0.4963077421078780 O
   0.4307685447210054    0.5768408654606952    0.5847007643953522 O
   0.7565798209026747    0.3784848830442401    0.4145536604970695 O
   0.8661116421076156    0.6604876794492494    0.4048626763483202 O
   0.0743846883411652    0.6743331351356876    0.4309880428062178 O
   1.0834591554273445    0.7273605236132641    0.6328933633378442 O
   0.4978485860129891   -0.3140682658653033    0.4182575814992174 O
   0.5323174556303238    0.8885206854014284    0.5407170951921541 O
   0.0693060630552615    0.0069216217224606    0.8594608601604893 O
   0.0473450375073230    0.2167624214108409    0.8609216941435246 O
   0.2757412132736436    0.2714531493747405   -0.0891277597504744 O
   0.5530368436921835    0.0356758138306166    0.8067907265205322 O
   0.4426068467672821    0.2274688931847043    0.7440636148414526 O
   0.7279192067073273    0.1664860613660263   -0.0398222566391860 O
   0.7444670325812087    0.3108824626843831   -0.2244551788079552 O
   0.2669985501360930    0.4738567482749111    0.8947722020299901 O
   0.2242510486200665    0.5640037798877788    0.6854708204132860 O
   0.5496108774608800    0.4158165666239634    0.7594424267886655 O
   0.4639491377802879    0.5416657117343445   -0.0897529338636443 O
   0.8716642871014179    0.4617241081784969   -0.0953260940483858 O
   0.1886158089565832   -0.1186423682569083    0.9832940290342479 O
   0.1673222805483388    0.9511904167558107    0.6739875657541674 O
   0.3957318267062875    0.7913127069889710   -0.0857521336972022 O
   0.3944962452211226    0.9078556325937203    0.7215824793949982 O
   0.8624151220692485    0.9718447267134581    0.9400502015579421 O
  -0.1029452428355527    0.6696415439688820    0.9253161985892624 O
  -0.1615272205074182    1.7731848329714113    0.6868601834863987 O
   0.6834642275310254    0.9299156921644546    0.6683586425517939 O
