Li1 Co1 H90 C51 N3 Cl6 O45
1.0
  14.1515989232999999    0.0000000000000000    0.0000000000000000
   0.0000000000000000   13.8109726813999991    0.0000000000000000
   0.0000000000000000    0.0000000000000000   14.2741183933000002
Li Co H C N Cl O
1 1 90 51 3 6 45
direct
   0.7873360470988949    0.7077481120402270    0.4227510961049918 Li
   0.6970162177334974    0.7573217384454164    0.6133758285772394 Co
   0.1795008444040645    0.1940666962805336    1.0723687988944290 H
   0.1247678065192273    0.0843799975268554    1.0771894118460701 H
   0.2901448789394126    0.0679206209685234    0.9979571980702019 H
   0.0564638639584671    0.1923883206487276    1.0742372155114945 H
   0.0038245824159761    0.2972375614230719    0.3298928218859584 H
   0.3267075318809181    0.3177227224994547    0.1985284918212631 H
   0.1123338758408861    1.0159820140399862    0.3615823446667362 H
   0.5171317316201515    0.1636510253723049    0.1727924015158589 H
   0.6589519676851794    1.0708753236923192    0.0264225913158344 H
   0.8425616088347666    1.2144995307455568    0.0963988919515949 H
  -0.1706023507792441    0.1522542900640105    0.3050842844868139 H
   0.6820009532993037    1.0124934834989849    0.2453937329218271 H
   0.4076679948087941    0.4936959907163343    0.2900178548780372 H
   0.5707753590374113    0.4244149905961453    0.1884375008380574 H
   0.4572961678376144    0.4428863181329499    1.0141284244562985 H
   0.3536027259902806    0.4770304809575627    0.9431762316767164 H
   0.5038499886157949    0.5896774998091194    1.0103852861042248 H
   0.9420203348507091    0.4638481436812613    0.2259172235963550 H
   0.7978196681232113    0.3807190095873098    0.1503083509316460 H
   0.8188180020648791    0.4831546622119294    0.2788711069237338 H
   0.9602069723744910    0.5200934073509347    0.0535374007447424 H
   1.0379607305161478    0.6667915470647714    0.3091805094436872 H
   0.1837590204820188    0.7033472634249911    0.1574310325010887 H
   0.2036323932029592    0.8308458864851521    0.1179112538039481 H
   0.3177177349901555    0.8266542917774192    0.2589665501468081 H
   0.3755613754463759    0.6841820673083937    0.1893650537443171 H
   0.5788061123548249    0.8837393369938059    0.2461174203479345 H
   0.5600469600188361    0.9348226325932644    0.0291625153463340 H
   0.6229157570234740    0.8351917063911485    0.0186707990894271 H
   0.8083103554868537    0.6773165117687973    0.1478969936028350 H
   0.8964664717505759    0.8562445320470549    0.1427057798298863 H
  -0.0057382945941393    0.0727378052128742    0.9136339518398101 H
   0.0846896497629488    0.1772344278109073    0.5757441524765190 H
   0.2845236060054387    0.1842194535745105    0.6262431731612811 H
   0.3797488881310684    0.2222558766504520    0.2638418074539539 H
   0.3469455277110892    0.0708632087889114    0.4979219732432706 H
   0.3971334961413293    0.1924093184456742    0.5010849006308697 H
   0.4929949607964947   -0.0369648229040049    0.4470865394878243 H
   0.4851328103354036    0.0868635300622716    0.3972027582005526 H
   0.5914458148343444    0.0435450749612979    0.4537916120788520 H
   0.5631194043578579    0.2037553694165112    0.5195009031297271 H
   0.6560371027131313   -0.7142856905788914   -0.6179730726796002 H
  -0.0956235440909770    0.2072178337268201    0.5508987651658418 H
  -0.1132173157452927    0.3276872632435935    0.5273453665785212 H
   0.1347327582370022    0.3563999404132512    0.5042224674329653 H
   0.0278939474288005    0.4100590864484946    0.5401139309814582 H
   0.2838636099123737    0.5141004912899633    0.3777038306779503 H
   0.0551240860222239    0.4496165464915348    0.6936757089914308 H
   0.4827096919170642    0.4506497829137036    0.3734899101861438 H
   0.2702227484771215    0.8127559223846169    0.3759299908300278 H
   0.1004956375677417    0.7647897135387930    0.3884680681437206 H
   0.2468600173969149    0.6975446308480743    0.6395553788446242 H
   0.1821917064194727    0.8482371307907380    0.5863717089966615 H
  -0.0369043841922433    0.6354780393215819    0.5589629409578843 H
  -0.0214919914879185    0.7300492205215146    0.6956821376345785 H
   0.3174266018099171    0.0671502190391698    0.6583684496487762 H
   0.2082862842831794    0.2899230874659950    0.9410843336570099 H
   0.1680519614277924    0.2451022037903892    0.8226370885512388 H
   0.0928258328631091    0.3009266571280121    0.9018580932285422 H
   0.3156875757017448    0.0040598038960364    0.8904836604596358 H
   0.3928958124474209    0.1481148278176624    0.7602024095437906 H
   0.4553577296336575    0.0181782881257970    0.6824967348787528 H
   0.3745070776189103    0.1772764234048006    0.9408979823933656 H
   0.6269414505375971    0.1227755553367813    0.5958910359530484 H
   0.4182922359857013    0.2984662945754338    0.7368475521148037 H
   0.5246138614186201    0.1894558696958310    0.6280849681692544 H
   0.7613170790659783    0.9959863188510500    0.0091605795256242 H
  -0.0270305882517761    0.2001669183245222    0.9450341397638770 H
   0.1390488782974312    0.5926555666657276    0.8783357998897395 H
   0.3269046827481183    0.4374790233882014    0.7652962442729552 H
   0.4219525997566610    0.3800695260058906    0.9132500402139564 H
   0.3924470999002086    0.4532616192290835    0.6682962081341279 H
   0.6149145410044438    0.4910216678534890    0.9548470049889367 H
   0.3831117590163960    0.5792806940726646    0.7986040806590652 H
   0.5976429944234017    0.4113495820863582    0.8583716947766868 H
   0.5053445900466745    0.5606259616404603    0.7371403898148162 H
   0.6275011046122303    0.5344758845726524    0.8400980618409790 H
   0.5178160571195164    0.6697290664514138    0.9025572607515384 H
   0.4057968281552224    0.6299013140773325    0.9425036857628121 H
   0.8455951883074945    0.5073216783736155   -0.0015020754844001 H
   0.1172322622617921    0.7002301766713567    0.0167946762170982 H
   0.0474811334070307    0.8352170485598773    0.6748934632083328 H
   0.1741353729536982    0.0791689235742637    0.8181226241041564 H
   0.1501006330035721    0.0092578447332820    0.9184909943617877 H
   0.2733609097718768    0.6955976282277436    0.7635609357013500 H
   0.1483566604578716    0.7424314041623749    0.8680213275038928 H
   0.4291334137799222   -0.0686830812848906    0.5921275811098257 H
   0.5522235330972525   -0.0409710577490362    0.6218120763847763 H
   0.0138050800802686    0.1613159255394427    0.8282556492069809 H
   0.7878709689858866   -0.0451416546598224   -0.2201061191123867 H
   0.1182038839191414    0.1543909969188248    1.0435579127388936 C
   0.4129896549553380    0.2381664142403160    0.1170327407039106 C
   0.3915447283682558    0.2818975846605863    0.2139031716405793 C
   0.4681015899548449    0.3465215630427900    0.2598941030530677 C
   0.7748441724380791    1.0956150728672747    0.1169059377763932 C
   0.7146460277183766    1.0275793145122196    0.0654337571655848 C
   0.4262658932813595    0.4522762433027139    0.9477558490092084 C
   0.9102352339276321    0.3823206346509659    0.0752473229593049 C
   0.8796217320648351    0.5130390888574075    0.2420926533944135 C
   0.7336099625680380    0.5294319965274739    0.1402047497125547 C
   0.8395004706386667    0.5436503289020256    0.1414097278082999 C
   0.9169086847872735    0.6016071447226808    0.2928474516970573 C
   0.8877494355578038    0.4868353587980910    0.0601801927818679 C
   0.1595144102539053    0.7800913150172036    0.1637529640917890 C
   0.0640241404035439    0.7843227331329390    0.1202910855430448 C
   0.1655999416816090    0.8102839748406195    0.2667603764928344 C
   0.1475079931047978    0.9239588068902370    0.2723698297559923 C
   0.2675241134884545    0.7858896032223385    0.3044600778104714 C
   0.2964961047257805    0.6851660675170324    0.3042604157422811 C
   0.5248710761700930    0.8299523940219733    0.1340670676795177 C
   0.5978210661744214    0.8856508605779162    0.0747772413882322 C
   0.6790549964342205    0.9431160383252341    0.1223983960732783 C
   0.7570730356666764    0.8688309011616725    0.1479096038387207 C
   0.0691458231471571    0.1841354623867238    0.4424910192467431 C
   0.0078241304745924    0.2774062282998906    0.4625483700484839 C
   0.5482795971291332    0.2813501938160456    0.3018987987883526 C
   0.3905540275947258    0.1217307339231937    0.5360839097629849 C
   0.5129234580305186    0.0384418862412942    0.4506934872923322 C
  -0.1650814198637020    0.2299656884396971    0.4245053200304255 C
  -0.0925327272697071    0.2600924586244183    0.4954385974561791 C
   0.0747670960811309    0.3112771228987916    0.6356006687571349 C
   0.0643654445929983    0.3399108773144083    0.5336970022804189 C
   0.4294188938886997    0.4259363895942259    0.3247989871567937 C
   0.3526141451185484    0.3889747640971683    0.3929587132563523 C
   0.0632002052381117    0.7356331863854005    0.5663139378537243 C
   0.0508461241941563    0.7566983210946895    0.6659156758263708 C
   0.3468423591569270    0.1371778718563037    0.6323976688421656 C
   0.1541404591963476    0.2533058258388628    0.9015288259581932 C
   0.1828608887536617    0.0774398636050002    0.8935962870174241 C
   0.2877027520682858    0.0716922597373229    0.9228085990153211 C
   0.0177749495137149    0.1492964969423852    0.9049749231982923 C
   0.4799951576649132   -0.0095829716235876    0.6136056150978232 C
   0.5562239291165878    0.1523947580849641    0.5742068946651855 C
   0.1037214214701415    0.6063837814970657    0.7446827120117886 C
   0.3998285979603332    0.4414219752176072    0.7420016357487557 C
   0.4456311962047478    0.5322338991083193    0.7832322031143903 C
   0.5855829437588086    0.4819566292868275    0.8855705724448329 C
   0.4790807026927127    0.6128590676382395    0.9403389286024326 C
   0.2256503999093944    0.7316378124698244    0.7084107696238775 C
   0.2609206193881420    0.8367368546216377    0.7027606833784211 C
   0.1270926321575396    0.7199181455257296    0.7359235020518456 C
   0.4875195371062132    0.0762733997815147    0.5446679775578487 N
   0.1216812295015532    0.1592183180306671    0.9408454397438418 N
   0.4882280789504489    0.5178675684683917    0.8844937984139257 N
   0.8061325097065259    0.6346699861701171    0.5661114735108926 Cl
   0.6372816248735921    0.7818725074478520    0.4684439355525154 Cl
   0.7502603779223090    0.9075349093681252    0.6494936458598807 Cl
   0.2313253770222472    0.6429438422290674   -0.0281005658106545 Cl
   0.6180286767454899    0.6877994808789298    0.7305221176808018 Cl
   0.8457372217279506   -1.0143731714253077    0.8481202735702686 Cl
   0.0834608133541266    0.1546458667300395    0.3628503739419099 O
   0.0115120529689242    0.3396002547319904    0.3844937421337424 O
   0.3652014153602677    0.2608027634107866    0.0489465743136853 O
   0.4882304108424265    0.1795079823768567    0.1106113283634453 O
   0.8281936210828509    1.1521433144335931    0.0625558211090027 O
   0.7685975284737386    1.1152255670915343    0.2047831688205730 O
  -0.1286254686460218    0.1783473110490806    0.3540960679625891 O
   1.0079090026297821    0.6005072945998536    0.2911688891869379 O
   0.5095410699159720    0.3904757445478731    0.1753873078336729 O
   0.3355326830653806    0.6454462003755391    0.2289492847582068 O
   0.8547517508063548    0.3355194415047003    0.1373205085380297 O
   0.9741545129364994    0.3426833105733320    0.0307338908514250 O
   0.7118618900238628    0.4382950412212667    0.1501086888634557 O
   0.6762906444898200    0.5963982429559801    0.1320984697440270 O
   0.8642397246196126    0.6444173083251524    0.1184731098695223 O
   0.1385429284016769    0.9813595431227874    0.2076463929352884 O
   0.0923559212979183    0.7619636996945570    0.3206936548073362 O
   0.0525045940340100    0.7300984567350446    0.0437854849931301 O
  -0.0011677863179680    0.8281190691299403    0.1574366370503712 O
   0.1349178963273481    0.9499120839163172    0.3628286563134401 O
   0.4673500141041126    0.7782855044797904    0.0922501243451978 O
   0.5220644533838433    0.8388779058482340    0.2301899918556282 O
   0.6320680797187387    0.9777073745779947    0.2049793280454617 O
   0.7367283381126799    0.7871892944471407    0.1775590706806555 O
   0.8423694044050947    0.9009698395434552    0.1249638785073590 O
   0.0873564862246480    0.1307337203795680    0.5164674688533011 O
   0.0873423535459956    0.2220936867705881    0.6558527075895778 O
   0.5537043551664461    0.1958391999676178    0.2838059125670065 O
   0.6129472721360361    0.3317535952316101    0.3461803426696676 O
  -0.2536820088710406    0.2414739292903979    0.4381986350649810 O
   0.2792181984393450    0.4478079845186595    0.4091180299752236 O
   0.0636708234372351    0.5616237190264088    0.6795662561726469 O
   0.2721009814700194    0.6330698092303882    0.3727241886404173 O
   0.0674096235747153    0.3735790345634795    0.7082895712456427 O
   0.3521717922767297    0.3094293167674849    0.4243834210835303 O
   0.8677198967377550    0.6540603655574183    0.3390933901019011 O
   0.1244710202675279    0.7800312178742184    0.5174408599670053 O
   0.2265972893791021    0.8895702079873062    0.6301285269513991 O
   0.0053473785407673    0.6801526624805246    0.5209109937178399 O
   0.3411871677941875    0.1503514552234643    0.8862536268886420 O
   0.4112633482579529    0.1758572619559914    0.7000775054094072 O
   0.1168337207237957    0.5527039996958575    0.8216205634251190 O
   0.4560262053339139    0.3566569824103570    0.7564971018993740 O
   0.1075725764029080    0.7671349502391467    0.8194018624778951 O
   0.3142608817917897    0.8719088885692684    0.7614928570160944 O
