Li1 Co1 H90 C51 N3 Cl6 O45
1.0
  14.2579067805000008    0.0000000000000000    0.0000000000000000
   0.0000000000000000   13.9147217290000000    0.0000000000000000
   0.0000000000000000    0.0000000000000000   14.3813466257999991
Li Co H C N Cl O
1 1 90 51 3 6 45
direct
   0.5310576794312910    0.5751925565151199    0.2848456003105428 Li
   0.6932593991930539    0.5459048705709119    0.4784373460936069 Co
   0.2839265223655808    0.2159047390964896    1.0131216284545610 H
   0.1501326892757910    0.2195045236251019    1.1077476767245225 H
   0.1942450551148068    0.1105142017533191    1.1527198213246477 H
   0.0738536101133825    0.1204324741189368    1.1188092277836292 H
   0.3116956757269633    0.0930837417898607    1.0404702495700833 H
   0.4695525781916512    0.1403085453323190    0.2005586394618698 H
   0.6339870240113189    1.0103611583693783    0.1573825714512388 H
   0.6695476436594591    1.1149043916679822    0.0943676102254093 H
   0.8533803787412130    1.0918949484153209    0.1375847036014218 H
   1.1381136192160559    0.3973104509145876    0.1098536426391237 H
   0.2932687071652579    0.6167463878644698    0.2716472535257235 H
   0.3401788188876004    0.4696492169786028    0.2759250170482043 H
   0.1901294439733274    0.6621939370369424    0.2121076274893217 H
   0.5334970276845401    0.3627528069052339    0.1211689946874544 H
   0.4180948844856280    0.3511571743699654    0.0932842624412700 H
   0.4666280254756081    0.4636549325347992   -0.0118359352242184 H
   0.7849986720145677    0.3820043597006955    0.2031348933387865 H
   0.8866699777901526    0.5050602880439392    0.1542013672712404 H
   0.2234057170829880   -0.0147538441298570    1.0413262194816850 H
   0.3310533559425105    0.9227280727965177    0.1771025606413487 H
   0.1044976595328638    0.7692984863786635    0.2927169077023639 H
   0.5037017704605969    0.9719212951498901    0.0844957947623631 H
   0.3800254814269439    0.6911424138979990    0.1845476214403088 H
   0.8889732611897125    0.9688849426576988    0.1419340876770261 H
   0.7196952572613293    0.8941295849682888    0.2320139691865878 H
   0.2199080087049108    0.2753209470596665    0.3263083378076185 H
   0.0876894419109223    0.0563384866595057    0.3839072554579273 H
   0.1994821492513825    0.1385363216055156    0.5965013942095146 H
   0.1837961159897626    0.0239943256503768    0.5428320112175681 H
   0.0449300095913192    0.2481835017442482    0.5489744123638923 H
   0.5290072381954160    0.2343880408116784    0.6772789479551382 H
   0.4931078591435036    0.1008036230848005    0.5449852866239507 H
   0.5801596276189092    0.1963312251373590    0.5303841504811579 H
   0.6140626406938093    0.0839567177304922    0.4072778068218058 H
   0.5949329041764525   -0.0215250898532719    0.4766723514334780 H
   0.6962423054958338    0.1651570479997775    0.7402049049984453 H
   0.6963334829751098    0.2196173537650485    0.6265215314910597 H
   0.7502958220368483    0.0274726560793015    0.4314500911735615 H
  -0.0281143731524623    0.1801670499292239    0.4697693817336932 H
   0.7524335832432608    0.1061770686668397    0.6398311335040321 H
   0.6525837229575229   -0.0444030177198810    0.6578690827135045 H
   0.3446352935285275    0.3661542403598002    0.3522266338961995 H
   0.0400849786156308    0.5099525885387542    0.6033630604058479 H
   0.1794764075677497    0.6544905849981730    0.5170848604371451 H
   0.0143413680246287    0.5959432409789156    0.5170225505559277 H
   0.4849032186025800    0.5803583084000601    0.6497676160684421 H
   0.5346212460040147    0.3873160002379232    0.3542904183784367 H
   0.3851643844319915    0.8726034627911027    0.2844575977023594 H
   0.2975365145606059    0.0024610168400731    0.6365915203292535 H
   0.2978780794252788    0.8499677244605571    0.3778779174372134 H
   0.5829955277704868    0.7533535034806156    0.6959886006045842 H
   0.5342949709012512   -0.0398071658411675    0.6461692047828702 H
   0.3913469188921381    0.8253621299924738    0.4866441575328266 H
  -0.1074009064005326    0.7574664136138256    0.6312623949007273 H
  -0.1324712063753417    0.7059432848037229    0.5153554048689593 H
  -0.0466865243157844   -0.0117246782707831    0.6467046205683564 H
   0.1245896691391964    0.2496560428700471    0.9585349461064933 H
  -0.0022851960039858    0.0836045727077292    0.8866647640648651 H
  -0.0090512663314996    0.2093649029594618    0.8727439536422277 H
   0.2985513900414717    0.1284046062363048    0.9226217584587219 H
   0.0300014507729163    0.0892971048001904    0.7054230439519541 H
   0.1584340480812698    0.1625296149319782    0.8677124359490105 H
   0.5513700579913817    0.1470352339304047    0.7755792001348509 H
   0.4632530560119410    0.1303845236602072    0.6953794782304468 H
  -0.0945610132227782    0.1370098807313346    0.9947554763220371 H
   0.7502600524103630    1.0388791559066901   -0.0590053705803643 H
   0.5829067349329764   -0.0033184735131112    0.7556533887726581 H
   0.6396610686831948    0.3864931307459566   -0.1390298655004275 H
   0.4379400135326899    0.5295949504431515    0.7548175838711590 H
   0.5423073672339472    0.5746636203176636    0.8840551336195025 H
   0.5900149312173433    0.6981522558409188    0.8668258708496668 H
   0.6113925432814692    0.6066089231887649    0.7828031411678570 H
   0.9392155590969850    0.3933463040869122   -0.0423671512100910 H
  -0.1522279634040282    0.4654775920528220    0.7310979692289507 H
  -0.0141684270145660    0.6142468768661640    0.7563403898065024 H
   0.9336965161398785    0.5122345601525898   -0.0314217227953688 H
   0.6790525451913828    0.4278982706561030    0.0042856426803197 H
   0.7327273245107888    0.5424212938998113   -0.0190814319576791 H
   0.1793494604619883   -0.0075384644797736    0.9191763231118603 H
   0.3662836325695810    0.6094656098530161    0.6834835129601929 H
   0.1008723026838000   -0.0294699127647930    1.0068955077490516 H
   0.3572935331129548    0.6198574813410844    0.8493177746642725 H
   0.3318416904556364    0.7222059168855693    0.7907370296255141 H
   0.4675851785984399    0.7691410991133878    0.6566334543358310 H
   0.5187314871854306    0.8223178722038530    0.7652526289267295 H
   0.4494123146578248    0.7292603159538181    0.9616292321394970 H
   0.3291687875823954    0.7606486547583045    0.9546876012479292 H
   0.4630577959332450    0.8834344375626572    0.9266561511696180 H
   0.8089418780724787    0.8745848175416285   -0.0732898465300268 H
  -0.2223294176628664    0.8104247130575154    0.7048229610651042 H
   0.1465094365224027    0.1424932818000733    1.1021258109769190 C
   0.4749846518608328    0.2598193794249753    0.2571312276324677 C
   0.6666320684182986    1.0339189417289136    0.0918970488152379 C
   0.7902757439689798    1.0130777056878359    0.2494539215447383 C
   0.8345599442881699    1.0201241994596555    0.1532404002380693 C
   0.3479555565046289    0.3928705489745263    0.2798391150436602 C
   0.2623995195084871    0.3538140726335469    0.2230356722746450 C
   1.0002224104806419    0.4365919407384794    0.0854379874757834 C
   0.2351753269270857    0.6757551137298780    0.2686030323453885 C
   0.4484514442992995    0.3660593768026476    0.2435935524017818 C
   0.4637066990396010    0.3932284433037834    0.1395754768401836 C
   0.4545643331925837    0.5008986525381919    0.1190384570683254 C
   0.7986318092620243    0.3345740184510735    0.0801777012196769 C
   0.8242148072164553    0.4367925915351232    0.0499510464208729 C
   0.2882020447784061    0.7716923538701403    0.2515121432655679 C
   0.2199655206533772    0.8500554013845920    0.2076004000587754 C
   0.7681862462012748    0.9949379250356691    0.0702307884776274 C
   0.7652264849509268    0.8811181857088505    0.0588201741401907 C
   0.1239023312184994    0.1864431366308353    0.4336904933304914 C
   0.0478862640155413    0.0937312574337576    0.5739767302521867 C
   0.1527298447047102    0.0711192349925002    0.5944605561180841 C
   0.0440715385556732    0.1800225986035599    0.5072101871054256 C
   0.5681879544534311    0.1177166454637908    0.5471069933593451 C
   0.6232259773610602    0.0539453378313405    0.4732703056255960 C
   0.6962829846788954    0.1513515257808430    0.6638852091758752 C
   0.5925033750363563   -0.0019796037633000    0.6825990338963770 C
   0.1051204718528423    0.6333094212106324    0.6374120276368813 C
   0.0214504059472659    0.5879157717865419    0.5903114314531551 C
   0.1722832058180884    0.6686748427824057    0.3529859508283433 C
  -0.0812273589264824    0.6066197031384414    0.6332448239973776 C
  -0.1400101811810271    0.5169964232563202    0.6006317445546929 C
   0.3446465153721306    0.8179059981329505    0.3267345844004794 C
   0.0009102239620299    0.0064560661901541    0.5298730717768303 C
   0.4112306230265860    0.7468100740270290    0.3745159235114666 C
  -0.2382644355794328    0.6967400824333078    0.6176558804976218 C
  -0.1349771843249849    0.6934076406566707    0.5935990234450748 C
   0.2732019467070326    0.1387497646091087    0.9945218403429160 C
   0.0177457948277543    0.1533256938982513    0.9195045260349113 C
   0.1224049164626953    0.1760390478664670    0.9321605035824850 C
   0.5327161977793238    0.1604857364733291    0.7057491608394775 C
   0.6126395706518766    1.0061526660157043    0.0052354841906755 C
   0.4396408242038022    0.5953654356762595    0.7108460409792344 C
   0.5568623789334081    0.6338821958701061    0.8309356295927017 C
   0.7606998737874796    0.4426859900232216   -0.1182807654499027 C
   0.9264226573893189    0.4474444754093868    0.0100069427880850 C
   0.7444955316244360    0.4680666484997732   -0.0192733472262429 C
   0.1672284666400649    0.0091187137602297    0.9927883448192579 C
   0.1739882246805520    0.0256903710661334    0.6905649082321279 C
   0.3833737990120534    0.6908427312969946    0.8340785897880226 C
   0.5120331547113666    0.7572493772936736    0.7204125999100360 C
   0.3980302281230783    0.7585178180389323    0.9159109821655712 C
   0.6028295752469904    0.1049747449462631    0.6486620172386722 N
   0.1729466973211286    0.1132681195639884    1.0061222839133885 N
   0.4752337767888242    0.6693935060941670    0.7743880738484384 N
   0.6933982695076438    0.6108605353411448    0.3359576428143588 Cl
   0.4528445155238683    0.9967748284605311    1.2050946106679996 Cl
   0.6161358762995034    0.4097076805077947    0.5080795563185682 Cl
   0.3668832998371278    0.9569903461847376    0.5417640305618174 Cl
   0.5009024815737748    0.3780351822298378    0.8909918970948387 Cl
   0.8363638556473868    0.9176054407102833    0.7773724953436413 Cl
   0.2012580060015914    0.2899608373835558    0.2597797974076838 O
   0.5313812192096762    0.9639038872438812    0.0208918761724990 O
   0.4736267386483212    0.2126944700828519    0.1805765051404245 O
   0.7800154720895146    0.2732864112240702    0.0227213293304390 O
   0.8251876007838091    1.0635724272988083    0.3102618571820837 O
   0.2487846177568856    0.3848502664152702    0.1423679830668226 O
   1.0802916673200367    0.3942144493675199    0.0627502650746936 O
   0.4597249083830900    0.5208723900956423    0.0268120450005877 O
   0.4490022965471723    0.5677752324744315    0.1788534397944057 O
   0.5158522489050861    0.4196885484478667    0.2953849471425067 O
   0.9891345276354396    0.4715468337987055    0.1620886676021084 O
   0.7910570648298538    0.3199923398554368    0.1706970408804428 O
   0.8194616550852684    0.4999941428940091    0.1288748099273979 O
   0.2617661867101306    0.9205634589014927    0.1658970731308190 O
   0.1326715006291873    0.8457951652724711    0.2201103551193984 O
   0.3558171593139067    0.7554620616373232    0.1720731289836595 O
   0.7400074955483750    0.8289044214561454    0.1245045654965149 O
   0.7260531330277762    0.9493523925073385    0.2721833646563855 O
   0.1288546710736436    0.1161219315749925    0.3693460321282343 O
   0.1788760389349777    0.2525666292826804    0.4356736177723177 O
   0.4948072670841657    0.2253601922893330    0.3350272709689298 O
   0.7213069945488412    0.0481184156995800    0.4891084608364145 O
   0.1846447679122558    0.6082884393483511    0.4124824654638358 O
   0.1807199281120310    0.6604461478627388    0.5884583365592325 O
   0.4498430230426207    0.6766433815832150    0.3384115159403072 O
  -0.1496413284534870    0.4458442996794190    0.6620835698249734 O
  -0.2992411282584062    0.6419951859965795    0.5854245455565369 O
  -0.1668801843237019    0.5044886632457642    0.5195003366024772 O
   0.1024959631801402    0.7322700779034745    0.3569222998694298 O
   0.0243526552491476   -0.0269143460281699    0.4535349493070975 O
   0.4246063592363939    0.7655240666652932    0.4649806785759200 O
  -0.0509192634498723   -0.0439919423055535    0.5875620366274255 O
  -0.0069689129778779    0.1222003858658696    0.6578857709977275 O
  -0.0299456377554621    0.1595931566401215    1.0080379598731470 O
   0.8053480826585490    1.0426931021022072   -0.0125479686843972 O
   0.7029312256485755    0.3918557963783193   -0.1672546215376543 O
   0.8351624170166175    0.4663489281985338   -0.1591983523290290 O
  -0.0794697376721287    0.6159680754978323    0.7288200184325190 O
   0.1167491072866746    0.0103885918321119    0.7540888621267572 O
   0.1034701594779444    0.6377744763666052    0.7233420891363384 O
   0.2635574734952939    0.0092818503319996    0.7005215558066409 O
   0.6364726623694312    1.0224691978459326   -0.0758911328332778 O
   0.4283776000522996    0.8472598011018406    0.8817500643612087 O
  -0.2643341810001533    0.7567305023825819    0.6823236772066985 O
   0.7916132474534382    0.8371726428579591   -0.0182998639799046 O
