Li1 Co1 H90 C51 N3 Cl6 O45
1.0
  13.4198560556000004    0.0000000000000000    0.0000000000000000
   0.0000000000000000   13.0720352829999999    0.0000000000000000
   0.0000000000000000    0.0000000000000000   13.1150484445999993
Li Co H C N Cl O
1 1 90 51 3 6 45
direct
   0.8300140837316896    0.7285505996977656    0.4851470384708944 Li
   0.1492906868374324    0.3597434556205367    0.6860159350768151 Co
   0.2914479493368256    0.2699731960859641    0.2204217723259937 H
   0.0678330321896512    0.2554023969811220    0.1973757270691462 H
  -0.0124368302840591    0.3443824199705536    0.1251907096825121 H
  -0.0692369924349727    0.2603082894922447    0.2143851953103292 H
   0.6067568455327926    0.0930818436729888    1.0014253685587946 H
   0.4077770659482185    0.1856726280303446    0.1416633899713106 H
   0.6869305817891533    0.0584996236733306    1.1161485437232375 H
  -0.1530113634373251    0.3767163290252267    0.3169864175386806 H
   0.7558247633786938    0.0061351689284604    0.3242887161466154 H
   0.3157499983788425    0.5992203184217798   -0.0050306926412587 H
   0.0797251120553964    0.4870031335502172    0.1618135252236748 H
   0.1578928655435019    0.4393437609649696    0.2541807021439235 H
   0.0760544318487004    0.5329785296525810    0.2879487817564962 H
   0.3184311001619712    0.4971110469041410    0.0855698114300201 H
   0.5986010203475941    0.5195466656621018    1.0669668725517838 H
   0.6548818028590301    0.5030297120794575    0.3151762831651568 H
   0.8322793837374459   -0.4495635704825997    1.0520671944586804 H
  -0.1101927223416767    0.4699201013241329    0.2246672770403073 H
  -0.0908013071937171    0.4892892350908751    0.3544960006773195 H
   0.3563070652911124    1.0028154652969659    0.9583260233762202 H
   0.0354832068113945    0.7084121901616198    0.2064988348110215 H
   0.3813349045323422    0.7159006950409866    0.1491700339929372 H
   0.5303426130886167    0.0150649183877360    1.1300562315804714 H
   0.3992859167490101   -0.1162344518206729    1.0723736387028608 H
   0.4955233126382954   -0.0985118864370495    1.1948375401352118 H
   0.6089699840252585   -0.1914316172749577    1.0600351406268873 H
  -0.0106991067270118    1.0062059090221016    0.1897020992952864 H
   0.7696445837427586   -0.1692078400504727    1.0129007360067863 H
   0.6707158028005815   -0.1201328501111268    1.1538639972413420 H
   0.8145802371135233   -0.0596311774275678    1.0836614353606731 H
  -0.0498008674184784    0.8201790243515518    0.1936311736115324 H
   0.2360166543275482    0.1445405481086170    0.4428501539154734 H
  -0.0139390818668238    0.2853418816540996    0.5184294401214750 H
  -0.0360272472518994    0.1298909548468054    0.4061260043986403 H
   0.4828672156357403    0.0781346685950496    0.3689115021372354 H
   0.3429850147967335    0.0781928079730077   -0.2941062546580355 H
   0.4049379892962673    0.2543849578668552    0.5110372447811736 H
   0.6044371485203190    0.0669849128879528    0.5526390735738571 H
   0.4688198220408340    0.1897630392664233    0.6001466373188116 H
   0.2725543040585518    0.0309515034147877    0.3980223362765634 H
   0.9233287955148639    0.0145806785686902    0.5387251333569504 H
   0.6742799244872700    0.0005178340291663    0.6549844065453617 H
  -0.0951329482902505    0.2809209939538380    0.4205975483507441 H
   0.8908172694454068    0.1224950139770825    0.6074138617139485 H
   0.7276366815965388    0.1745817766930212    0.4368829628425176 H
   0.1312629226797800    0.3162980404495286    0.3699172170650694 H
   0.0533716252121139    0.4096721764256884    0.4249485806966060 H
   0.3597765510894024    0.6045492514067291    0.3917814138472069 H
   0.5469763235453582    0.5861132546562146    0.2858588161634765 H
   0.5313241437358477    0.3411036650504427    0.3165205404947788 H
   0.4390013949025625    0.5098633380654715    0.5491541455392360 H
   0.5557483252354118    0.5810504623237865    0.5677693264919623 H
   0.6238084442274382    0.3803921146974463    0.4256985588641704 H
   0.6874320774812172    0.4578701032488638    0.5565776789261895 H
   0.9196484281699854    0.4374505592206180    0.6739992047791173 H
   0.0055104561102309    0.6089364794671202    0.4854198876345948 H
   0.2486404857083108    0.8708597321110827    0.2948462019514819 H
   0.2118174379831610    0.8503510665363616    0.6250950773784989 H
   0.1889863436159344    0.7674052989855290    0.3542237942866928 H
   0.3927888276864477   -0.1558220132674347    0.5278758406074001 H
   0.6389695606475430    0.8038816387197171    0.3943631809022833 H
   0.0023047585362954    0.9065167656111505    0.3606240756394132 H
   0.2150931810178007    1.0804430097482625    0.8584438151225888 H
   1.0336369831635885    0.2237959951427405    0.8695379411271259 H
   0.3780539453463734    0.2859531101144749   -0.1083699983041388 H
   0.6432266852965185    0.3050748455281690    0.6831825486690585 H
   0.7961940488431182    0.0645690687354305    0.7584380846412783 H
   0.7357403452684468    0.0989019014033210    0.9892774912045481 H
   0.0929107974507446    0.4587489258462094   -0.0586980506364023 H
   0.2882668421905841    0.7043256038846174    0.8078721376482989 H
   0.4695085030491629    0.3596401817254795   -0.0304747465774374 H
   0.3549024302546484    0.4948312182963682   -0.2124557747133036 H
   0.9824270449084593    0.5335257282980208    0.7465220020846525 H
   0.8117210410207315    0.4033862386798761    0.8518491006337063 H
   0.7502494427724210    0.5063703548374212    0.9080158775321402 H
   0.1928597085599876    0.9803507156506809    0.9508254792176889 H
   0.1121978895721234    0.9610537971112972    0.7780079704167042 H
   0.1157478531337758    0.7050056816083641    0.8459345208799474 H
   0.2320300243832073    0.9715785545053444    0.7244359227824243 H
   0.1573444244894767    0.8075329446538489    0.9262788676394029 H
   0.0572978968339330    0.8225986934631502    0.8454038327906582 H
   0.3269162880453750    0.8095005036026417    0.8770178982477107 H
   0.1874304401909281    0.7241121171857534    0.6466855428042358 H
   0.3564039366729376    0.8011628578083605    0.7415963626352153 H
   0.0889934678026324    0.8243635295809046    0.6621204838839501 H
   0.5468350403607887   -0.0432022132035122    0.9015446852709370 H
   0.6096465933690830   -0.1586295332293589    0.9035614525068134 H
   0.6735146405708516   -0.0468496941785680    0.8484743513762438 H
   0.8024467239576909    0.6658403956436139    0.7166730845107960 H
   0.8232047707538602   -0.0610188725804099    0.9493607495919352 H
   0.0034560376510630    0.3015260484972790    0.1968763007782203 C
   0.3285474530824147    0.1532446249823972    0.3131267291651434 C
   0.3672334119965089    0.2972543342009888    0.0617818703242093 C
   0.6747009424159713    0.0616789296574606    1.0279925597873913 C
   0.0866789869414879    0.4622565663174396    0.2384072186624213 C
   0.3517332457400162    0.5256427936387172    0.0141579516907124 C
   0.4560586568472225    0.5558253927105775    0.0480686156031372 C
  -0.0932402305222831    0.4324406278226230    0.2942895894440378 C
   0.2485272207080230    0.7434771199966933    0.2042151985647268 C
   0.1076747412053665    0.9131201749602866    0.1543236558255603 C
   0.0928139260689195    0.8558666575242291    0.2562981171208719 C
   0.1972450014987626    0.8087714664027196    0.2803788516552561 C
   0.5227034849507839   -0.0629917864719093    1.1229864902530442 C
   0.6188993006623320   -0.1123819530391333    1.0872458674120360 C
   0.0075410293061802    0.7790821340533249    0.2406725553194301 C
  -0.0164189892415466    0.2731938116281169    0.4378960738543546 C
   0.0522859205711971    0.3421746535917761    0.3789755137615574 C
   0.2984115113610996    0.1083464903542519    0.4145656987289784 C
   0.3249870572181042    0.2089459740253365    0.6432345452580823 C
   0.3901338066599642    0.0919573057045887    0.4910469411915633 C
   0.3968857419731742    0.1857919667535218    0.5611640134909517 C
   0.3823453475612256   -0.0055883306400650    0.5455450090423374 C
   0.6724304262588860    0.0687275642430654    0.6014382833292367 C
   0.8666985308643820    0.0442799558116829    0.5897578079846660 C
   0.7677906145275212    0.0555681750373378    0.5344087939824429 C
   0.4476338272863404    0.4655146664585391    0.3558631324935487 C
   0.6038134458542604    0.5628616344287755    0.3423976847107223 C
   0.5347097985306352    0.5098204296745548    0.4221781753753081 C
   0.4918527069480469    0.5703779850102169    0.5167320007186366 C
   0.9288474836209927    0.5820595630272672    0.6054550431774773 C
   0.6607723280384722    0.6535400922463988    0.3784814248508399 C
   0.4378481783601584    0.6724032604265423    0.5001220735101942 C
  -0.0263192444640725    0.7424023064962837    0.3447476569681782 C
   0.7451182401935927   -0.0468351593340784    0.4722355581423774 C
   0.6759468574191373    0.1621001702355947    0.6777414707880706 C
   0.2302319425036382    0.4267643885535556   -0.0947398542177399 C
   0.3872164877380773    0.3457838849760699   -0.0419020776035540 C
   0.3388217808716807    0.4452683930764448   -0.0681772378864645 C
   0.8173619361008552    0.4836771786351061    0.8691467874061413 C
   0.8162993315586813    0.5267967837920041    0.7628398983474083 C
   0.9117578815380927    0.4895704460821566    0.9347332778894584 C
   0.7387873228090842    0.4718462742157212    0.6939587193097542 C
   0.9136990349969728    0.5179711344189462    0.7008073405999777 C
   0.2303034782932937    0.9959121791562563    0.8788951311152826 C
   0.1917754942480219    0.9411372352015706    0.7860224280410127 C
   0.1277479818484798    0.7867244022875546    0.8542097476515790 C
   0.3004912654124370    0.7823425291698702    0.8023799734138879 C
   0.1657886283267237    0.8017978010150082    0.6700007445201626 C
   0.6211839749444533   -0.0763814382140235    0.9055751698111421 C
   0.8737530029546765   -0.0272245941504471    0.6772092577330074 C
   0.7804800203821346   -0.0876688924478632    1.0136243322664638 C
   0.0108465789198431    0.3848680818084049    0.2770147771582102 N
   0.6723134354362202   -0.0532021862123060    1.0081054811310108 N
   0.1984655809097589    0.8269346670719203    0.7810296900975275 N
   0.8551998978417419    1.0392520254567614    0.2426405236505443 Cl
   1.7155459367384900    1.5931634740753629    1.1215652221518444 Cl
   0.0340972008868199    1.2337557844319658    0.6946891779154138 Cl
   0.6412519994362376    1.2758135044501320    0.3229429338512197 Cl
   1.0134571840004678    0.2414741910010801   -0.0323237675781936 Cl
   0.2068009907335716    0.5187321712264996    0.6471315952930781 Cl
   0.2722115283997860    0.2312737901366939    0.2896468311456442 O
   0.3001797866616455    0.3251260459973775    0.1214819929205830 O
   0.3950019661789136    0.1172081555419712    0.2591429407719322 O
   0.4210238548305640    0.2153382456334669    0.0753921898555485 O
   0.5285681529229234    0.4927578609795281    0.0335067174289346 O
   0.4654944510521207    0.6396088262990959    0.0928438981711392 O
   0.4647046512244559    0.3856980979279384    0.3028255853629925 O
   0.9015848961175054    0.5082662952524712    1.0343272676118376 O
   0.2175760690504258    0.6621202404461105    0.1615672432512030 O
   0.1698728748173653    0.8928608967173334    0.0907752820989530 O
   0.0413014510367056    0.9889400437521754    0.1380911576461383 O
   0.3403106194938850    0.7774917160694448    0.1812034650377901 O
   0.4501091891577622   -0.0696319154281769    1.0416692153298917 O
   0.3137030315644305    0.1509113999459207    0.7270375143925604 O
   0.2828547126044630    0.2930614140616683    0.6404202209224983 O
   0.0169681050867143    0.1699910608097767    0.4326408893011951 O
   0.6227175234351924    0.2415093806245810    0.6438422441189493 O
   0.4838500130625797    0.0930879636075107    0.4450799588699523 O
   0.3980653373380137   -0.0093352605511017    0.6385933119254624 O
   0.7862967742784944    0.1424207557885919    0.4731987265251218 O
   0.3691358169026590    0.5125295793389575    0.3401346355023742 O
   0.5877991161096192    0.4273779119893766    0.4764579596252176 O
   0.8846212268309779    0.6654357149733529    0.5925446829363212 O
   0.9979249756715253    0.5510378444332723    0.5413001143143333 O
   0.7457017039779701    0.4927854771840582    0.5936030091833520 O
  -0.0019307563428885    0.6486885141541582    0.3710815284333807 O
   0.0708628709473503    0.9280344553901706    0.3360271401905912 O
   0.3709584892099221    0.6783418918882366    0.4296357917473064 O
   0.6069841206978438    0.7392184105612624    0.3676419681305307 O
   0.3597944350368163   -0.0900449570259931    0.4967575415234162 O
   0.4523795562819524    0.7435314344155752    0.5621452527181159 O
  -0.0732064835963754    0.8089145198721691    0.4020329962617087 O
   0.7105850829018933   -0.0356379741344369    0.3781817690762844 O
   0.7473962079954338    0.6447855259128128    0.4099892001934572 O
   0.7450265849630967   -0.1329655878117477    0.5142931992048556 O
   0.7184778650272128    0.1646139333404674    0.7601727332089980 O
   0.8353628743373867    0.0026521611936809    0.7673644717983309 O
   0.2051131931963880    0.3589861137234509   -0.1570583430477616 O
   0.1672864089226349    0.4831385478979968   -0.0396680027449084 O
   0.3925876332780417    0.4959562917590390   -0.1511414758453419 O
   0.6722255060281020    0.4166963312732057    0.7306242338925840 O
   0.9910657366738321    0.4557400600385145    0.9043475723632174 O
   0.7937692836395881    0.6328531835787273    0.7810777265194030 O
   0.3357554290546783    0.9883838947024972    0.8902950127574705 O
   0.9157758083904080   -0.1077935321313346    0.6688364331518514 O
