Li1 Co1 H90 C51 N3 Cl6 O45
1.0
  13.4481503646000000    0.0000000000000000    0.0000000000000000
   0.0000000000000000   13.0995962496999994    0.0000000000000000
   0.0000000000000000    0.0000000000000000   13.1427000998000008
Li Co H C N Cl O
1 1 90 51 3 6 45
direct
   0.8181055672355462    0.7104226306221557    0.4829065185773037 Li
   0.1504018491363857    0.3630241373209428    0.6885524269124660 Co
   0.2885256765505693    0.2078453088096019    0.1807747290783996 H
   0.0213275933510527    0.2400546984699636    0.2993089715225155 H
   0.6070140845382201    0.0592353850461437    0.9720162487839469 H
   0.4285144444450452    0.1340430341767375    0.1079175541654172 H
   0.5013607819293999   -0.1254519865249767    1.0593658794749392 H
   0.7154029678033096    0.0249671533050105    0.8983152594404602 H
  -0.0819683962340041    0.2875279173498388    0.1152486200246668 H
   0.7183684313740455    0.0940753901348847    1.0150926330657899 H
  -0.1247318978612486    0.2242305466374408    0.2215966298998422 H
   0.0235026136480443    0.9841486242826183    0.2245047081265212 H
   0.2758012501156564    0.5332378566980621    0.0325578493498845 H
  -0.0371302598619369    0.4640615261664434    0.1480592294675895 H
  -0.0106820130505191    0.5068781129763494    0.2741885626649000 H
   0.3228025092377915    0.4267031991866169    0.0953950132301261 H
   0.0621941798406474    0.3374676244621845    0.2116177063145741 H
   0.5688219178777401    0.5398287468563734    1.0201441064689614 H
   0.4948913792501275    0.6387387418899740    0.3233192584197112 H
   0.5004708008037051    0.3732221615541751    0.3095275718847077 H
  -0.1989688726818149    0.3311613232277558    0.1870565432697815 H
  -0.1330743090448208    0.5172839222396022    0.2248425382501857 H
   0.8369646663029996   -0.4123280037981093    0.9664237906557180 H
   0.2791742046685295    0.9615219727164077    1.0323242520086466 H
   0.2782952733895401    0.8564210235148985    0.3466181237727036 H
   0.6031488689813783   -0.0264642028343384    1.1392999867757663 H
   0.4955255185011616   -0.2004787263775510    0.9447235313608765 H
   0.3815622627039704    0.7065835810025041    0.1420140485385041 H
   0.0747260147347327    0.7157739405910875    0.2145729590179810 H
   0.6714824297377339   -0.1483023091070071    1.1598528410559996 H
   0.8265862874021066   -0.1437869027637501    1.0717659189464692 H
   0.7370200669670166   -0.0252916476114741    1.1679219592124441 H
  -0.0135924504667328    0.8164503259438195    0.2250989543575616 H
   0.8553694277973034   -0.0276390482041225    1.0309835838151855 H
   0.2579809556139799    0.1007954445794647    0.4110513067236625 H
   0.1512027027636883    0.3112691070836157    0.3638512644728742 H
   0.0612304785398265    0.3526642760387214    0.4434332371312868 H
   0.5064112013669149    0.1148058000516193    0.3458222446975842 H
   0.6120958242680119    0.0459097835029666    0.6287336686641541 H
   0.4025487918807205    0.2694571313891325    0.4577498538516868 H
   0.4823692854725861    0.2171394883918763    0.5464018044518326 H
   0.8844723147660752    0.0684753644846529    0.4715460295707660 H
  -0.1440921810928634    0.2920906533961020    0.3986104841561227 H
   0.8700747957950149    0.1643012186615515    0.5654666083427631 H
   0.7930418974473756   -0.0243137548767806    0.3643412703279190 H
   0.6342951596342981    0.1328200957216407    0.4702962863768047 H
   0.1915220020947921    0.4704936328049918    0.3790269892847822 H
   0.5877846743227663    0.5471101163109613    0.3264510349715193 H
   0.3190466023933113    0.6111134629804589    0.4656501330341647 H
   0.4200716477093041    0.5298159191707107    0.6091737610311777 H
   0.5309889084150194    0.6116127150089442    0.6005864845093831 H
   0.5808431992894614    0.4034750023628432    0.4345947184769832 H
  -0.2039479960693895    0.4108187401518765    0.3458838758687933 H
  -0.0923735446154754    0.4133684370557612    0.4183370242149608 H
   0.0070966400369244    0.6298766366932081    0.4476885271078763 H
   0.6546236057468301    0.4715796204742931    0.5662366175435478 H
   0.1017007279975249    0.8311378015218859    0.6622153730824646 H
   0.2302425685580217    0.8108608406952433    0.6464065972280142 H
   0.0563866897485091    0.9683656950946491    0.3646889918741231 H
   0.2058228534970972    0.7386120490562129    0.3641784422953420 H
   0.3378781883835035    0.0018305623580230    0.3778932800859983 H
   0.6348937549638974    0.7945519410980598    0.4986980605301752 H
   0.4018624521425586   -0.1422563212391128    0.5482960118681898 H
   0.2374182765463871    1.0795034715763741    0.8651310585769987 H
   1.0115864496957263    0.2177036279164185    0.8760603196047373 H
   0.3968818415616185    0.1296535859140618   -0.3114498481299356 H
   0.3976246946476680    0.2740213942000088   -0.1303698583311715 H
   0.6262524179138669    0.2878088420386500    0.7308641281441226 H
   0.8737117271702579    0.0917417304237543    0.7447859249294562 H
   0.0945584818598824    0.4232015645464615   -0.0651070132927268 H
   0.0684024685447783    0.7422381150123364    0.8528664555063973 H
   0.3366572026304573    0.4859699113204188   -0.2030908359645685 H
   0.4740306666320958    0.3436510211452583   -0.0430438148785430 H
   0.9604998703986607    0.5392839972424177    0.7429795989979712 H
   0.8239762630457167    0.3604034458625487    0.8353091804983865 H
   0.7496634413635116    0.4637252562604071    0.8879870925516743 H
   0.8104405726299431    0.6434167486645266    0.7227805532931971 H
   0.9439191515670986    0.4243596155055014    0.6637698481785150 H
   0.1433116547665345    0.9950565940609442    0.9333354605030262 H
   0.2497954433304642    0.6738947872536276    0.8432907976092872 H
   0.1698097225556954    0.9734536381678204    0.7433562339331377 H
   0.2802494454717602    0.7858364053041521    0.9320533799661463 H
   0.2961951327362689    0.9329004798968418    0.7634167997223557 H
   0.0983255426546036    0.8470207337920133    0.9457491957903803 H
   0.1555244866837277    0.7072881828714519    0.7016212787234127 H
   0.0409473918249411    0.8669305077292042    0.8224952230375020 H
   0.3351469577678282    0.7711351888445677    0.8002265873859546 H
   0.4268517622624560   -0.0266077187079703    0.9261238525929102 H
   0.6671115684366342   -0.2256756861699232    0.9885082936722951 H
   0.6484078810758720   -0.1303330529930722    0.8855568461215296 H
   0.8221789898635531   -0.1115668257510967    0.9354682033783220 H
   0.7208453519242264   -0.0087300684708217    0.6813636453620572 H
   0.3489436506192410    0.1210769856999465    0.2846841228582045 C
   0.3723885104291036    0.2508176256100447    0.0314812060503683 C
  -0.1271024840857987    0.2974228788073699    0.1891322202458098 C
   0.6803996411570581    0.0329055659108480    0.9718100506679265 C
   0.0239524896410973    0.3220801273090095    0.2806811402442438 C
   0.4281099278496389    0.5446884386198855    0.0530543986095073 C
   0.3407655743025526    0.4819045951851051    0.0299632531298491 C
  -0.0666042015753920    0.4703358416822275    0.2257624405463800 C
   0.2713032337818095    0.7475726305705240    0.2204537901571756 C
   0.1526854345490562    0.9266659365992291    0.1992686457130566 C
   0.1329868148267983    0.8552820571135225    0.2845357515201086 C
   0.2277113654500014    0.7979505191268307    0.3135199021974719 C
   0.5255721040199887   -0.1309002460468406    0.9783840422635588 C
   0.6703209317193063   -0.0679784594292663    1.1369481108472825 C
   0.0489804667884967    0.7772689656777154    0.2614012359570071 C
   0.8066631014816635   -0.0850530314799218    1.0152295912240321 C
   0.3305017092908004    0.2256794462552771    0.5977225372448044 C
   0.3363887642279910    0.0852560343472858    0.3926642174524345 C
   0.4209438866181489    0.1000183213913945    0.4698539876135476 C
   0.4106391237888464    0.2089277849202931    0.5134759218923892 C
   0.6906025312408263    0.0614553007935979    0.6448338610441979 C
   0.8558103806301637    0.0866598944090355    0.5511385023546438 C
   0.7449081405774394    0.0623973145598834    0.5434476930664111 C
   0.0907899338717958    0.3637852294805755    0.3623515726401206 C
   0.4031102073761832    0.4725691166200462    0.3929860691243040 C
   0.5459708200190390    0.6052338924553931    0.3764529367884831 C
   0.4944866395757165    0.5259287764657463    0.4602409705743836 C
   0.4651931687771605    0.5816445394623894    0.5589687807006868 C
   0.6220934816673458    0.6716054037162772    0.4186187014937459 C
  -0.1349518906687195    0.3669135701728268    0.3640825715845724 C
   0.9027268697304672    0.5690182724502448    0.5944492372628125 C
   0.4023004305886879    0.6799140567407926    0.5531495046448355 C
   0.4133532516808189    0.0089147501628284    0.5506416485916868 C
   0.0028016255974634    0.7387845734574937    0.3581994578094070 C
   0.9159271980423288    0.0137065009010573    0.6196807344043357 C
   0.7385102347192118   -0.0487832113310084    0.5008391730706971 C
   0.3969443036829681    0.3192296577763432   -0.0574289867659299 C
   0.6960404537816467    0.1627782709599797    0.7085156002336006 C
   0.2305117505571708    0.3858149160830620   -0.0921303796712539 C
   0.3406354448830744    0.4173945153405181   -0.0687097737331572 C
   0.8200567649310355    0.4447239072680135    0.8524160153415113 C
   0.8132892915214899    0.4969223099489861    0.7492713046118928 C
   0.9095783695651615    0.4746225386864413    0.9118961825875018 C
   0.7256482428979935    0.4553533188426785    0.6924161687322139 C
   0.9075557865881300    0.4960726654417934    0.6897607022196263 C
   0.2168749309925455    1.0000361368465849    0.8925318207693491 C
   0.2224987527040489    0.9393838858263905    0.7980649311216965 C
   0.0947533041907582    0.8170419472313974    0.8618250408127600 C
   0.2706168940436477    0.7551125576123412    0.8512564362683929 C
   0.1661943554842516    0.7921892728592804    0.6916895296148725 C
   0.6348506263562990   -0.1498397610724034    0.9666208582278557 C
  -0.0796989391583055    0.3653219180636653    0.2670324988967379 N
   0.6946506715816202   -0.0673456154971344    1.0237301275789399 N
   0.1890406199645148    0.8285873412356947    0.8041557647701960 N
   0.9081714846414323    1.0286988523107046    0.2897485311985434 Cl
   0.6253816661983874    1.3478560171810148    0.2954360991588850 Cl
   1.7071512483034958    1.6160016861805797    1.0358729900644370 Cl
   0.0333232950368881    1.2493041247874177    0.6560811693505215 Cl
   0.2259795287759182    0.5243330784303599    0.6769665276038211 Cl
   0.9936575900783708    0.1729472866655630   -0.0352508956745540 Cl
   0.2724506034632652    0.1748603227257831    0.2524053675964562 O
   0.2967297787511534    0.2606049501623519    0.0855013080544309 O
   0.0800144743423239    0.9879601921392339    0.1735661646829112 O
   0.4265491184125840    0.1060826304346460    0.2356196235465438 O
   0.4324814583877530    0.1702823190333889    0.0361933275725616 O
   0.2109187215638608    0.6985092863461003    0.1690229582225501 O
   0.5156312574072154    0.4916484832841695    0.0499028392126197 O
   0.4281828003245466    0.6363218735074294    0.0610207981472699 O
   0.4187406096472135    0.3866355520626057    0.3463967080835451 O
   0.9037232892853284    0.5505398403378395    0.9761090150794220 O
   0.2350685110289535    0.9262224114791222    0.1584315273184759 O
   0.3678042368800598    0.7577179814246042    0.1977567798217926 O
   0.2504773214885296    0.2657699948484848    0.5816695193414886 O
   0.5171552588084750    0.0937303413323231    0.4186557562843370 O
   0.4333649256065071    0.0134263395945526    0.6417545851197162 O
   0.7021810751876489    0.1428723139343216    0.4828832204728294 O
   0.1273778650489495    0.4632660054647852    0.3438759170932292 O
   0.3195894279717058    0.5079103967003847    0.4111025899451377 O
   0.5612006467570814    0.4513340346604499    0.4930785151217607 O
   0.9353276354948111    0.5382620573486361    0.5125252040105902 O
   0.7102825610460159    0.6442786072886241    0.4228190560313069 O
   0.7229757564202541    0.4853663812688586    0.5971457912228728 O
   0.1113124587185210    0.9178091750786092    0.3728593068919355 O
   0.3223608128082486    0.6850882620146042    0.4913451498446860 O
   0.7119876282395208   -0.1200480031768929    0.5579694426727119 O
   0.5861078638032051    0.7578683677389950    0.4564562840470879 O
   0.3841217224859345   -0.0763077237760585    0.5065436325372218 O
   0.4236178602892538    0.7601394301009882    0.5989916828445168 O
   0.7380878718034201   -0.0628760120922706    0.4003947446065576 O
  -0.0789382397518705    0.7641181786827388    0.3931359622197136 O
   0.9629663805952832   -0.0611057285233758    0.5965850236527360 O
   0.0532918403549778    0.6669625125278261    0.4034291286902823 O
   0.8623168516040702    0.6581698751209565    0.6095412654224613 O
   0.3599042657227131    0.1976167492841075    0.6959481674575523 O
   0.6097728282311565    0.2140371026980477    0.7107244309745868 O
   0.7687210807452545    0.1804658390027967    0.7642499618516632 O
   0.9186614030447350    0.0351842620959066    0.7238435007768890 O
   0.2139466472559462    0.3248527318464076   -0.1634361230028133 O
   0.1639739757896133    0.4363676191875693   -0.0375350534025734 O
   0.9858297477992493    0.4194457235982241    0.9092232158658057 O
   0.3834234852008490    0.4803550054410346   -0.1458339561540453 O
   0.6545366049349505    0.4184724111573699    0.7389028111542910 O
   0.7899351505069206    0.6045254736749125    0.7807549416771787 O
   0.3026748342295971    0.9637258574354242    0.9597889287675336 O
   0.4963415563727255   -0.0426952374362537    0.9241387201770531 O
