Li1 Co1 H90 C51 N3 Cl6 O45
1.0
  14.0369340000000005    0.0000000000000000    0.0000000000000000
   0.0000000000000000   14.0153219999999994    0.0000000000000000
   0.0000000000000000    0.0000000000000000   14.1279240000000001
Li Co H C N Cl O
1 1 90 51 3 6 45
direct
   0.6743624483808217    0.7922547544751379    0.8479273812628096 Li
   0.7303213287175107    0.6904763693620453    0.2581750092936513 Co
   0.6959991775981850    0.2254245046956467    0.6094915395920872 H
   0.6575793481681970    0.2562194396960698    0.7276708963043685 H
   0.5885846859435260    0.2929280319067946    0.6273036335699428 H
   0.6145593090342948    0.0962236286829514    0.5255786922409832 H
   0.5157521101117951    0.1770673274577637    0.5280980383246682 H
   0.4998238397359424    0.0568010317565305    0.5676683155996592 H
   0.7043779403678895    0.0637696386854330    0.6623438072005484 H
   0.6022475499279260    0.0029931377959065    0.7065965466688524 H
   0.6585926221495378    0.0938396099640094    0.7779737907706752 H
   0.4486723461120498    0.2197123683637094    0.6867665086533591 H
   0.5226108436500450    0.2014504725613868    0.7879790059742676 H
   0.3828475021682085    0.1133758296812588    0.8109111572230995 H
   0.4775234071770944    0.0302333781557070    0.7973411366029433 H
   0.3378695219340634    0.0709556605263868    0.6557986382146450 H
   0.4127701946878143    0.7316537393860805    0.8448947800115572 H
   0.3646173530487498    0.7138288096413340    0.9612957990147738 H
   0.3890502840577579    0.8326705066069835    0.9199570566772584 H
   0.3105970050154828    0.7955212481026123    0.7200388493029832 H
   0.2997840867528479    0.8996231788324236    0.7930868448895959 H
   0.1944573686817933    0.8416299304432677    0.7507654019090135 H
   0.2875016118192192    0.6364362838042538    0.7856448753546522 H
   0.1658181793830476    0.6743543009571954    0.7958808753501222 H
   0.2274133375564778    0.6260991591916333    0.8974724269468040 H
   0.2372924407851458    0.8715406288917230    0.9645267457554273 H
   0.2060325424341241    0.7518380712194840    0.9946758327692022 H
   0.0563714761357430    0.8165692104683717    0.9749164265039930 H
   0.0731758431007797    0.7719875048179414    0.8588288739378835 H
   0.1003992574161850    0.9640262885148126    0.9200209783121710 H
   0.9378442906406770    0.6621641350801644    0.8235869134063858 H
   0.8720889789750382    0.6488196368231853    0.7153784448444088 H
   0.9974433654813795    0.6248571463431236    0.7171850804123804 H
   0.9939569018419550    0.5158055626549287    0.9097803513099306 H
   1.0598737701552206    0.4927330731323905    0.8027329273571969 H
   0.9829589645431118    0.4028787808086036    0.8492180202838010 H
   0.8310625147913355    0.5574244830050997    0.9042101974784122 H
   0.8042747625656714    0.4417833354096324    0.8581429182376688 H
   0.7639261565239247    0.5474243046288911    0.7962923278749234 H
   0.9621950448723348    0.4814133025270487    0.6466513976151060 H
   0.8368872183911388    0.4950882812396319    0.6549409566472753 H
   0.8555391369653801    0.3309158376810750    0.6340274091225292 H
   0.8397821860528802    0.3377169300855165    0.7589268118939485 H
   0.9859887664927398    0.2623705106454208    0.6678972133485429 H
   0.8775162909507163    0.8166634202196711    0.0877076384329361 H
   0.7824590783143955    0.7743094250706477    0.1604176558424295 H
   0.6809477895956482    0.6897040239246732    0.0519519753928461 H
   0.6357987556256944    0.9266727485818735    0.1206290556206276 H
   0.6781670869151341    1.0242561883344528    0.1877917151875958 H
   0.6254706854075114    1.0195024523874656    0.3266900473133916 H
   0.9189897865160583    1.0355837161643522    0.1261301412719944 H
   0.7961528949270545    0.9633890530663513    0.0036261930627600 H
   0.6005818841920894    0.4970754385807190    0.8159450539229968 H
   0.5330609533392406    0.3957613567494204    0.7818298251038156 H
   0.3511208010239273    0.3888370877244205    0.7991808994725622 H
   0.3642456593441274    0.4475452636764250    0.9521152173525282 H
   0.4272131642137806    0.3736578189213206    1.0321527557764325 H
   0.4259115851082580    0.1671270206992033    1.0463236955408310 H
   0.6336677396930128    0.4531845040734704    1.0596694220608773 H
   0.4913330111832114    0.5284684583058455    1.0360780968244168 H
   0.0791153516857741    1.0000924809290861    0.2777178756057861 H
   0.1960722583720918    1.0179228504346887    0.3194113876886654 H
   0.1823939202107811    0.9538505194529245    0.1367727608104347 H
   0.2244005492937418    0.8554342169234500    0.4547763988537877 H
   0.1577767338651019    0.8977895755802114    0.5528599552205972 H
   0.1658887731466145    1.0794870742177740    0.5462991767226381 H
  -0.0719779611416567    0.9722746541249642    0.3810888238073761 H
   0.0755629299104776    0.8102214276632389    0.3802095686528325 H
   0.4699521070626962    0.8080973202042736    0.5985267368369195 H
   0.5526464967349708    0.8839075349107213    0.5422878414408231 H
   0.4036551258273352    0.8883043785936563    0.4412536810079103 H
   0.6914561712693099    0.7846315489576338    0.4614969184432192 H
   0.7543764293541595    0.7099511577400790    0.5424885064500630 H
   0.8637144678460411    0.8846565815612371    0.6592434911173077 H
   0.5448677873672414    0.6304959022703868    0.7497234894525198 H
   0.5620421282881291    0.6416744324532823    0.5108858251219358 H
   0.2512166695376640    0.6384176424915532    0.2394343846979924 H
   0.2156172786735337    0.5287898030455526    0.2867413627083498 H
   0.4607241353418061    0.4889084831586459    0.2904267038809099 H
   0.2445062176683313    0.4035772999007800    0.1224811416029701 H
   0.1466621528604466    0.4265556010771640    0.0468267262762739 H
   0.0035703266824507    0.4497097983192966    0.1413780963147876 H
   0.1317932463029320    0.7131838105467716    0.2095927802273002 H
   0.3012818746600932    0.5638373089109191    0.0636987883003901 H
   0.6342475393843129    0.2821403725151659    0.3841829054289929 H
   0.6826456126387714    0.3536583733145767    0.4780612969039188 H
   0.6715243684981350    0.5111375664433540    0.4620643415125959 H
   0.7815754074215923    0.4955433225151731    0.3159538591798767 H
   0.8911809544733914    0.4347989550293600    0.3191852008830172 H
   0.9832660351612398    0.5037455058114255    0.4334992133309890 H
   0.9010079701165512    0.2618452019867970    0.2861064739589483 H
   0.7236565463654671    0.2715558194096433    0.2468339162923017 H
   0.6346367668324151    0.2369410114159347    0.6560602654714167 C
   0.5496935897824980    0.1164566978910652    0.5635955247211126 C
   0.6401720696271708    0.0711425624042031    0.7058996169571693 C
   0.4925169306915599    0.1673426368655676    0.7248008192852680 C
   0.4333216170995746    0.0825933296430863    0.7591705872709961 C
   0.3659529816126513    0.7608823743043506    0.8995170005161409 C
   0.2678008523798716    0.8308301949823200    0.7746903890479591 C
   0.2343541944416067    0.6686639036905467    0.8325894575876823 C
   0.2035374697921925    0.8058141282804634    0.9384795374040801 C
   0.0997873189401617    0.8249034977576684    0.9100959624358115 C
   0.9311364433287213    0.6209919165610323    0.7580268325339236 C
   0.9930225339807112    0.4798338896530526    0.8407830003898662 C
   0.8208070715442560    0.5157861167941772    0.8393709712764593 C
   0.8997777278143504    0.4645771156738319    0.6902167232779565 C
   0.8882786789479812    0.3568592580320309    0.7002466392089878 C
   0.8008340204491950    0.8259553829730063    0.1038635223405788 C
   0.7490566800413823    0.8098088313632752    0.0117709049114364 C
   0.7868047245929917    0.9289883921325532    0.1392058854506862 C
   0.6859202928502762    0.9466532249490951    0.1772747538845764 C
   0.6549151289020808    0.8949243278177983    0.2662809532384234 C
   0.8593405397503472    0.9551445517983819    0.2181011159176677 C
   0.5302748477694631    0.4628147273391222    0.8220033424585240 C
   0.4525027637801817    0.5248582594106650    0.7799789360418417 C
   0.5158532297722566    0.4409208479120209    0.9271482653785509 C
   0.4209394010116455    0.3932182999434476    0.9569506489417695 C
   0.3864071726774522    0.3049161696035239    0.9044000965746984 C
   0.5998492583921817    0.3725891085484872    0.9525248762663220 C
   0.1375719348683979    0.9652196553172308    0.3168787834645770 C
   0.1698475201208469    0.8782764627170179    0.2600495968126669 C
   0.1035344541763892    0.9405671193284036    0.4188049645510551 C
   0.1885246357929730    0.9189585419443093    0.4838902021273613 C
   0.2651246105452943    0.9926980050832939    0.5029836336888561 C
   0.0366615024335086    1.0202656214391650    0.4587162813163491 C
   0.5291975427112502    0.8091917253131965    0.5472197911030665 C
   0.4889314083830557    0.7742000611901747    0.4512178123268500 C
   0.6113562156807177    0.7469501235861724    0.5865849242960253 C
   0.7071911066903926    0.7724200678371856    0.5367647589270723 C
   0.7617248688353169    0.8569002981165899    0.5742839648627781 C
   0.6223918485333051    0.7647222932159533    0.6941172800759687 C
   0.2481606887942908    0.5614059355896355    0.2231897071360237 C
   0.3512046013752007    0.5302950371029649    0.2128817269968326 C
   0.1858941838723471    0.5432142443819700    0.1359291761478898 C
   0.1729647792032078    0.4355778097713346    0.1200306202100181 C
   0.1093115099066506    0.3715100423664901    0.1824926139183648 C
   0.0883342836833172    0.5960006534277271    0.1357569802895316 C
   0.6707903613424413    0.3503712237221521    0.4014075564109773 C
   0.6065619336815291    0.4315151289424531    0.3699251475305218 C
   0.7692799146879226    0.3488447843010671    0.3540688589491280 C
   0.8236181690389084    0.4439064453888394    0.3578194538702218 C
   0.8398394749166735    0.4847664249169587    0.4562212770963377 C
   0.8317099524725272    0.2709617274579921    0.4037661761204265 C
   0.5780085067009648    0.1462493583807778    0.6623080340749284 N
   0.2667311494091231    0.7671904298738196    0.8601980503292628 N
   0.9117766137534024    0.5188600754231690    0.7830863395074888 N
   0.4636512510495526    0.1269738433408808    0.1216591836139549 Cl
   0.6682256559730210    0.5953084338697321    0.1495311568776842 Cl
   0.6270706786823961    1.1498584206627576    0.3123399226949408 Cl
   0.1465592244004282    0.0384695528222612    1.0424443768242240 Cl
   0.0856322249573874    0.5131809593814541    0.3617645487051034 Cl
   0.8523360322133025    0.6962976797821698    0.3464915092974736 Cl
   0.3842744505317187    0.0302877957424025    0.6881866847528341 O
   0.0864205039362584    0.9162374756712690    0.8692293460808538 O
   0.9787853558334035    0.3121755839787341    0.7154943762438133 O
   0.7607552781825433    0.8626423595547787   -0.0587909773580322 O
   0.6898894153096397    0.7373617837677936   -0.0020601505217610 O
   0.6539705237625253    0.8059724478681261    0.2719891358418972 O
   0.6210621072949406    0.9451476591119348    0.3365585085253856 O
   0.8545525283512767    0.9238619804810764    0.2987672987198969 O
   0.9287298672202918    1.0155218652842939    0.1926118267623750 O
   0.8043361413539453    0.9970044598333168    0.0648213191124188 O
   0.4738109682641523    0.6115871922172035    0.7515762174258581 O
   0.3693294739435264    0.4953700278880500    0.7712462836011859 O
   0.3490700070257508    0.3181582528036103    0.8184148562803706 O
   0.3894608551981508    0.2238877051843690    0.9383350696110766 O
   0.6193776233470928    0.3043307660002389    0.9019729714004689 O
   0.6490521883197571    0.3904934920510567    1.0314533324216637 O
   0.5237211409557102    0.5309339835360186    0.9741959264503405 O
   0.1668442446192310    0.7952834141092157    0.2921662227231687 O
   0.2019985774671307    0.8919253050340192    0.1736479039666408 O
   0.3502366784655396    0.9795311409898396    0.4839059963799352 O
   0.2396727661467953    1.0717174560812803    0.5491035760101767 O
   0.0638232294887188    1.0773613249841851    0.5204922726084880 O
  -0.0504029847258668    1.0241379712859968    0.4258419609278759 O
   0.0433648879449031    0.8587510625870743    0.4198333959044513 O
   0.5102326597816874    0.6959821215666683    0.4175790413368588 O
   0.4274126379735062    0.8299983082800382    0.4059173605407277 O
   0.7532131710528809    0.9400211746829649    0.5508149654542309 O
   0.8273853684857392    0.8279961509268214    0.6404532661698916 O
   0.6203262022889044    0.8492077706099082    0.7248317445648773 O
   0.6368861918136824    0.6931485762510488    0.7499056358174067 O
   0.5928524462678246    0.6487082087732269    0.5746011749496954 O
   0.3914892418814536    0.5206729499329377    0.1342780029111142 O
   0.3942737602100287    0.5194766677497671    0.2940677858969230 O
   0.1403311250163319    0.3043568752826371    0.2278350492259160 O
   0.0143361840983223    0.3873411185272804    0.1753443244739991 O
   0.0173308665553318    0.5578524560477455    0.0995794888194472 O
   0.0834549133022924    0.6857076626566267    0.1643271884814783 O
   0.2332750107680210    0.5801345791413141    0.0522769849271556 O
   0.5489380031280335    0.4218642432903076    0.3044421331824831 O
   0.6134480186342687    0.5126448083033697    0.4174888207212892 O
   0.7712128054459757    0.5009509371243843    0.5104908909476014 O
   0.9265767759540653    0.5019759339100450    0.4856218436622394 O
   0.8202224417383455    0.2471719715037586    0.4859958356231248 O
   0.9022616833562087    0.2347283901147615    0.3504852177857128 O
   0.7621116662655820    0.3299936876227318    0.2554134931643177 O
