Li1 Co1 H90 C51 N3 Cl6 O45
1.0
  14.2612978454999997    0.0000000000000000    0.0000000000000000
   0.0000000000000000   13.9180311717999992    0.0000000000000000
   0.0000000000000000    0.0000000000000000   14.3847670494000006
Li Co H C N Cl O
1 1 90 51 3 6 45
direct
   1.0153391068870374    0.7685770317553156    0.2906876079633429 Li
   0.6320401912329585    0.7781329810385358    0.6212497911165513 Co
   0.1671280863299602    0.0840096613858052    1.0552908832356220 H
   0.1689063256090734    1.0295758724074451    0.2915975983688217 H
   0.0636529316850667    0.2392255804575407    0.2685760229159321 H
   0.0292808846729026    0.0090852710659396    0.9818986623971182 H
  -0.0273247629158072    0.1126343996898276    0.9324845844660022 H
   0.3661527494952142    0.1951618768754854    0.3011549307557743 H
   0.5238468124314023    0.1284045899768503    0.2827125048833952 H
   0.6203568225939272    0.9901011799586175    0.1245264187142131 H
   0.7808835870442167    1.1957976584807120    0.1111163996754935 H
  -0.1734559231073455    0.1576084331772843    0.2807388893286558 H
   0.9977902131810574    0.4725896791513896    0.1788985192365238 H
   0.3572489315274781    0.2776807321520156    0.1980945200512550 H
   0.3717441059666844    0.5165518741233144    0.9912314516970047 H
   0.4609869654727420    0.3872917813851163    1.0312300139277359 H
   0.4648394198983634    0.5803808732852058    1.0442847960701993 H
   0.5653976590948410    0.3834040188609431    0.2127336170402315 H
   0.4059135066256688    0.4538121094812247    0.2812130019768883 H
   0.8409783981395776    0.4467927977126216   -0.0072198927478865 H
   0.7467885134213467    0.3859101204473996    0.1354831481112717 H
   0.8998138568117180    0.4448773687506565    0.2523818086335593 H
   0.8454436298940700    0.6414139310154637    0.0643780689335964 H
   0.2031297185490087    0.7138358122110094    0.3113504382322834 H
   0.1953050450018385    0.6837187651354647    0.1384466997526434 H
   0.2454694835929405    0.7842250783296956    0.0805736735756416 H
   0.5875035714329300    0.8653342514638440    0.3091682687267084 H
   0.4601828310857993    0.7011601688084099    0.1764779030471604 H
   0.3619946426635340    0.8207920319252004    0.1789833311765302 H
   0.7155122575831907    0.9984170113123011    0.3124279669782665 H
   0.6954888345333661    0.7841496366248281    0.1167473563480507 H
   0.7043099110835409    0.7513346504847350    0.2366651828985996 H
   0.7256831411571405    0.9579213411242663    0.0621903379893326 H
   0.9366856763120676    0.8830379048727574    0.1371738254727110 H
   0.1361624614068860    0.1597617549819317    0.5198097750920398 H
   0.5118818354812965    0.0049280738815251    0.6050889454663122 H
   0.5896892070137643    0.0333911513894027    0.7736790930628389 H
   0.3472274032242110    0.2136479685377392    0.6027156015058047 H
   0.4165598027513687    0.0856054330668603    0.5848738110118317 H
   0.5011947366175636    0.2565304705692972    0.6774390917304750 H
   0.5364821280914605    0.1229167448170580    0.5740579250495708 H
   0.6195721815240031    0.1498386560683562    0.7304750566077666 H
   0.6836939753401632   -0.6990249406692308   -0.6351855712311387 H
  -0.0469204549087475    0.2069243164029742    0.5159471473686165 H
  -0.0555003191907777    0.3227646949808508    0.4841785411457538 H
   0.1721879343733674    0.3452535079556474    0.4128077642347142 H
   0.1048259025016939    0.4714634846626347    0.5841570806007940 H
   0.0742284067669218    0.4048079082705018    0.4391057222552286 H
   0.3142577531198648    0.5189780075026115    0.3787988714719770 H
   0.4967945059597486    0.4394354352569693    0.3547727611558968 H
  -0.1488733077102046    0.6882991543595647    0.5230872699474026 H
   0.8906975757124473    0.6551112706496978    0.3609716797545625 H
   0.1741632104180290    0.7361996075034541    0.5298988505356393 H
   0.2303235969885066    0.7346081467769630    0.6390519563598656 H
   0.3488436656604711    0.8334992889946015    0.3032460317028178 H
   0.0952110693016940    0.8772008723932926    0.4957381304966940 H
  -0.0183704586593896    0.8163230090273335    0.6169236869963880 H
  -0.0667131836672361    0.6991304277012598    0.6356434896233781 H
   0.1750845851864654    0.2194174627290369    0.8316049529073857 H
   0.0791122539983978    0.1524101404656979    0.7715671367207119 H
   0.2555555221539672    0.0393704453694749    0.9060594085354783 H
   0.1885630218675037    0.2946127246939983    0.9870881798737404 H
   0.0723807488408717    0.1604687515304046    1.0478899987003081 H
   0.2369933966820888    0.2267496779497334    1.0899421221669325 H
   0.0571058417209186    0.2323302086326486    0.8764371005386467 H
   0.0087224472027454    0.0097843641977120    0.8658606345119448 H
   0.2253808490869023    0.1926665526754385    0.6850513109359690 H
   0.3388480816999987    0.0346592905236045    0.7330110726499257 H
   0.3793521091915968    0.2770333704750095    0.9364345962948257 H
   0.3906582330624251    0.0811838306691958    0.8350989267637156 H
   0.3269459391433477    0.1570947110917578    1.0125282859764850 H
   0.4461373352150848    0.2339180768970032    0.7884836428528115 H
   0.5602920929122389    0.1440174304222922    0.8363391275913505 H
   0.3447872326046078    0.3105596641181392    0.6752096499960440 H
   0.3997324422544611    0.6414793138263490    0.9643676172898901 H
   0.3586681571981898    0.5873861744514763    0.8073786307985035 H
   0.5524126557658184    0.3216776159383311    0.9790671949246089 H
   0.4642238377756767    0.5283228637106882    0.7493749108123113 H
   0.3766370687780612    0.4620976923037186    0.8196429934673003 H
   0.5782281884044674    0.4332609987336399    0.8529323750996552 H
   0.5855892295339130    0.4820627287783468    0.9681055992686975 H
   0.9630879016971022    0.4435437031070841    0.0166400695873614 H
   0.1625457544336651    0.6171130801389918    0.7808707284674814 H
   0.1790610816185832    0.0160912907246374    0.8037908076642976 H
   0.1609785758891785   -0.0381333327644329    0.9141874511793719 H
   0.1300459072934380    0.7468785604505598    0.7827178212920474 H
   0.1315913486858534    0.7573225663739348   -0.0264151983827815 H
   0.5913019634577549    0.6022582492043618    0.8201219723743857 H
   0.5965932069909520    0.6260712437226905    0.9418034701691664 H
   0.5089091887797639    0.6847584236777819    0.8674532915164915 H
   0.4397540452097698   -0.0202874178549122    0.7801220197839821 H
   0.7633311873459672   -0.0228481248658443   -0.2142611322599456 H
   0.4480086235290316    0.1545325670959710    0.1815742664257427 C
   0.4004679994326116    0.2341020109583945    0.2438568183032421 C
   0.5517974242423587    0.2706474097810800    0.3435365694647187 C
   0.7355083338933130    1.0752403771175467    0.1574709911478533 C
   0.8777345198950323    0.3324593133025419    0.0763344669349929 C
   0.4746824230752653    0.3132446703189959    0.2783822296842151 C
   0.4224961488621621    0.5687448884249237    0.9822142740427158 C
   0.4318487338404000    0.4030580199637889    0.3320584551905716 C
   0.8894410280830426    0.4336613427141369    0.0445244279938975 C
   0.9485773008919098    0.5856661035804968    0.2636541496762155 C
   0.9300284981906558    0.4993288202990286    0.2028175718578419 C
   0.7589627209781142    0.5299895505943186    0.1253842706319829 C
   0.8685789716823427    0.5191230711236853    0.1130232779659657 C
   0.1902613245228713    0.7646777733523052    0.1297548662616579 C
   0.0967544070987477    0.7917117694222637    0.1000011692758000 C
   0.2234560593309221    0.8090734204357777    0.2272176889257536 C
   0.2053623344262549    0.9169026084491501    0.2121705213729758 C
   0.3275700057673268    0.7961657039791571    0.2409175979561345 C
   0.3534666670670931    0.6933602150175349    0.2618188749088635 C
   0.5736360397298176    0.7977916523421592    0.1962286573711138 C
   0.6969354069437803    0.9772602832977370    0.1323013100013588 C
   0.6802279513824911    0.8028929485760589    0.1863397242023328 C
   0.7248494161954426    0.9012775536324440    0.2100530035921598 C
   0.8365692622613979    0.8863429700383825    0.2187698635572456 C
   0.1011467142140335    0.1528060297931456    0.3914733902440835 C
   0.0485897864981941    0.2567632621157455    0.4024725256111453 C
   0.5667259393260807    0.1085533627027079    0.7683248179650567 C
   0.4480356196695071    0.2085768489857867    0.7165068081606442 C
   0.3487567170521864    0.2314493369167668    0.6771026246897938 C
   0.4876191138308135    0.0762097075949301    0.6136090695377765 C
  -0.0498682932089808    0.2520212120955009    0.4560663723069217 C
  -0.1293154804337755    0.2296588537879107    0.3847030338201287 C
   0.1278097854239223    0.3255704079094955    0.5509750347351356 C
   0.1053265581977849    0.3366840487751235    0.4499898053594128 C
   0.1099376392306903    0.6131613717887879    0.6507872871733764 C
   0.3565309043106752    0.3894077415835437    0.4044252857708012 C
   0.1725203024405202    0.8716002239224128    0.6044903956274144 C
   0.1705253928391492    0.7622887860315003    0.6000412446762581 C
   0.0848950376477852    0.7191433157715470    0.6491612615366961 C
  -0.0084611221087480    0.7395097021160705    0.5995428007337613 C
  -0.0198955652966416    0.7295628929523935    0.4984551713681782 C
   0.1099846195271022    0.1826213100492203    0.8407486532918481 C
   0.1389742672070610    0.1453150277460137    1.0114778692441104 C
   0.2138033614144112    0.2216541296552523    1.0144622762805657 C
   0.0241481119902889    0.0546815189954466    0.9232032384739884 C
   0.4084125779154004    0.0476604109957753    0.7689254533434629 C
   0.4895504948522604    0.3677530983168537    0.9657989925724574 C
   0.4179131157674131    0.5289011064161870    0.8107293976085931 C
   0.5384559316193688    0.4510884483877787    0.9187971886726716 C
   0.5524637731331083    0.6210461076860857    0.8797454613787332 C
   0.1835178989916286    0.0266157677998713    0.8833346748726113 C
   0.4797809071534828    0.1057828559030013    0.7145922828919746 N
   0.1180357801748851    0.1022471546682098    0.9107581290478010 N
   0.4791055829225230    0.5389865127690919    0.8979800284801128 N
   0.4823800394625872    0.7175303002722364    0.6327515415051265 Cl
   0.7610579019583943    0.6715568438183918    0.6215716593806740 Cl
   0.6141708498335422    0.9039036434542611    0.5239889877128315 Cl
   0.2233901466762547    0.6889184948319056   -0.1131680804916407 Cl
   0.6590847144017739    0.8512503629037173    0.7738869518338383 Cl
   0.8416031659620106   -0.9812487661165190    0.7989335861493398 Cl
   0.1104572272850369    0.1209523865207931    0.3119156194390474 O
   0.4204009678818821    0.1375912341524334    0.1022792735987593 O
   0.5221156235685463    0.1089312897194728    0.2156206988996303 O
   0.9371582840700022    0.2675557368663660    0.0657447924914048 O
   0.7491375282419417    1.1002331362015179    0.2383204060883970 O
   0.7515966312198006    1.1297092880319022    0.0852988109217368 O
   0.7949846879523262    0.3105639750727031    0.1147473239595387 O
   0.3062612859514869    0.6456903979428117    0.3202084197041012 O
   0.5120273271484981    0.3438775949573492    0.1957788760171453 O
   1.0258928448168212    0.6257119975090355    0.2683612123465716 O
   0.7082941206986517    0.4507156945164905    0.1502105329394351 O
   0.7217080471219304    0.6088094631565725    0.1078921555955774 O
   0.8987725771076632    0.6058219716438183    0.0775545075473803 O
   0.2030862442448664    0.9650272312303603    0.2896531803671991 O
   0.2022483120924452    0.9498548266428594    0.1339683512483701 O
   0.0860688438596288    0.7973806746737381    0.0088561409623463 O
   0.1669562927087525    0.7714754302070832    0.3012202776603694 O
   0.0327335858599504    0.8112015950054693    0.1500791439504088 O
   0.4204682829334573    0.6487030366905218    0.2198849320143791 O
   0.5280741275504833    0.7549048393560374    0.1385551478070778 O
   0.5361665887872014    0.8335582053736410    0.2715479167153373 O
   0.6866355028543114    0.9356818450217462    0.2970964708725163 O
   0.8756470520977452    0.8586400575185986    0.2913480288076552 O
   0.8713795583072551    0.9046982960788659    0.1373337168350182 O
   0.2766658028073508    0.1865557745811687    0.7264749918307426 O
   0.0391670816745653    0.2892247499816022    0.3106622101945264 O
   0.1486451962833736    0.2448664645043499    0.5790880377897710 O
   0.1258765812864952    0.1086984981730245    0.4662777298836944 O
   0.5499450682866673    0.1931436316471722    0.3840043780848299 O
   0.6228313519377719    0.3323285476807715    0.3472432683509009 O
  -0.1132082507490324    0.1640159486440331    0.3242898205219509 O
  -0.2061422890363124    0.2708967266533565    0.3928192584068083 O
   0.1211890696221137    0.3935570353512578    0.6103361628693321 O
   0.0932294824709472    0.5647658773624820    0.5791669407011705 O
   0.3351731006030618    0.3105675675348397    0.4358439384641621 O
   0.3035560623163061    0.4687594822404923    0.4240502125444173 O
   0.8715878142480661    0.6106811359297145    0.3104988429330386 O
   0.1364015700796689    0.9193332683307390    0.5328652524143392 O
   0.2134127938755839    0.9193009361715102    0.6671657241123207 O
  -0.0989528861810630    0.6892547492878867    0.4713127088827475 O
   0.0349283370206855    0.7646066426020016    0.4417272454172302 O
   0.2986217287961486    0.2010779435219543    0.9650196959761689 O
   0.1495013595955964    0.5763113321769232    0.7255601351664110 O
   0.4229785733984515    0.3242246715931443    0.9031354821447651 O
   0.0719642369592498    0.7568756640841482    0.7417168097376337 O
