Li1 Co1 H90 C51 N3 Cl6 O45
1.0
  14.1226467905999993    0.0000000000000000    0.0000000000000000
   0.0000000000000000   13.7827174208999992    0.0000000000000000
   0.0000000000000000    0.0000000000000000   14.2449156035000009
Li Co H C N Cl O
1 1 90 51 3 6 45
direct
   0.7895522741120873    0.7632952116211227    0.3439962677276946 Li
   0.7289800589541341    0.7294992637122100    0.5946569314611243 Co
   0.1376100329361444    0.1936949100074980    1.0506736732102957 H
   0.0807772018173892    0.3164058347367057    1.0105632214600857 H
   0.3229400237521792    0.2577468652961781    0.3088700504914859 H
   0.0951796012412268    1.0448260506787388    0.3071515425914472 H
   0.3128073622106297    0.1240794654838341    1.0143975720115610 H
   0.1755384756666195    0.0571006563122738    1.0354191075780073 H
   0.0162772526572715    0.1981896695028976    1.0193965486276459 H
   0.4628322854006817    0.1499103658155883    0.2464421622011893 H
   0.5673686390948520    1.0378114687898732    0.0924552898984116 H
   0.6317319991276905    1.0363400608388367    0.2655963648370379 H
   0.6648476046465714    1.0031383353716887    0.0226500325225321 H
  -0.0324395360722985    0.2910937000287143    0.2829351829020122 H
   0.7476224567924231    1.2400451731371245    0.0671753928443694 H
  -0.2125934433195893    0.1983521918801324    0.2707638226197933 H
   0.3208603852513035    0.3544955658084554    0.2166139756519057 H
   0.3875532661231039    0.4827510430135137    0.3148181376798145 H
   0.5555458552728326    0.4051778789305934    0.2188351190325113 H
   0.4389657251873125    0.3408066832580591    1.0044887733967542 H
   0.9539301017545058    0.4786443056937622    0.1864495287741422 H
   0.7051559128865608    0.3949099473117241    0.1529147565581082 H
   0.8544820293907041    0.4748416375841683    0.2728684331934519 H
   0.8915161638383716    0.5011371124845261    0.0154327205452860 H
   0.7669863907670390    0.5007437212660587    0.0064575883957781 H
   1.0466598867174532    0.6928678807576119    0.2718013858045389 H
   0.1621996162592324    0.7094923237468114    0.1413948567870152 H
   0.2051426997330516    0.8164342246062830    0.0918255915379808 H
   0.3155157780314841    0.8363548245587757    0.2102411755225953 H
   0.1133228008693975    0.7082603460836655    0.0084337320798504 H
   0.3811068824281866    0.6999354275283443    0.1968300746556262 H
   0.5369948000857567    0.8918801594132449    0.2749217974122481 H
   0.6547907079397491    0.7869792203714584    0.1535542829865949 H
   0.6129430281979200    0.8428680539357252    0.0549450641538159 H
   0.8132964068495282    0.6838631252939468    0.1534384521845089 H
   0.8903605730881403    0.9108546469554065    0.1113827449641162 H
   0.0635743358389165    0.1540089770164781    0.5352945579983970 H
   0.5530977306038072    0.1610221078126900    0.5190711273770728 H
   0.4164295813101010    0.2185260075007274    0.5956256981694795 H
   0.6434068645013501    0.1314640759994398    0.6047601854224632 H
   0.3592696160451407    0.1101221307924697    0.6227666101103693 H
   0.4868226184468575    0.0233272003394963    0.5143285299563201 H
   0.5806512059381194    0.2419945289919617    0.6227174697700905 H
   0.6458292149649169   -0.7306329718571877   -0.6196331690537559 H
  -0.0942714301179119    0.2025161022504469    0.5257866743597798 H
  -0.1154969131626000    0.3272716165289745    0.4867555550835524 H
   0.1374188506429076    0.3429027865965918    0.4510867582901787 H
   0.0339651551945116    0.4152550644201099    0.4827276617918644 H
   0.2986308411258384    0.5304671050872187    0.4279209488754203 H
   0.1054772460210140    0.4268122918619534    0.6237697750569197 H
   0.4945548800844341    0.4524272696068099    0.3826753315660668 H
  -0.0409478562039029    0.6618623840221143    0.5221412333164337 H
   0.2645947282691507    0.7373504005160387    0.5919415766582854 H
   0.2840733716197087    0.8645655168428964    0.3336248479094052 H
   0.1153854453886522    0.7869458452404191    0.3731491256005742 H
   0.1944442802200347    0.8925643495995503    0.5578081346966823 H
   0.0578721469224875    0.8258227940768998    0.6577987586951870 H
   0.4498117091074055   -0.0292335522230920    0.6268466623632390 H
   0.5721622872688656   -0.0232760913325793    0.6011659205334933 H
   0.2673923624935156    0.2336471185005052    0.9213868419462693 H
   0.1684774763030743    0.0920270053985606    0.8208204335606684 H
   0.2291382017819705    0.2737052567572459    0.8171475441272522 H
   0.0708810398533993    0.0556560935753343    0.8989472565603467 H
   0.0799430805528228    0.2515340120985822    0.7695396804602065 H
   0.0162298111252460    0.3074772616373695    0.8630095217046752 H
   0.3996940498262072    0.1752558756546189    0.7182406752333553 H
   0.3782108247269331    0.0827472678769850    0.8996352213242511 H
   0.5706580366623760    0.1611962389311558    0.7690742512372793 H
   0.4436206599863444    0.2231303244914952    0.8686269646034130 H
   0.6148945037540703    0.0505489729799964    0.7363622287184862 H
   0.5401306853526372    0.0193613641164367    0.8701615472298365 H
  -0.0107481346981667    0.1855687911457586    0.8245361452906133 H
   0.1957910532635027    0.3351401664446498    0.9245219956560623 H
   0.2133861969843946    0.5778571791962291    0.8193363952842461 H
   0.4893345413552186    0.5004988493807161    0.9850102445150650 H
   0.4889039563458953    0.6486683240666918    0.9023941004284799 H
   0.5483299274435088    0.3397836629370723    0.9553975734581472 H
   0.3754847068418901    0.4765679009380059    0.9355273258639493 H
   0.6302818460293612    0.4196533988086590    0.8300216112754593 H
   0.3865194655744901    0.4402046436285288    0.7495114817722549 H
   0.5069493697714882    0.4013991611052518    0.7306493131586352 H
   0.6271245058606840    0.5345251582484326    0.7730848050088975 H
   0.6264348334398966    0.5218558859512865    0.9057567037132780 H
   0.4660697805160048    0.5171137151584000    0.6908702077028771 H
   0.4014260197864189    0.6207971874635795    0.8117329806333802 H
   0.5172396150884446    0.6396650196956807    0.7764958466291134 H
   0.2089670536803548   -0.0285080058961510    0.9482427399135415 H
   0.3145626988955703    0.7294992637122100    0.7075659893150592 H
   0.1898898931455940    0.7177011548898221    0.8317239730636921 H
   0.0073724062878426    0.7133021675095786    0.6682712672134786 H
   0.4526132377858919   -0.0233116431025994    0.7966644462892903 H
   0.8488081637769769   -0.0859059758204550   -0.2373283417326355 H
   0.0817139950542494    0.2355763461838414    1.0039524416828534 C
   0.3778150065716762    0.2212047245397937    0.1680471733445606 C
   0.3613485464634488    0.2915203212689557    0.2476152123241324 C
   0.6453229359291233    1.0252421042219468    0.0927241577602233 C
   0.6930271665871058    1.1190204180717276    0.1274670803422567 C
   0.4478724125714169    0.3449800257306239    0.2890770234320118 C
   0.8307138218459666    0.3717483319167859    0.0528629177357134 C
   0.8961187005274053    0.5172764551995329    0.2206540136276912 C
   0.7160419742799767    0.5380938304121247    0.1833536873365723 C
   0.8181375673638241    0.5463546832267769    0.1439382203988780 C
   0.8275132886406694    0.4814148768978191    0.0557586877878620 C
   0.9335366157266813    0.6110930053407434    0.2597893806257959 C
   0.2886603304922564    0.7113286815002992    0.3031676650045518 C
   0.1536325252745219    0.7866476457000464    0.1426486374689879 C
   0.0641577958745724    0.8066785286942342    0.0950084815783303 C
   0.1616196966364142    0.8261340534511574    0.2403248918413292 C
   0.1540410889159946    0.9388904825747344    0.2443073654185023 C
   0.2702877121122016    0.8138665161552388    0.2700330355593602 C
   0.5163341537971156    0.8226231347750899    0.1614090153777442 C
   0.6113923273749995    0.8487406259059859    0.1290887115714599 C
   0.6611060963596709    0.9402770016055187    0.1654385232806128 C
   0.7753651317887830    0.9114546737677867    0.1743932972891481 C
   0.0544223686534149    0.1717079541158773    0.4000092355970132 C
   0.0007015604190140    0.2708516830533869    0.4148306642299862 C
   0.0746161753971920    0.2993010800790712    0.5824274451764041 C
   0.5152848823524836    0.2737712814729975    0.3355813354573660 C
   0.5760695576848281    0.1695001166429958    0.5947594241708488 C
   0.4115962097040482    0.1585567013937444    0.6448902933087848 C
   0.5035495113234274    0.0106714957586641    0.5920925077034276 C
  -0.1772233029056494    0.2189925337889505    0.4005441633011919 C
  -0.0932418780647034    0.2517661869232033    0.4619789955149382 C
   0.0654981961749325    0.3375112518410930    0.4806186987880669 C
   0.4219533334195090    0.4255594910192244    0.3529601677994245 C
   0.3465829006824613    0.4034919994853132    0.4307675785872900 C
   0.0762596350364608    0.7438708853562578    0.5356395933876408 C
   0.0712527832013597    0.7493001485207573    0.6439201225907074 C
   0.2540145585449136    0.7626835760675115    0.6662831894467672 C
   0.2054910763562831    0.2673726884157047    0.8919461620803276 C
   0.1345150040334112    0.1013981617573308    0.8932111748400784 C
   0.2015350190514167    0.0501658845193716    0.9623396995298317 C
   0.0434676232509473    0.2369244112592978    0.8348822929339020 C
   0.5484553996744775    0.0908233240421655    0.7405307335838579 C
   0.4923497693525897    0.0429945846238865    0.8164567713439034 C
   0.1701938684468001    0.6023146203310840    0.6894591779320119 C
   0.4746785775639436    0.3542612143448534    0.9384167778723478 C
   0.6002810957251047    0.4969365620247010    0.8389209268999653 C
   0.4531117987216994    0.4599382702925688    0.9283352860617038 C
   0.4595960648339803    0.4604942564429036    0.7446887083763128 C
   0.4726730044996330    0.6106714629247907    0.8317352051414700 C
   0.2641408473433552    0.8700412149723203    0.6793418838734505 C
   0.1583724299816590    0.7187531970638866    0.6979927490238710 C
   0.5054951097942670    0.1076349579837158    0.6438646642066783 N
   0.1152629471044671    0.2117261873246362    0.9057223054750828 N
   0.4943828160205210    0.5042679174399093    0.8359479363130928 N
   0.5885021422140163    0.6495926700872148    0.6036510177418827 Cl
   0.8479322656409255    0.6157988988172828    0.5831672178990597 Cl
   0.7377652393696481    0.8270351819892182    0.4669367644456750 Cl
   0.2339970643604549    0.6170062079053127   -0.0552879511695030 Cl
   0.7271369200308180    0.8194212988342993    0.7303453450537671 Cl
   0.8911387558298708   -1.0230136306878799    0.8174255380522585 Cl
   0.3331718168531848    0.2274756214435449    0.0932429393525961 O
   0.0825035071170606    0.1521689915313557    0.3162537376208190 O
   0.4398125919380947    0.1466018745647372    0.1764129652746103 O
   0.7333121081023661    1.1656505549579002    0.0621883503109236 O
   0.6885350907786090    1.1429286206370881    0.2110674352441417 O
   0.8831338824037900    0.3248642538161841    0.0016263909415025 O
  -0.0030888055650471    0.3261927291408132    0.3330148056850858 O
  -0.1579330095180580    0.2283382960262778    0.3072034909511705 O
   1.0249642368479162    0.6229244892941705    0.2557977809854281 O
   0.3485471217248273    0.6590175168741785    0.2448472071567089 O
   0.4921181555447461    0.3869086224182185    0.2095138984864678 O
   0.7596046300003967    0.3358642616789370    0.1043626963528468 O
   0.6756161243337753    0.6098363591024816    0.2180994179380503 O
   0.6681210703563258    0.4532646226227325    0.1865955457852566 O
   0.8212849943765556    0.6386071731510008    0.1021843752687699 O
   0.1928192307275221    0.9882907553371677    0.1840233999740875 O
   0.1028523839431297    0.7717891824706212    0.3039686525510976 O
   0.0579273773627559    0.7600498429007155    0.0134355167153799 O
   0.0002051945391659    0.8657191355027326    0.1202322182434824 O
   0.1092626554271023    0.9722024910835775    0.3159581935742846 O
   0.6313361809724337    0.9631041401437371    0.2552537272180547 O
   0.4614464261994853    0.7736719751890332    0.1132451638606860 O
   0.4846815891873759    0.8515274493477663    0.2462126066116008 O
   0.8762293692876718    0.6667380553391580    0.3002718949524031 O
   0.8043427027829388    0.8677579206814369    0.2454923496240846 O
   0.8222458624207122    0.9300881545362860    0.1008758382076293 O
   0.0648786239283319    0.1135706524844203    0.4677268709168734 O
   0.0662388505405832    0.2116899100082892    0.6096243771052119 O
   0.5960991600811919    0.3195735700001302    0.3608247282586296 O
   0.4990803065818622    0.1901056323281207    0.3535751240577717 O
   0.3409932968942718    0.3201489282373944    0.4588222902559087 O
  -0.2558926923248829    0.1953440768086349    0.4316928209942553 O
   0.1447644991986053    0.5566937183856865    0.6197374591346065 O
   0.2841866648305157    0.4685843374185839    0.4574092246709463 O
   0.0905777726347607    0.3613403698568169    0.6509507012748936 O
   0.2580577100055878    0.6711733200357485    0.3715155602887318 O
   0.1323192399914583    0.7969917596832445    0.4947807342549834 O
   0.2258803138887022    0.9318759006858687    0.6090501371288101 O
   0.0170256959311651    0.6898699233346915    0.4860124127375635 O
   0.2941564673815302    0.0882628710543906    0.9572880725491622 O
   0.4309551871006913    0.1094139975773752    0.8580856596087310 O
   0.4313467567605430    0.2956015193579989    0.8683819649068797 O
   0.2059923988141039    0.5477252402383685    0.7541791120938880 O
   0.1425411199365183    0.7477453027421228    0.7899273056370552 O
   0.3135451842460101    0.9054790742191005    0.7410740853463702 O
