Li1 Co1 H90 C51 N3 Cl6 O45
1.0
  13.6500674334000003    0.0000000000000000    0.0000000000000000
   0.0000000000000000   12.8619310394999999    0.0000000000000000
   0.0000000000000000    0.0000000000000000   14.6754320647000007
Li Co H C N Cl O
1 1 90 51 3 6 45
direct
  -0.0451758049041669    0.3297365696235974    0.5120133566952397 Li
   0.1710714784445836    0.4039202203576703    0.4891483944562653 Co
   1.0558392687082974    0.0407193148596107    0.1495438105484401 H
   1.0208189288944205    0.2410290500065156    0.2325546544288246 H
   0.3709657290270775    0.1170943161703149    0.1558114284008130 H
   0.4436008720282020    0.2005724499515188    0.2366185892920070 H
   0.4641087853675189    0.2021826280761253    0.1206492609276506 H
   0.5926012641451952    0.1096343166021840    0.0611130240285933 H
   0.6432845302444659    0.1761196676255901    0.1941305727722190 H
   0.5877463430744139    0.1501779953389556    0.3028162995684069 H
   0.4680724287900865   -0.0049876632134776    0.3110859027708855 H
   0.6631489009754508    0.0525760103691466    0.2469787612671623 H
   0.8968576365230956    0.2555719673511627    0.2090643749958117 H
   0.9172538727584393    0.1001279680123416    0.0450290001334628 H
   0.6989128268594712    0.2638817615548296    0.3283753426239251 H
   1.0357382691096708    0.5620920371519148    0.1767109834290942 H
   0.9612104321620839    0.3779176707426165    0.0343076803585948 H
   1.0321763819441148    0.6547359796781627    0.2721923289746535 H
   0.3998535716640411    0.4002211646051642    0.0352507531035050 H
   0.4509881468890766    0.5292276096641717    0.0531337018877706 H
   0.6590932433554347    0.5275567874576148    0.2649216742143991 H
   0.6415035866616879    0.3056779738303463    0.0398516397896565 H
   0.8825111872505572    0.5272846665770681    0.1714416326080027 H
   0.8494314971901888    0.6155225833031492    0.2580353352259145 H
   0.7860047043025915    0.6204153167353794    0.1474123571191922 H
   1.0900552168916144    0.6822209661016120    0.1651174576473728 H
   0.2591223255091997    0.9721027877775071    1.0632150360963810 H
   0.4827620265505611    0.0264749529953348    0.0522601330590315 H
   0.5918481543125766   -0.0312978649211953    0.0889493424551303 H
   0.4188824153871451   -0.0368048140552309    0.2105355412214339 H
   0.6330296358505022   -0.0963005458897368    0.2803576763028753 H
   0.5726738900624544   -0.1490119154280978    0.1793487251888828 H
   1.0141640167159118    0.7036104448008147    0.0388193022112324 H
   0.8851111744061636    0.7283283506132190    0.0290063032231891 H
   0.9532046109063878    0.8401482628474795    0.1377138351695483 H
   0.8318901919059292    0.8047173467120657    0.1472978800807926 H
   0.8392190934288049    0.9567808272262662    0.2723074874239958 H
   0.9624140892194694    0.8374426038066148    0.3186086795799959 H
   0.8651332511225952    0.7446268363815076    0.3241410550250292 H
   0.2193415696521756    1.0676102194553365    0.3953784806347787 H
   0.1655887216475823    1.0561966922369768    0.5482003525982361 H
   0.3281556841059701    1.1102974332425863    0.5395690564672905 H
   0.6016722816038363    1.0469982289862674    0.5417164549126012 H
   0.7059853193926420    0.1776334372096600    0.5362739575709304 H
   0.3281227172358652    0.7075872970979475    0.5759715281386361 H
   0.6523460239406322    0.4934309630653031    0.6916014457123569 H
   0.4421948643221125    0.4093519086310290    0.4663152677365410 H
   0.7990713064179463    0.3486419734275236    0.3379355381521695 H
   0.6770587223683774    0.4760344306695970    0.5010461702239710 H
   0.7682106530141942    0.5279377566903802    0.4333085393578150 H
   0.2016031957444000    0.9250118806547812    0.3835730360498297 H
   0.1382071719355672    0.9230914847263514    0.5330307821884158 H
   0.2513641220778469    0.8023296803573257    0.4575099392507905 H
   0.2766460484627367    0.8087385158383161    0.6437745744553063 H
   0.1994881878778924    0.9557063384922218    0.6274902157429766 H
   0.3245688886385572    0.9840356771335961    0.3684416246528093 H
   0.5401751495130457   -0.2546025919625286    0.2999066748424195 H
   0.6269849770674907    0.6438830214737290    0.5365823641636662 H
   0.4025287965431979    1.0104943790932692    0.5907567146355923 H
   0.4196090784639684    1.0320284706032770    0.4773953503728217 H
   0.3755115673756977    0.8339431292827840    0.4539602652261800 H
   0.5821053453009091    0.9283846245971002    0.6072093818508070 H
   0.7452349423424205    0.7762884895772342    0.6160336535607689 H
   0.7475851138823431    0.9222238078615226    0.3894263560489473 H
   1.1715170855179315    0.2598870270284037   -0.0356582324317889 H
   0.2662907882642314    0.1576395498835469   -0.1659187925006265 H
   0.4365965403304657    1.0649341049672170    0.8250223897341523 H
   0.6673188437451636    1.2099519871399480    0.7720917505151237 H
   0.8072544161750954    0.1683541151830166   -0.1093630470656135 H
   0.9469570227229527    0.1916103431227699   -0.0392267815395163 H
   0.7970251626801022    1.1173523614428178    0.6950275799330278 H
   0.1612861788003363    0.5088364258524604   -0.1438594760476075 H
   0.5162707254805613    0.5498963567740407   -0.1242450620575493 H
   0.3967860410306360    0.3797173227489065   -0.2180003936848588 H
   0.4774486462061877    0.3379600626337194   -0.1343681030245913 H
   0.9415892836727618    0.5919328129126687    0.0295139543756155 H
   0.6938747565103293    0.6052791758711404    0.8227328489661623 H
   0.8173972232107025    0.6560374949754060    0.8164829477983034 H
   0.9111198371275880    0.4772495670244726    0.6867545696758350 H
   0.9399336141963825    0.4100434066629098    0.7933115686865464 H
   0.7445682789691881    0.4671278365004796    0.9237561097099546 H
   1.0130761100024501    0.7117048747647347    0.7451589829988114 H
   0.2175174028397046    0.7780432805126455    0.9963652155476697 H
   0.2262609493886370    0.7946092222321001    0.8790828082964333 H
   0.0745137136986768    0.8891906654278404    0.8363215459885607 H
   0.4012020631707541    0.7672058720728145    0.9991937523714575 H
   0.4811855508221449    0.8791750620472606    0.9788113882488025 H
   0.5853265748087143    0.7760536881317338    0.8834976697951856 H
   0.4289198016981278    0.8060173070328489    0.6856077550590114 H
   0.7783285517479442    0.8946307505740845    0.9017622087074495 H
   0.7015150118064178    0.8932297167833839    0.7550421673139688 H
   0.8007995030085563    0.9165605835932300    0.6905289048883044 H
   1.0845871120368820    0.2135487285124469    0.0599696164664840 C
   0.5497282158723318    0.0411609281743265    0.0901097852908110 C
   0.4441667300386247    0.1521294907965907    0.1786577744928287 C
   0.6123139872736975    0.1173664370508616    0.2376713691987168 C
   0.9780960630298128    0.2389842559612644    0.0934500617326823 C
   0.9612463294206425    0.2107116739606898    0.1907535001394336 C
   0.9422823205420781    0.1016129705318966    0.2186988443168272 C
   0.8008727627199006    0.2140743105560172    0.0155334460610758 C
   0.9118253281478328    0.1814804489723606    0.0262261465763439 C
   0.5517355319631633    0.4228204149904546   -0.0027624377545595 C
   0.4461366470468150    0.4599050485913624    0.0056209610753758 C
   0.8587955534942069    0.6052752884299898    0.1855597859329989 C
   1.0315895716562475    0.6437625107980584    0.1980868447064305 C
   0.4870800271969007   -0.0249722206808291    0.2419070196194985 C
   0.5580849511453667   -0.1212711353769345    0.2488737650992398 C
   0.9433995311400775    0.6765833989449139    0.0542437203136801 C
   0.9043044861812353    0.7938643885076322    0.1813725156891598 C
   0.8925133356403834    0.8107996371364000    0.2835364583512902 C
   0.6896000523533941    1.0349642661602609    0.6687953028659697 C
   0.7497396819929765    0.2775663318934093    0.4608119885387676 C
   0.5543699511831014    0.3928490212070383    0.3746656322048396 C
   0.6269761859021293    0.6086814643662046    0.4118686254518504 C
   0.6658814882085899    0.4242610773562451    0.3608718304886420 C
   0.7302628551350027    0.3260994796830329    0.3695530059006045 C
   0.6867121545322050    0.5095151730773669    0.4323184492578478 C
   0.1896003246377633    0.9761776035916369    0.5584740535247432 C
   0.2561318640921286    0.9854398208772173    0.4027554355021183 C
   0.3090385624306963    0.8413277124925920    0.4968399567559207 C
   0.3298318663015258    0.7911369597963238    0.5894627152551123 C
   0.3612031398933470    1.0322034054550571    0.5326474885330603 C
   0.6367321816618390    0.9869123835850901    0.5829320727787975 C
   0.7051010746767173    0.9330969807599395    0.5159263931051271 C
   0.3274897533298511    0.2874031129810584   -0.1170370971040375 C
   0.5971309120976083    1.0792398884016736    0.7282749826567700 C
   0.7997321090142711    1.0052719906514624    0.8053153038558659 C
   0.2854591917374462    0.5064814140033860   -0.0710943271039787 C
   0.3937755797123680    0.4781778879712520   -0.0840670286340370 C
   0.3990569455628841    0.3716499493753952   -0.1443500919264624 C
   0.7412503466424084    0.6444210433289814    0.6902277212515628 C
   0.7357536705002518    0.4025129666611287    0.7601977225076036 C
   0.9829077608709010    0.5666613354804093    0.7918942339254097 C
   0.8052800669543688    0.4933600561387150    0.7985781938638665 C
   0.9114487732315234    0.4790630583212590    0.7639693320763017 C
   0.7653586524515638    0.6017244996829700    0.7838801598265014 C
   0.1294247977396223    0.9054518317610826    0.9608125996042518 C
   0.2237312915559212    0.8404071664281140    0.9412745036397933 C
   0.3189769748716530    0.9024857141631233    0.9560188736212725 C
   0.3284421295773260    0.9900207815291638    0.8858669356434896 C
   0.4163192046066336    0.8345923319549454    0.9532489381385701 C
   0.4415724351625898    0.7950275108999117    0.8564688233359308 C
   0.7478635007854511    0.9553992306413189    0.7254225964499824 C
   0.5217261564052311    0.0717068857598115    0.1905974570335200 N
   0.9373980955867590    0.6757748111855751    0.1574175139931204 N
   0.2828211095319408    0.9581460965583806    0.4988009893083608 N
   0.0963084778235818    0.2830491788923107    0.4102877520644286 Cl
   0.3202084706193493    0.3302030625616775    0.5188352546508586 Cl
   0.0722507212152539    0.3844721297691109    0.6205221074413495 Cl
   0.1550085541352502    0.5594890065574278    0.4309324594000823 Cl
   1.0957379727005856    0.8541088415077566    0.7184633464906124 Cl
   0.7085369551387611   -0.2013920749804219    0.9492231622881875 Cl
   1.1333407173393459    0.1406008953201712    0.0867143145625685 O
   1.0075471995873020    0.0257441140590093    0.1981365877052589 O
   0.8716980538561506    0.0717247679891046    0.2655042805705394 O
   0.7449602184248796    0.2563401257225346    0.0703141159899536 O
   0.2499414184835422    0.5339710653562162    0.0016149461423359 O
   0.5680863669380795    0.3363677667384060    0.0380533963114643 O
   0.6080429461023297    0.6271561396906369    0.3292066639742072 O
   0.5052079962496049    0.3417528834667797    0.3252681087245100 O
   0.6840403728594814    0.4559770225550819    0.2677059193269014 O
   0.9621730647691469    0.3470930613754517    0.0940374379654226 O
   0.1174058094964898    0.9422130302582549    1.0392525388799703 O
   0.3240714551985299    0.9455430123479166    1.0430309625580969 O
   0.5076165557794687   -0.1889312711160723    0.3046554277031704 O
   0.8170118771290319    0.8841564291377261    0.2964430630198916 O
   0.7498788754445305    1.1128211600375997    0.6381822348473019 O
   0.6754543346899390    0.2202460121268169    0.4890390279999372 O
   0.8278865486809677    0.2891384667107164    0.4995865879843773 O
   0.5139474402547021    0.4363766220222394    0.4509451580862388 O
   0.6860176524686619    0.5948740508872638    0.6383430478298154 O
   0.6029081729342133    0.6751893625482845    0.4787931286398986 O
   0.4239537456452372    0.8236289704218328    0.6167477722288801 O
   0.7560129110753819    0.8558620774667076    0.5405434059744777 O
   0.6933839164443230    0.9573942654398415    0.4259935928862751 O
   0.2947192192513554    0.2777412667451893   -0.0376220587690947 O
   0.2642519704975218    1.0192014697825345    0.8380339316879533 O
   1.1046610055423114    0.2789168289491512   -0.0105250712155545 O
   0.3087953401890335    0.2196955504598824   -0.1840593146212910 O
   0.5150440648738136    1.0404821001295186    0.7310074405376153 O
   0.6150590286577654    1.1561148146443536    0.7826427175542782 O
   0.7620304637651960    0.1893268601908679   -0.0629548733915853 O
   0.8311407450588778    1.0970404814305799    0.7941020053802572 O
   0.7543367288798262    0.3122858462982510    0.7827899023179347 O
   0.2323385750417534    0.4898447208549893   -0.1519273816110012 O
   1.0313280344867488    0.5706514050774545    0.8622465067203916 O
   0.6107564858105194    0.4713520078036180   -0.0495487945018718 O
   0.4464120251735782    0.5616753034605633   -0.1290926195050141 O
   0.6582038704597160    0.4188184381611650    0.7135244799768051 O
   0.9717319919053404    0.6454799822984232    0.7353732404484823 O
   0.8089071552630210    0.4816146191949111    0.8923485165319188 O
   0.0580485935740637    0.9118435625010101    0.9022214796829333 O
   0.4207745672117436    1.0179847007023755    0.8793969387410889 O
   0.3826803964292861    0.8079097133849938    0.7919828173479806 O
   0.5289642158860399    0.7543687639050803    0.8394090189706330 O
   0.7779395426807064    0.7321046109469773    0.6686385783491132 O
   0.8291444179247479    0.9516797269483603    0.8756818862806478 O
