Li1 Co1 H90 C51 N3 Cl6 O45
1.0
  14.9959832924000001    0.0000000000000000    0.0000000000000000
   0.0000000000000000   14.6073118734000005    0.0000000000000000
   0.0000000000000000    0.0000000000000000   14.6553768191000007
Li Co H C N Cl O
1 1 90 51 3 6 45
direct
   0.9636049110246339    0.7141380651217608    0.3507242751139067 Li
   0.2548757938492140    0.1104746343397121    0.2557502586023697 Co
   0.0421388270364542    0.1288277716125729    0.1648443735852272 H
   0.4197986236348015    0.3059212726222068    1.0891467758507098 H
   0.3888543373581439    0.1868336530056413    1.1039256520729661 H
   0.5216199560694570    0.2144020381739842    1.1720439960993674 H
   0.5956910575332030    0.0973442239218125    0.3020179191592984 H
   0.4329614817249434    0.0482893392030943    1.0639819503704566 H
  -0.0429859677242167    0.1725147966813041    0.2413227892435174 H
   0.0060138201304682   -0.0216304385665490    0.3755745402756568 H
   0.1664627852356382    0.3246434031805342    0.1729083081710633 H
   0.0706284560037338    0.3166282391986380    0.1038217188258855 H
   0.1977164877012530    0.5291586504684425    0.0910038976044495 H
   0.0296014697765748    0.4649557356455039    0.2014016048740029 H
   0.0342133714206004    0.6732996134497388    0.0599634128994008 H
   0.0080697039894229    0.3244154351581587    0.3156995871556259 H
   0.5642923162290145    0.5597230694299499    0.3075401244904180 H
   0.4078867672051848    0.6246767041728191    0.0625092362146617 H
   0.6877770497001757    0.6330122556456212    1.1019065978810987 H
   0.2670143776586700    0.6998821909537556    0.1966811530661832 H
   0.0503663635436820    0.7350625173857390    0.1683782301785632 H
   0.3056053782430259   -0.1707776614698482    0.1855289321429386 H
   0.5711738256297552   -0.0535842986638317   -0.6746638937126419 H
   0.2485621031659239    0.2185431149528098    0.5705930672831061 H
  -0.0517543157168849    0.1200376532723315    0.6843629157544873 H
   0.2984321240520509    0.3244024279736989    0.4536254845890931 H
   0.3138415837383065   -0.0139089631179833    0.4005394391326531 H
   0.3667397488357581    0.2380169238551859    0.5955893539376104 H
   0.4190704286383765    0.0898438706090644    0.4452131454509193 H
   0.5338763047473826    0.0850907715719697    0.4309199612779269 H
  -0.2288850812163499    0.1764224287285080    0.6692974552941156 H
  -0.0101931864566339    0.1140399720590250    0.5689493019744853 H
  -0.0761981946445023    0.2126104696618026    0.6067163281541637 H
  -0.3188691772031652    0.0093800583630661    0.5841717014223967 H
  -0.1291683790273146    0.1224330289789129    0.4470969591761331 H
  -0.2174153431774198    0.1888449744763290    0.4959054619413269 H
  -0.2359069615390204    0.0638842687818093    0.4661278584455745 H
   0.1726851181217577    0.3651238149855822    0.5438830751190125 H
   0.2322677398530602    0.4781412554501939    0.4503632006785430 H
   0.2628019163103025    0.6745325576188023    0.5265026281237477 H
   0.3339376317348877    0.4632155797413715    0.3820827318545791 H
   0.3969418363660593    0.3672172870949637    0.5065176762787506 H
   0.4008875596204982    0.5630777592198787    0.4752213810240123 H
   0.5724801754447705    0.6165444755307842    0.6155908867278126 H
   0.7225743677436320    0.5504500422519198    0.3806286580178541 H
   0.7278471130153656    0.5334955196028217    0.5049901140552516 H
   1.0423439958166540    0.8179155440404168    0.5672216084247024 H
   0.3494684572538808   -0.1310783653210475    0.4046771696563042 H
   0.5914399191612157    0.7434761119653004    0.3377078919560621 H
   0.6187912433126551    0.7720118209042633    0.5071807093839340 H
   0.4918141746622102   -0.0619958394774256    0.6162971121717407 H
   0.7032972056954117    0.7434624201921847    0.3502323055051415 H
   0.6938820178249666    0.7327403926653264    0.6244572571803726 H
   0.9066603290422854    0.6550471107092780    0.5622937242159607 H
  -0.0680353421250521   -0.0197991639123320    0.5478128956013451 H
  -0.1852067183355406   -0.0513388478728666    0.5563873595370814 H
  -0.1219424440627886   -0.0359869472669542    0.6582155157435517 H
   0.2845137303108562    0.2493003140797855    0.6856252510890445 H
   1.1482243485111445    1.0620111059687509    0.8016072569413092 H
   0.1616148203784858    0.1836236167986793    0.9418533949540348 H
   0.1702998127168012    0.3466501901093038    0.6659362315870730 H
   0.3839023446443594    0.1001893743752427    0.8277041635388624 H
   0.3738569880270081    0.2156972799107238    0.9343830991471527 H
   0.4874453381062770    0.2565877603205854    0.9281362450996550 H
   0.4906969421557902    0.1654149277321885    0.8100157749563081 H
   0.6109524775773282    0.1440817760407085    0.9076830009627084 H
   0.3519817969439231    0.0346858780240493    0.9717284370907464 H
   0.5837591957465417    0.0307796151541570    0.9427343003145285 H
   0.4800002111130652    0.0327580763693671    0.8115435418828343 H
   0.5891566410771870    0.1186493074784055    1.0252255262258552 H
   0.6660325602831157    0.3146716848204129    0.7360169953011426 H
  -0.3504376306196157    0.1228999184421562    0.6337275749399909 H
  -0.1929554599641666    0.0673736171603304    0.7262089909233455 H
   0.3300365871111818    0.3915797435882793    0.7311184518596366 H
   0.1507585799555915    0.5844427442838526   -0.0039148490897366 H
   0.1851451213343978    0.4603833680135356    0.6173970497713656 H
   0.3562949519227486    0.4876171262469322    0.6567471126949209 H
   0.5874021712643716    0.5662524021933367    0.8839429085519446 H
   0.5375499551460142    0.6800017363898450    0.8824158239688424 H
   0.4228594432626323    0.3789963195063495    0.6565014690622504 H
   0.7701964533431758    0.4325804427717218    0.8068729011449727 H
   0.7861740651694992    0.6516830420547650    0.9285722625476452 H
   0.9680854441573996    0.6307223065920303    0.7546415590615415 H
   1.1939225856082281    0.7604306346143985    0.7759033801560288 H
   0.1521122757822792    0.8333749250652869   -0.0532837605091314 H
   1.2239706318892858    0.8398757789405932    0.6834690458689360 H
   1.0413937413570333    0.8136806786157490    0.8340069697471351 H
   0.4569491718274195   -0.0250287366538510    0.9742967777390024 H
   0.9949846472396300    0.8882522363014314    0.7567308946260897 H
   0.6243800732256942    0.8033269597857013    0.8706297060046230 H
   0.8158706840118057    0.7044299133941156    0.8236462671958291 H
  -0.3925889179126837   -0.0079448267488101    0.7311300516978462 H
   0.1630178627525503    0.2048732486741540    0.0886914357402256 C
   0.0723702557570876    0.2504100322908082    0.2373399506771335 C
   0.1183805764240676    0.2745315135772885    0.1465350524867556 C
   0.0596435144505189    0.0839577773466504    0.3020336130580524 C
   0.0304750370341910    0.1563229057947472    0.2325990285665912 C
   0.4405852565565639    0.2346521706120171    1.0674209612278449 C
   0.4577243794128995    0.1086741661750053    0.3102715452170300 C
   0.2930940279473047    0.6186557469452161    0.0146237393992276 C
   0.1999730919758890    0.5964045618663323    0.0491291640117798 C
   0.0412165800766960    0.5961779630212684    0.2026373288150208 C
   0.6611352488785865    0.6372026228076633    0.2708273189009510 C
   0.0675389620308057    0.6729710108949635    0.1305354638788115 C
   0.1676717756463696    0.6777193178114677    0.1114496359637312 C
   0.1867002044220016    0.7704126218043564    0.0651219291854830 C
   0.3330954062033081   -0.0803743065305504    0.2718938216727957 C
   0.1374796907945907    0.2562810646027950    0.3210948766098656 C
   0.2966363098346765    0.2581287693847508    0.6133077656308243 C
   0.4672992100325608    0.0654334929098441    0.3984692091839794 C
  -0.2176153967478663    0.1032720770922292    0.6632525749001469 C
  -0.0652932745194661    0.1393403150107620    0.6116769648472614 C
  -0.1868204838038087    0.1183241278669090    0.4919510702722931 C
   0.1974830918690655    0.3884142056439431    0.6062284526059429 C
   0.3037382115855257    0.4726789225657090    0.4533178841735156 C
   0.3248925429697686    0.3801368442068824    0.4982914804266672 C
   0.5614198136954974    0.6033332836515024    0.4742300042631593 C
   0.6501769811347645    0.6520862647730206    0.4466582805887889 C
   0.7311473300824974    0.5823759711320465    0.4492601242991672 C
   0.8203752235730252    0.6302574708947543    0.4669337060294189 C
   0.6470121336503016    0.6991572115672824    0.3537893617748963 C
   0.3596198422635687   -0.0644247600281403    0.3733309950972654 C
   0.4601175535916269   -0.0420948472538416    0.3937958390724214 C
   0.4926570003545011   -0.0841101068251530    0.4881631089878278 C
  -0.1315523507418015   -0.0087649639584370    0.5879853188196076 C
   0.4398729324767275    0.2105300047368810    0.9660943274380771 C
   0.4563702167945474    0.1001886897865869    0.8389676064402328 C
   0.5718913511024232    0.1011868200467171    0.9557336248867710 C
   0.4236156457589199    0.0394643068414080    0.9904007648908313 C
  -0.3055055986973420    0.0633098988996082    0.6438856214943435 C
   0.3526079646194205    0.4123179877378848    0.6617370901552542 C
   0.6002456104870340    0.6382356670892383    0.8950787532330110 C
   0.6141520010140018    0.6359936392415521    0.9985991211312121 C
   0.6656264515351095    0.6733311045279048    0.7380920016537850 C
   0.6752676999401589    0.6820849396693898    0.8407567108981835 C
   0.8118249339721436    0.5603511795216299    0.8204017242143052 C
   0.7775837648545285    0.6512544895562454    0.8554236827988896 C
   1.2258911461655717    0.6996186243212794    0.6494439910269397 C
   1.1205069263257883    0.9327251691470002    0.8053116993906664 C
   1.1905416802676831    0.7775343975904571    0.7027316007308543 C
   1.0560363290232442    0.8559259599754032    0.7729235864230498 C
   1.0904268714734593    0.8014628248760070    0.6926718116295698 C
   1.0345018958551528    0.7213173463549472    0.6777646548435857 C
  -0.1486742689910787    0.0898534548502454    0.5887440847071901 N
   0.2921704472970769    0.3637936592273977    0.5942567372303724 N
   0.4720779563543387    0.1129651678694472    0.9442375028777876 N
   0.6938099985396059    0.0434212292718282    0.2978883767567363 Cl
   0.9936916343293111    0.8626636815256100    0.4045004427094663 Cl
   1.2214966360680977    1.1749244204988183    0.8413783257575249 Cl
   0.5676711543493317    0.2959755686310053   -0.3076518362000662 Cl
  -0.2359669776101543    1.3122830267495504    0.7698973933372329 Cl
   0.5093804385652584    1.8956894792070087    0.7538841578608072 Cl
   0.1384159415042801    0.2170226435483179    0.0037546909969784 O
   0.2225031250795687    0.1536269956682775    0.1135205482558291 O
   0.1398883357827660    0.0579954371647722    0.3139425528386071 O
   0.3017390095715308   -0.0222499913000317    0.2188211501474678 O
   0.5329740631446690    0.1326820057446258    0.2756896981409804 O
   0.5256698405495750    0.2239684800498825    1.1032590025476350 O
   0.3883528697415582    0.1323869480339838    0.2661150552142202 O
  -0.0095336765193954    0.0452086902520751    0.3419663972657763 O
   0.0047694869222913    0.3167500959793672    0.2497483658441184 O
   0.0564473252400194    0.5134554623673036    0.1657102673903911 O
   0.3476012905963806    0.6341794793037296    0.0863059631296246 O
   0.6062925630763955    0.5683975607462298    0.2569559594327279 O
   0.5481422582249662    0.6448446859721582    1.0461093290633994 O
   0.6952503842468205    0.6281311385298953    1.0337555013703414 O
   0.0142987053278907    0.6092125310273585    0.2822251834568660 O
   0.2057646428403138    0.6735960403376924    0.2004981821805144 O
   0.2461241169874164    0.8240652039353069    0.0863578212298551 O
   0.3328906847162179   -0.1663045591929684    0.2483406913602312 O
   0.5116731591778123   -0.0825403450374448    0.3251159264079983 O
   0.7044615174754100    0.6635688702964528    0.2063131128405664 O
   0.2129238932813576    0.2266671285309753    0.3138245074262404 O
   0.1067914730881045    0.2992047733203292    0.3880034257453643 O
   1.2215633205915799    0.6201070748954740    0.6722417671690422 O
   0.3390469999240902    0.5587845668417383    0.4903140123995312 O
   0.5113233988521484    0.5683666173389885    0.4121638417053644 O
   0.5381381126431268    0.5935676264767715    0.5576367303465809 O
   0.8460107549352687    0.6335838871731992    0.5564173826477411 O
   1.0712097254963728    0.8566591544257458    0.6147038402765022 O
   0.6671701982537211    0.7237613278560890    0.5114592755903162 O
   0.5306659117333813   -0.1583441623035348    0.4898740305362470 O
   0.4900021561056296   -0.0259173327290561    0.5585462941308862 O
   0.8626665483654056    0.6567154532634187    0.3999949290802333 O
   0.9915744007087527    0.7060688186360579    0.6057842470368636 O
   1.1080169150775814    1.0152858764456589    0.7744322477337017 O
   0.3152312892076745    0.6302595246607217   -0.0647723767404498 O
   0.6171868136776746    0.6156887397110566    0.7022846657880787 O
   0.7551844334168737    0.4940296681856426    0.8424086643278932 O
   0.8852325911117657    0.5444764585592968    0.7828086956077686 O
   1.1796254237736550    0.9134581060186704    0.8627861683447664 O
   0.1310339647548059    0.7852271203154799   -0.0053641465224930 O
   1.2532117954362090    0.7304456514911449    0.5650667678914421 O
   0.6838406622790243    0.7776959605132217    0.8685130767031114 O
   1.0230014829354210    0.6707248755153425    0.7537627007313201 O
   0.6989440400024968    0.7439094565844104    0.6918939401261129 O
  -0.3294186688180415    0.0224276335536161    0.7297851528089747 O
