Li1 Co1 H90 C51 N3 Cl6 O45
1.0
  13.3236874032999992    0.0000000000000000    0.0000000000000000
   0.0000000000000000   12.9783591653000006    0.0000000000000000
   0.0000000000000000    0.0000000000000000   13.0210640881999993
Li Co H C N Cl O
1 1 90 51 3 6 45
direct
   0.7369562872863593    0.7492735378598391    0.6021827395201715 Li
   0.1706641061795557    0.3424455303473847    0.6845830712236552 Co
   0.3035927727258254    0.2631519935533433    0.2344938956922137 H
   0.0537685386946683    0.2557627697864124    0.2242865885858424 H
   0.4367186069119896    0.1855289298694903    0.1552300204045316 H
   0.5046353534258620   -0.0064868687580395    1.1421724018375452 H
   0.5736876714629939    0.0799863121507320    1.0478298817732103 H
   0.6130746657773474    0.0734146031300695    1.1802069277906744 H
  -0.0635713502322349    0.2984900508654133    0.1862167352587841 H
   0.1395098177730902    0.4197318796635476    0.2114020809247490 H
   0.0621581080846191    0.5318019018809039    0.2036315946331032 H
   0.2954538846899847    0.5972620258595549    0.0124029835815304 H
   0.0337598134874128    0.4192449151775518    0.1280194946287554 H
   0.3093104091198714    0.4873900472959967    0.0982047270052849 H
   0.6004160079377596    0.5449940934221712    1.0679142618383537 H
   0.5677192036062424    0.5896773998874839    0.3061055545922737 H
   0.8677474074359049   -0.4506000210131201    1.0164153984998585 H
  -0.1276744753016852    0.4492939371712334    0.1965830155478368 H
  -0.0929956370781496    0.5363916192127576    0.2981814710226748 H
   0.0250332503010683    0.0575227636938913    0.3146924104162401 H
   0.0150457749144091    1.0157656233345018    0.0118753769317616 H
   0.2577496077286702    0.9594318456444236    0.2315502038602431 H
   0.2106170098980980    0.8818565537930575    0.3435041878146771 H
   0.0090909669398278    0.8049747240261791    0.1908369413796125 H
   0.5126457109769980   -0.1068770631890535    1.0298989355449688 H
   0.3719454721275268    0.7384994486071806    0.1656431478633600 H
   0.5812396348913071   -0.1607791005028613    1.1952940204176148 H
   0.6957199550782108   -0.1914401413117748    1.1501817318964080 H
   0.6920490493807472   -0.0910114212094004    1.2342455221201236 H
   0.6354393453874526   -0.2617780005413702    1.0128703733247018 H
   0.7346926496696039    0.0285699511530993    0.9907339336261051 H
   0.7755649685342090    0.0183552546485944    1.1257083096137557 H
   0.7896511591148673   -0.0829526212742252    1.0342142510690604 H
  -0.0624920694322036    0.9037399056392101    0.2505839785441876 H
   0.3429662572666041    0.0863877377039814   -0.2804655542099277 H
   0.2539781292723718    0.1401865262185433    0.4647401320744542 H
   0.2854356370412940    0.0262630339520367    0.3994819477782839 H
  -0.0158653375677100    0.2044034267823932    0.4054046588161543 H
   0.1221204875533932    0.3707172090185243    0.3922859153061825 H
   0.4865153320915124    0.1618317894156885    0.6132371356144540 H
   0.4912684457066153    0.0609923856566118    0.3858571012374568 H
   0.4321620605024000    0.2275457975686047    0.5121983118218381 H
   0.6154373750669846    0.1021778693677682    0.5591400207221047 H
  -0.1382781464719506    0.2506681350057089    0.3661474985305188 H
   0.8617655799141741    0.0858144757141382    0.3210029545809421 H
   0.7662792508304630    0.1755045501815058    0.4768690179266573 H
   0.3649263942124417    0.6082811383820657    0.4028971832535704 H
   0.0681632024386178    0.4902687625113910    0.3896064107922912 H
   0.0044068282242540    0.3933479588890693    0.4503976790510303 H
   0.5573430220121172    0.3528266577521668    0.3304837465625953 H
   0.6633370278194149    0.5093294539939789    0.3594521931845444 H
   0.4244414500672947    0.5139053483149485    0.5756111784206801 H
   0.6133260976744339    0.3706740602666006    0.4622037802236151 H
   0.5300664889474052    0.5799355674732569    0.5959044507838398 H
   0.6477377425983791    0.4603786974377425    0.6158882246319241 H
  -0.1584167156141193    0.4174727342949719    0.3215359371354392 H
  -0.0364107010030755    0.6508943834738397    0.4606340928415737 H
   0.9114530260363363    0.4670017997039997    0.6576398047115174 H
   0.1681512882946429    0.7065077311094780    0.6685559632556421 H
   0.2056213958473275    0.8353884300249587    0.6694452914949903 H
   0.0571204636271714    0.9327489656601884    0.4092731598586803 H
   0.6303439091208238   -0.0017828842849307    0.6481912681582342 H
   0.6719082286096493    0.7918405521459806    0.4238400185051936 H
   0.4093690460156760   -0.1735673118542432    0.5238250113737736 H
   0.8810432762624375   -0.0506372881370947    0.5885110458095687 H
   0.3763751767741085    0.2922766305884028   -0.0847680303563104 H
   0.8943053706550330    0.0516275654623180    0.6683017597606298 H
   0.9034957694007789    0.1941794841167617    0.9515128687007885 H
   0.7794445251791057    0.2056863316386956    0.6445164532832069 H
   0.0957118823865645    0.4500132885068754   -0.0676135183681217 H
   0.4880032084878838    0.3613462247168128   -0.0511455862123832 H
   0.3814105696026271    0.5589295222153240   -0.1598770992753618 H
   0.9886778939617995    0.5567608351231026    0.7201154975189289 H
   0.7752594975428232    0.4653483549405527    0.8941711649089586 H
   0.8394046530189506    0.3974355326204111    0.7976360437018435 H
   0.2452935964927045    0.6443619706379647    0.8229166196801394 H
   0.0815356266487408    0.9203290597270123    0.8241576856860002 H
   0.0606322542136431    0.6429927682778150    0.8171590257160686 H
   0.0767831885223167    0.7152730918574034    0.9382290081170173 H
   0.1505810772176389    0.8862091841433590    0.9305568240832615 H
   0.2335490999983449    0.7263368941586923    0.9273612327154478 H
   0.2154092268022702    0.9157953587213166    0.8167504569567133 H
  -0.0058410855752083    0.7597448153356047    0.8394252551145355 H
   0.0799850048595443    0.8088573411858835    0.6623959444233343 H
   0.4818832810584993    0.7188320933776802    0.8628926152265953 H
   0.3649669235331661    0.8437215327402201    0.8502676869652426 H
   0.3480249169273904    0.8003786114328796    0.7351127357382666 H
   0.6293509407630761   -0.2563073552081888    0.8266759130580409 H
   0.5830251766321098   -0.0468270992395480    0.9389463074050581 H
   0.9026619161540232    0.0108658641361264    0.8070169974528273 H
   0.8420217963775800    0.7028208243602845    0.7760947934553152 H
   0.7168079610854975   -0.1858069176454525    0.9388864044666565 H
  -0.0171787877763711    0.2909806270038379    0.2531498210723936 C
   0.3453139556967138    0.1592051091423342    0.3285706924656898 C
   0.3874141628706730    0.3070566191491190    0.0759262098245818 C
   0.5759133316051446    0.0320811808408891    1.1142691523382007 C
   0.0661735130082403    0.4492349928940519    0.2031631229353464 C
   0.3429587518368404    0.5304842468690344    0.0329796429225135 C
   0.4547653377246959    0.5788167049256072    0.0629556876878348 C
  -0.0957336178559758    0.4533421376664450    0.2769566311687298 C
   0.0858512487629131    1.0032663545183234    0.1460088078226190 C
   0.2366315800023285    0.8061605441906532    0.2023682570219392 C
   0.0944472174713679    0.9367764393442080    0.2456012828473900 C
   0.2011406542783521    0.9007125583837075    0.2600709144169590 C
   0.0102430504085677    0.8586656406609318    0.2573699062841542 C
   0.5872154580692270   -0.1031739756578888    1.0029357013866971 C
   0.6521606923581734   -0.1299369890385538    1.1721284789567326 C
   0.7455027201583730   -0.0164056881064963    1.0594456759184112 C
   0.3162161550455234    0.1001059587620041    0.4226591626322904 C
   0.3448951527158950    0.2108233446578956    0.6507486628361530 C
   0.6642166641877297    0.0720715982264449    0.6243859940346776 C
   0.4180565809672488    0.1689929412081656    0.5695533017782111 C
   0.3990595876921507    0.0686428134753664    0.5023077991012449 C
   0.3586413473282542   -0.0249214025040063    0.5640875426422510 C
   0.8398129483981002   -0.0038871564546375    0.6391497643915267 C
  -0.0648232559168330    0.2201658199628004    0.3358512034406654 C
   0.7624822539129678    0.0431981485686554    0.5664836601783189 C
   0.0518554046478813    0.4092436508923836    0.3843864073010561 C
   0.4526033986812396    0.4520173939310451    0.3690097838051742 C
   0.6019531199533813    0.5605447495127814    0.3801087231100631 C
   0.5280539830105457    0.4961486275257628    0.4512348610145135 C
   0.4773078960202026    0.5666936778159346    0.5362206188991423 C
   0.9062922925307626    0.6221611672598022    0.5997451507190563 C
   0.0079921720224107    0.8044168723048801    0.3611187236503352 C
   0.4406040177921021    0.6678880571109264    0.5069106487296645 C
   0.6511151859920791    0.6557547821726718    0.4197494925973864 C
   0.7468904741216955   -0.0372511583661990    0.4761549441814535 C
   0.6667062152403749    0.1491252524875908    0.7092592419132058 C
   0.2368950205870371    0.4038947466807012   -0.0804972580428252 C
   0.4023432132138035    0.3497985399832368   -0.0303316190769626 C
   0.3434946395219741    0.4460415229436431   -0.0555668838582623 C
   0.8380048903680062    0.4672691678632412    0.8412492227902282 C
   0.8308552179750314    0.5594495417273471    0.7713294379068212 C
   0.9326851362950875    0.4832739645678482    0.8979558018377222 C
   0.7231140231730238    0.5520862072115704    0.7145729397439923 C
   0.9119176121387141    0.5462331560644654    0.6821692900006228 C
   0.0628433538220521    0.7180400055745095    0.8568723699172247 C
   0.1492331020320644    0.8820152795590624    0.8480067350337734 C
   0.2429969349849885    0.7213385735563899    0.8473700743166579 C
   0.1511357284771821    0.7825042409484935    0.6959884370980605 C
   0.3475370639927449    0.7695626974250971    0.8164263667002324 C
   0.6362686953763501   -0.1976404628605228    0.9595859416300020 C
   0.8170159560336013   -0.0794791467443686    0.7266710293419659 C
  -0.0000604035746801    0.3976297020040677    0.2848576751466357 N
   0.6427586404930888   -0.0545044950282549    1.0867030488639631 N
   0.1530601206686147    0.7766182888780467    0.8105028876759722 N
   0.8319224900874406    0.2510842122564016   -0.0033322895583719 Cl
   1.7265712190157145    1.5828234390618479    1.1079440164320933 Cl
   0.0529384381627944    1.2546941319776299    0.6078235995529980 Cl
   0.6785115057158210    1.2660253024381602    0.3792547222446440 Cl
   0.9982878462313407    1.1003918835582542   -0.1211191301430738 Cl
   0.1910713697072677    0.5139789400523811    0.6572611874213631 Cl
   0.3310026022231422    0.3387601646250458    0.1430259486847704 O
   0.2788758914277522    0.2281059608301854    0.3015076200767486 O
   0.1362359493101303    1.0805072435422809    0.1273551864016084 O
   0.4188116272014849    0.1217365822040323    0.2796353676962314 O
   0.4472569808433101    0.2213709029629547    0.0895641121340349 O
  -0.0842435554306082    0.1234594502272709    0.2870533482349749 O
   0.5298886853163012    0.5216719464431233    0.0281943197278856 O
   0.4564256888970388    0.6496322824800719    0.1234338478954665 O
   0.4815795363159592    0.3671859459816270    0.3183818170326729 O
   0.9340969076336542    0.5291368500388746    0.9873432737152912 O
   0.1823305462043720    0.7365323278275170    0.1666576578842401 O
   0.0212475115282188    0.9686756952306457    0.0744401561603858 O
   0.3352506754694405    0.7981379583865569    0.1976366928745949 O
   0.3090597277657612    0.2970622894847957    0.6354618937478735 O
   0.4964389062491628    0.0443153930381079    0.4614088375115690 O
   0.8051363618034938    0.1359309805600699    0.5287335963839589 O
   0.7582949746477561   -0.0016611431634318    0.3892193456518495 O
  -0.0142839435164820    0.7128660079108036    0.3683654432241611 O
   0.3699385202086927    0.4925715189399467    0.3551614532249254 O
   0.5776230685053332    0.4188126571448877    0.5086597377323552 O
   0.9508362676358079    0.5921615351768046    0.5182478174126587 O
   0.0872112326361097    1.0165515470302546    0.3283034332020515 O
   0.3792114786818402    0.6759337583178390    0.4296064443127468 O
   0.0276076127100441    0.8625528809011994    0.4407787263178582 O
   0.6284773087385723    0.7453839860792900    0.3793837439581246 O
   0.3466836966286033   -0.0234651321265819    0.6609659537655911 O
   0.4633342868860010    0.7505479670684423    0.5537539017747632 O
   0.3498059554103349   -0.1042781213990788    0.5072924915626559 O
   0.7093633253028062   -0.1273264895471709    0.4978420350433984 O
   0.7158089883839388    0.6546922441565511    0.4907211193200799 O
   0.8868764962748457    0.7153008303407830    0.6166746426950437 O
   0.3301057033663707    0.1619997613428199    0.7353231640090624 O
   0.6001991010175864    0.1501330840503796    0.7758766853206218 O
   0.7420794936431140    0.2185677751147697    0.7060290911578526 O
   0.2293197903264561    0.3423037558767784   -0.1494639718165334 O
   0.1658673860175253    0.4485210351524005   -0.0274040549591771 O
   0.3897168287222000    0.4863015429773792   -0.1462169253606055 O
   0.6685788199664374    0.6300103875427766    0.7017521749532495 O
   1.0166040970268642    0.4597917973602376    0.8627313380847446 O
   0.6955555861663842    0.4640239964618665    0.6778409187079052 O
   0.8320771019405744    0.6510091899744938    0.8305934116322339 O
   0.4193407599998313    0.6959509266432923    0.8319757871338115 O
   0.5803847664412128   -0.2182794355217335    0.8689796753518755 O
   0.8637132389378744   -0.0578323425203690    0.8145517119228152 O
   0.7509426556511593   -0.1455822641780253    0.7167947243695835 O
