Li1 Co1 H90 C51 N3 Cl6 O45
1.0
  14.0122592218000008    0.0000000000000000    0.0000000000000000
   0.0000000000000000   13.6749868594000006    0.0000000000000000
   0.0000000000000000    0.0000000000000000   14.1335723386000005
Li Co H C N Cl O
1 1 90 51 3 6 45
direct
   0.8478963971360062    0.7505584491764795    0.4738239568074659 Li
   0.3818023935481230    0.1256094025801035    0.7010348078977922 Co
   0.0601825941521278    0.0254564727029854    0.9966911288823791 H
   0.1935971970658080    0.1962741871196039    0.9893186120477342 H
   0.1224594894184075    0.1365637092672086    1.1320008689950782 H
   0.1366499205867553    0.3091920287143527    1.0212638265471792 H
   0.0476392920894200    0.2460950759442015    1.1429811078393062 H
   0.3151693128135475    1.1235474730375081    0.2478096892555993 H
   0.4256247344197986    0.2425126227759686    0.0166572302925164 H
   0.5758217131286785    0.1907392640678884    0.2527044178028233 H
   0.3674642345960371    0.3332337337178209    0.0618368907988744 H
   0.6365243440560797    1.0607832445358905    0.1408607902945226 H
  -0.1020289353394040    0.2150778614955866    1.0126177463437858 H
  -0.0053621538761647    0.1247114126861272    1.1262019104560428 H
   0.7640405405321017    1.1441559023469872    0.1889922876755580 H
  -0.0140738111519655    0.3208227528704546    1.0244923096869571 H
   1.1714437943285063    0.4788710217442448    0.2073443358192259 H
   0.2723803527672474    0.3860681537745654    0.3446061655621348 H
   0.6172376611791637    0.3643218805929144    0.1011510844569400 H
   0.5098954349049066    0.4121564420974730    0.2563581296007221 H
   0.4745284114895105    0.4673583232957063    0.1537605721495366 H
   0.9468568843815364    0.4806983726775163    0.2650685955077580 H
   0.7678058148654453    0.4855077374451901    0.2203403424621009 H
   0.8877750484765869    0.6524918101523861    0.0853680966421201 H
   0.7700966660045721    0.6532106408248445    0.1116119924608004 H
   0.0877456012223315    0.7364363149480834    0.0718470988772387 H
   0.2398238611423802    0.7143448860417119    0.1486061781821289 H
   0.1678076370612523    0.7937577594261949    0.2042375487346841 H
   0.2887324624715500    0.9769447727488468    0.1411798886719146 H
   0.3621424660775112    0.8122111592425565    0.0485635303556941 H
   0.4780397653134145    0.8349563364919368    0.2677650121734808 H
   0.4004253718894042    0.9710968695060712    0.2144869037122911 H
   0.6515240665614275    0.9798281393220949    0.0430921606165090 H
   0.6925267336478415    0.7613548032437972    0.1827794210416792 H
   0.8290136462667991    1.0089184780617297    0.2573041041696204 H
   0.9241631848883612    0.7465365074689310    0.2928195413127908 H
   0.7671478196161384    0.9102295349661593    0.3211832126052327 H
   0.8177956122929880    0.8348875978518442    0.1797462176184429 H
   0.0499686809112611    0.3249434149653703    0.3895962066335902 H
   0.1769032438426138    0.1897769231065913    0.4384359467546908 H
   0.1068652874741524    0.0890645777010596    0.4424563032957483 H
   0.1411945125038765    0.2935664195494620    0.6264563520942815 H
   0.2204094329838742    0.0018337808992308    0.4570962679871163 H
   0.5983670425434034    0.0942126630867218    0.5966903460258064 H
   0.6715872123789572   -0.0108382605280619    0.5852671901433361 H
  -0.0422791129340738    0.1394317193357551    0.5850952590885550 H
   0.7984240037819422    0.0600100708057284    0.6592272601777985 H
   0.0388191583733865    0.3708600952851311    0.6028841092091539 H
   0.1919743324270621    0.4627183188370267    0.6220017104444808 H
   0.3851359031029084    0.5609736234903105    0.5044791931214094 H
   0.3899802325522518    0.6220149984168402    0.3578561773435546 H
   0.6090091522588733    0.5901758453356281    0.4822242392806909 H
   0.5439929414123993    0.4793719363023668    0.4811022299528234 H
  -0.0125537136671244    0.5586759978821074    0.7052517177187599 H
   0.9835354807352497    0.5872983288594091    0.3348598681151834 H
   0.0929510430319236    0.7077957024175655    0.5814000857276512 H
   0.1840348561271290    0.7738162411780402    0.6471376061323497 H
   0.4476708581112155    0.6753247388572040    0.5037791577897206 H
   0.6213397834058616    0.6935551037243288    0.5991094088912240 H
   0.4966057221574944   -0.0162452127072645    0.5565822978678875 H
   0.6783113243518084    0.9760950461553612    0.4260724765849609 H
   0.7212879771861429   -0.1082036191707845    0.6990466339721346 H
   0.0396191721201034    0.8447376987246951    0.5052655477480913 H
   0.1269412791859203    0.2647173973122802    0.9013231661544566 H
   0.1570877383195629    0.0709095328331852    0.8671916678719931 H
   0.0494955238068246    0.0131990569026345    0.8208601400521225 H
   0.0467886084265418    0.1629023086167515    0.7288218379982728 H
  -0.0317440523372548    0.2750991257526561    0.9130809861888260 H
   0.5392769995393577    0.0572312747168767    0.8028576142996556 H
   0.4162764917184212    0.3167562041730587   -0.1357317021303069 H
   0.6075275924567466    0.1649293672373560    0.7949657666246432 H
  -0.0456047722201582    0.0670813755897275    0.9504034682452097 H
   0.6347987122634291    0.0724422582548255    0.8784598735445992 H
   0.8065311903677616    0.1050660556000739    0.7721074267612198 H
   0.7368093857297154    0.1744123745216269    0.6859034600066487 H
   0.6812994220837473    0.5226254330758148    0.6994025241801793 H
   0.5007793531954512    0.5025970408867770    0.7367073178564416 H
   0.6565482385301042    0.4308188366302014    0.6129940797514035 H
   0.4761228724287744    0.4333889305075379    0.6265929063888197 H
   0.6948960874739788    0.5468163886797395    0.5725737255540594 H
  -0.0257171869572157    0.6265415109931539    0.8103489970487171 H
   0.8352303454172456    0.5699973981577924   -0.0488124172836220 H
   0.2675681380534992    0.6868501612667810    0.7296892761594317 H
   0.0847917592083609    0.7863259424127736    0.8130079143485822 H
   0.5385714744813700   -0.1072910040342353    0.6242155881004888 H
   0.4141654830986278   -0.0725787220495762    0.7100848907031611 H
   0.4100333871187076    0.5491227894334865    0.6517075760205427 H
   0.5876599896959522    0.6723068200522851    0.7215780925709125 H
   0.4940882837172235    0.6987346333815228    0.6324385622513758 H
   0.6301320843510458   -0.0960785618157184    0.7849251345324698 H
   0.7529045775492562   -0.0644441621305270    0.8170776568469390 H
  -0.1891119660402342    0.6805905574455779    0.8000670954516863 H
   0.1341792269282952    0.2453703951747141    0.9743393842256356 C
   0.0531130703564301    0.1725769065787275    1.1097382737741472 C
   0.4495773315483069    0.2208606824089129    0.2015199060128154 C
   0.4402597762609427    0.3127262185820949    0.0452175963719095 C
   0.4880221669936791    0.3124285948957363    0.1433364559763290 C
   0.7771426389941666    1.0760234785589853    0.0732310377379456 C
   0.6977064836689574    1.0540315013021093    0.3156637304721171 C
   1.0555488501732135    0.5570496709080004    0.2029901641685153 C
   0.3522789602850280    0.4100884327976644    0.2297739093485040 C
   0.4549209380870376    0.4034635635432032    0.2023073926958250 C
   0.9617980867020217    0.5588961077828296    0.2598774097096975 C
   0.8208086881526121    0.5139029384053347    0.0755942053221791 C
   0.8755414751971755    0.6250760616873489    0.2265652371944623 C
   0.8357441811867693    0.6122380237568539    0.1243844179789395 C
   0.7995415965806565    0.5920471451228311    0.3007495958888656 C
   0.2275774419687306    0.7919917613855166    0.1514313662551363 C
   0.1822414265593329    0.8377643830659344    0.0651509856984403 C
   0.3230838109857954    0.8326060600104711    0.1826343763246829 C
   0.2688698553362927    0.9893316219459679    0.2879792929763411 C
   0.3230110175851129    0.9463070833449989    0.2033962893761051 C
   0.3569819848977523    0.7630432874988390    0.2648407691717929 C
   0.6230604195729752    0.8762697217118760    0.2078042337023851 C
   0.6887586046713339    1.0115027584243619    0.1042783900624228 C
   0.7552268297631871    0.9720562854188537    0.2700432755331311 C
   0.7137788383431860    0.9346090830730617    0.1777750245377019 C
   0.1318484107848722    0.1507333755339667    0.4873032099952604 C
   0.0583342127034243    0.2267963371071260    0.5276048397852292 C
   0.2085676594787245    0.1055443010322078    0.5525752429886813 C
   0.0962916891946190    0.3234713843004075    0.5727696420522851 C
   0.6192387660371422    0.0291720155786317    0.6342243811084434 C
  -0.0229874344316207    0.2347393063484701    0.4585693562836356 C
   0.1619884469713957    0.5922409295869222    0.7116733072380724 C
   0.1678426064400115    0.3823306730350597    0.5111575613172700 C
   0.4494069093514149    0.6040573943236999    0.4764203279952214 C
   0.5413758045596249    0.5580800192472615    0.5068609264294186 C
   0.0492635840497479    0.8402901624582748    0.6469062421203604 C
   0.1046700668810203    0.7470505847453685    0.6449937744616229 C
   0.5268336813534698   -0.0346108610681887    0.6273103470865481 C
   0.0327273498613659    0.0889190565374592    0.9531119130094152 C
   0.0808630565538771    0.0822046076722389    0.8563274648013623 C
  -0.0339728149875641    0.2546778995481102    0.9868139374225284 C
   0.6089420681445188    0.0901183264284373    0.8047594689303202 C
   0.7595951474649302    0.1026229088282703    0.7144595808748125 C
   0.4782101875103065    0.5039845376496684    0.6639040678819256 C
   0.4947539865030732    0.3782129359886586   -0.0279464965570852 C
   0.6529278373373347    0.5115979270496323    0.6267966765278195 C
  -0.0144962983402406    0.6319484631723565    0.7337045384470142 C
   0.0867036564674639    0.6775090188354671    0.7228580237565050 C
   0.5670493233195631    0.6624757319947792    0.6452675905859039 C
  -0.0989459207222615    0.6727221769413556    0.6804653444220919 C
   0.6979662561968834   -0.0667476378357594    0.7601182427148609 C
   0.0494883871989146    0.1858420015923515    1.0055827238018591 N
   0.6706173473639810    0.0428597801026125    0.7327698844413937 N
   0.5575377236631247    0.5561268181016502    0.6129813441177161 N
   0.4912270035078462    0.2326361964664866    0.6321258316908276 Cl
   0.7068591833135993    0.8549000485264774    0.4999327841555383 Cl
   0.0206750464228698    0.7493233474411978    0.3915440510525708 Cl
   0.3559114937112445    0.1488606132225063    0.8563564737447616 Cl
   0.8130297855306551    0.7166805372806045    0.9150387361006747 Cl
   0.3431790715389204   -0.1945093693798771    0.7191972366065574 Cl
   0.2698368657081048    1.0884893040660000    0.2929306243399539 O
   0.3669589627560054    0.1938749160755190    0.1851383434146836 O
   0.5093225793879667    0.1681981089524001    0.2520230614005427 O
   0.6939983021988942    1.1360176861172948    0.2760757206897705 O
   0.8106839825106209    1.1436228122552050    0.1356950757638372 O
   1.0679223009676619    0.6011484335759494    0.1294645207498369 O
   1.1087850905390391    0.4840723430128724    0.2348271257816167 O
   0.2798866369670403    0.4338390954739318    0.1791773593137351 O
   0.3433860331683119    0.3880016108427033    0.3203992635982474 O
   0.5530555056991373    0.4429301462572490   -0.0096361929905041 O
   0.5928440216818142    0.3128322515907485    0.1430024993596349 O
   0.8374062971690206    0.5053070252093232   -0.0183268479118038 O
   0.7969481532661435    0.4375087882141120    0.1164876175574931 O
   0.7479888820208123    0.5094484551486925    0.2859599875016697 O
   0.1062165698151286    0.7925818899233333    0.0245469553619142 O
   0.2134776457208404    0.9116693900974616    0.0238217317769324 O
   0.3934671791771034    0.8143398632990426    0.1090811390330149 O
   0.5512937626704618    0.9142061384217319    0.2386626741271647 O
   0.4426562491971383    0.7762915634835043    0.2998538563195124 O
   0.6257758988827500    0.7761650551352486    0.2063990687855325 O
   0.9007915076437312    0.7235653702217992    0.2281295975324085 O
   0.7794962922829017    0.8699282165322649    0.1310904366506060 O
   0.2398780993624966    0.1436649957984822    0.6278438286310127 O
   0.2470825050476943    0.0237094874776520    0.5211935095263871 O
   0.0051265187692390    0.1847407208266118    0.6073606844503053 O
   0.1670475883188317    0.3790612000578871    0.4222588618307636 O
   0.6501987984725308    1.0380146668983936    0.3929166693499999 O
  -0.0141851422353623    0.2995203558008912    0.3870632306001901 O
  -0.0926307363826562    0.1794822148595241    0.4589897029488431 O
   0.2531942960618630    0.6118533798771864    0.7245766267691108 O
   0.1399969896965698    0.5039815394749410    0.6991371984783568 O
   0.2241882668722468    0.4450300385858666    0.5549779617908667 O
   0.4514566145092609    0.5904559187308991    0.3773098578011901 O
   0.7984354223545984    0.6367389613771113    0.3772886317450443 O
   0.2244252022548605    0.9464189664506817    0.3517558088072487 O
   0.3102900139854448    0.6915236575309525    0.2941065478504318 O
  -0.0926856882635636    0.6860121348673535    0.5927741386669044 O
   0.0382382384895083    0.8891984361463232    0.5641299296657353 O
   0.0570453413148689    0.1652825668454916    0.7985366968035733 O
   0.4596773445269292   -0.0092389902527148    0.6988647974244855 O
   0.8089112491057640    1.0720125057833663   -0.0075418887841175 O
   0.4648787898360916    0.3696162184043056   -0.1191704255901405 O
   0.1107668710185779    0.7172055834889719    0.8142765249708970 O
   0.0338363787305881    0.8779647873260756    0.7237523482554484 O
  -0.1830051706516025    0.6871214595165084    0.7217507311608985 O
