Li1 Co1 H90 C51 N3 Cl6 O45
1.0
  13.6414192378999992    0.0000000000000000    0.0000000000000000
   0.0000000000000000   12.8537821789999995    0.0000000000000000
   0.0000000000000000    0.0000000000000000   14.6661342347999994
Li Co H C N Cl O
1 1 90 51 3 6 45
direct
  -0.0250873369575205    0.3046562120756784    0.4842618377614252 Li
   0.1996414794901683    0.3814123750680684    0.4477541260885338 Co
   1.0856570610962237    0.0945421800818584    0.1649099264113603 H
   1.0248114859016755    0.2751995125045133    0.1943000842470375 H
   0.2873808839558471    1.0935228552778795    1.0121802296187996 H
   0.3383711796039325    0.0914185858400332    0.2788581538886871 H
   0.3769092518405372    0.1025351582239536    0.1644476369019740 H
   0.4183749520096552    0.1871561658661277    0.2540404347697428 H
   0.5596120891725622    0.1514717273395924    0.1807252732700864 H
   0.5207385679683540    0.0545103829940979    0.1063928021126065 H
   0.8954767026777855    0.2652841429871877    0.1794297716951100 H
   0.7883727441731777    0.1417033962560663    0.1300677524738348 H
   0.7265214085250631    0.2456922441598192    0.3071246345688057 H
   0.8995554571702371    0.1060228476351871    0.0174736650638255 H
   0.9568764724079722    0.3679473110433514   -0.0151532011804903 H
   0.6335186220939274    0.3627935750396226    0.0066153163367199 H
   0.3695101683405174    0.3751034148825995    0.0643483212611459 H
   0.3868793288265251    0.5153661776160087    0.0899051581207610 H
   0.6451427791727923    0.4496011764491875    0.2041929433793185 H
   0.9453908639630169    0.5421232826618604    0.1325278417804217 H
   0.7813786038761826    0.6009666635023815    0.0845963290350942 H
   0.9681538913712855    0.6073873417782927    0.2392151238514723 H
   0.8232848007337468    0.3420108982928176    0.3136669175224369 H
   0.4166653058509034   -0.0731672123739977    0.1584617377826484 H
   0.6183867654740163    0.0250762448757379    0.1845013194396758 H
   0.4669388139104339   -0.2333620850834554    0.2138805677884058 H
   0.5715983786596355   -0.1405909471106808    0.2111654692244287 H
   0.3908133036618489    0.8684575819043837    1.0117336224968998 H
   1.0373109184773031    0.6340495331261363    0.1365159411025467 H
   0.7837405282066425    0.6031893555942606    0.2077753461555956 H
   0.9789584856315737    0.8364304326756867    0.1680348125787905 H
   0.9423046748161404    0.7913370903482463    0.3185468674024932 H
   0.7424794255175466    0.7247808045728671    0.1365098045161389 H
   0.8476121815005508    0.9626415336114434    0.2629684861501334 H
   0.8514739497726994    0.8597021822536987    0.1356840927228249 H
   0.8220591218136571    0.7476713433965840    0.2867763958835302 H
   0.5352370594046781    0.1228941464466993    0.3588144655674333 H
   0.4564157152872954    0.0209552788236960    0.3881384846384933 H
   0.8161051958633171    1.1311981475191919    0.6591874152126795 H
   0.7110200888813929    0.1768813690661811    0.5285194444087062 H
   0.4624452931901194    0.3763618771604516    0.4114786501190302 H
   0.6832817726988129    0.6323706498449760    0.5076975021633259 H
   0.7894224883200487    0.5146978918242956    0.3816684770358871 H
   0.7248984102421213    0.4925735866167116    0.6463544493481360 H
   0.7115420287086081    0.4717758948340742    0.4686522711002400 H
   0.1586853304079847    0.6440590383603390    0.6084705740811526 H
   0.1704429046898738    0.9096127837456176    0.7006366471825851 H
   0.2932578384429040    0.8592626229145625    0.7305818251666996 H
   0.1431906083183102    0.7778764608159773    0.4802358961564522 H
   0.2982998358187274    0.6851652273903062    0.5217808588743192 H
   0.2802775174871455    0.9493193847205306    0.6357552009360259 H
   0.2001993393335823    0.9060076191835709    0.4893411585154409 H
   0.0966807848948589    0.8748907078783945    0.5650332926680054 H
   0.3413334813480009    0.8165405670750632    0.5160036650587224 H
   0.3611994494906030   -0.0785485078586067    0.2653706188073134 H
   0.5505360540591470   -0.2574701643775226    0.3392155722668417 H
   0.5824836096909822   -0.0111660061218780    0.3495127642591022 H
   0.6015050909221350    1.0237060505815812    0.5390436900980546 H
   0.4540327520902048    0.7868636988437643    0.7273410257004558 H
   0.4486231536669720    0.6670483807877200    0.5744721807746972 H
   0.5973603608897264    0.9218488709773554    0.6209803463948860 H
   0.7583472759387556    0.9209005119784052    0.7174161199502676 H
   0.7461755218782476    0.7920224917248461    0.6246118418624255 H
   0.7765015453502516    0.9480396057596832    0.3930170708326811 H
   0.2878903617366260    0.2136580931009411   -0.2145213477682931 H
   1.1684541645575697    0.2439954673126409   -0.0675801043909862 H
   0.4450552917641007    1.0667968694772763    0.7574437094023700 H
   0.6720542019212449    1.2298982796929503    0.7282908329077938 H
   0.9158374873700649    0.2116734632352136   -0.0662614201562469 H
   0.7781230775100831    0.9839792220972567    0.9115661225626519 H
   0.1823771468065365    0.5658734906355690   -0.1431248922854704 H
   0.4037404776548643    0.4432890265410807   -0.1942092467585302 H
   0.4687552671377606    0.3549565043162228   -0.1159023131376092 H
   0.4146620685393429    0.6293808683577197   -0.1163959674219687 H
   0.6658459036112929    0.5779539816410639    0.7947432452747457 H
   0.9152099866789185    0.6368292597079648    0.0082421935777167 H
   0.9105902327588197    0.5079364578129125    0.6895485173866548 H
   0.9503947421379764    0.4443336218059620    0.7787390279232467 H
   0.7914112843189741    0.4206134594635408    0.8989063448033948 H
   0.1737262873950662    1.0098494286535242    0.9352103899918413 H
   0.0876370044898670    0.7521579605802966    0.6726074478435675 H
   0.0808158667198702    0.8505632379053247    0.9251641161993657 H
   0.2109782764394429    0.9025891700930154    0.8657394589551940 H
   0.1944887898195281    0.6971640303770236    0.7237531681807051 H
   0.4766078958219070    0.9626384216869186    0.9634291416665659 H
   0.6039293254847765    0.8561903754273975    0.9298865603616221 H
   0.3728334295943059    0.6531629735578079    0.6686070753486270 H
   0.9669831920678267    0.7556417600858739    0.8002668548846850 H
   0.6665085912570831    0.9576904616923960    0.7920254193390319 H
   0.9836881987849342    0.7479693101698391    0.0248580240411915 H
   0.7500424215812819    0.6642126395644440    0.8380136797218946 H
   0.8530940158094209    0.7620888897202466    0.0109327457960626 H
   1.0774145169709315    0.1972317994964835    0.0278485871505846 C
   0.3973717854766614    0.1088251356698208    0.2367904903774637 C
   0.5486103013539582    0.0649182145674821    0.1743220862750316 C
   0.9801306510581428    0.2403451798449836    0.0601256679696567 C
   0.9714416724458084    0.2283315952167732    0.1597722399021772 C
   0.9530198355667091    0.1160938133787556    0.1906644977218929 C
   0.7914171488114148    0.2261867012380155    0.0221497439065564 C
   0.8945501128721675    0.1929373436521808    0.0049863935669206 C
   0.5187655327928626    0.4366315308088278    0.0560271100921916 C
   0.4081312231451569    0.4516529460865388    0.0438425768580706 C
   0.9661892864036776    0.6137784567712178    0.1666949912130911 C
   0.7874806082606484    0.6538141437646344    0.1472201933265235 C
   0.7534115724884184    0.3146968365551296    0.3464383344688027 C
   0.6850183955227915    0.4007760142315386    0.3330278476389935 C
   0.1942754689070005    0.8725388709187337    1.0036469652973097 C
   0.4308524660447860   -0.0763748285779941    0.2302741174553320 C
   0.4993929150768279   -0.1635600620286503    0.2470154070186992 C
   0.9046978839791062    0.8101681236292871    0.1741857176881920 C
   0.8745067438332366    0.8060953924073807    0.2782492681484481 C
   0.5200568207221318    0.0408303627828265    0.3417697558983480 C
   0.6865350998802471    1.0470999431971937    0.6533972050154688 C
   0.7715636427152490    0.2722245126587500    0.4448378156746748 C
   0.5770758145991751    0.3670613461311246    0.3390921586957518 C
   0.6506260796047726    0.5896820471941188    0.3819009854764486 C
   0.7348621828987356    0.6595813178903256    0.6885148434984104 C
   0.7101499448155159    0.4937555733493654    0.3968824384266504 C
   0.2445312368768982    0.8850355818294283    0.6743250101948126 C
   0.1636027073194450    0.8417666052546854    0.5282864586780907 C
   0.3195249000844433    0.7514601115055974    0.5654451939845545 C
   0.4035401319318616    0.7132067792837927    0.6233872519526056 C
   0.6470780616781971    0.9729645652415254    0.5826996385401991 C
   0.7223612841999979    0.9293556109124418    0.5201917557318770 C
   0.3224402858889868    0.3236490654320120   -0.1266079290474544 C
   0.5937683592698464    1.1092676374113934    0.6818211914133872 C
   0.3441513699657191    1.0454202819349021    0.8433422822526532 C
   0.7258946408954717    0.9937950100297869    0.7442711857565959 C
   0.8112281373373861    1.0480973150074104    0.7894814633515386 C
   0.2750126693985784    0.5157932892570453   -0.0553587516384185 C
   0.3812241254598793    0.4848373422479171   -0.0499578737566349 C
   0.4006573673665190    0.4020166607414859   -0.1259615419458346 C
   0.9730895948216228    0.5997211157113075    0.7890048551405341 C
   0.7593559686385424    0.4103799579020391    0.7519657832690221 C
   0.8066083834172872    0.5049108891936204    0.7933938781079676 C
   0.9128077439629293    0.5127552729396536    0.7602038096000041 C
   0.7383816114246630    0.6032959390092369    0.7808895605377076 C
   0.2275132128757725    0.9457671228754063    0.9278785329204084 C
   0.1610993021088551    0.7127275429069648    0.6563291296325208 C
   0.3294446890477530    0.9844755740589713    0.9317964024203111 C
   0.4137429559615866    0.9108388820084113    0.9503063925549883 C
   0.4520743708151995    0.8317664357940573    0.8861401995464028 C
   0.9135906537037521    0.7129694950387724    0.0407981481568759 C
   0.4777030164790373    0.0345466091860090    0.2493575374976698 N
   0.8927878328937610    0.6982415342437553    0.1390026222835673 N
   0.2231280386532984    0.7938507473831995    0.6108167956177284 N
   0.0594251305427068    0.3494413960770449    0.3601699693206193 Cl
   0.1207501279942757    0.3278486075783065    0.5829185101220768 Cl
   0.3070958414181032    0.2572841630149115    0.4047897709345464 Cl
   0.2129802675463597    0.5576346704560101    0.4267703416042922 Cl
   1.0142612640009991    0.8796184992127835    0.8125141176687521 Cl
   0.7128395476610955   -0.1253300692407820    0.9835707819427792 Cl
   1.1352325479430092    0.1446706162905174    0.0755550917276267 O
   1.0336507421328009    0.0572706600476460    0.2019524074975433 O
   0.3496434671363602    1.0564380507151585    1.0064766134742320 O
   0.8688878270135670    0.0756185670462029    0.1989297977702429 O
   0.7433781589840718    0.1945524324805816    0.0967379061643607 O
   0.2212858549653885    0.5276520556401441    0.0122412023867889 O
   0.5422913107491896    0.3054707583200598    0.2839010642300167 O
   0.5624299777902804    0.3595304109828575    0.0017285480273218 O
   0.5687020524555241    0.4878003611842597    0.1102615789212468 O
   0.6105811260355503    0.6121081312825007    0.3095533591004195 O
   0.9836684061229471    0.3518361775951486    0.0449089792071566 O
   0.7048301171103180    0.4389567608138010    0.2408372281919298 O
   0.2316227559535373    0.8612775940444074    1.0781342148008528 O
   0.8229747156959489    0.9013615158679593    0.3019208092950054 O
   0.7544283288653111    1.1145112302357774    0.6160185753627262 O
   0.6967275877420456    0.2119644281782877    0.4665669908545818 O
   0.8455669397618845    0.2920855929575186    0.4868128167311407 O
   0.5256031644478487    0.4118306437577917    0.4147058127265901 O
   0.7086449694429415    0.4186406463532153    0.6753757301564121 O
   0.7419435575207850    0.6068979916467589    0.6163642697303646 O
   0.5188296023727765   -0.1880485740958813    0.3394208069900354 O
   0.6471696943725819    0.6572839396098499    0.4567159286941672 O
   0.4630347479865572    0.7932727074027074    0.6626109485852885 O
   0.7269385205499023    0.7581569730830898    0.6910594813288380 O
   0.7272192831254969    0.9729661212037878    0.4402776501307576 O
   0.7679283904636194    0.8488011106431246    0.5401843451426748 O
   0.2790540377517211    0.2939457458422519   -0.0569331269734820 O
   1.0983382929375105    0.2223465863743419   -0.0598241410144822 O
   0.2796023677949190    1.0895201423577821    0.7993245479496232 O
   0.3083501097388409    0.2872893392835827   -0.2125576401178024 O
   0.6067933969804645    1.1958647171268517    0.7319816487106084 O
   0.5114374096513743    1.0786945349169359    0.6656540136006148 O
   0.8673740549023319    1.1113316213525049    0.7461326169669569 O
   0.8217592996376303    1.0398919480164937    0.8807440945651586 O
   0.2492895394309066    0.5367334293848081   -0.1416902947519175 O
   1.0570603298326477    0.5835523338612817    0.8161803871259357 O
   0.4364823787877817    0.5810044456565551   -0.0645472670196728 O
   0.7547266849182275    0.2937255771821182   -0.0273868271058735 O
   0.7703299001180536    0.3232009483004326    0.7896935165040742 O
   0.8018969968028037    0.4954752228418014    0.8895528234320645 O
   0.9248101608042143    0.6932328917209980    0.7842490006745019 O
   0.1071708957480189    0.8290263862499206    0.9850224255496872 O
   0.4403742025836885    1.0360432753603770    0.8200512094633785 O
   0.4009870984539929    0.7716409420492951    0.8382448244765879 O
   0.5472130860299802    0.8171123832065057    0.8880895884952753 O
