Li1 Co1 H90 C51 N3 Cl6 O45
1.0
  14.5207232280999996    0.0000000000000000    0.0000000000000000
   0.0000000000000000   14.1712122358000006    0.0000000000000000
   0.0000000000000000    0.0000000000000000   14.6464384439999993
Li Co H C N Cl O
1 1 90 51 3 6 45
direct
   0.7290915160832023    0.2735700766732003    0.2622111332173909 Li
   0.4938989608397356    0.9280024460206383    0.6154492272278450 Co
   0.1890777800713751    0.3647365893541860    0.3030859166870370 H
   0.5086794918524516    0.1038922848237821    0.1248200529425582 H
   0.4191524084159815    0.1794207563610357    0.0932942999913925 H
   0.6422707716756278    0.1482025378601239    0.2043062710051424 H
   1.0108226623723455    0.2167464269669519    0.0986273371183807 H
   0.8147594253504715    0.2596460737920974    0.0199030790396295 H
   1.0827942841423686    0.5201007151159865    0.1318866173087506 H
   1.0315723175559752    0.3735671677068173    0.1399069971744183 H
   0.2184757648200905    0.6444437826447135    0.1477321077252328 H
   0.9673144988962026    0.4095258416382315    0.2379444829079022 H
   0.4742843042192700    0.6404737623624773    0.9007943652953232 H
   0.3414241863246853    0.4693979179209210    0.1331080746663465 H
   0.5887458894923526    0.3359655856308772    0.0745470802457974 H
   0.5674008782879378    0.4019935290721729    0.1815300854310544 H
   0.8386934949240485    0.3803746304979180    0.0053125012130082 H
   0.7995914480713661    0.4404440152361915    0.1575420011371606 H
   0.7427030970558025    0.6297322677417522    0.1134780464448590 H
   0.1732838009150071    0.9643945338264481    0.3046521677649158 H
   0.0230743405639473    0.9320677298539058    0.1464198433086318 H
   0.0910792177651781    0.8750577869811963    0.2963361528875996 H
   0.3215877087969961    0.8861083589008228    0.2052983210557779 H
   0.1314759659701746    0.7023724895429245    0.3910718120244742 H
   0.5444809455289449    0.8636416852879831    0.1570053519012352 H
   0.7833959737615943    0.8141568572908099    0.0077403952116729 H
   0.6864558986780074    0.8250430113779158    0.2852754434448637 H
   0.7126859971391455    0.9031231347709401    0.0446544888370406 H
   0.7748598975584383    0.9062576584278355    0.2481176045558506 H
   0.8649022445862923    0.7793038050761052    0.1756720059854573 H
   0.2972597194502683    0.2183045152682632    0.2999097179013823 H
   0.0983791296452470    0.2630473353918802    0.5216988588191687 H
   0.0239131417592232    0.2896166926024664    0.3677726324113038 H
   0.2393521354552234    0.0538704526611660    0.6614904544229961 H
   0.5877473166408338    0.2446367720851716    0.6695217584461383 H
   0.6255739449273003    0.0685198698419736    0.6127489120521648 H
   0.5770721596555379    0.2589573536009380    0.3475110513358329 H
   0.6868215829429428    0.2828318108012398    0.5811726348726803 H
   0.8583130411081319    0.1303176882239211    0.6648291500510812 H
   0.7032188378358146    0.1191810262803996    0.5345061362140936 H
   0.8178873687239879    0.2349184785681156    0.6048568910368201 H
   0.7391034140938100    0.0309973212305928    0.6173855341401659 H
   0.2610163456366582    0.3456126078986431    0.3976379134263748 H
   0.0548916262970666    0.3703649010802997    0.5710280525861335 H
   0.2303870172613803    0.4801011730466063    0.5200307399728420 H
  -0.0100156090516595    0.4634318157559690    0.3828124662140559 H
   0.1486342022429970   -0.0272425799343203    0.6950146454321180 H
   0.3006307636628096    0.8773956250890969    0.4203765472091449 H
   0.2897091313509215    0.7546841752099588    0.4152135172828505 H
   0.0452020262826732    0.8582970472471624    0.5509676808361426 H
  -0.1065920658831072    0.7158229972926053    0.6512012636018831 H
   0.1668571237768182    0.0069655027571061    0.9368672987951692 H
   0.2764136503361469    0.1269954600886974    0.8987809065208400 H
   0.2971460887464747    0.1622613210245377    0.7848822268945044 H
   0.0651679739455938    0.0736090604348438    0.7636722923982953 H
   0.1288893179492747    0.1758063866693162    0.7556334780168895 H
   0.0995622663065639    0.1447963366688060    0.8652751500274560 H
   0.3464356446974458    0.0538055323152780    0.8397105732580513 H
   0.6115760195618022    0.1204540295845507    0.7628884840995137 H
   0.6868449977546336    0.3098231502600978    0.7091566500424504 H
   0.4554215385224515    0.2854688470249718   -0.0286445595360330 H
   0.6658226288818992    0.0632719066640513    0.9284427251029520 H
   0.6929872537978727    0.2067451654205363    0.8101586790105244 H
   0.8084443129032799    0.0436356190007404    0.7816479935222674 H
   0.8065986748053002    1.0056747002840623   -0.0298858169290511 H
   0.7001638935810990   -0.0143453064365544    0.7715684099726927 H
   0.8330870248659692    0.2354879429065025    0.7249406920731398 H
   0.3690323153209196    0.6535488611555016    0.6800533290112123 H
   0.3674642116085689    0.6808563344725966    0.8470208828878891 H
   0.0483671578865220    0.6047344062952150    0.6533587847030589 H
   0.3023028566859046    0.3406278543839406    0.7278949939100977 H
   0.4570693903287372    0.5845985142309401    0.6179617834469356 H
   0.5811888967533375    0.5140512679287214    0.7239261109477135 H
   0.4840322346616107    0.3902269986423514    0.7201818559733948 H
   0.3367481106958487    0.5240643139292274    0.8013995529956566 H
   0.4396816889013451    0.4821305689459456    0.8589616697671488 H
   0.3879191156332678    0.4405750555430545    0.6615546338481577 H
   0.5894944747955256    0.5388929677171606    0.8496542875990393 H
   0.8888914078344357    0.3571197392072862   -0.1248891179240462 H
  -0.0520610354680602    0.5342048719569287    0.8129825737176328 H
  -0.1878655659327614    0.4592217313251340    0.7273139652844330 H
  -0.1556929259986878    0.6093098793684499    0.8018481262119453 H
   0.1980477189617428   -0.2317134432440902    0.8319277938174496 H
   0.1073931434752680   -0.0533193893032782    0.8562033200048863 H
   0.2134284955588617   -0.1506850893606317    0.9477778010726332 H
   0.3095194393831917   -0.0913972891343746    0.8953186313613267 H
   0.2645719536589974   -0.0525015340762765    0.7229879989246074 H
   0.4820524434660615    0.7003486683254603    0.6748827887266543 H
   0.6108322549551537    0.6320235325580374    0.7642362520279063 H
   0.4861671145510648    0.7331595522684281    0.8213566231815312 H
   0.0008144300262617    0.7027464871877139    0.8962465019868007 H
  -0.1348199987182152    0.7893805718074121    0.7489315074064022 H
   0.5294827945016908    0.1746237073246614    0.0069074282042570 C
   0.4933417571885880    0.1758204997879875    0.1058270396537912 C
   0.5368353208409707    0.2477698844301998    0.1727190696681837 C
   0.4759929656688586    0.2541123199610813    0.2549083339458167 C
   0.9012165515059068    0.2320753908117826    0.1830198674066131 C
   0.5385064497247609    0.3498754753933088    0.1287479703144137 C
   0.4450801803379357    0.3858526375101825    0.0981357500320370 C
   0.8867792540857403    0.3378271059836215    0.1418433040867393 C
   0.8708317013115180    0.3191688574442315    0.0326515708121458 C
   0.9525982897485429    0.5050882379573598    0.1201554377010291 C
   0.9669832481778712    0.4053106764846748    0.1626449481973462 C
   0.2195466481194779    0.7278833628531634    0.2481947564180129 C
   0.1651092769511941    0.9237536916446439    0.1720076339126695 C
   0.1619131551554017    0.8922383919957013    0.2736931054827297 C
   0.2428547158157923    0.8266603747776465    0.2925427392046465 C
   0.6430090269148196    0.9523567492557643    0.2040761809383398 C
   0.6583753414223649    0.7342667264281916    0.1117329122883384 C
   0.7117528480261744    0.8703221300110422    0.2264352002488776 C
   0.7385015156991704    0.8028910603114460    0.1472350585601519 C
   0.7712436864940758    0.8627490305320236    0.0653339189359037 C
   0.8535942678815062    0.9249871782165155    0.0747430323204928 C
   0.1767808719081194    0.2307487576566805    0.3589411338531687 C
   0.1879263222729341    0.3372675208283045    0.3744343201911046 C
   0.6623661894737799    0.2562786836771256    0.6547017733125565 C
   0.6957247207528986    0.0942269155017435    0.6059499895440928 C
   0.8140679997346613    0.1927562421935455    0.6686539706867729 C
   0.1104997380498898    0.3402482114916827    0.5303352246144190 C
   0.1940816630638827    0.3572524025227964    0.5887744829551137 C
   0.1082484727729138    0.3787233956133761    0.4365060657199591 C
   0.1050702564213555    0.4891083770794089    0.4307258208963665 C
   0.2562066678469976    0.8227884406701759    0.3969305742299135 C
   0.1666098909122007    0.8242046921288407    0.4516442852159643 C
  -0.0760928963139928    0.7551463798464438    0.7083892279798804 C
  -0.0175124808183038    0.8322661055138862    0.6666889878610820 C
   0.2877746547027032    0.1011677472642880    0.8314846826798981 C
   0.1754916799232620   -0.0252963808695483    0.8722550038936961 C
   0.1175710111805075    0.1142858910692598    0.7966031651045937 C
   0.6843561410060893    0.1413986033486909    0.7690415157969172 C
   0.7312911310402722    0.0483388157979506    0.8014104771531309 C
   0.9564541582972699    0.2964636721258468   -0.0240372961212440 C
   0.4424129578179822    0.6328844327969867    0.6784734227364906 C
   0.5697934588401771    0.5691982791368194    0.7780075180439545 C
   0.4097906157652592    0.5074685565524610    0.7965287442818000 C
   0.4136692104547448    0.4217347477728049    0.7307557576486818 C
   0.4444996307421906    0.6668808187083435    0.8412269828674536 C
  -0.0895694977839049    0.5896340749728594    0.7696416616981618 C
  -0.0997184413099970    0.5452102113312137    0.6766333849619121 C
   0.2397708473819292   -0.1116961877193030    0.8866864986770978 C
   0.2172829867657245    0.0018085691946137    0.7096475543689521 C
   0.0714052665774603    0.6628621081666913    0.7747562156756639 C
  -0.0366279198801032    0.6808965568608099    0.7733422200425834 C
   0.7171430754115801    0.1691562851514004    0.6749169267187616 N
   0.1987191731205228    0.0514994487243879    0.7985961410838126 N
   0.4646663948489064    0.5951572439648719    0.7698321516941200 N
   0.2221443148752911   -0.4992487773365565    1.1052488483049265 Cl
   0.4293151253607152    1.0241268972908510    0.5329194706169347 Cl
   0.6854435524078467    1.2400096283582327    0.4118236146666047 Cl
  -0.4348711691426030    0.8157939790566804    0.5574089054629150 Cl
   0.7825062109173444    0.4095365676084217    0.8276107033355720 Cl
   0.4921759750347596    0.9445056213389209    0.7602619069867850 Cl
   0.5724603370246646    0.1028923703659206   -0.0106429135380593 O
   0.3908287503213140    0.2539366116336236    0.2443426253886354 O
   0.6300682114300674    0.2210608073447678    0.1913713857957207 O
   0.9771494084772652    0.1923391995368086    0.1605372685646471 O
   0.6707907009859386    1.0338748283571169    0.2160606644474967 O
   0.8395963425160079    0.1969922947627356    0.2290836256765550 O
   1.0266469430497251    0.5595893622894660    0.1203985002048325 O
   0.4088946548826205    0.3586686539814612    0.0268795191066588 O
   0.4108167354540613    0.4496938943445472    0.1523250331833368 O
   0.8068824072293180    0.3718164353356427    0.1807005322228493 O
   0.8753197697758963    0.5363239567254241    0.1005288232787523 O
   0.6823190523889908    0.6475677214626053    0.0842927942325635 O
   0.0881275741502748    0.9414190822855081    0.1222876966880454 O
   0.2377502868672008    0.9468039427145419    0.1318306310016947 O
   0.1728616456336409    0.6654278731411333    0.2915527374335374 O
   0.2421791296314199    0.7103640429905472    0.1626381205989248 O
   0.3300204843603399    0.8576323193577442    0.2646806755664265 O
   0.5626091059425115    0.9320839599403778    0.1668855695769038 O
   0.5761214494337987    0.7609271132542077    0.1112966287492083 O
   0.8621551362382173    0.9923138108379440    0.0138251509248619 O
   0.9170298134483731    0.9051787105054147    0.1307354842148954 O
   0.8096205628552759    0.7414862922844941    0.1690130492450251 O
   0.2480686434425849    0.1774611498335259    0.3272207943469919 O
   0.1012605288250780    0.1909173028306753    0.3611327929464516 O
   0.0177963665404711    0.3554028783209228    0.3938998032906354 O
   0.5077002706541244    0.2748113254603409    0.3363199347632475 O
   0.0257670439083878    0.5231921231953411    0.3991092608861955 O
   0.1720207784255688    0.5409966691863042    0.4455294880697210 O
   0.2454861274472776    0.4397449924684022    0.5797585026876313 O
  -0.0444856552151585    0.5670340323885759    0.6174606377228017 O
   0.1418012092548797    0.8902385630799783    0.4969220503556298 O
   0.1130278490415627    0.7495088945931937    0.4413208881267600 O
  -0.0060467984700710    0.8187838432471950    0.5775694380817487 O
   0.0220957391694588    0.8902145707782372    0.7131187054064132 O
   0.2163760071481725    0.3040579412828724    0.6509261113854992 O
   1.0233606053618298    0.2576278978221017    0.0075123534243968 O
   0.5009501936462296    0.2341013289970474   -0.0580913087678696 O
   0.7268505808702075    0.0390961343801173    0.9012545454289284 O
   0.9525576581635501    0.3216936943745268   -0.1089084410588194 O
   0.1030276584368004    0.6238047578998068    0.6961316405338658 O
   0.3524663360496877    0.3552194077781959    0.7714653132365290 O
  -0.1685345728692204    0.4896156025644554    0.6606349563407895 O
   0.2334626216440584   -0.1749794118414046    0.8135280988315060 O
   0.1175944259921983    0.6733446270597981    0.8447452443340225 O
  -0.0550973856076096    0.7137067351478441    0.8660084340979189 O
