Li1 Co1 H110 Cl3 O55
1.0
  12.4266242503999997    0.0000000000000000    0.0000000000000000
   0.0000000000000000   12.4290562998999992    0.0000000000000000
   0.0000000000000000    0.0000000000000000   12.4082038038999993
Li Co H Cl O
1 1 110 3 55
direct
   0.7892314861684425    0.2088061303593002    0.6835356298172837 Li
   0.4536431625844439    0.5922391026629451    0.3965005314027522 Co
   0.2370823375548003    0.1371643275936980    0.1040625559030676 H
   0.2707109394646511    0.3289809822514762    0.2400338879881928 H
   0.3501074014577980    0.0834095626397912    0.0604739746267023 H
   0.3516057971302511    1.1127886797094386    0.2360599042610315 H
   0.3406044183772402    0.2663656089502657    0.3290822319276042 H
   0.4691429472499213    1.1219607356764645    0.2906197753510934 H
   0.6092220198060879    0.0950419019350250    0.1667670385418402 H
   0.9020296179663747    0.2689297617894685    0.0644840634990628 H
   0.7367345258633137    0.2698839774365644    0.3164655790684051 H
  -0.0919845045417871    1.0348342496528464    0.1626729729701551 H
  -0.0654197679449294    1.0341664596131419    0.2897969326446582 H
   0.1159013981736544    0.5792308745160261    0.2617969089916941 H
   0.1913740270309896    0.4660356353882317    0.1289992836430445 H
   0.1296967778798109    0.5708834990197195    0.0890138830289720 H
   0.2789714290337870    0.6357999319758154    0.0833670544381991 H
   0.5130221206290028    0.4479345024806745    0.2486684979360343 H
   0.4127696325118136    0.4060576304606976    0.3134272666264262 H
   0.5614230369100789    0.6103788547535213    0.1839629198613376 H
   0.9830009243907734    0.3454134446260849    0.0977570501879368 H
  -0.1660858840834079    0.3473460129096635    1.1936199337203732 H
  -0.2597388325068334    0.4169924912192810    1.2524278008002683 H
  -0.2041131061573987    0.5835948421971795    0.0609506753719094 H
  -0.0856778843027887    0.6185717535177516    0.0041314925842762 H
   1.1965504730475278    0.9781766898986385    0.1743789380151801 H
   0.1521904168896974   -0.1472860694994783    1.0603210271147183 H
   1.0719389962057657    0.9694390997405767    0.2203138701784360 H
   0.1628159896389298    0.8585457248339808    1.3284097894023312 H
   0.6213918574830525   -0.0067299437689950    0.2359873716032654 H
   0.4553057219073698    0.6761923791484973    0.1562304611236883 H
   0.5731148686636078   -0.1925646478903838    1.2365109120127129 H
   0.6973223741694027   -0.1634506112918923    1.2534190804564049 H
   0.8393255412759640    0.7549658577116186    0.1409550833981527 H
   0.8873916924658798    0.8576526562266651    0.2172473505917702 H
   0.8143026554355081    0.7172638802892644    0.3272955107912999 H
   1.2915722566153374    0.0321983536274769    0.6014891051075575 H
   0.6603437071766182    0.1628726349896965    0.3470582422772966 H
   0.3661825636237072    0.1214889621195254    0.4363161250058101 H
   0.4195470161602562    0.1723568626861265    0.5423379167809028 H
   0.6317583091761463    0.3094839267910428    0.5728524059030911 H
   0.7282978017870526    0.2681445050680810    0.5084055276410934 H
   0.9382502351613875    0.1723995047007101    0.5192685020191926 H
   0.8337085693137071    0.1401042129010237    0.3923049201101945 H
   0.8786604394872997    0.0294034511697353    0.4501722803943894 H
   0.9997069899977155    0.1844800678888588    0.6368769829132063 H
   0.0127658583701759    0.5652611896251951    0.3418383086733981 H
   1.2038010342767449    0.3984560879364466    0.4040947006708603 H
   1.1386184083537050    0.5052477837798937    0.4198673300613033 H
   1.0581138417198666    0.4155225485656182    0.5601873979387145 H
   0.2961997603718902    0.4677316611758185    0.5000175287296564 H
   0.3437613497537351    0.5668880227098729    0.5749139452204868 H
   0.4287892687371218    0.3736939505244151    0.5993953290533767 H
   0.5974601770839749    0.6382023669861260    0.5451014110417904 H
  -0.1375431364431079    0.4600198930667007    0.3555526224201238 H
   0.9595915097228569    0.3437391421289462    0.5969832152234449 H
  -0.0598216265190501    0.4718872461819317    0.4622924875071007 H
   0.8264741025600264    0.6294406398386774    0.4183981407823305 H
   0.2517862504049952    0.7172912355439028    0.6396171055399247 H
   0.1440940909710344    0.7386814355385829    1.3618312262640997 H
   0.1925915741053298    0.8677660547797805    0.6243675172038170 H
   0.1422005759241590    0.7992202231862062    0.5365256331385814 H
   0.3009516542740576    0.7601545058634914    0.4031211512199556 H
   0.6629582547275313    0.6738752281673540    0.4476360551278357 H
   0.4799439497825021    0.9874694308125990    0.4649375117603036 H
   0.6048169618517333   -0.1090498600453604    0.5739218596459309 H
   0.5670947300891602    0.9055484888334245    0.4094508344876752 H
   0.4197039372967376    0.7844910276960005    0.4629444755085758 H
   0.7245751495954479   -0.1417876633171401    0.5697633206006758 H
   0.8868927637242467   -0.1048508284583509    0.5674052033048588 H
   0.8451839303712694   -0.1842760057349187    0.4784930595783636 H
   1.1925590431144626    0.0538411069877754    0.6705708202008074 H
   1.0932802707672351    0.1041183754240788    0.7926247470974618 H
   1.1364376069185020    0.2298857677572020    0.7691636559838148 H
   0.4797556444187244    0.3246709205132868    0.8394349066644283 H
   0.4603642155685085    0.2911719975095066    0.6757697999257958 H
   0.3522165824768632    0.3054248897424773    0.8408049679777875 H
   0.5073455991072605    0.0820976368099813   -0.0475495573190502 H
   0.4224005666728871    0.1627616048385167   -0.0992424542231451 H
   0.7050002437241152    0.0658264899811084    0.7870292555100189 H
   0.9757181742104831    0.0326352331353800    0.9023610168685973 H
   0.8241645453205311    0.2821600502387471    0.9005638187928379 H
  -0.2941029519487047    0.0276135324934333   -0.0364266742506225 H
   0.7077218195373464    0.0088540229720325    0.6708794869555230 H
   0.1882187051020484    0.5688495553807158    0.7252628619116875 H
   0.1977538771336792    0.3915319902476549    0.8122915742915234 H
   0.0811049811188713    0.5033811899339726    0.7509498997003335 H
   0.1004321930116964   -0.3879310491206636   -0.1046856272292793 H
   0.1712913404564786    0.3343941044046473    0.9255714673537416 H
   0.5991573395293044    0.3887433634071538   -0.0500433912767318 H
   0.6242598930236662    0.5249878182668219    0.6880858452144755 H
   0.6624697873949968    0.6350170889533666    0.7227161597056787 H
   0.6665682455903802    0.3580153667849909   -0.1516779243590806 H
   0.3795683389274584    0.6654023403262354   -0.0049946470076935 H
   0.8340304588244380    0.3713808223748362    0.8106080107129309 H
  -0.1586928867456923    0.5735892555299922    0.7819028084427966 H
  -0.1108061889580091    0.4924085145586831    0.7029961418959219 H
   0.2995924758149957    0.9504754717455941   -0.2265969065656604 H
   0.2290898210033481   -0.1362377648907764    0.9552131468274780 H
   1.0716090594572663   -0.0557991558864835    0.9178346505253602 H
   0.1091441326196326   -0.2804232892587382   -0.0381631060775423 H
   0.0219402405437039    0.8306514107658411    0.6761445519909205 H
   0.3439230992328774    0.6674113424095393    0.7244239008368598 H
   0.3681581604958191    0.9777663610790609   -0.1274681350336037 H
   0.3703397666547988    0.7915905208410038    0.8573746506852378 H
   0.4698197199462334    0.7141679091172366    0.8297719448131479 H
  -0.3644696084420684   -0.0637342716040616   -0.1125223779416939 H
   0.6193768291458761    0.8295491549171722    0.7453326483155607 H
   0.8210124422866971    0.6976139572293805    0.9073012967808868 H
   0.6804529496357645    0.7779603629342154    0.8455195907325825 H
  -0.0542451321627675    0.9152917868826075    0.7319568203050767 H
   0.8723835940280440    0.7525376765792954    0.7993033930408783 H
   0.1454524647063195    0.2831327709110396    0.1044502026629063 Cl
   0.8453529223644031    0.1007850571897465    1.0212259245788033 Cl
   0.6401773293293173    0.4876744463735970    0.1191606315762861 Cl
   0.2960267447598723    0.0864126064026793    0.1212600490594042 O
   0.6019561688251109    0.0698915612770206    0.2408688194709223 O
   0.3924479429755850    1.1318166730094530    0.3084966577351722 O
   0.1869641407339740    0.5493339948950857    0.1378635803404786 O
   0.3065155144670439    0.3368021713791481    0.3107234103285908 O
   0.4823878958927277    0.4490214715693984    0.3197714564256989 O
   0.9074695506977297    0.3461504273686986    0.0868180777028670 O
  -0.1953488595039687    0.3734734993546813    1.2643473342264935 O
  -0.1507430205544119    0.6405404366914046    0.0409138510313988 O
   1.1462874259468727    0.9366288855006364    0.2159957592860956 O
   0.3493920020201982    0.6754376959470000    0.0677564146501003 O
   0.5152777613754507    0.6720705859275260    0.2125504580422070 O
   0.6256222903778355   -0.1400900283969274    1.2696825141643981 O
  -0.0622111733019622    0.9884751387037202    0.2236229712094083 O
   0.8339499864467553    0.7965160758085593    0.2100811240044820 O
   0.3800310550991343    0.1051369563762064    0.5167242175684427 O
   0.4772014511510734    0.3101838994832631    0.5985716804285219 O
   0.7166011416908626    0.2181310539257766    0.3758222765920635 O
   0.7098664084025921    0.3119973919525330    0.5775766996789214 O
   0.9385157940077405    0.2117733709212644    0.5932687372274021 O
   0.8976358261448959    0.0998831383529889    0.4148561293280871 O
   0.2954940176196124    0.6508911823068249    0.6599609042064697 O
   0.0906879537428457    0.5864003649302514    0.3404295632758970 O
   1.1787821720551732    0.4462577862845972    0.4644467074427532 O
   0.6510740939913404    0.5899074694881695    0.6580637722466771 O
   0.3676278475268897    0.5068231246205460    0.5272793311102459 O
   0.9805545641092173    0.4207908487824678    0.5815337591192707 O
  -0.1037374953023550    0.5087573020367504    0.4035797188007212 O
   1.2475699604984012   -0.0049037391519813    0.6578244144760489 O
   0.1687958920245361    0.8084671038203316    1.3857992400636896 O
   0.1496885306675403    0.8040154384110724    0.6149431072047449 O
   0.5816859816105993    0.6667982628791117    0.4692652936736795 O
   0.6664612173280620   -0.1349327583312575    0.6216757496822760 O
   0.3760621574318203    0.7353465081716248    0.4184634201743200 O
   0.5159698238235225    0.9145757228641290    0.4678807258287671 O
   0.8051416799601021    0.7065309656752181    0.4077721064196003 O
   0.8480487470167758   -0.1055041363044232    0.4983508894378759 O
   0.2020454690355011    0.3245333396737815    0.8525955544568730 O
   1.1114267919346985    0.1584274061109404    0.7348605443709786 O
  -0.3667960648808772    0.0136104822376065   -0.0838050868952652 O
   0.4196419735659219    0.2736018783684615    0.8166789941679514 O
   0.4247342656256873    0.0976122499348371   -0.0528578195817395 O
   0.8151983129991173    0.2957041195500555    0.8197688853887863 O
   0.7443898631522753    0.0641968409143355    0.7149809547141364 O
   0.1518105872670348    0.5218154132950691    0.7807987002079130 O
   0.0674439098110673   -0.3485547692011706   -0.0438479740177215 O
   0.5938751326582077    0.3962330712139122   -0.1271506031762722 O
  -0.1235047301563494    0.5025170857139212    0.7811798996203947 O
   0.3226840245910652    0.9244799341758914   -0.1524193693051338 O
   1.0409008001335232   -0.0005145080886029    0.8721954904221059 O
   0.1571917751626813   -0.1579739284000023    0.9803094464145402 O
   0.3888041537141094    0.7144261749036765    0.8414577618976823 O
   0.6054060196563712    0.7930387402042185    0.8204120082876456 O
   0.8102162680967773    0.7155759001648064    0.8283293508420224 O
  -0.0545315333549405    0.8470001982439085    0.6906575308914927 O
