Li1 Co1 H90 C51 N3 Cl6 O45
1.0
  12.1608581301999994    0.0000000000000000    0.0000000000000000
   0.0000000000000000   13.8695693656000003    0.0000000000000000
   0.0000000000000000    0.0000000000000000   13.8571248936000000
Li Co H C N Cl O
1 1 90 51 3 6 45
direct
   0.2016267305191952    0.4025386827544430    0.5494145795219219 Li
   1.1343026879693678    0.6142835410543714    0.7386075051922991 Co
   0.3124610142160673    1.0225500020192204    0.0185620356874172 H
   0.2065433243450470    0.3126635058731978    1.0909360031662838 H
   1.1055752744711023    0.9796885414843005    0.2651932832399625 H
   0.3507222943838303    1.0687929662449707    0.1665032583971023 H
   0.4837268885237176    1.1130892225890063    0.1272404239940378 H
   0.6592391736888187    1.0667121518202936    0.1708122330551555 H
   0.6052860732599422    0.3424712085568431    1.0578035890814510 H
   0.5028724946567094    1.0860076319426804    0.3026325070315884 H
   0.0336402300495608    0.2853274011964108    1.0625036982671654 H
   0.6878013027985584    0.2226830625657562    1.1475660765780082 H
   0.6837341556062749    0.9399620016418601    0.1258317623741216 H
  -0.0217366185897321    0.2810633899325368    0.2476795491960348 H
   0.1142208921630727    0.4403775648542476    1.0727042269544174 H
   0.7038182645881452    0.2990358296982769    0.9831863789502535 H
   0.4061336800595316    0.4058408761241662    0.2136364122811127 H
   0.3807785614734283    0.5992600032279694    0.2147362075212523 H
   0.6035383347555995    0.4397978785072482    0.2735319538435137 H
   0.6449962643360763    0.5765758093855609    0.2050134114120661 H
  -0.1921785378859250    0.4507987247468170    1.0477979060076097 H
   1.1593494401589677    0.7356218433216385    0.2448412980940212 H
   1.1129842910910930    0.7828158103977521    0.0877538779607612 H
   1.0204743721400444    0.6892418885412491    0.0755839652772227 H
   0.4297940169304517    0.9695512404410019    0.3306246051744830 H
   0.5143797418017511    0.9206052362713453    0.0828271705431546 H
   0.4005230562639494    0.9062176230196365    0.1674457338456734 H
   0.4833650719518202    0.8149271174080930    0.2633206003999612 H
   0.6124042386947507    0.8521114009575981    0.3226806773506932 H
   0.6082522290701495    0.8117128863945064    0.1980292786469282 H
   0.7205794172812939    0.9875618933614571    0.2464823311491900 H
   0.9263543694440526    0.9456024074783982    0.1096581331602064 H
   0.8600153009866581    0.6525103948249725    0.0179522410824842 H
   0.1966098148256810    0.2550099494489240    0.3066225122039843 H
   0.0843882934997386    0.0713431078295915    0.5026911210143761 H
   0.3375603942706705    0.0942486495681801    0.4144024457376563 H
   0.3817291522850497    0.1706194417736796    0.5235681645729293 H
  -0.2909873544295515    0.3040835711352707    0.4886529131253900 H
  -0.0441626675642476    0.1733405067905651    0.4087908920714327 H
  -0.1696373654567149    0.2578521429562272    0.5469536072595047 H
   0.3123976963159853    0.5027540364803783    0.3552083483835333 H
   0.5869954232401362    0.4488087566899532    0.4019958317163450 H
   0.4912201097277135    0.6289588344708225    0.4888835525996346 H
   0.3453213597378704    0.6202036960235411    0.3722479581014953 H
   0.9229343805292312    0.6561947197418471    0.5443964389960964 H
  -0.1896811812294421    0.4434447833726187    0.4541121260808090 H
  -0.2714081440275563    0.6320187708597100    0.6635320470443768 H
   0.0043906494532160    0.3651438663525451    0.6318544802063428 H
  -0.0795516175373793    0.4342243817416075    0.3617190784731256 H
   0.1248484316521691   -0.0390164829877247    0.5447706869039286 H
   0.9789929244823944    0.7475948177971020    0.6081598103147806 H
   0.2974727627252162   -0.0915300096013530    0.4457233729381071 H
   0.5717290910444701    0.9878567835553910    0.3616880475050639 H
   0.6751114088496466    0.7097558635970055    0.5027092127904064 H
  -0.1259233450883795   -0.2243870545050169    0.3457684392390025 H
   0.8029864307724971    1.0366751702083574    0.4289970316674840 H
   0.7320564034039585    0.9130765237895440    0.6326692235305668 H
   0.2071107185146134    0.0728132327817456    0.6909035258260379 H
   0.0872227974163987    0.2671826417329930    0.8254148342187965 H
   1.1317091209971759    1.0086065265657105   -0.0556135243867165 H
   0.5667473373432612    0.0575496009832653    0.9177132012913707 H
   0.4705641661001671    0.2071778947893595    0.9913662864613961 H
   0.4063639269689209    0.1318359737494920    0.8522046627619060 H
   0.4970187136786042    0.3234158224065344    0.9330778603844221 H
   0.4134505979157665    0.2529291350242469    0.8064534694322704 H
   0.4848518091381623    0.1547227694121826    0.7448836988953789 H
   0.6994139701356846    0.1084228459558194    0.9178806241888198 H
   0.6341410270998016    0.0851993419298841    0.8045172813553056 H
   0.6407477154716097    0.2222482978055066    0.7331381166588232 H
   0.7094198429694299    0.2948143576066330    0.8225953460277039 H
   0.3484872547419730    0.6357910581327213    1.0225985949902663 H
   0.1074623230621068    0.5176708802948041    0.9618644956397797 H
   0.3563921245275412    0.6249298701585926    0.7978882005968269 H
   0.5686630409680035    0.3269040345293992    0.7832928208515372 H
   0.3897376331798431    0.5315208416697000    0.9445795247790045 H
   0.4799376822434827    0.5791649308682412    1.0291562323571610 H
   0.5445870673101161    0.5658699975405096    0.8213995712816992 H
   0.6036939981125544    0.5934097855419576    0.9271682650947224 H
  -0.0171325027123373    0.3482039027670328    0.8261415361917757 H
   0.2824047471264694    0.7963605712369703    0.9216375362755430 H
   0.1219210066613626    0.7297860456940098    0.8741810830033552 H
   0.2737778888178876    0.8105441406625586    0.7961266519215116 H
   0.6094762380866707    0.6841458399086721    0.8286348383930107 H
   0.4242738472778438    0.7806556856519681    1.0193482814984103 H
   0.5581188426370021    0.7276223159336300    1.0183567338212767 H
   0.5342521058580222    0.8143690611486681    0.9240644466381344 H
   0.4526238203067891   -0.0631116795429166    0.6609449302885368 H
   0.4356373545665952    0.7241319408020078    0.7727256937509054 H
   0.9965426728402014    0.8357662647803874   -0.1172280372496505 H
   0.9479038355421074    0.9826662835404046   -0.0062006768258028 H
   0.7236729489710169    0.8117431685171108    0.7020075608391788 H
   0.9961742777851784    0.9749962544864493    0.7184214996429670 H
   1.0963974682007676    0.9669599559495642    0.0783789173540339 C
   0.4222304059570140    1.0531609019548029    0.1175558753571138 C
   0.6298087670375643    0.2747200062498241    1.0246026182067145 C
   0.6617768235544448    0.9872525831091403    0.1874116360168937 C
  -0.1824012673407876    0.2850930752476859    0.3023214757005515 C
   0.0759719466511699    0.4488574964872881    1.0012305260529100 C
   0.4777042872224067    0.5364681474000559    0.3161093286258176 C
  -0.0409975948705357    0.4869228456039987    1.0103810533790050 C
   1.0283504610619392    0.7644590760761032    0.1021024532623976 C
   0.9984578337400857    0.7577378868637539    0.2090524888130247 C
   0.5073896100947707    1.0078054923225308    0.3093792168085335 C
   0.4683554403908115    0.9529241921224023    0.1445174567001927 C
   0.5633641550415265    0.8485597405778477    0.2539001758167714 C
   0.9818093375704596    0.9351817522878721    0.0512809440815676 C
   0.9714770075116159    0.8260118162871593    0.0233494645739562 C
   0.8445320186406200    0.8026195975781422    0.0187078090722651 C
   0.1495933959283909    0.0182441268456105    0.4976801753432383 C
   0.2530425100066020    0.0635187841509374    0.5506915399401809 C
   0.2534594213746747    0.2171270140707591    0.4341964507788234 C
   0.3143350595964179    0.1375470378721071    0.4806937584777374 C
   0.3370974335207199   -0.0172075866891687    0.5734145075411605 C
  -0.2603727385846845    0.1573003548481564    0.4752782050655963 C
  -0.1363625754980111    0.2946384328943595    0.4030364516220413 C
  -0.2145980083773151    0.2607859038342629    0.4798002830926870 C
   0.4736338507885606    0.3535205782928710    0.3285072828420885 C
   0.3772804530714925    0.5467464045140490    0.3838607566607637 C
   0.3795500297497583    0.5389977140416141    0.4936244206010726 C
   0.5443288618474439    0.4438836578495075    0.3326885253757947 C
   0.5675944074998005    0.6160117850515825    0.3260500631618555 C
  -0.0288479588482980    0.4106420345628096    0.5041869580050330 C
  -0.1158237288700971    0.4009474293118712    0.4253982331877913 C
   0.8858736735318551    0.6396714958436056    0.6874648615745519 C
   0.1663808625540411   -0.0180612541454464    0.3982908784598645 C
   0.9004589929312752    0.7093073997812921    0.6003003155901353 C
   0.8030809964674248    0.7738450920776437    0.5714996803166289 C
   0.8264921732899702    0.8230953594791832    0.4730467176367515 C
   0.7801105780142820    0.8488459787367517    0.6535797661016184 C
   0.2295408790410823    0.3457207687134681    0.9563886122525235 C
   0.4607868955550296    0.1839832308801904    0.8156011101566853 C
   0.5381014230278156    0.2508454365878932    0.9572928402288323 C
   0.6226717706948092    0.1073269215187060    0.8776132524010609 C
   0.6302362862096766    0.2689815440162811    0.7977936643918018 C
   0.1003986768062001    0.3512501401004565    0.9506327285022920 C
   0.1293538702826829    0.4128944476822452    0.7768939465770509 C
   0.0748314021393023    0.3437171016011404    0.8437664044003894 C
   0.4143584285870728    0.5991612258280453    0.9780309083494946 C
   0.5609822096483749    0.6240228484862974    0.8690162309471356 C
   0.2809476131141915    0.7574574167282032    0.8553539451949563 C
   0.3785525672458684    0.6959493786981346    0.8301604073809732 C
   0.4982664874654160    0.7573153791531300    0.9720404882127505 C
   0.8780757040970747    0.8807799190289808    0.7119656149852975 C
   0.5499983630669986    0.9527792705356525    0.2199212657892328 N
   0.5680161211605548    0.2026399024162072    0.8700315930881306 N
   0.4593881455804897    0.6703407970156394    0.9114745334101332 N
   0.1175438484517944    0.3057577399135453    0.2086425913744425 Cl
   0.6672328529965800    0.5078725948240915    0.0939795561344380 Cl
   1.2831803395804737    0.7204144497508522    0.1749126507418174 Cl
   0.1813765148384084   -0.3031133632473911   -0.3797392022951551 Cl
   0.1324671374217821   -0.0002063378555284   -0.2102653743523448 Cl
   0.5291725301127385   -0.1615566971212207    0.7290196577116604 Cl
   0.2697411671100592    0.3236840354924596    1.0404825356996739 O
   1.1604505137720829    0.9963249628408493    0.0085419196051750 O
   0.3870207196490497    1.0501319686914390    0.0201251304972217 O
   0.4158361203591175    0.3357759754495834    0.2432644919262359 O
   0.0459288365278228    0.2728396306366716    0.9936791760576212 O
   0.6581537239731264    0.1973657660625991    1.0856968211168003 O
  -0.1092378449511731    0.2893729485757813    0.2308867439217262 O
  -0.2804124428054583    0.2680637073001986    0.2799228899633796 O
   0.4297512567901365    0.5398035069040601    0.2199934308312367 O
   0.6481286090762391    0.6160146690632590    0.2678143175655444 O
  -0.1165991675685045    0.4191541950263361    1.0326771647565316 O
  -0.0623053017137319    0.5706205415742284    0.9902498932615957 O
   1.1371536380938414    0.9608436881863848    0.1584813923279483 O
   1.0790746775107873    0.7393133782677046    0.2699619492155805 O
   0.9062003640789749    0.7759900757621255    0.2361367507275103 O
   0.7755780031408759    0.8650252842425569    0.0103554271107331 O
   0.8111166136051106    0.7098935751545639    0.0387061855123872 O
   0.0907562651651335    0.0021470156725887    0.3341772901923353 O
   0.2299413442013415    0.1993636651515735    0.3413237943019820 O
   0.2165820895944194    0.1161721853308815    0.6318349956450017 O
   0.2321681607392920    0.2941495929151735    0.4767957637338964 O
   0.4758804027758873    0.2967098742810876    0.3981660329371977 O
  -0.0567226364714326    0.3694547428061640    0.5885568983048399 O
  -0.3443141832648892    0.1244492988427641    0.5119200773081211 O
  -0.0347291227624127    0.2437514888663415    0.4106152243332913 O
  -0.1825846425579083    0.1056203076090696    0.4239520457460331 O
   0.3059359812660534    0.5009019025515692    0.5388670091476732 O
   0.0722699052723466    0.4359414501935717    0.4867772715186666 O
   0.4621881124607415    0.5824462151533090    0.5439318404556752 O
   0.5617016490091773    0.6716241822117327    0.4003179944897541 O
   0.7111318932028174    0.7100839199252204    0.5663866427605683 O
   0.7863913847782650    0.5992679342600800    0.6995272483455045 O
   0.2351465689743205   -0.0808389783161445    0.3779865222416458 O
   0.3592373184792801   -0.0830553412896224    0.5141120904589896 O
   0.8779408451930039    0.7605757543535422    0.4175394601135660 O
   0.7941646849013251    0.9043213853422627    0.4528559491946471 O
   0.2893919185160432    0.3542480702382970    0.8834716105109379 O
   0.3955447891587970   -0.0076694390716866    0.6507184221861635 O
   0.1373549503839602    0.3883875584602167    0.6904041437353710 O
   0.1474200295658343    0.4960755594809598    0.8151904910676832 O
   0.9609596576148701    0.6170803113777680    0.7372125549303636 O
   1.0360563317329639    0.8154938257025476   -0.0581703318249149 O
   0.1867297554817091    0.6990323871804350    0.8424941347098607 O
   0.9395096910740869    0.9489940052100964    0.6687676208417601 O
   0.8970151570151240    0.8507609624900235    0.7956301564325248 O
