Li1 Co1 H90 C51 N3 Cl6 O45
1.0
  14.4964874898999998    0.0000000000000000    0.0000000000000000
   0.0000000000000000   14.1475598470000001    0.0000000000000000
   0.0000000000000000    0.0000000000000000   14.6219928815000006
Li Co H C N Cl O
1 1 90 51 3 6 45
direct
   0.7157891352046122    0.2665529225027211    0.2757043088018822 Li
   0.4822390423039109    0.9025064082840774    0.6627192694752509 Co
   0.1208767465305548    0.2823097033476716    0.3215571556356595 H
   0.2827876923120967    0.1722511478908325    0.2812637425028007 H
   0.5030752621268471    0.1262615915972806    0.0971711894688218 H
   0.4427009127812017    0.2280954071513814    0.0576745213552236 H
   0.6236516432134944    0.1550262693509707    0.2027723898328038 H
   1.0141800387261548    0.2500970811761783    0.1473955334383193 H
   0.8348828122903784    0.2640295191465183    0.0510694025603571 H
   0.8083791506090445    0.9467939042746217   -0.0373036400523842 H
   1.0289160221944835    0.5834217004743942    0.1533741986386427 H
   1.0115925153674008    0.4144098690448890    0.1647604714503773 H
   0.2573677414269777    0.6460727872756247    0.1190539794956745 H
   0.3227628932291292    0.4736776656874177    0.1096961579518602 H
   0.5939906649731052    0.3830048066309481    0.1187373331918825 H
   0.5237905561047312    0.3953383823066856    0.2300614196684596 H
   0.9333887435371656    0.4407467783090693    0.2600368138265667 H
   0.7844561140637005    0.4380432732231297    0.1706413387642162 H
   0.7183945939425523    0.6374119297620243    0.1633947205461167 H
   0.1318090499668469    0.9418679664624712    0.3098993740062025 H
   0.0671057899079186    0.8444992318610688    0.2521787878426139 H
   0.2748471480885253    0.9265218571441185    0.1980158562628828 H
   0.0000592035781991    0.9162034699749732    0.1334063322632319 H
   0.1024384869048195    0.6948995819646382    0.3086327887910345 H
   0.5565404205343577    0.8786379812442294    0.1223271311370321 H
   0.6546860576061844    0.8660485310545016    0.3039590072789081 H
   0.7658757510490279    0.7804684018241779    0.0300250755323143 H
   0.6946916107033780    0.8854752027188934    0.0396037971973485 H
   0.7546688983467310    0.9257181849827731    0.2604922920950883 H
   0.8356678300409148    0.7731887012175861    0.2211597602944709 H
   0.0590024476271183    0.1735086085548898    0.4624304973677674 H
   0.1815066060473765    0.2632887553601596    0.5716462529041069 H
   0.2206560896995653    0.3152058356159290    0.3716365125286906 H
   0.1017293496046864    0.3611536886047145    0.6012399617444035 H
   0.5449145007991514    0.2493025978785952    0.3470653064754742 H
   0.9344338242859025    0.1768929377620324    0.6777568913495028 H
   0.7152379672057735    0.1994586666546865    0.5862488451588295 H
   0.8619231557027469    0.2320162246350948    0.5950123564693927 H
  -0.0586998579271612    0.3125912504577794    0.4786872417066838 H
   0.7706113809764729    0.0057637800710411    0.5997080228232499 H
   0.8386099220497353    0.0812100062431353    0.5452314541054647 H
   0.1891622536707971    0.4799286588591308    0.4408329625748491 H
   0.4070722820277278    0.5451896657030625    0.6146813579749176 H
   0.6538320576280086    0.3868132372424945    0.5493499761488034 H
   0.5755141202110299    0.5404636917030884    0.5698473873039684 H
   0.5122370539121008    0.4389736810208243    0.5957844810417062 H
  -0.0529426012083769    0.6822959950614301    0.4246648518449424 H
   0.2707985811483689    0.7306492098488594    0.3761789849904325 H
   0.0068125636619772    0.7044227790005263    0.5678475231105590 H
   0.2501922101079273    0.8573417292220910    0.4076610137214421 H
  -0.0719851451482333    0.8086725588883810    0.5497934177543731 H
  -0.2100206521215024    0.7592053710787177    0.6775517209582769 H
   0.8940923277401049    0.0100111556361455    0.6338251232789044 H
   0.2235698989950535    0.0525683178967223    0.7180359425549758 H
   0.2687629156107302    0.0891710964394693    0.9617530629831198 H
   0.1764088194248248    0.2528657565112614    0.9089312618607022 H
   0.2457214719346178    0.2401731083131286    0.8094345645369955 H
   0.2920320006380527    0.2920470715927836    0.9719301982892297 H
   0.0521262991760229    0.1043737181159987    0.9006622111929935 H
   0.1226909791174710    0.1210910886419239    0.7446718466452290 H
   0.3184328788002040    0.0924819147365152    0.8461573289612191 H
   0.6834337111526280    0.0109477129042040    0.7717775909313896 H
   0.6889564282974383    0.2171048192562560    0.7029490797868297 H
   0.6950392811306807    0.0528701367295230    0.9301335700899890 H
   0.7874733967006479    0.1599168653794209    0.8174546751300167 H
   0.9230055386328831    0.3545893057002171   -0.1025273074231048 H
   0.8868429854374803    0.0845102220050711    0.7970450085121661 H
   0.8505183240071249    0.2592088998497947    0.7158036886984378 H
   0.6598266132098725    0.0991431341283514    0.6455341975061678 H
   0.5425743477087124    0.3527897020741969   -0.0188766033150801 H
   0.3523535095973263    0.4559530048475362    0.7913050248669689 H
   0.4532253932876896    0.3881399678026045    0.8112708395384673 H
   0.4110497972734156    0.4119016626556773    0.6954528375927387 H
   0.5291005320595018    0.5512267491947511    0.8693696231232158 H
   0.3594593688664610    0.6176509248238277    0.7059890210834938 H
   0.4107807665856220    0.5849703774361422    0.8675873763247667 H
   0.5012542002993945    0.6556751499070015    0.8260437916080379 H
   0.5850064196453496    0.4533060466155171    0.7672187048383498 H
   0.6136167985587909    0.5723908229458505    0.7377281967048399 H
  -0.0795124858282447    0.4512929079323795    0.7644919903389572 H
  -0.1490651964902228    0.6039821365598921    0.7171078884853306 H
   0.8407359543055816    0.3840982814186359    0.0249471083494728 H
   0.1073727856478658    0.0398085203095589    0.9881461821104225 H
   0.0881205357359855    0.6829059942480976    0.7070846309726402 H
   0.1104245593986328    0.0042949755404558    0.7284968969022815 H
   0.0468208760482766   -0.0238604098622407    0.8974738633133426 H
   0.2428849227340856   -0.0646738085150438    0.9423466795783640 H
   0.1753044139603180   -0.1063863021451829    0.8435790210448133 H
   0.4657860911896375    0.6524696501253825    0.6583676054773492 H
   0.2870604514920812   -0.0530053652085463    0.8304761559598218 H
   0.7860847844582667   -0.0546727905635273    0.7808126110596753 H
  -0.0690037332696584    0.6437197313168573    0.8057859510796944 H
   0.5840215603813419    0.2170214126467233    0.0124720646616326 C
   0.5095413181328490    0.2037774326228655    0.0822942844010302 C
   0.5325986898053233    0.2570212434387449    0.1708752330102138 C
   0.4574836661998698    0.2366502393138807    0.2396845949182594 C
   0.6282293038396451    0.9686655205354016    0.1950559314187969 C
   0.8962997590245657    0.2546208294898192    0.2129789328949893 C
   0.5336150049651346    0.3637322251434898    0.1582661446667727 C
   0.4535518861711069    0.4053613121640962    0.1008095444065615 C
   0.8788548434768377    0.3263370838101817    0.0585252945775071 C
   0.8738081037027392    0.3468586439336093    0.1596811364649275 C
   0.9050184227759095    0.5206967493452300    0.1504026474723872 C
   0.9378574122436460    0.4293171747768186    0.1852706715599286 C
   0.2185949007377000    0.7307545283642863    0.2117636402776278 C
   0.1353706023798691    0.9359121690732933    0.1562281187805952 C
   0.1331783471854890    0.8856017263045405    0.2527471098263098 C
   0.2215432011470080    0.8248845419073915    0.2685828445224305 C
   0.6370279869750506    0.7417246180248656    0.1416610210035548 C
   0.6879306625724404    0.8913207337429262    0.2395758546109097 C
   0.7187608895713176    0.8095122796691004    0.1698835761192885 C
   0.7525256205339749    0.8398291685629086    0.0783481738764516 C
   0.8428343936703722    0.8927089590066748    0.0836176334244374 C
   0.1879612730875951    0.1645395706874227    0.3857645456685076 C
   0.1614707180295126    0.2691675076608708    0.3861058124192467 C
   0.1555051349832573    0.3362681250299714    0.5522673623317753 C
   0.1011036807999971    0.3068786045404598    0.4632673190034475 C
   0.2361136272690021    0.3997610531189436    0.5478347928096000 C
   0.8703086352945925    0.2050285317658568    0.6632937465706835 C
   0.8279873488155440    0.0458625678574237    0.6143052122576702 C
   0.0409870490568125    0.3910747495210790    0.4323491668976572 C
   0.5778973871937436    0.4754728727955456    0.6170257716453259 C
   0.2210327326624764    0.7931532748298965    0.3722766441493155 C
   0.1309474619436308    0.7688402481510987    0.4182498576126119 C
  -0.1361151628954782    0.6757789701470912    0.5285889894310437 C
  -0.0657795039497929    0.7342406419084858    0.5778008859099717 C
   0.2529335638343171    0.1118060952281759    0.8878650499909286 C
   0.2390446821214002    0.2181601249175475    0.8800938794725948 C
   0.1599130993294150    0.0550273992065905    0.7526434002456603 C
   0.8086847418774870    0.0983465303237462    0.7784873466257815 C
   0.7510038725922498    0.0067922259767204    0.8077877301967554 C
   0.9717877005526379    0.3104269196239718    0.0166486499256883 C
   0.7064427331817500    0.1611637235083682    0.6538764256134136 C
   0.4179549182601195    0.4404855318439566    0.7618870102716921 C
   0.4765816028685207    0.5849039348827856    0.8338648869215700 C
   0.4190848471488529    0.5897775668550597    0.6722309688124847 C
   0.5715114264522538    0.5100436048008753    0.7189735712428783 C
  -0.0096183131394515    0.5586301460442941    0.7021188236036688 C
  -0.0789930496541200    0.6351217821782437    0.7303926713172091 C
   0.0888351916143297    0.0425489222176817    0.9160828177975336 C
   0.2252730701954704   -0.0524504992044513    0.8721230097734677 C
   0.0128043599547355    0.7977477067109381    0.7241479685095961 C
  -0.0755508364949139    0.7399101708496911    0.6879825836482029 C
   0.1776084203634739    0.0427129080940512    0.8566873573402375 N
   0.8019437985925648    0.1256947093867275    0.6754658219808134 N
   0.4703069794424409    0.5316260545874191    0.7482069324860517 N
   0.2413693831928480   -0.4547983289050652    1.0662422398266573 Cl
   0.3924756426592307    1.0167572061234484    0.6931433028888389 Cl
   0.6498055650006967    1.3171821589750365    0.4218786379320944 Cl
  -0.4893158953879063    0.8702011906392891    0.5239761435251113 Cl
   0.8316061564775070    0.4236318127165156    0.8407483535471997 Cl
   0.5508110326355397    0.8365473305284968    0.7754515087369419 Cl
   1.0434140169774564    0.2805214090924354    0.0598021383122365 O
   0.3770098272224771    0.2291273872354307    0.2137291726255721 O
   0.6192823089148149    0.2300222411987228    0.2056516143230075 O
   0.6483755634217320    1.0504478216892890    0.2158540539773686 O
   0.9791370670853394    0.2169945528911110    0.2049560866967517 O
   0.8367391240361548    0.2234196891678291    0.2670009808060786 O
   0.8599916533288439    0.9435339781461043    0.0114455288041989 O
   0.1529500332714939    0.6733926929116457    0.2301284419962600 O
   0.4605797265407814    0.4110367078413957    0.0146393478942824 O
   0.3819662002783681    0.4331201627536752    0.1468395216780970 O
   0.9676742903185004    0.5910788513309054    0.1240738150676687 O
   0.8251169983234685    0.5428698310209735    0.1389240479846010 O
   0.7833944775803301    0.3671646191764649    0.1821418230937332 O
   0.2799745970689619    0.7157243745922145    0.1487393995008491 O
   0.0580870534663434    0.9513579422216810    0.1141517749479832 O
   0.2077743485101837    0.9686747093991636    0.1221698338370922 O
   0.3008631054204488    0.8802771331722503    0.2479338124481496 O
   0.5691946583369846    0.9497781644902767    0.1354217894063745 O
   0.5588320791187662    0.7702115093586711    0.1238843744064368 O
   0.6556945777742723    0.6482979059773969    0.1454245298799423 O
   0.9004290351710602    0.8723421958958546    0.1448377425610361 O
   0.7751193695527075    0.7497585122956222    0.2229413231916160 O
   0.2516911939145314    0.1339484295521001    0.3280193390579719 O
   0.2990550812340201    0.3867128665767856    0.6013001450591630 O
   0.1462146085647829    0.1067105168542638    0.4321214277633965 O
   0.0329975274516172    0.2324509285746088    0.4877491391562199 O
   0.4767889634448048    0.2401455417218424    0.3308807821142694 O
   0.0740150498282810    0.4556719669835513    0.3848754739731953 O
   0.2458980664373746    0.4735895727573663    0.4847208241817252 O
  -0.0469956433635842    0.3804863511244633    0.4605040841744169 O
   0.6563726730719677    0.4167800304269673    0.6117323755516970 O
  -0.1121038290987557    0.6445502632338149    0.4439727534619098 O
  -0.2121108136189763    0.6580656681564911    0.5641807178785693 O
   0.1117207354559772    0.8056366996685234    0.4937090654608113 O
   0.0741399076603083    0.7069871788258214    0.3749780543004568 O
   0.3198449449999825    0.2517312852544811    0.9267407357204163 O
   0.5941748475209024    0.3019971973757716   -0.0290544225224940 O
   0.6428190449853782    0.1559995820740775   -0.0111266337371729 O
   0.7401640053409944    0.0046137584294327    0.9076763029677036 O
   0.9780933659811554    0.3207050171596987   -0.0729007029300816 O
   0.0716317138633397    0.5763830308326385    0.6756764635824720 O
  -0.0303798941920818    0.4734726974786693    0.7155171340520255 O
   0.0910557295220420    0.7528431431769860    0.7296335408696731 O
   0.0047265410981617    0.8769663148752044    0.7525832169309007 O
  -0.1578562915805880    0.7901513437223914    0.7130099518712448 O
