Li1 Co1 H90 C51 N3 Cl6 O45
1.0
  13.5830342457000004    0.0000000000000000    0.0000000000000000
   0.0000000000000000   13.2309841607000003    0.0000000000000000
   0.0000000000000000    0.0000000000000000   13.2745203390000004
Li Co H C N Cl O
1 1 90 51 3 6 45
direct
   0.8407906816928921    0.7352887331841004    0.4266410404947740 Li
   0.1352237349678672    0.3891474375423633    0.5833188674057446 Co
   0.2446182909353894    0.1684238719685765    0.1921589710481516 H
  -0.0178930107002373    0.2213624887405992    0.2448878066011452 H
   0.6056885725296953    0.0526244740257601    0.9435089065104034 H
   0.6267987305999199    0.1529556348734175    1.1006498010006929 H
   0.4230209921409122    0.1727425227436052    0.1678741011042719 H
  -0.0256232422597462    0.2440954915427193    0.3716818418669643 H
   0.7292898216785360    0.0889241169069432    0.9121066419196965 H
   0.7420822505907289    0.1686150897925321    1.0457852950599182 H
   0.7216722306360370    0.1154051402189281    1.1778917633326624 H
  -0.1356818619288567    0.2384813966955171    0.3013734633971245 H
   0.8658086558695807    0.0247429502086774    1.0137517458889782 H
   0.0746827700313820    0.3445649640970324    0.2148339899801482 H
   0.0505600302905375    0.4769843653086280    0.2529182285883573 H
   0.3053808558432471    0.4209689554949420    0.0726691545054101 H
   0.5237054176721916    0.5635567612912561    1.0732318611651797 H
   0.5992430318341239    0.5700639869786494    0.2933844741687582 H
   0.3889174191379474    0.6565319311696938    0.1239621566336733 H
   0.5171372975904622    0.3604345318819954    0.3177017369968263 H
   0.5020431296533605    0.6561570535385396    0.3185597717663793 H
   0.7763308574620007   -0.4207575453257492    1.0369751838835162 H
  -0.0826517372180963    0.3519740879240550    0.1435568382762037 H
  -0.1767212931720246    0.4030723276157145    0.2222097743775961 H
  -0.0859080052359733    0.4776488661419157    0.1795573857759110 H
   0.2909474092028498    0.8577694179402270    0.2394307355997038 H
   0.0518174812908843    0.7078742948026090    0.1917243037417143 H
   0.0034446370415956    0.9451514286778796    0.1934818060396661 H
  -0.0127888492333730    0.8064240311006089    0.2579639852928927 H
   0.5636925803469779   -0.0254369904469899    1.0842356485917470 H
   0.6001228058068490   -0.1390952022425090    1.2341875827608388 H
   0.6557031707197177   -0.1239073675690399    1.0639140103621940 H
   0.6413963526343905    0.0040014848220632    1.3406072471949375 H
   0.7272188558331171   -0.0978601744189147    1.2323939209642578 H
   0.8506721262635327   -0.0093452169693670    1.1414023092785741 H
   0.8160267008388730   -0.0986673706085771    1.0511286143052556 H
   0.3209171488528010    0.1089150712295736   -0.3289295371126705 H
   0.2356276635254158    0.0996723725372693    0.4502176362592562 H
   0.1228575731102414    0.3001669062605758    0.3960450573912070 H
   1.0193943689189620    0.1567187714167966    0.6577803149577141 H
   0.6448359375721072    0.0423841171215136    0.6060654520121113 H
   0.4447413231555672    0.1961746420957606    0.5886305470897815 H
   0.3945972988028628    0.2462661539553694    0.4680414064564266 H
   0.4822355229630384    0.1039449194100795    0.3685593184957641 H
   0.7077349912405072    0.1613019527783252    0.5088367788066410 H
   0.9248882389350538    0.0476581012146446    0.4886551908352160 H
   0.8875814052163346    0.1533320241079230    0.5613391654994699 H
  -0.0817233732184258    0.3679698745888621    0.4518149821111966 H
   0.2095465984561623    0.3839777540804807    0.3377770386419685 H
   0.1372173984976910    0.5212510572558289    0.4059670731504538 H
   0.3107817109594906    0.6175408785212937    0.4205154707624272 H
   0.4326399033235414    0.5324660279789251    0.5710577840789280 H
   0.5365489397339303    0.6030015216855871    0.5623621779815182 H
   0.6155368875365097    0.4235862966979389    0.4060740450005649 H
  -0.1697081326162264    0.4298571832013364    0.3785461200233881 H
   0.6781885737950054    0.5136216172403357    0.5655592803186408 H
  -0.0562180263472234    0.4939728218943177    0.3987879060268018 H
   0.0010107184191445    0.6498763416133578    0.5080958857461886 H
   0.2542376438455363    0.7658631783717513    0.3309993926176770 H
   0.0771593889805428    0.9489311928581243    0.3324367326881837 H
   0.2271420779106635    0.8708787980054830    0.6580251448963486 H
   0.2818404602132188   -0.0077134411515009    0.4059550199842441 H
   0.3822355542204138   -0.1514676756739442    0.5447567207573210 H
   0.6313890157212092    0.7965207617437308    0.4894964792369663 H
   0.8672302822640007   -0.0716542629168896    0.4126178596003883 H
   1.0384865684458899    0.2510329951240964    0.9269907955428988 H
   0.2958174550853404    0.2077618375861291   -0.1014380780708072 H
   0.4188451946737183    0.2543282904302087   -0.0792097796114575 H
   0.7000702825961219    0.3055013544877639    0.6292843700693207 H
   0.6888077033201822   -0.0404358747015305    0.9035955999298725 H
   0.7434479248329089    0.0137362104052572    0.7008086116805641 H
   0.3003709295801558    0.4190892767274417   -0.2244263261059139 H
   0.0822502986218765    0.4692841066761206   -0.0449742676385830 H
   0.3429600881978729    0.7292317385549298    0.7931336048781958 H
   0.2991672220944609    0.5017489630150669   -0.0103809272938581 H
   0.7337100417055161    0.4936736000109027    0.8885291421677486 H
   0.8297217263122048    0.4069904035026150    0.8432823095394257 H
   0.9652164888747470    0.6107530236717079    0.7823610875782772 H
   0.9588202744186504    0.5077189573133460    0.7091878221649693 H
   0.1679049453638822    0.6826713321242560    0.8234676576135683 H
   0.1969323329761028    0.9333374926847969    0.9228249199716716 H
   0.2300552708898042    0.9812560747267285    0.7955525246719048 H
   0.1016708489369512    0.9419483411762044    0.8272410519600922 H
   0.1030954201814893    0.8281571082857597    0.6880254755922899 H
   0.1987250104853794    0.7314772253334756    0.9403909030765319 H
   0.0430639143154023    0.8430970400095947    0.9357662538664480 H
   0.3492745830631974    0.8144400636732296    0.8925036737253969 H
   0.2065428513358960    0.7343182838324838    0.6743345854238478 H
   0.3678072610677228    0.8570816384153274    0.7683771548063617 H
   0.0178353833552832    0.7169408917044718    0.9511875267088701 H
   0.7882228984506432    0.7007334805704648    0.7429442207810082 H
  -0.0188405162256743    0.8292870317909518    0.7739020248677326 H
   0.3165587706782969    0.1230780388307747    0.3145061413054798 C
   0.3364063242604683    0.2120260706405065    0.0501568533172444 C
   0.6864746458142694    0.0304311136200996    0.9484793309261281 C
   0.7009677256695543    0.1277118589045761    1.1009646899679213 C
  -0.0570963278948895    0.2637795903850099    0.3039490743515595 C
   0.0620699769763815    0.3989328018378300    0.2750410618433721 C
  -0.1024470197106749    0.4038636519701869    0.2019936013523780 C
   0.2713663645563490    0.7082763812940887    0.1833104404044561 C
   0.1396167151312566    0.8396687236085568    0.2408831421279726 C
   0.1292081423895103    0.8890800139600231    0.1396915385373308 C
   0.2420150434311586    0.7943319600908636    0.2534568544533533 C
   0.0594255015705000    0.7619760903535552    0.2568227011174117 C
   0.6493930931295702   -0.0767090645240636    1.2164249823821827 C
   0.6371057060125984   -0.0556259767800268    1.1027583517645021 C
   0.8213716038028762   -0.0171367764443007    1.0671849383423511 C
   0.2899461601627610    0.2160544935720611    0.5787733170989118 C
   0.3011321733356351    0.0713683555834627    0.4144434622874248 C
   0.7216869548866266    0.0595808726490300    0.6410655867164136 C
   0.3885927494124480    0.1930032982644655    0.5329260861287682 C
   0.3890653978563723    0.0884230203959449    0.4848835419378237 C
   0.8941712435676834    0.0714197500974112    0.5621196080115479 C
   0.7852397652812023    0.0435510749088157    0.5491336020695068 C
   0.1297890140752677    0.3759133502006143    0.3631248471809660 C
   0.5549817873194586    0.6037013940372981    0.3528118568427921 C
   0.4247017653457082    0.4663714737584223    0.3693201746127515 C
   0.5107441752269894    0.5322410258200651    0.4259491134220485 C
   0.4701466923652667    0.5832169768005941    0.5161962160974169 C
  -0.0903731342272515    0.4228705525110379    0.3872733656820984 C
   0.9228636544789919    0.6394319182566687    0.6283720960518241 C
   0.0579412971110742    0.6946613699077800    0.3515010750174873 C
   0.3836881015410720   -0.0037220525020562    0.5575735303786934 C
   0.6284669881917149    0.6739168813144629    0.4019993214987985 C
   0.3984749301956183    0.6725352758512581    0.5214541838595318 C
   0.7628971874366332   -0.0693339517724482    0.5205104962776012 C
   0.3418079155892413    0.2548762466451012   -0.0547478787888729 C
   0.7257464307741629    0.1672765650248429    0.6809434871212036 C
   0.9532677595213346    0.0327196810941610    0.6491826408357578 C
   0.1880035474186053    0.3616294543312989   -0.0765113770262611 C
   0.3014686224616061    0.3624842660265313   -0.0737587351931210 C
   0.3385715253096603    0.4328864363175974    0.0015863601065970 C
   0.4454350562220935    0.4541508408836380    0.0091504752260714 C
   0.8091173462497310    0.4884414117504386    0.8576082509025413 C
   0.8137562213979658    0.5538710116566484    0.7612356538271150 C
   0.9178448936655470    0.5775973646011592    0.7245156829692663 C
   0.8848706706828000    0.5177227256190438    0.9380201959476616 C
   0.7509440408080440    0.5020757716596456    0.6857850933230620 C
   0.1584350435972191    0.7464655283645563    0.8718920061839230 C
   0.1803071816354524    0.9297383651050478    0.8386071876958386 C
   0.1830105540436920    0.8123200399728524    0.6979459847057605 C
   0.3261052385480256    0.8040923829310318    0.8184113543885995 C
   0.0507823664744396    0.7694524805297162    0.8953414410448929 C
   0.7136504589148552    0.0187562451353483    1.0586219170732478 N
  -0.0511013492673580    0.3748378444160736    0.2946485499750003 N
   0.2143886682625328    0.8248882660382975    0.8082023226089842 N
   0.6535725716594112    1.3210403224740368    0.3029411283272734 Cl
   1.6620710965259404    1.6678399213753208    1.0734548447400591 Cl
  -0.0114003524027793    1.3062114935965317    0.6332159622223469 Cl
   0.9456155664899504    1.0337064436162402    0.3121640604463576 Cl
   0.9586597800872244    0.2393603940443723   -0.0131960949267110 Cl
   0.2274299370096890    0.5043164213074667    0.6586262965610573 Cl
   0.2365206893236715    0.1401168318080670    0.2662527970307252 O
   0.2546315175488065    0.2077187568906134    0.0899684613078809 O
   0.3970864333650246    0.1494683659416740    0.2798397286406086 O
   0.4233971967434749    0.1954158172133439    0.0934879858411131 O
   0.2174881230116311    0.6509269059426002    0.1389284224516792 O
   0.4544495369180220    0.5412439842208329    0.0638763697554345 O
   0.4444074507734493    0.3856790636525125    0.3136872793261084 O
   0.8537200461355676    0.5510514179252305    1.0265499484350145 O
   0.0369032878687385    0.9225317961271166    0.1303217084550659 O
   0.1911339230939417    0.8973552865074137    0.0737132600283253 O
   0.3734091022045136    0.7111552298768826    0.1739067107922264 O
   0.6250745208558847    0.0140211476370013    1.2682882499367423 O
   0.2613325239921065    0.1491947657350656    0.6443078884268226 O
   0.2347626138032803    0.2836987435484475    0.5502873160726415 O
   0.6980155134263515    0.2338634484569057    0.6113914448310221 O
   0.4832700488094596    0.0697441377823537    0.4373218030669214 O
   0.3872005715192069    0.0049492601234083    0.6509650027890173 O
   0.7429082810488021    0.1049886815242403    0.4720584254249641 O
   0.1308697740685399    0.6393593612958002    0.3633892635146913 O
   0.1167558436659357    0.4528796580452549    0.4364490031687616 O
   0.3428393493430387    0.5061813619422906    0.3744796830733908 O
   0.5888116365039637    0.4669986379889296    0.4630722626896116 O
   0.7210516034736879    0.6606185508302783    0.4054081075674790 O
   1.0003912511081008    0.6189995757554214    0.5761510001254140 O
   0.7343100549170398    0.5440854206206790    0.5983273193054844 O
   0.1363317348247301    0.9112507003154121    0.3210163577044937 O
   0.4163310288855543    0.7334634721372515    0.5933237486826830 O
   0.5888948285197947    0.7625625924539090    0.4366557149692579 O
   0.6959254060551662   -0.1165541730660202    0.5581306879867367 O
   0.3213021880057175    0.6794221407203623    0.4646697592061296 O
   0.3646511179538548   -0.0891299092627444    0.5111767503616765 O
   0.8258124377806817   -0.1159434853120435    0.4556836718030660 O
   0.8620760583451320    0.7055033449458946    0.6020396944980718 O
  -0.0241537620509100    0.6960777422480676    0.4043082561508440 O
   0.1449947476590864    0.2923473821236407   -0.1261320023429285 O
   0.7594126935346183    0.1883702339923398    0.7657292248546684 O
   1.0341804613609786    0.0832518253307110    0.6714011460975622 O
   0.9409892069547166   -0.0501736234914273    0.6908278367360450 O
   0.1538145737622213    0.4491883982412362   -0.0398516719994609 O
   0.3421620338159198    0.3910475229551078   -0.1707234440585989 O
   0.5130597844959536    0.4051326429837104   -0.0214939465392008 O
   0.7128060231435450    0.4183145800098351    0.7031657589974484 O
   0.9748748610489562    0.4994678023974274    0.9219262057661608 O
   0.7674234220678580    0.6476792261420579    0.7926401783864863 O
  -0.0124016014428681    0.7659327121259171    0.8106626751615391 O
