Li1 Co1 H90 C51 N3 Cl6 O45
1.0
  13.5089854903000006    0.0000000000000000    0.0000000000000000
   0.0000000000000000   13.1588546282000003    0.0000000000000000
   0.0000000000000000    0.0000000000000000   13.2021534663000004
Li Co H C N Cl O
1 1 90 51 3 6 45
direct
   0.8388501307767964    0.8002595297490923    0.5249296450681420 Li
   0.1618340804918171    0.3812109000771125    0.6162634568646758 Co
   0.2715973192683118    0.1862668815830881    0.2147388106369690 H
   0.0471896461549788    0.2774191918631564    0.1832234975433843 H
   0.0440243455459358    1.0532420342343911    0.2179701016614898 H
   0.6400365335656297    0.0402009773454243    1.0767466663288199 H
   0.4201991518368224    0.1294154289956578    0.1724585870791348 H
   0.7685909687781760    0.0024294528439800    1.0503396107761089 H
   0.7194451613097533    0.0017629814642290    1.1810932794413309 H
  -0.1169921868622055    0.2654105479146660    0.2593057823436612 H
   0.2744184045398420    0.5350698837960433    0.0457777388168309 H
   0.0936446520064999    0.3998234622582559    0.1427088950305941 H
   0.0244877193359583    0.5389426372719262    0.2444657791199365 H
   0.3089717024418321    0.4337914642332989    0.1296958664789612 H
   0.1333471152584676    0.4725056999623158    0.3172243637290281 H
   0.5802222713784211    0.4961950717813463    1.0544147035355842 H
   0.5111376609411592    0.3515783818209747    0.3169978855254811 H
   0.5781688233219465    0.5572694602982391    0.2872671297815847 H
  -0.0221116348829069    0.3542473071182218    0.0994462559878083 H
  -0.0772963858425768    0.5243249516575733    0.1602598196272113 H
  -0.0979137741875409    0.5381317764256384    0.2885146535315579 H
   0.8290225978287948   -0.4500164604379423    1.0140409871293483 H
  -0.1764911033853700    0.3883923761759124    0.3082152274314075 H
  -0.1753822118249522    0.3728864673589904    0.1696022348865733 H
   0.2467538548763349    0.9478863601144741    1.0003401919930308 H
   0.0447623728394849    0.7604437543793124    0.2000146975976681 H
   0.2792374192650220    0.8428247845395557    0.3162775484968080 H
   0.5289035398202452   -0.0945189546006964    1.1110289522570447 H
   0.3717654629806306    0.6992484586828090    0.1309153644980607 H
   0.5788394880440684   -0.2225665733036994    1.1536235184719761 H
   0.5930626138397075   -0.1117780555191984    1.2248482624048711 H
   0.8318007487141406   -0.1747964582168679    1.1154176302214311 H
   0.7669054239964195   -0.1363493430009439    1.2243112288051556 H
   0.7366729538902628   -0.2630473001641090    1.1553065772287703 H
  -0.0170949739316710    0.8784616247699387    0.2131875485604997 H
   0.2475140896110138    0.0887728339438150    0.4602474701351064 H
   0.0124801559170418    0.2855597179975844    0.3627828403469011 H
   0.4830572399300936    0.0497170031347546    0.3640606621843053 H
   0.6124667356509433    0.0885380110745526    0.5429948039536826 H
   0.4328183081844553    0.2149745473088302    0.4657116544580763 H
   0.4765162602197039    0.1737209568301689    0.5805442841400339 H
   0.7875316953178355    0.0571272225463311    0.3336671357778549 H
   0.9306941853056052    0.0674601887384349    0.5118743506845429 H
   0.8826831780789185    0.1355033448715822    0.6087093862159312 H
   0.7339406983832520    0.1945434377938848    0.4118085543451641 H
   0.6691838000485739    0.0305337225885108    0.6384431717685706 H
   0.1787531896406215    0.3573494008150790    0.3746483288370832 H
   0.0742656986285445    0.5027893387180782    0.4944712807545892 H
   0.4842320875906671    0.6310662326950501    0.3463461279155605 H
   0.3335383140677234    0.6192323759955253    0.4346757328528692 H
   0.4241224664364314    0.5097862774791985    0.5712753417426921 H
   0.5303901799542819    0.5741931976820954    0.5990480835863573 H
   0.6097722327938535    0.3943412221972251    0.4325745604895264 H
   0.6600928138980459    0.4817286911290327    0.5491779618913912 H
   0.9124959275477208    0.4427741609299162    0.6491830863106893 H
  -0.0082416074012326    0.6591043872627983    0.4362499457305676 H
  -0.0458499089546542    0.3977913705028919    0.4035080145673370 H
   0.2103869492820725    0.7795107634077661    0.6538792898625010 H
   0.1234100256008919    0.8767076727237979    0.6580626982845422 H
   0.2959618431799212   -0.0187061252787524    0.4043624206328925 H
   0.0744130079880393    0.9982266077056592    0.3557650458456859 H
   0.1959299051065322    0.7704431049092604    0.3687651977101605 H
   0.3900747579441643   -0.1707413940408683    0.5707451252126489 H
   0.6423253804980809    0.8165512212417982    0.4189210303696014 H
   1.0364127088043142    0.2379666699934005    0.9180634632174773 H
   0.2268967012660498    1.0214558330931740    0.7914765390262096 H
   0.1461371208531929    1.0614813531617127    0.8967320947616517 H
   0.3833666302268706    0.2504685179617980   -0.0815272500465525 H
   0.6417738957100225    0.3203887371599226    0.6914936079559546 H
   0.4637842160463276    0.3213044703555896   -0.0168090203894739 H
   0.3595735778003362    0.1148624906578782   -0.3212707137230924 H
   0.8504779469523923    0.0766843958164490    0.7497333490680906 H
   0.0776019965342874    0.4458141671561627   -0.0668099540769235 H
   0.3215033614714134    0.4579587651865659   -0.1658437975584010 H
   0.9774482513643418    0.5399163542375762    0.7254373127571375 H
   0.8325883726262129    0.3860350281485603    0.8151287409792530 H
   0.7491846262228271    0.4698037930711335    0.8954027661756148 H
   0.2381780813600198    0.6987066182110161    0.8031261536434454 H
   0.0537830354264349    0.6961235666491303    0.7527313448193922 H
   0.0183695693046813    0.7596047755842781    0.8660083192022029 H
   0.0693978275328787    0.8967078936728153    0.9199555787775459 H
   0.0560304284687770    0.9584822671245868    0.8079246132403369 H
   0.1915779868931169    0.7268572445737508    0.9285541759904757 H
   0.2748085152556898    0.8251051572172576    0.8667559245095640 H
   0.2501804630426727    0.8973014103747373    0.7056496318559236 H
   0.5802881534537730   -0.0338457408174075    0.9230944606354019 H
   0.5539024563001310   -0.1263241543559315    0.7695846559529097 H
   0.5178678480499752   -0.1502510088501868    0.9573562953546106 H
   0.8240584944882328    0.6709146856809410    0.7257342340139618 H
   0.6767720826826478   -0.2390421713800995    0.9914014987486874 H
   0.7478847506686925   -0.1321483694692862    0.9450992040843824 H
  -0.0123692304592363    0.8249767265864961    0.7502961360421222 H
   0.3224568009439222    0.1087160590507784    0.3205609406073717 C
   0.3665637400199792    0.2411759158733192    0.0858583212271714 C
   0.0251879939795867    0.3564693850137658    0.1620034745588678 C
   0.3348566958227996    0.4766108444848667    0.0635793800869400 C
   0.4378066916606525    0.5269524599762612    0.0742079491577497 C
  -0.0465057687160228    0.5080250603630573    0.2352862160805164 C
  -0.1337736098760047    0.3493426249233378    0.2451641500352220 C
   0.2396230455295361    0.7381864980849580    0.2035292757396690 C
   0.1490522176255061    0.9488309712034486    0.1799520615530174 C
   0.1280817309665772    0.8793568394624663    0.2767014292421943 C
   0.2083460854422382    0.8038707863016318    0.2984668178004696 C
   0.0293911223374319    0.8226664951219086    0.2505034304927575 C
   0.5858474162166152   -0.1436607696196268    1.1484629967302837 C
   0.7040975987449055   -0.0134693473108339    1.1009699872299386 C
   0.7599796633560532   -0.1811822723605944    1.1530789103504031 C
   0.3296031554995119    0.2214530746889644    0.5906146109499266 C
   0.3106069103570277    0.0619779486774040    0.4185403349010303 C
   0.4026456501197417    0.0618365989891102    0.4886473975376379 C
   0.4092168319500679    0.1716007115057613    0.5292967356452339 C
   0.6897027354045289    0.1847097551781737    0.6597442421369651 C
   0.6785294315240575    0.0935202076146301    0.5884005782109032 C
   0.8690093163272247    0.0657913504830948    0.5674948978834837 C
   0.7680994440811685    0.0842321651935156    0.5159918607664216 C
   0.1178818532556315    0.4126505664986415    0.3727084937893107 C
   0.0130938215402637    0.3708634949383550    0.3501258143225831 C
   0.4295148772915846    0.4502006431550921    0.3953411651002995 C
   0.5228537146828444    0.5130845204666230    0.4455368397447122 C
   0.4745130750049866    0.5690986813359437    0.5379726687263315 C
   0.5542169136665299    0.5904604189599463    0.3642674466310222 C
   0.4256947532684256    0.6658884123563419    0.5318084470932674 C
   0.9173874865805918    0.5978406965558304    0.5899488104786295 C
   0.6282007076914508    0.6735699319760952    0.3936611361522482 C
   0.3946235821355977   -0.0207777341512739    0.5757443096387710 C
   0.8795844997932650   -0.0201021434367942    0.6388953707234789 C
   0.7378477275260324   -0.0103657337248552    0.4529802466291151 C
  -0.0194778323649052    0.7812046798336101    0.3474815487420388 C
   0.3871522586914744    0.2996141327035319   -0.0120075309838394 C
   0.2166353829679781    0.3714532119174734   -0.0481069447057409 C
   0.3307046445795530    0.3992626231724450   -0.0289396171446776 C
   0.8198983005165721    0.4614244163612714    0.8472886458829332 C
   0.8169158411728316    0.5246229259198315    0.7447167432416957 C
   0.9098473200689658    0.4836344800984052    0.9148291423842135 C
   0.7274057887067713    0.4844370575489811    0.6868481537005900 C
   0.9121598549386222    0.5200392291085042    0.6774163590833064 C
   0.1936699278475500    0.9954497702807900    0.8638571549945989 C
   0.0418576395396989    0.7696284443401691    0.7895624573527534 C
   0.1122367217204206    0.9183754329880515    0.8508941182872274 C
   0.2175777187199219    0.7626635524411743    0.8537815260194056 C
   0.1827749572292396    0.8439935792739424    0.7012011151688606 C
   0.5862212414756346   -0.1190264067393415    0.9197904542010468 C
   0.6804474141896399   -0.1576627481508847    0.9835315705384742 C
  -0.0348476023708828    0.3959150673824753    0.2478069007113947 N
   0.6814023341582239   -0.1229758386214011    1.0908595154541996 N
   0.1395289266209835    0.8219240292860857    0.7991586190943504 N
   0.6493614380960588    1.2870040208899705    0.3241338425676774 Cl
   0.9541822555406229    1.1087164672777974    0.3028645851910854 Cl
   1.6982581158054468    1.5809049803026531    1.0740546812605718 Cl
   0.0457254355364832    1.2767219709834348    0.6656410074032317 Cl
   0.9669618976628209    0.1764879149757488   -0.0774688212351643 Cl
   0.2346574616928990    0.5101628376084806    0.6877926965762529 Cl
   0.2431969630553686    0.1433254542350686    0.2773043611820721 O
   0.3046760430792792    0.2679540823593943    0.1444623968406656 O
   0.1001344065526833    1.0348110988032595    0.1616686806927548 O
   0.4081079403896501    0.1035643948736605    0.2785746084976186 O
   0.4235088008132095    0.1599021249380444    0.0984183933717101 O
   0.5094338912527153    0.4658420500871903    0.0610373705514755 O
   0.4431822248605469    0.6203950911734262    0.0927950683445086 O
   0.1790152374459539    0.6806754136188231    0.1643379421954296 O
   0.2152451971532487    0.9186900500361893    0.1209435064723188 O
   0.3318853401996240    0.7529507010106177    0.1736197612799295 O
   0.2879301519712877    0.3018263313197865    0.5736696481019302 O
   0.6199284358705771    0.2533327490111500    0.6468031715429811 O
   0.4887661808461510    0.0261480825285982    0.4371171527380627 O
   0.4078755025058242    0.0027098723868855    0.6641473116928814 O
   0.7818043962504440    0.1744049069348165    0.4637690925824350 O
   0.1231716657327647    0.4478293881422789    0.4800169797583835 O
   0.4405099294445868    0.3654595291670782    0.3385398256889524 O
   0.3445073094898000    0.4877094548218956    0.4032133656670702 O
   0.5924504287125609    0.4503527840561481    0.4835935174891809 O
   0.7178410438121395    0.6605536015400906    0.4124701888294395 O
   0.9709274064005766    0.5719191395785983    0.5107320370431740 O
   0.7272784660442934    0.5058950041543707    0.5880082179786712 O
   0.0285213308931790    0.6948514194544857    0.3725956334136301 O
   0.1152769204110987    0.9408173558106607    0.3658118916378196 O
   0.3510962572730302    0.6833139411336414    0.4705248086273717 O
   0.5900646092871761    0.7689566533484931    0.4045260303050201 O
   0.3508386509559238   -0.1048648398503325    0.5462697999693226 O
   0.4481104261712822    0.7383194883830839    0.5911849724458160 O
   0.8973763613784730   -0.1085688096392797    0.6196666895353677 O
   0.8747188494417122    0.6831110359359294    0.6052750980056224 O
   0.7058453243618258   -0.0926434114248406    0.4848594071823026 O
   0.7453331156828713   -0.0026629356574018    0.3559218384481415 O
  -0.0856064103133712    0.8255352858386249    0.3979210472450528 O
   0.1958788279919336    0.2846599436376924   -0.0761341904838269 O
   0.3075000893429600    0.1702958866950058    0.6751659686393657 O
   0.7518250909731677    0.1848647838685605    0.7252487071628794 O
   0.8756656266818820    0.0106908101635623    0.7411832287950504 O
   0.1581787356818418    0.4535732011211094   -0.0423275845282695 O
   0.3749041146603178    0.4353341516915596   -0.1168889053395081 O
   0.6642567091098951    0.4326196297206693    0.7338730577501256 O
   0.9914633674613978    0.4448930383541145    0.8908913809571324 O
   0.8016526668842773    0.6257853779426099    0.7815289194704126 O
   0.8996008067316474    0.5429217829863099    0.9904690751079972 O
   0.2704329091050693    0.9648468028206132    0.9296441496858076 O
   0.5961842398145285   -0.1550204209132628    0.8186819491827285 O
