Li1 Co1 H110 Cl3 O55
1.0
  12.7568076849000001    0.0000000000000000    0.0000000000000000
   0.0000000000000000   11.8045411192999996    0.0000000000000000
   0.0000000000000000    0.0000000000000000   13.0172232123999994
Li Co H Cl O
1 1 110 3 55
direct
   0.2550782235552301    0.7213845480005384    0.7694578899637153 Li
   0.6950542848580620    0.3536099808975486    0.6435231976525003 Co
   0.1778716038171416    0.2388227997351562    0.1189097767583427 H
   0.3165967491444283    0.2331961515386070    0.3026355960806848 H
   0.0064492500421860    0.2481692028595956    0.1545610053212765 H
   1.0510649822189513    0.3538514134082407    0.3116267609466686 H
   0.2514934709173010    0.1399710114100547    0.1544757336790923 H
   0.3470118819569475    0.2610117181651792    0.0382007282264555 H
   0.5973080437294160    0.1972786181321799    0.0903802667437772 H
   0.5112308661844598    1.0952982779280376    0.2078826691411618 H
   0.6259609801872306    1.1012112566109513    0.2542858067492348 H
  -0.0019012717052017    0.2548606954980392    0.0306075804108872 H
   0.9849904578692799    0.0766551236981636    0.0487240708598914 H
   0.9510086020078699    0.4133217471471966    0.2604706895530657 H
   1.1069723861413450    0.8051040242607561    1.0981846798618704 H
   0.2397828608893055    0.6861938535210369    0.2600082253314899 H
   0.2523957342643940    0.8503256042107995    0.2065098725232950 H
   0.1350952279808951    0.8439102764793230    0.2677671765572620 H
   0.3281419572903763    0.5535347366461183    1.0283003439204359 H
   0.3362254843409613    0.6090066091553675    0.2218633773944119 H
   0.4096380514292408    0.6833136060250616    0.0888247122549588 H
   0.4006506932412115    0.8724272680843268    0.0857298893927662 H
   0.4979853894026779    0.5817594678434422    0.1042561139235305 H
   0.5241039927578409    0.8717317730272104    0.3124041924952311 H
   0.6233278762924560    0.7849897311594518    0.3113640321031820 H
   0.6636545797050138    0.6937799171464656    1.1525587954816869 H
  -0.0033755433619157    0.6839769100807523    1.0591210491855823 H
   0.9630805877118079   -0.0542161219002091    0.0126152178172355 H
   0.6749363990719668    0.5418654986293365    0.0148136897596033 H
  -0.0356724165434158    0.5705222669510567    1.0108158162077059 H
   0.8234390689242678   -0.0457662381654727    0.2532348913752887 H
   0.8048286135608136    0.5687975069799375    0.2748370407286265 H
   0.7507931513177059    0.7770360124124779    1.1966926319094700 H
   0.8705966348968331   -0.0581324113631189    0.1432352411706272 H
   0.8992950372748313    0.5862458768842318    0.2049673008340524 H
   0.9705667866386006    0.8757564953370276    0.2949772807569499 H
   0.2359386389482592    0.3789197322026223    0.3795260345150936 H
   0.0452802422649776    0.4300559850988125    0.6235611830384719 H
   0.2624687872706021    0.2149438537302889    0.4185289763649624 H
   0.2135106140797286    0.1901474641847919    0.5714194943752980 H
   0.1317260465162506    0.1065333710976622    0.5004811702079468 H
   0.2994686395579967    0.0432582558304715    0.5776235825039451 H
   0.2708431394313274    1.3443295592197513    0.6585041192221817 H
   0.5411866364240889    0.2438657742479621    0.3402826419985251 H
   0.4507259170572870    0.2581450247750673    0.4161797810334366 H
   0.5108420541773718    0.1376346224118489   -0.4946796093706047 H
   0.5955082204062834    0.3497470607264760    0.4828045892470541 H
   0.4544055210114614    0.0622580371632083   -0.4138712846736773 H
   0.5919893149631030    0.4682362070528130    0.5272211280561325 H
   0.5759610103080107    0.1789763395584905    0.6317441878361870 H
   1.4177711453554593    1.4740169383841166    0.6331746004285027 H
   0.7935256290241199    0.1082735488642011    0.3410124443415433 H
   0.9027990487096756    0.3242162080695054    0.6327643746904272 H
   0.9127231616325234    0.2652456819842627    0.3554433254084867 H
   0.9197782182127470    0.1662676710483082    0.4301635621386574 H
   0.8531236114331461    0.2687663609822841    0.5319218233581622 H
   0.7239996142163680    0.0106391733851190    0.3867211174042601 H
   0.9945539790113607    1.0400144686376431    0.5610947117540726 H
   0.1038949457605145    0.6159844322801756    0.6613879907965924 H
   0.2124609784396264    0.5136424616952454    0.3437357594004901 H
   1.0265055463680175    0.9754460968308112    0.4644174112679595 H
   0.1287911429788776    0.5086994487131822    0.4939359955105628 H
   0.0287608664771429    0.5875343640728725    0.5309400471535546 H
   0.3081251939819309    0.8762164878047670    0.6230387982034693 H
   0.3056716020823643    0.7730426339724699    0.5541631259213853 H
   1.0212769655468963    0.7909094868952972    0.3801475188261480 H
   0.3648713657421956    0.6737291589163960    0.4004475471569429 H
   0.6307976134205616   -0.0219223634095271    0.5344753633457331 H
   0.4389651377380544    0.7690280772420504    0.4177162070187380 H
   0.4783151077618391    0.6081687959866853    0.5439443566931457 H
   0.5578318665823629    0.6028081471177056    0.6308745707285065 H
   0.6138537192003913   -0.1103182603321071    0.4536317008511437 H
   0.6927010315409697    0.7047502715796652    0.6522401104801078 H
   0.9302275409032337    0.6448665376118751    0.3927715629343771 H
   0.8512187461564856    0.7907519204146349    0.6336662567437993 H
   0.7674007545075522    0.8451852095621002    0.5632464763464872 H
   0.8965435652085441    0.7249230167625056    0.4855217586020597 H
   0.3175123387095061    0.0268190484069213    0.7011537681481634 H
   0.3002266661927829    0.4322449731957536    0.9834674336693410 H
   0.0863731640169064    0.3241137051439132    0.6682112585973160 H
   0.0638833682085400    0.0696647630254318    0.7420757060536738 H
   0.2286680111947511    1.2515686472170211    0.7276863084883334 H
   0.6169916515882398    0.1834949396007057    0.7455887440690655 H
   0.6335545727530778    0.0199291575439021   -0.1537605110660905 H
   0.6323889206269897    0.1378294626836355   -0.0815438804789685 H
   0.5301384178194589    0.2371971541631631   -0.0106756173365470 H
   0.3360585146685626    0.2388448251571842   -0.0763085089340540 H
   1.4302585955024549    1.3709040780282047    0.7051815088686311 H
   0.6828976384751613    0.3453445177157163   -0.0182487378393969 H
  -0.0925698800725675    0.2705622800091863   -0.1012854179641063 H
  -0.2023724290016399    1.1262016392966185    0.8323215273653151 H
   0.7994346308576450    0.3688735983629842   -0.0321741347571762 H
  -0.1078182090279573    1.0940529944518367    0.9087510380041336 H
  -0.0589031500717407    0.0950190734535315    0.7587605240410544 H
  -0.0280133687304075    0.3928270919501002   -0.0975926181084343 H
   0.7181399977789047    0.4564932685853989    0.8298248351392004 H
   0.2325663219029124   -0.1050618086519523    0.8543922866441698 H
   0.0466399633196841    0.7109961729878490    0.7330031106104690 H
   0.0777412239014854    0.5675174911074613    0.8427308134157321 H
   0.2981203398559983   -0.1517277480080657    0.9389418086153061 H
   0.3165207113123970    0.5640349330321808    0.8887390895455827 H
   0.1211465972266176    0.5235250991329061    0.9485675174132195 H
   1.1301051327727223    0.8021263566288876    0.9797185542652055 H
   0.3435650948699205    0.5412343855750713    0.7727496826372237 H
   0.6267401719917575    0.7279142385002375    0.7506274530878613 H
   0.4661780587583277    0.8297860510380305   -0.0240452889754428 H
   0.6295010508001516    0.6617905330455788   -0.0218462024626809 H
   0.6838194992016439    0.5618899957792958    0.7421125802773210 H
  -0.0292993487659472   -0.1157771764685965    0.7272292217577062 H
  -0.0852169433256234   -0.2036747058612112    0.8027875788628588 H
  -0.2508673201437454    0.7814656636349644   -0.0818957220296025 H
  -0.1583833673287706    0.7190151208692906   -0.0227491600142426 H
   0.3876874187226385    0.9753783263014941    0.2110000774653383 Cl
   0.2364630648207225    0.0869765753131523    0.8218661485353390 Cl
   0.6036599463371439    0.8507305331234690    0.8751109910559592 Cl
   0.2474689530858712    0.2239954550521992    0.1466653121828126 O
   0.0237417424469368    0.2013389199698885    0.0900042264838747 O
   0.5724483760262350    1.1467022244150302    0.2202900771854633 O
   0.6025138915904454    0.2268740082849414    0.0166793718335548 O
   0.9802714089122858    0.3397229523088658    0.2807684132448826 O
   0.7467388454696041    0.0455177422205347    0.3208491579234403 O
   0.9308389791401863    0.0178874856350639    0.0264001853999582 O
   1.0732100209290973    0.7927342083971591    1.0312425996822880 O
   0.1862749600993634    0.8042560455126764    0.2152897788162999 O
   0.2813261696143640    0.6175507786390163    0.2718970896057522 O
   0.4002007374104283    0.8279130430340301    0.0204918592734817 O
   0.6349945881906190    0.6126179312363506    0.0386986454776420 O
   0.4241628451375699    0.6005640954656943    0.1143066445063797 O
   0.8805442646749482    0.5600534144348033    0.2764687251250165 O
  -0.0532465624847526    0.6228961791388997    1.0741703417116095 O
   0.7016766313013653    0.7169210115133933    1.2182025957036897 O
   0.8500193865378477   -0.1071754020350283    0.2060742957564620 O
   0.3141525639869686    0.2633862280861258    0.3763878844401155 O
   0.1908192004322029    0.4522067826060946    0.3889258886931676 O
   0.2069110005965173    0.1337039317114593    0.5168556301462965 O
   1.0170439315987623    1.0512559051881110    0.4933974782027147 O
   0.2166046483377444    1.2912228781836677    0.6623052371098174 O
   0.5263310389516649    0.0848146954279380   -0.4409692297764382 O
   0.5282539338173636    0.2625390964696624    0.4144489971609946 O
   0.6450927258424456    0.4077188186359084    0.5105800982093329 O
   0.3432476173238104    0.0093550065677223    0.6322788640790721 O
   0.8360190187019819    0.2883537382181484    0.6063378477432431 O
   0.8710042603881349    0.2269087406812164    0.4091168307790061 O
   0.2779303357137498    0.7959431429603220    0.6204207283245158 O
   0.0916680623698817    0.5419612245019968    0.5524123685111343 O
   1.0344464044966468    0.8626412036509429    0.3415079417218030 O
   0.5650923036985886    0.8182083032358268    0.3559626373915187 O
   0.4039618664628631    0.7119602087673843    0.4542762315519777 O
   0.5187711538783676    0.5533271894000849    0.5841203597827921 O
   0.6725314086732862   -0.0689799317119314    0.4895456582575641 O
   0.8141444238274110    0.7775180303022455    0.5672189057314839 O
   0.9565742577544907    0.6919170747218627    0.4478117192188220 O
   0.0221665050916080    0.3693827244644787    0.6687175109594728 O
   0.6037649882906717    0.2288435892932186    0.6839273600009640 O
   1.3755897459574784    1.4195633180778562    0.6756214411244247 O
   0.3732786415002954    0.2901361031391871   -0.0281319516324468 O
   0.6387651239851607    0.1050559735585502   -0.1539187629425765 O
   0.6946443076812335    0.4751420239902218    0.7555632215656422 O
  -0.1317121178748233    1.1460499330703535    0.8541157299668154 O
   0.7298678535007629    0.4091055730920588   -0.0284720395242932 O
  -0.0585637234607144    0.3291066988913479   -0.0578614103415326 O
  -0.0051432269828495    0.0477127873085336    0.7184769711324368 O
   0.2416171756001636   -0.1723460844211658    0.8932638640722953 O
   0.1072946207474891    0.6598133278527535    0.7268335920664911 O
   0.0584277713445707    0.5289060791606810    0.9057242788130897 O
   0.2780745724260565    0.5105165460304959    0.9855800193991303 O
   0.3428823221719900    0.6014713734269266    0.8230722429338005 O
   0.6469834810059455    0.6685421720287912    0.7009793837988317 O
  -0.1812354794872902    0.7450500168380569   -0.0907148071852326 O
  -0.0468131347787643   -0.1936446675222858    0.7355927566086944 O
