Li1 Co1 H90 C51 N3 Cl6 O45
1.0
  13.8885309927999998    0.0000000000000000    0.0000000000000000
   0.0000000000000000   13.5542367450000008    0.0000000000000000
   0.0000000000000000    0.0000000000000000   14.0087729149999998
Li Co H C N Cl O
1 1 90 51 3 6 45
direct
   0.9303568535504994    0.8563611578336792    0.4988859837978179 Li
   0.4277723826933144    0.1040340300253476    0.6906762295461194 Co
   0.3760894509007356    1.1299287566413241    0.1963495642473265 H
   0.0040738646102552    0.1219524126365700    1.0086691063690498 H
   0.3045671278764387    1.0035594130756051    0.0941400410658309 H
   0.5106483398839423    0.3475505084591172   -0.0098954807349020 H
   0.6667479807404100    1.1091669826444364    0.2072413105070310 H
   0.4183545400094620    0.9511617743622346    0.1301681787951232 H
   0.6375065872330232    1.2298554456523918    0.3321251965272506 H
  -0.1636976586133280    0.0755720806542545    0.9342671579382940 H
  -0.1115877558183390    0.2526561942901935    1.1007157122940627 H
   0.7767804961153069    1.1213779247368458    0.1441137257167110 H
   0.9222667250798749    1.1000746226452309    0.3442782952342546 H
   0.1085895978258496    0.4004143482665721    0.2127400076782528 H
   1.0504775488828473    0.4240088896647053    0.0585816090016904 H
   0.3838750115230978    0.5051456604537861    0.0282706029930674 H
   0.4504082539861803    0.3672993150526529    0.2135495004203229 H
   0.5494429899645966    0.4736609661822754    0.2639400666949850 H
   0.4170851472990926    0.5666259205139773    0.2917519244761060 H
   0.7477032668381893    0.5675887191020138    0.0356631134312309 H
   0.8471968706409495    0.4726869386329285    0.2829538662344717 H
   0.8690501537676778    0.6402198836980695    0.1129953684812086 H
   0.7336593049460989    0.6069026258918276    0.3269006133004334 H
   0.1826492662337777    0.8404045234566249    0.2454009696894284 H
   0.1742804905828284    0.7574444851191803    0.1464080023243064 H
   0.0528594417422972    0.9208502188147371    0.2195000572967743 H
   0.3194873523485176    0.8318595937657129    0.3079025182056783 H
   0.9912553028133096    0.7266305036418338    0.2987718112710945 H
   0.8015073732902963    0.7328160234595341    0.1746181819308904 H
   0.9017015551459151    0.9357149436819874    0.2757391015571330 H
   0.1826874272171297    0.2986005002452833    0.5996075822248419 H
   0.2519143310918760    0.1877628316798299    0.3828862449298972 H
   0.1177878348507896    0.2881653866596972    0.3390979699880445 H
   0.1854162975360747    0.0794446705305795    0.4064529057647302 H
   0.0697273164024357    0.3395655512803277    0.5401838907244504 H
   0.0518658161380375    0.1001651290325016    0.5420059632325049 H
   0.8022641127903520    1.1350061358619128    0.4205069561226448 H
   0.2122283484429019    0.4727371664703795    0.5737160211151870 H
   0.0759230760579824    0.7111010419716555    0.5989187281718458 H
   0.3759915283774173    0.4693709348736921    0.3733929080896948 H
   0.4965507870108917    0.3635602627582701    0.5882868190886082 H
   0.4428430910431399    0.3754355164540842    0.4808608504380200 H
   0.5878325792074335    0.5184878355538860    0.6516442598427259 H
   0.5962329636728951    0.3852479465084037    0.4309946698497111 H
   0.4009106505062743    0.4454731008536770    0.5774149889201770 H
   0.5350897801036443    0.6244535957085350    0.4184446769940378 H
   0.5024808598200819    0.6137034514738365    0.6179546567016360 H
   0.6266746281094853    0.6068627859502538    0.5687992450051076 H
   0.6553306465326233    0.4111673698303843    0.5390385370166449 H
   0.4250507125599076    0.5936750275125875    0.4676304268224338 H
   0.6703999148453410    0.4944246583985721    0.4396164100073143 H
   0.9472225681549764    0.5204035465222353    0.3514245314254921 H
   0.3233668123164531   -0.0070308737624163    0.4317527662272053 H
   0.1852679737139896    0.7666548893897160    0.6099446760501650 H
   0.6777268236489253    0.9754021654798829    0.5006543042745868 H
   0.7909504612543143    1.0067591506053482    0.4258350459170106 H
   0.0686933697591626    0.1707135500162758    0.7707988788895291 H
   0.0241177411112556    0.0506470327628913    0.7398282862021823 H
   0.0541137140630365    0.0279080172212235    0.9368790926325041 H
   0.0956760650632430    0.1499938292910495    0.9194650049404417 H
   0.4347342420901165    0.2716952597023566   -0.0929712795262339 H
  -0.0200525170908556    0.2772580959887904    0.8673255345934059 H
  -0.0433091163789623    0.1655705086697598    0.7128865974268668 H
  -0.1276549698466393    0.2475035618466320    0.8054821450790860 H
  -0.0833824690098869   -0.0165326998277984    0.8747780074569079 H
  -0.1685635439999851    0.0527297763751728    0.8059682690273662 H
  -0.2054673749570322    0.2183156402068584    0.9807644495963336 H
   0.2462125041642439    0.2677105277682679   -0.0259918227463108 H
   0.2474336556315079    0.3842866234737587   -0.0776030526796501 H
   0.3078828133167400    0.6749367038962694    0.6386252751602977 H
  -0.0149893466204542    0.6242455426803155    0.7565756488315521 H
   0.5133363851508862    0.3474671396924903   -0.2106032812724768 H
   0.6555912932491029   -0.3253556958215871    0.8619339131817172 H
  -0.0470820136009338    0.5607864179666134    0.9148964392003638 H
  -0.1426803170275746    0.3408684649251343    0.9585733553523021 H
   0.2133753379991233    0.7005235374837774    0.8559976330732034 H
   0.1322494075040906    0.8532425757404756    0.7948530913494359 H
   0.0243611073824438    0.7239376187021145    0.8194648115973118 H
   0.2556656277572331    0.8351596689260867    0.0149546615375341 H
   0.5931368838915062   -0.0770812954765163    0.7102489645503687 H
   0.4871366164216636   -0.2170397480024243    0.9887358829743725 H
   0.5171549531497259   -0.3288675128936594    0.8559712210525187 H
   0.4455790895457676   -0.1810982184891740    0.8313901958557089 H
   0.5015058106945106   -0.0625279123748993    0.8629425668365187 H
   0.5880703293339020   -0.2986629349670548    0.7538245156499490 H
   0.5726213952377595   -0.1117523735195758    1.0035180484971120 H
   0.5196757525069905   -0.1844883024064370    0.6840118342727808 H
   0.4272582894458932   -0.0831340154889703    0.6246119135910057 H
   0.6148058422684589   -0.2376436377864079    1.0168625434885208 H
   0.6625689930540889   -0.0539438805191092    0.8696555031208456 H
   0.6984914387222909   -0.1351384192234721    0.7774161608286732 H
   0.7268104884622453   -0.1622295794937438    0.9086303657524882 H
   0.3370918059892051    0.9993622014531219    0.2484640502504712 C
   0.3870718939020201    0.2825059016261118    0.1092512860895354 C
   0.7388945598508612    1.1360146766050898    0.2105720804669065 C
   0.7383365454716574    1.2482482186790222    0.2352623229384399 C
   0.7900173172085748    1.0663818365008202    0.2868678421646040 C
   0.2605847945168723    0.3448377035486110   -0.0098212415416258 C
   0.1787014045032300    0.3747456952434985    0.0551423356054880 C
   0.3640377803470412    0.3581626884516986    0.0280150488469818 C
   0.4417731434721762    0.5105898622475330    0.3473449449872819 C
   0.9834560618384252    0.4755330302813004    0.2120083233214435 C
   0.7362132107564677    0.5854739017619247    0.1719163035986725 C
   0.9137683460892396    0.5185986496135973    0.2827261517858647 C
   0.8914513710138566    0.6309157817871655    0.2666148191681213 C
   0.8303959577063155    0.6547592490424661    0.1768018135869683 C
   0.1277600918210769    0.8944798663762752    0.1046613051975509 C
   0.1926258433153878    0.8322897175793723    0.1659364793479487 C
   0.3042467196199927    0.8443656465364475    0.1365306204265786 C
   0.3400618825236770    0.9549030399867049    0.1449196492667966 C
   0.3757488821247828    0.7768620299762957    0.1886536724904859 C
   0.7717828473333023    0.9633439431635071    0.2412685592098485 C
   0.1354254093449525    0.1986229046422045    0.4910366881694863 C
   0.1441822749964062    0.3073556962945020    0.5302017173500596 C
   0.2211680988070236    0.1453251783599416    0.4435820678373814 C
   0.3022882691536258    0.1155374442664717    0.5086400929427872 C
   0.0573221167388199    0.1935499520817909    0.4146984530871740 C
   0.6522345667512345    1.0755472363929113    0.4184596676003725 C
   0.7580506534750121    1.0722176501647049    0.3909283483092281 C
   0.1984385531003068    0.3774415312900011    0.4698412557214330 C
   0.5649253329216360    0.5661020990599497    0.5976687971388963 C
   0.4637419175749359    0.4198295322382610    0.5439893632182559 C
   0.4885361884865621    0.5617861053894406    0.4364348322723883 C
   0.6232322194037132    0.4443938073253714    0.4763363999108697 C
   0.0757113906031619    0.8498960206482654    0.6663450477882202 C
   0.1223736330200142    0.7504710197903511    0.6485768962513017 C
   0.8488471531662852    0.6686855219526417    0.3619215250517179 C
   0.0021571752200093    0.1291058954791777    0.7639531686633811 C
   0.0351563455597374    0.1078822732707108    0.9366513781838972 C
  -0.0854611625747403    0.2312385368107277    0.8704314454582620 C
  -0.1227012421964172    0.0554027413441051    0.8717256344718184 C
  -0.1393754318655805    0.2584219191679760    0.9640013825222321 C
   0.2055019351131962    0.5919095278795058    0.7001438682040340 C
   0.0851479537694134    0.6037493682939209    0.8879718825465734 C
   0.0562255284813652    0.6551310884971561    0.7936331415291559 C
   0.4454651826105547    0.3445211973461070   -0.0521982579728326 C
   0.4545490086872941    0.4301709481834788   -0.1177314781606623 C
   0.1477859678582320    0.6852795953948788    0.7362076978531706 C
   0.5650028789198815   -0.1902776361384855    0.9849782376531585 C
   0.5037591807605186   -0.1326130095937025    0.8289724252054521 C
   0.5213911391099618   -0.1102406690698540    0.7217224891035362 C
   0.5880904178515532   -0.2945387632374574    0.8351385612777634 C
   0.6759937389899014   -0.1322846989640655    0.8549475767913824 C
   0.5353682832802585    0.4978441796059981    0.5141769090844028 N
  -0.0443416229851278    0.1285857629086292    0.8642795861538883 N
   0.5856961401545643   -0.1888994692707059    0.8750299924110092 N
   0.0281181641962315    0.9136259094093313    0.3558781691836712 Cl
   0.3720443866654234   -0.2202254677749470    0.5479264675124473 Cl
   0.7803330676598121    0.9023039882353773    0.5869547966400167 Cl
   0.3358375336684657    0.1245213510913926    0.8184725762256386 Cl
   0.5635773861870458    0.2034996086015318    0.7050900544560651 Cl
   0.8055337170432094    0.5484198049913875    0.9071391573413909 Cl
   0.3604664883201368    1.0952333319673027    0.2660401792586271 O
   0.3679294806303915    0.1916479637599837    0.0991040732777843 O
   0.4308238213243670    0.3034004754282459    0.1904646805033887 O
  -0.0790306768706511    0.2397347732397159    1.0423501434493772 O
   0.6852308570167472    1.2848862093931206    0.3066054738385343 O
   0.8940095969355484    1.0848188761291995    0.2766214058156856 O
   0.7941855046165888    1.3029617384405514    0.1947762644205872 O
   0.0969368175509667    0.3952713806977259    0.0113776173307325 O
   0.1862169581679129    0.3680739805832571    0.1432956669138783 O
   1.0577122953115436    0.4318893776633677    0.2587076312458021 O
   0.3734145819733264    0.4514231961277433    0.0767759220615505 O
   0.4976811441385200    0.4371074508998478    0.2957051615180672 O
   0.9710659825644393    0.4643728076257679    0.1247251610188586 O
   0.6867551362951659    0.5631709122474826    0.2450304875614439 O
   0.6985836010971789    0.5595285087002514    0.0893023582501266 O
   0.0517750938002573    0.9325203705891150    0.1470940010237149 O
   0.3133059930640471    0.9487595734406659    0.3154827681422231 O
   0.3190776617913990    0.8168591179864328    0.0407670579689742 O
   0.3586268409151488    0.7730602666627688    0.2844657759590787 O
   0.4447543802942321    0.7329916143131376    0.1508038191723375 O
   0.6969671594438723    0.9375180699265556    0.2050384052142371 O
   0.9785181745963868    0.6805703667455013    0.2476274316493194 O
   0.8470831077094473    0.9029967605527462    0.2418988785142999 O
   0.0682627986639834    0.2380179668685579    0.3316148020734763 O
   0.1018948653125117    0.1420044454520851    0.5711804671294438 O
   0.3352492785100019    0.1645944301011986    0.5767304892814019 O
   0.3512257702005220    0.0321731042997213    0.4862271305866193 O
   0.5933384890865735    1.1353012465402381    0.3821538467346910 O
  -0.0191524938985914    0.1497621674085640    0.4341227097048707 O
   0.2001190764049025    0.3661380545334425    0.3816063326842785 O
   0.2210766564506896    0.4647247197319040    0.5064907469449118 O
   0.7669335223733829    0.6320143312872317    0.3911175154844032 O
   0.6203435049658220    1.0053049927378996    0.4742721220347514 O
   0.0292997146430359    0.8907061385771892    0.6053297108142894 O
   0.8980561012079682    0.7302647916454110    0.4036425239961854 O
   0.0220700083442161    0.5460744128753964    0.9325903515440062 O
   0.1721701162016073    0.5086652241811642    0.6979723718007032 O
   0.1685865838592882    0.6167851447322494    0.9197783799966751 O
   0.2929129075644482    0.6035752529937088    0.6538835708937609 O
   0.4994347493263276    0.4159431459377243   -0.2031079781051615 O
   0.4322811388772811    0.5167331812382328   -0.0945467208681639 O
   0.2079377578807400    0.7456120224717234    0.7973750824056384 O
   0.0905581731827519    0.8938549695149212    0.7523768513810619 O
   0.1399356055660269    0.9020951974304621    0.0186530582718065 O
   0.4451408862539180   -0.0503804190783300    0.6856829299598937 O
