Li1 Co1 H90 C51 N3 Cl6 O45
1.0
  14.2379153354000003    0.0000000000000000    0.0000000000000000
   0.0000000000000000   13.8952114741999999    0.0000000000000000
   0.0000000000000000    0.0000000000000000   14.3611821020000008
Li Co H C N Cl O
1 1 90 51 3 6 45
direct
   1.0259178975367627    0.5926479962100842    0.3914915228473440 Li
   0.5433391043536967    0.5342214654942758    0.5923851525993274 Co
   0.2358900223159421    0.1256058060246603    1.0328092037029724 H
   0.0996011096283260    0.1577636469347949    1.1497410821564973 H
   0.1958371082083461    0.2821475041512974    1.0929261212288470 H
   0.0072196079115898    0.1811789076959653    0.3408195102768289 H
   0.5796609244950349    0.0876243761644585    0.0345431906285008 H
   0.4721046591341567    0.2112900003394178    0.1013935371515979 H
   0.5557034846616974    0.3030014508895700    0.1224781524603775 H
   0.6234453539788956    0.2279201898424030    0.2918458258680745 H
   0.4532904582002618    0.0036774709902673    0.2746049052919390 H
   0.0255151233619689    0.1856747010932800    1.0517296517601111 H
   0.7710006632014854    1.1053829058750837    0.2022633673446333 H
   1.0597205988917415    0.3770996394570296    0.1580344177018639 H
   0.2924544828446276    0.4553610608120874    0.2484817075401499 H
   0.1985116570522573    0.6306726064134651    0.3314177772550607 H
   0.4692765765777248    0.3905474376677263    0.2506542306499053 H
   0.4416715521945004    0.6284243498786146    0.1344242442779938 H
   0.7809220594643766    0.3351772836093624    0.0398958140723115 H
   0.8944639623285282    0.3499212117878139    0.1356386289906263 H
   0.8417090482623885    0.4020487379751548    0.2312776920040200 H
   0.8654456692521006    0.5850511345001349    0.1944311430053615 H
   0.2005098428350639    0.7020475546711057    0.1235637176937456 H
   0.2339606668342656    0.8233209878339515    0.1138430694206095 H
   0.2854471367795797    0.8630620166786954    0.2884547401166294 H
   0.3237673534087280    0.7606965361215243    0.3493208995867658 H
   0.1108422215628847   -0.0391200064791598    0.2878294434010652 H
   0.4517919242156586    0.7970853309908095    0.2314037261972461 H
   0.6246674429989600    0.7481130644467929    0.3017955639178483 H
   0.7110143534166193    0.9469391136314139    0.2231871323847099 H
   0.7691338168708352    0.6926068923074153    1.0924379998506617 H
   0.8460889029342977    0.8204113523760768    1.0146637614859484 H
   0.9072397090382827    0.8430428899085493    0.2816029364627856 H
   0.1196173826069568    0.0858986017820732    0.5426518510558191 H
   0.1292669694153855    0.2037176074906031    0.3525580982846032 H
   0.2343195676901580    0.1760224550480127    0.5812327280382814 H
   0.1623497620085448    0.3114511243773036    0.5124466870993236 H
   0.3534458554959950    0.0433011932360418    0.5692715956760590 H
   0.5056880165805343    0.0792157240027448    0.6123180521313327 H
   0.4211214932071059    0.3136346103973857    0.5756515022428896 H
   0.3838667415454506    0.1638923769766601    0.5144249197962019 H
   0.5312651457754642    0.2651006243366354    0.5298733068735514 H
   0.5268652038932252    0.3566810945124781    0.6100745042276047 H
   0.7152867485367643    1.0290566115995903    0.3190608557468175 H
  -0.1285474587174584    0.0856359213610679    0.5970191722452960 H
  -0.0788407437013646    0.3190767729827057    0.4418202489136573 H
   0.0614979191527410    0.3096253155332205    0.5794078782582378 H
   0.3930288974458765    0.3189421942464646    0.3246752960782142 H
   0.1148231414282441    0.7017618447337385    0.6459113870374346 H
   0.1185638575896599    0.9109936369520993    0.5047612375857610 H
   0.6619285158107192    0.7984728593516263    0.4577279923276333 H
   0.6402497803547937    0.9321822313500088    0.4636556380740196 H
   0.8007269250895365    0.9444871898112360    0.4839925433458583 H
  -0.0634016857478834    0.7914287060343674    0.5873980979480236 H
  -0.1422411768922844    0.7276304686598593    0.6644885485903714 H
   0.2306090525792382    0.0790804255941174    0.7917984028220353 H
   0.0518876639449580    0.0398086231452513    0.8735131246092182 H
   0.0671307662452221    0.1353933504785551    0.7999920180247568 H
   0.2998530378660985    0.0730135873774754    0.8987331933631377 H
   0.2528826784949306    0.2578060250289386    0.9156781772977201 H
   0.1267342952738036    0.2846958640712416    0.9137277807495070 H
   0.1887728717923642    0.2440782742599650    0.8154823863259164 H
   0.0113992928302127    0.1643508082867433    0.9004635523143372 H
   0.2032377702798515   -0.0076177871129589    0.8745569105520141 H
   0.1389334126240909    0.0402209954226103    1.0278012594063826 H
   0.4387518831965648    0.0833185762771311    0.7135910524783903 H
   0.5741887750851923    0.1583876028937307    0.7745881203923195 H
   0.4417347636955383    0.2475766017298460    0.8094069811552064 H
   0.6105108761665351    0.2805901331073101    0.7367019633799223 H
   0.3558317384851669    0.2371255193357682    0.7203544233005228 H
   0.6220364398557638    0.1688645934937159    0.6604470985490188 H
  -0.0713768701288214    0.5776464253173317    0.6775243835704131 H
   0.4160273485734692    0.3466243925861013    0.7263692484999033 H
   0.9653521489923833    0.4831540886992167   -0.1404737391860697 H
   0.8268522384684667    0.5415953007317059   -0.0370783508779436 H
   0.9470004455410816    0.5403069432257234    0.0222189962312059 H
   0.1407468803538647    0.7665294808126139    0.7441386771017772 H
   0.2491855080342298    0.8322621975615387   -0.0406449096497920 H
   0.0464830806062246    0.7502375373311971    0.8902276261241436 H
   0.0028376461896460    0.8544820824890386    0.8034569138562128 H
   0.5426546642674595    0.8921475761716479    0.9902764932574351 H
   0.4919791276454594    0.7989982201936369    0.9255011848327581 H
   0.6490080849985892    0.9014723712811415    0.7676562397648788 H
   0.5805398452994652    0.9665818517435170    0.8544561975362104 H
   0.5399891055036958    0.8542669004455302    0.7911912104657191 H
   0.5769058161048011    0.7186165720212541    0.8195823273740701 H
   0.5803056818056207    0.7817850960577358    1.0231379942570134 H
   0.7138553592132634    0.9270545655975089    0.9834420976413297 H
   0.7747013454122439    0.8814489264766774    0.8834753964461636 H
   0.7048877542660317    0.7258248106425930    0.8052394969206275 H
   0.6482860691867350    0.6748353023997333    0.9167080368103252 H
   0.7969693525278441    0.7303537089696783    0.9407255583172746 H
   0.0988713679663450    0.1835365544335358    1.0783054584930991 C
   0.3396243096190704    0.3326785810840740    0.1913520092901890 C
   0.5354845134697386    0.2318280109000977    0.1459525431898879 C
   0.4923534099666044    0.2363943321912714    0.2423979465113254 C
   0.6196456404165112    0.1607085463395991    0.1429764650581269 C
   0.4366476425620170    0.1434990205656297    0.2727882024735571 C
   0.4256081050807679    0.3244951863792772    0.2537640025114974 C
   0.3474267158971717    0.6300112274904409    0.2218919743769711 C
   0.9702419097726642    0.4645245701430838    0.2153444632227949 C
   0.8851234095251733    0.4169783416292758    0.1733604541267727 C
   0.7317006683062509    0.4567238324428149    0.0815852791697996 C
   0.8308682758344026    0.4905883764170974    0.1076485932717685 C
   0.3203462065025590    0.7341024824299972    0.0262583573080299 C
   0.2629192601597130    0.7518596788899529    0.1152357124396834 C
   0.2773202447961510    0.7833244752920653    0.2917232732823960 C
   0.3253448315346273    0.7410624340780572    0.2031588368058979 C
   0.1750461431669962    0.7633873911739592    0.3073849366749016 C
   0.8438104794968901    0.9981581973655085    0.2534938297657971 C
   0.7532333149597779    0.9661356548640012    0.2885048752653161 C
   0.7810428636663600    0.7884471033378611    0.3156140642746095 C
   0.0565800643719987    0.1971239690871779    0.4954172296171334 C
   0.0712036939620921    0.1671827191268959    0.3859348772012389 C
   0.0851853756416459    0.3041939480336952    0.5085114929350403 C
   0.0966392996296985    0.0622386524095554    0.3765491595741900 C
   0.4508058950344698    0.1197994892118646    0.6472302199764975 C
   0.4923166770610013    0.2910066712268447    0.5899062480253758 C
   0.3665165892105927    0.1211035355758688    0.5826589337541150 C
  -0.0475032908868606    0.1774330129251917    0.5161622837417872 C
   0.0384776951747908    0.3888029518032969    0.4570995621652761 C
  -0.0503204167831127    0.6434431929086386    0.5714728072320073 C
   0.1072560224040058    0.8561099814268849    0.6301605944917081 C
   0.5752293066272758    0.8619242146359302    0.3541185547874755 C
   0.6615520562045383    0.8666243949909586    0.4180220686822121 C
  -0.0725329382478019    0.7337009052384330    0.6322189208738994 C
   0.7511304790252531    0.8864945495771374    0.3627362297895051 C
   0.1817957267778121    0.2400257990526208    0.8878531697766225 C
   0.0642595593980821    0.1173828293386162    0.8688686601406066 C
   0.2262657201079285    0.0658204618762491    0.8647638448418861 C
   0.1620596914537824    0.1171266259690878    1.0153559050664280 C
   0.5831201387718289    0.2078938663483936    0.7171193135672140 C
   0.4248903033689829    0.2693992275000996    0.7363127196560911 C
   0.9195062519896771    0.4076010824028197   -0.0337499340623569 C
   0.8798417374384578    0.5006504039191328    0.0093105880874095 C
  -0.0106004165809826    0.6706122648368322    0.7903514467252174 C
   0.0910570217380477    0.7654989099554096    0.6823164681990467 C
  -0.0055940656987874    0.7497092977996413    0.7171123503521186 C
   0.5555792389446574    0.8220075857289252    0.9633511331266594 C
   0.5968382284920550    0.8952810297416668    0.8221538427087901 C
   0.7246378365902921    0.8640911481911270    0.9393329152982005 C
   0.6455433923917052    0.7285530886591161    0.8543879580282757 C
   0.7766777583446930    0.7862153992678959    0.9946486960158177 C
   0.4910565206703118    0.2212804924062536    0.6740567024529190 N
   0.1606198739301432    0.1356056538325182    0.9086188698340342 N
   0.6353853041749279    0.8292741178135555    0.8968155239258729 N
   0.7725360003266928    1.0273956077319735    0.6140686044063087 Cl
   0.5922933215674360    0.4943821294015611    0.4607867238225763 Cl
   0.3970182455113744    0.5251733844173205    0.6361983983009033 Cl
   0.4746468150008943    0.0833070615189501    0.9408174727565334 Cl
   0.6350039281186665    0.5119340033297008    0.7128543443213000 Cl
   0.0922222204071781    0.8651116436349228   -0.0591782029476281 Cl
   0.1274928332862574    0.2801050739189332    1.0773960626016439 O
   0.3154943726229007    0.2776538697711416    0.1289560314635999 O
   0.0993307048738865    0.0309393806562956    0.2905471862527880 O
   0.4601735585482697    0.0592772005398660    0.2266729178614519 O
   0.5640497907887285    0.2538075252505681    0.3143425811981950 O
   0.6291119138719302    0.0918733219332668    0.0822627999985791 O
   0.6816364571342878    0.1677872439314012    0.2035898598203013 O
   0.8416022910606358    1.0836142555338037    0.2134727510051596 O
   0.2836196220495752    0.4051351249711087    0.2039846741162088 O
   1.0590329982304523    0.4420534547822449    0.1857306057436970 O
   0.3001669883212529    0.5816722726463822    0.2781324700592533 O
   0.1455516567827504    0.6779147805407786    0.3416376880505348 O
   0.4272410688575782    0.5968789501692348    0.1925239183907397 O
   0.6749170745739677    0.5201595708363358    0.0700068451092189 O
   0.9661106870048370    0.5327385085750335    0.2705725074302104 O
   0.7213213398358413    0.3653373139750843    0.0486687687709678 O
   0.8200738585071780    0.5842782063572317    0.1464030632065583 O
   0.1118219998289708    0.8226308220154745    0.2939723917582004 O
   0.4012737842312426    0.8001835206138990    0.1875055292715068 O
   0.5655497997083559    0.7918259651916137    0.2957111065675142 O
   0.7289151481605178    0.7174363093076962    0.3115607767675948 O
   0.9220522707814780    0.9577939322342149    0.2541003258006038 O
   0.8699716127264083    0.7808811875405233    0.2852321641704924 O
   0.1152361232350245    0.1548979114924855    0.5579302590894756 O
   0.2867605313011433    0.1593965835793454    0.6274783640369719 O
   0.3728454651645013    0.1425720825320550    0.3302772026224391 O
  -0.0610621578594726    0.1149661694653678    0.5837103792335159 O
  -0.1081027522317936    0.2268277271599756    0.4709599114447605 O
   0.0888432145017010    0.4581682149221507    0.4454515655858926 O
  -0.0682464961274263    0.5589104744119865    0.6089116473066779 O
  -0.0155526865122898    0.6565448287015175    0.4934224077566118 O
  -0.0453344340512519    0.3838292959414685    0.4177581628300976 O
   0.1047823456633925    0.9341793222220351    0.6726870380436597 O
   0.1145485225737354    0.0086705580065262    0.4447394375780891 O
   0.1250711304464975    0.8486973558478323    0.5424581344118660 O
   0.5118676361334925    0.9187862495511268    0.3713253556096437 O
   0.8219449189378975    0.8985353882725868    0.4318976674027554 O
   0.9113126367551527    0.3228528939937046   -0.0068990803331017 O
  -0.0465909382218815    0.5906142020463558    0.7741438672692349 O
   0.3815033337566478    0.6708850206712459    0.0243963935915280 O
   0.9716894531464303    0.4193585141125379   -0.1078754477170963 O
   0.3066307154773756    0.7909292533982643   -0.0491435136736908 O
   0.0259267004687263    0.6804235584794754    0.8748082826169570 O
  -0.0428115928098315    0.8309660675937840    0.7599096629712800 O
   0.7314850468527109    0.7434208004880140    1.0663781673562405 O
