Li1 Co1 H110 Cl3 O55
1.0
  12.5212692623000006    0.0000000000000000    0.0000000000000000
   0.0000000000000000   12.5237198349999996    0.0000000000000000
   0.0000000000000000    0.0000000000000000   12.5027085200000005
Li Co H Cl O
1 1 110 3 55
direct
   0.7597285412383684    0.2755008067058057    0.6671947719692980 Li
   0.5392668658145033    0.6404267280944009    0.2783854198018207 Co
   0.2637884037079869    0.2167283325769160    0.1754501239864144 H
   1.2175447481990851    1.0320691525993404    0.2006046734583876 H
   0.3335193536388263    0.1435655652783932    0.0961689827509472 H
   0.5905771592473263    0.1516126951509691    0.2667447421224853 H
   0.6061490630148669    0.0594628375044610    0.1772057435759528 H
   0.3379142754991595    1.1951117650900405    0.2904628028551369 H
  -0.3349647931881932    0.0815729616247839    0.0377567596049180 H
   0.5820588534936804    0.3304365613429582    0.0974138330148002 H
  -0.0876735693405535    1.0692865293963996    0.2060378961789953 H
   0.7769855776835944    0.1425802350280699    0.2515752290768433 H
   0.7997588280647320    0.2051558922868542    0.0998187519131254 H
   0.8524140330753854    0.2320296969099357    0.2912386347466412 H
  -0.0520923522397112    1.0164986988867755    0.0974794188035666 H
   0.1208675893311158    0.5346985564772497    0.2292936570835133 H
   0.0475231079720984    0.6253481410221917    0.2353283494767100 H
   0.3553542007515846    0.4718306537795526    0.1742063934799305 H
   0.4999881002439226    0.4238497018006791    0.0950260304076896 H
   0.4095723463547643    0.5676192865344468    0.1062147260232217 H
   0.6296011583135556    0.4600290483502341    0.3011364900635147 H
  -0.2114110249885126    0.5127146728047195    1.0352262263249179 H
  -0.1160133480456093    0.4374431071341513    1.0517026561857334 H
   0.7076763102427160    0.5235628873759456    0.2242203563744282 H
  -0.0900231713963594    0.6004721453831533    0.1548049974054742 H
  -0.0090592548186416    0.6592038967869486    0.0958008225244941 H
   1.0989146022543481    0.9871384125785182    0.2005094940820071 H
   0.3081688884942333    0.7235657645562463    0.0438752738354649 H
   0.2088011667452759   -0.1194425539861975    1.0781289300984200 H
   0.2296169478406282    0.8626546313585751    1.2870436621200219 H
   0.1925767732158068    0.7422830468883609    1.3283867038435924 H
  -0.3803228146557130   -0.0327297390791560    0.0483883759292822 H
   0.4890762671750998    0.6863116574581214    0.0943459377712502 H
   0.6051204133045073    0.7384982289089990    0.1049230059152015 H
   0.3764335334031625    0.7908045730807424    0.3128411538782318 H
   0.6912155189537234   -0.1867883594746672    1.0057926040492864 H
   0.7297579374490312   -0.1557464641654530    1.1190560619420087 H
   0.8735700352705927    0.7676189697755245    0.1907108172749755 H
   0.8657433526917693    0.9059085532872750    0.1984555391362511 H
   0.7469550758132968    0.7775936419692353    0.2962895403083427 H
   1.0074941578872143    0.2740771082971132    0.6467088109001201 H
   0.2644568662915048    0.3192713483038405    0.4288008275506051 H
   1.2832968682719961    0.0401895702020868    0.6357167926682178 H
   1.1589963706630095    0.0509439628086346    0.6649376610437048 H
   0.4297955357691485    1.2550061103710406    0.3674245266656828 H
   0.3795961520778708    0.1216894770546422    0.4853205807600480 H
   0.4112295265946682    0.1567956600252388    0.6057832787099159 H
   0.5032625286697570    1.0054077449345944    0.5955071053675975 H
   0.6160881512488932    0.3287964735519014    0.5344515349862766 H
   0.5689395764811976    0.3243089889434596    0.6510694660263902 H
   0.8098209070249969    0.1072632520687493    0.6053569710829346 H
   0.9358480666478015    0.2947650511298747    0.5447141112748264 H
   0.9734001702045644    0.0235658032428350    0.4881151752228484 H
   0.6851354644157047    0.0843901757165107    0.6248759416811550 H
   0.2118008626397719    0.4157267158715548    0.3708853767631464 H
   1.0411409065653601    0.5438428044729572    0.3844968274122413 H
   0.2913375277443657    0.4621546149032006    0.5234643157145280 H
   1.0498540807423971    0.4396820585295376    0.4480846491012972 H
   0.3258068767343674    0.5449870331996293    0.6195442969504659 H
   0.4007673284535880    0.3471145134811298    0.6344522666677348 H
   0.5521297790404757    0.5826355917918057    0.4830138805795338 H
   0.4277733765559260    0.5536250418284769    0.4747276760475898 H
   0.6519982487462619    0.5078231548845568    0.5774814112038501 H
  -0.2215561626210425    0.3367765307007924    0.3957791827334387 H
  -0.1106329030932080    0.3937739731064497    0.3819389816503536 H
  -0.0962094451979478    0.6088450570564844    0.4742229854047657 H
   0.7189531222848575    0.6025513998173850    0.5414508183703541 H
   0.2417315343751355    0.7057156367232005    0.6460561523192256 H
   0.1658159079248666    0.8683957371120798    0.5945201192293332 H
   0.1946987625639633    0.8214927396209994    0.4819301154115044 H
   0.6131810977196159   -0.2849692527076561    0.6575744565146433 H
   0.4865885002125452    0.8354981631142502    0.3455188732177210 H
   0.6103722770431137   -0.0154833456077549    0.3452525309291942 H
   0.5834508848951997    0.9394129757374918    0.5300308928580861 H
   0.6437418972666827   -0.1349762773976970    0.3867867312322179 H
  -0.0040655118769205    0.7857637385019003    0.5825315169388593 H
  -0.1194051767101260    0.7045785943597804    0.5522764726502638 H
   0.7378737280986233    0.7095739153046935    0.4030336108323511 H
   0.9479953974665671   -0.0443133581564986    0.5939386452240510 H
   0.1917070530802621    0.3301259507535128    0.9924195017544887 H
   0.3322287496544000    0.3304589189175198    0.8921132362765823 H
   1.1091931129471497    0.2274879153347014    0.8054656112226154 H
   1.0214144719024072    0.1361324702214564    0.8045258148591949 H
   0.4170588078337327    0.2955779086621511    0.7468967020275699 H
   0.4691110388293849    0.0806357001597681   -0.0054837909634000 H
   0.4136613886816597    0.1790039179281912   -0.0586929815108575 H
   0.7455127300237707    0.2711115357284740    0.8802278116294115 H
   0.8350915080616428    0.1556322676632282   -0.0118037015550611 H
   0.1584724031991237    0.5418729424571163    0.7952998139638306 H
   0.0422528754886642    0.4902021921907678    0.8216804977550576 H
   0.1784560002896664    0.4019600393352300    0.8944567284849411 H
   0.0911974343158759   -0.3724496510584868   -0.0629982086473532 H
   0.4534736464933276    0.3531989677011168    0.9219707666991184 H
   0.6655751470972822    0.5071596140109598    0.9558594236507082 H
   0.7164557716293493    0.6123296447488759    0.8962083489410181 H
   0.7241035586063710    0.3925498958992003    0.8510981234968438 H
   0.9378526557572757    0.4150863310573252    0.6960973093212605 H
   0.8858531350728684    0.4393059721860187    0.7981983858966265 H
   0.3181263454730874    0.6885721679432636    0.7387408692464662 H
   0.2316111546160692   -0.1132391255301504    0.9485410094164139 H
   0.1257377026337347   -0.2550013194622059   -0.0288497679861131 H
   0.2697191123641443    0.9532427325734728   -0.2183581450077667 H
   0.3779701188400662    0.6793153335899422   -0.0473723944737696 H
   0.3787064659153392    0.8279125574594108    0.8510501338953074 H
   0.4635900330469966    0.7558149688917886    0.7812180652196793 H
   0.6117459396998052   -0.1650983182106613    0.6917798448363731 H
   0.3443952478590729    0.9955225030391300   -0.1179159089921741 H
   0.6786121640785793    0.7528374190510626    0.8278471615524793 H
   0.9609014373108310   -0.2514528529853526    0.8924651600211823 H
   0.9182779628994225   -0.1302372700754368    0.8617358185040692 H
   0.7951187233930010    0.7657089941201165    0.8740771443658354 H
  -0.0735152602836779    0.8015314179614911    0.6951415164239948 H
   0.2001055626719872    0.3915126641365018    0.1640198007271468 Cl
   0.6045797332937048    0.3151280106466866    0.3577690188365681 Cl
   0.9424288691426490    0.0265762426727107    0.9161400301124513 Cl
   0.3051947491142804    0.1486327498558259    0.1730410459892893 O
  -0.4048347066668607    0.0446943819308139    0.0380721312696811 O
   0.6149924156878579    0.0794002046197962    0.2511529205833233 O
   0.7732599170478587    0.1852704266838943    0.0273435679519465 O
   0.8456016246674912    0.1784042558390560    0.2318403052717092 O
  -0.0525712972950704    1.0027248359871987    0.1770025875961155 O
   0.1083616686676673    0.5924026579360158    0.2769425324489609 O
   0.5451049321054420    0.3743220847530242    0.0440340394338810 O
   0.4266305211712019    0.5073193109721142    0.1559279540814249 O
   0.6569466288746690    0.5323230641800764    0.2822557811657277 O
  -0.1634406485500405    0.4862536848262224    1.0893904899256179 O
  -0.0424797484789730    0.6567381757067229    0.1670791378250894 O
   0.2076726868999823   -0.1554406444848421    1.0092718501606721 O
   1.1736354616497271    0.9646610652960204    0.1995465027445109 O
   0.3572413896223763    0.6674147160447079    0.0283651146015839 O
   0.5625304818184366    0.6703219992225257    0.1182473187817707 O
   0.6629611948441709   -0.1559652490022347    1.0719862611017663 O
   0.4522812753616763    0.7858922945556296    0.2882448834374650 O
   0.8276162275577870    0.8301483149155741    0.1971390244007704 O
   0.3602315018239187    1.2224119605994046    0.3649538620132528 O
   0.3915030919317155    0.0903527013066562    0.5591725783910381 O
   0.7425409865670562    0.1321200840724492    0.6435726904397192 O
   0.9405919946598639    0.3097613942670892    0.6207376383753366 O
  -0.1463816750925235    0.3265766857918537    0.3980970804876446 O
   0.9428761081471531    0.0264102456664386    0.5588750428615127 O
   0.2227206821193894    0.3857348280819315    0.4425634454445396 O
   1.0078216007297978    0.5021802627621620    0.4442086889505443 O
   0.3482303223226964    0.4818045274884577    0.5791402517636235 O
   0.6307591878787897    0.3444571560475188    0.6090497709211572 O
   0.4953080635182180    0.5719606484234323    0.4294462876912690 O
   0.6460156284199389    0.5840872371687003    0.5652928522403080 O
  -0.1561730147268474    0.6589100543784243    0.4988784430207607 O
   1.2174728705019326   -0.0018137648238120    0.6637299227383732 O
   0.2430740500297275    0.8042710193300967    1.3413838875930222 O
   0.1679946007896657    0.7995112514028865    0.5526299960482483 O
   0.5742273790683802    0.9720310800533012    0.6065623099081894 O
   0.5894502766841917   -0.0801155803322871    0.3925078915620437 O
   0.6935036256464099    0.7439718422525698    0.3476856037270875 O
  -0.0705107725427051    0.8110868856321712    0.6174175577757131 O
   0.2038471961293125    0.3297690280453324    0.9148123178032787 O
   1.0605319119749346    0.1907057127567881    0.7540575504034864 O
   0.4200002029294272    0.2832429153825765    0.6675147026462070 O
   0.4096554050270294    0.3116633850744395    0.8741411305012172 O
   0.3980886862730397    0.1058770824459281   -0.0345228587317334 O
   0.7288003667947444    0.3202439027972714    0.8201848218405079 O
   0.1117758592824092    0.5081720927446793    0.8541374649274797 O
   0.2691448894280041    0.6461462747581498    0.6930755640778546 O
   0.7258605689812089    0.5334728823003888    0.9110691288834428 O
   0.9391464543060200    0.4715471916735033    0.7509766179848525 O
   0.0644461527178894   -0.3011289882068813   -0.0396546267720236 O
   0.3155107959378173    0.9295995974745470   -0.1532682487906228 O
   0.4030322745549699    0.7513690054932469    0.8327101078414967 O
   0.5966268654243250   -0.2361387128954407    0.7150420043544292 O
   0.9161855232712065   -0.2102614173099633    0.8392286953835184 O
   0.7240732102453510    0.7320832019794222    0.8886019970975058 O
