Li1 Co1 H90 C51 N3 Cl6 O45
1.0
  12.0597939670999992    0.0000000000000000    0.0000000000000000
   0.0000000000000000   13.7543047679000008    0.0000000000000000
   0.0000000000000000    0.0000000000000000   13.7419637171000009
Li Co H C N Cl O
1 1 90 51 3 6 45
direct
   0.2048908953453857    0.4276060464885258    0.5644407901359877 Li
   1.1334026120917942    0.5989598182546172    0.7498743316922856 Co
   0.3022408171767879    1.0597770029073981    0.0939862660889458 H
   0.1795961016837196    0.2827075558973298    1.1123501832186335 H
   0.3362331060266924    1.1297841763886218    0.2380100781688157 H
   0.0141878032134528    0.2865863415502775    1.0889736115282089 H
   0.4730488762215431    1.1500222040241330    0.2046553110164593 H
   0.5848162914590793    1.0532023339927579    0.0929420194080917 H
   0.4561041422934609    1.0081160856898070    0.3152617739129251 H
   0.6155072801285155    1.0877449741346876    0.2149544213120196 H
  -0.0308718388900908    0.2841892738281091    0.2478048937258171 H
   0.0847395889505188    0.4346376632537522    1.1007688689846307 H
   0.3648314387130456    0.5871082559437082    0.1814250066311580 H
   0.4681002012970120    0.3804987581934355    0.1804062293815441 H
   0.5874841645660140    0.4626146498403852    0.2660082600823097 H
   0.6064293472634380    0.6052080439156166    0.1600183135226654 H
  -0.1982130062023620    0.4917258267960150    1.0584284864906806 H
   1.1856655281680928    0.7537062802471827    0.2293191805315744 H
   1.1483282402153800    0.8010311004386856    0.0728204410301834 H
   0.4876967218217179    0.9269567672918888    0.0553884345912555 H
   0.3708663676843488    0.9422617938673717    0.2237406473919033 H
   0.5388737984520257    0.8382434502184083    0.2941941880889468 H
   0.4582534327432573    0.8351920418987416    0.1557707400898112 H
   0.5964311665043852    0.8471308496226504    0.0942969931500781 H
   0.6737098499165951    0.8708659642292350    0.2427328384188111 H
   1.0349009292901887    0.7140183418735919    0.0660346568497199 H
   0.9673350983794022    0.9827174918753603    0.1053216183869704 H
   0.7069367857243847    0.9959097253660324    0.1504760091839611 H
   0.8838651815013726    0.6723492055797985    0.0124498843121749 H
   0.1705644382658253    0.2301589166024662    0.3621007856619557 H
   0.1069265351562293    0.0432995992200142    0.5157859534791276 H
   0.3614690263774266    0.1050940711575273    0.4575323431160130 H
   0.3991860886457283    0.1754080576744670    0.5598176517470438 H
  -0.2917618680716242    0.2747747667203267    0.4794176432224135 H
  -0.0488903888415087    0.1567099115784018    0.4255123924700615 H
  -0.1742523978546320    0.2446641935587846    0.5537302393711906 H
   0.3191051185533151    0.4855753887020862    0.3623576630684655 H
   0.3038303965719498    0.6059009179038565    0.3513388594158566 H
   0.5706976356624294    0.4684387173851842    0.3928503938474425 H
   0.4714833436716914    0.6771564278360852    0.4533351263872112 H
  -0.2046550731408142    0.4097187010972717    0.4516815781412845 H
  -0.0093598627561913    0.3790206754881980    0.6393646526345331 H
  -0.2795560210727806    0.5959578490023172    0.6465033703621843 H
   0.9032925449073446    0.6071848795651695    0.5177194471592874 H
  -0.0945860285434295    0.4279399056022715    0.3596535371687763 H
   1.1530944907961787    0.8858212821076105    0.3142764707729414 H
   0.1578370234842186   -0.0579450673406653    0.5797443525910617 H
   0.3421718476167548   -0.0973211033627819    0.5078170050628448 H
   0.6149898583535645    0.9408600508985090    0.3358163326219192 H
   0.6555702365370637    0.6908030645194643    0.4953778949386278 H
   0.9834887740169344    0.6856519499269368    0.5924936221719432 H
   0.7003811181718808    0.8397527958633041    0.6175970213004631 H
   0.8113913065426138    0.9961780050110066    0.4474191596685073 H
  -0.0737034163954080   -0.2069296968497050    0.3465979067149751 H
   0.0592275444794983    0.2668572454905985    0.8288812350978725 H
   0.1560484357140755    0.0768541850597218    0.6849578453468932 H
   1.1087156231753830    1.0522484508106271   -0.1008315965625626 H
   0.6117533188151211    0.1883821776326396    1.0633244388731102 H
   0.4456271805522660    0.2035236190587479    0.9970202323741368 H
   0.5662828487974758    0.1594014325694444    0.8044334918992826 H
   0.5288563802167247    0.1105665396879372    0.9069777882611259 H
   0.4197320449594069    0.2593352367998025    0.8844453462918100 H
   0.4671217434533547    0.3368186151299974    0.9743546216643357 H
   0.5999977282646723    0.3199053647748857    0.7966871463120405 H
   0.7381429573245533    0.2477148748333429    1.0077246704754363 H
   0.7454648071207347    0.0872749225974347    0.9513899270619693 H
   0.8575645663444893    0.1182048755960662    0.8200105960458779 H
   0.6830085162375892    0.0302047897738586    0.8469870899176163 H
   0.3321318750989560    0.6320520034054260    0.9688503137242793 H
   0.1299824845993575    0.4869415791651515    0.9875390546704093 H
   0.6235710994827515    0.3200355058492770    1.0532618304390675 H
   0.3064523319123263    0.5442658869586003    0.8773975908185887 H
   0.4236765567918456    0.5305517077846573    0.9549774783766809 H
   0.6326055821859581    0.4002598442378811    0.9007472376817021 H
   0.5714290926030758    0.5627956494075760    0.8144699032040497 H
   0.4467349938396610    0.5583915736638589    0.7349448787972305 H
   0.7265067717990932    0.3049100594155520    0.8543812296557064 H
  -0.0482502452353194    0.3508636725327421    0.8511247809471193 H
   0.1092574207481960    0.7271807665148224    0.8807828420794485 H
   0.2262453231824251    0.8262341191189913    0.8351649076338835 H
   0.2942249256728598    0.7745135842025170    0.9435395206556595 H
   0.5471231101957753    0.6555631881186447    0.9783613270474597 H
   0.3254228052574041    0.6966179712958983    0.7366906263842474 H
   0.5279170606868137    0.6657818071162416    0.7316549559790133 H
   0.4522649390594497    0.7569728939189154    0.9614212444804883 H
   0.4949171602668150   -0.0282736294245554    0.7052104093711804 H
   0.4176946967205374    0.7889745114072272    0.7887566931218323 H
   0.5775968646398884    0.7450777089015065    0.8812653058769441 H
   0.9618333460127360    0.9931774898489232   -0.0297769772882469 H
   0.9273360734113167    0.9613445468257441    0.7140548512938991 H
   0.9537685316166251    0.8293356935511327   -0.1109997212117439 H
   0.7295822803941144    0.7354298203139498    0.6943109481963835 H
   0.4028014074578858    1.0964891456525887    0.1938038779120013 C
   0.6262044778046895    1.0296787895126975    0.1622363371346817 C
   0.4721309500919426    0.3613549334459633    0.3225882377337193 C
  -0.1872053554612174    0.2712493249900280    0.3045937207133975 C
   0.0692268861207384    0.4475994234450832    1.0234960699974935 C
   0.4588272402244530    0.5492954396090148    0.2986171367483416 C
   0.5266714340997442    0.4597477655692131    0.3229717345983953 C
   0.5415672109670829    0.6439210147989349    0.2882925570215410 C
  -0.0340410472616655    0.5019142952329694    1.0151821199426094 C
   1.0574212145239925    0.7891540915489851    0.0919639932484624 C
   1.0308585716733840    0.7945713046511619    0.1973142932349563 C
   1.0053299431711151    0.9590645333660172    0.0348142280353045 C
   1.1243925079145227    1.0053823960824813    0.0382940800407711 C
   0.4340954744236710    0.9995914817946222    0.2374635769442014 C
   0.5979384061843986    0.8942840871685872    0.2743353087018318 C
   0.5186994902786244    0.8806112768613082    0.1186217553806788 C
   0.9903388081240979    0.8469919840069591    0.0261000440609292 C
   0.8636940242939087    0.8184758207679876    0.0397407437352227 C
   0.1862363477955905   -0.0008727533817642    0.5229459927592169 C
   0.2694832094533288    0.0630410550465348    0.5820329629125156 C
   0.2552997167281100    0.2159837181253303    0.4822833908557736 C
   0.3648737279927291   -0.0011323084854385    0.6156584337340550 C
   0.3324784813520482    0.1400409483796894    0.5243984052681485 C
  -0.1351853954427082    0.2750415922750843    0.4074887675283221 C
  -0.2173202978052393    0.2347582039577702    0.4819485042198649 C
  -0.2478788629851567    0.1258359410531119    0.4660076238253539 C
   0.3781633414336575    0.5595768025994606    0.4817431478342641 C
   0.3657584860598327    0.5517982196899346    0.3718301083957677 C
   0.8786478452706169    0.6000089443459392    0.6758317842844597 C
  -0.1174338483943900    0.3904490975460581    0.4270391029484113 C
  -0.0293958601089806    0.3997341906245575    0.5023283571845110 C
   0.2082292608356944   -0.0531807407457701    0.4301463735597335 C
   0.8997112233592465    0.6551000603846375    0.5802792106471090 C
   0.8115098823660399    0.7318127709000013    0.5561504902672553 C
   0.8426273293990295    0.7924105265892011    0.4675752309332954 C
   0.7639493683502335    0.7893533019086678    0.6397161307856499 C
   0.6484778268132043    0.2500879500669363    1.0226643111429874 C
   0.4733822152496365    0.2598463495109595    0.9488437116359704 C
   0.6013688130481362    0.1502464805653363    0.8805747204413130 C
   0.7105172780709206    0.0984190700179374    0.8783705230919699 C
   0.1963070007711989    0.3079687381863019    0.9726700007122957 C
   0.1064414522422128    0.4051993887038841    0.7950854829360405 C
   0.0719350584236069    0.3416716412281091    0.9711039945400322 C
   0.0417562675592785    0.3404778331602291    0.8629564233053129 C
   0.6432133919337031    0.3262757340140848    0.8675321885521499 C
   0.3707428166515481    0.5828659477365948    0.9192249461975548 C
   0.5046786039797966    0.6060179721662978    0.7782625597527746 C
   0.2663869708192471    0.7614740301845946    0.8646381334652111 C
   0.5127216932949721    0.7063894575518713    0.9239324247888061 C
   0.3619449880742565    0.7268121546448985    0.8052274104559460 C
   0.8381189605041440    0.8450180565378395    0.7064089280355476 C
   0.5456226699685738    0.9511848184819222    0.1966375340619986 N
   0.5924270350796083    0.2456609724023068    0.9262334059768625 N
   0.4370200683343314    0.6527248040157191    0.8566218119068213 N
   0.1235528556843416    0.3246398825203393    0.2451502512925376 Cl
   0.6365743067040196    0.5157292937520848    0.0684935485114664 Cl
   1.3178485492336949    0.7145294545847489    0.1489631249682846 Cl
   0.1554174133250728   -0.3065501446383724   -0.3732417176387656 Cl
   0.0153652694320912    0.0703071438591981   -0.2113296324517480 Cl
   0.5782364775570777   -0.1065720253211898    0.7706777631293996 Cl
   0.2360315600221230    0.2754022066488166    1.0566623633586714 O
   1.1802699136014165    1.0031103801189458    0.1140903797140036 O
  -0.0070157099392259    0.2809655558177679    1.0208537984308166 O
   0.3807280618662270    1.0833616191765580    0.0912726801147959 O
   0.4570170932136870    0.3253000394787042    0.2283622576149728 O
  -0.2894649797437169    0.2743494453319528    0.2865177015131067 O
  -0.1137886783259853    0.2626767361176933    0.2306486848423204 O
   0.4050352764670492    0.5282162934876754    0.2127036512884085 O
   0.6095697823407967    0.6558380111695939    0.2161885971801231 O
  -0.1227971241001318    0.4539464545363049    1.0495840445679616 O
   1.1155200511966135    0.7712200698617762    0.2613866498592401 O
   0.8265640367318013    0.7284516413641856    0.0261102318334253 O
   0.9409988275553349    0.8161129241659107    0.2323478597550692 O
   0.7959009921550189    0.8826542736157192    0.0550624258713791 O
   0.2025119160627986    0.1788069935559160    0.4016184274764402 O
   0.2451809700618812    0.2987512603028774    0.5131458650065569 O
   0.4477723249942503    0.3047639233487774    0.3863076608108155 O
  -0.3457180137383875    0.1006394657787812    0.4665657682185352 O
  -0.0342632732803945    0.2283376686060962    0.4170143348122113 O
  -0.1612803686121110    0.0654512095806532    0.4560866981988110 O
   0.0581910425264715    0.4408213273091319    0.4889065345253166 O
   0.5448515954356781    0.6991335473707246    0.3597052037292924 O
   0.4516563051126323    0.6308712821494959    0.5077166555037578 O
   0.3238904407700492    0.5201456565581326    0.5460682339862557 O
  -0.0663616657617285    0.3682960330952024    0.5897210926569227 O
   0.2994049478333065   -0.0981521159216046    0.4138226512287783 O
   0.1325778854897366   -0.0628751602202601    0.3628423099600675 O
   0.3888028266810870   -0.0860133707929047    0.5794343532279649 O
   0.7207288953121406    0.6594070756063924    0.5245759635887955 O
   0.9257166427599077    0.7605216010926806    0.4145328845113662 O
   0.7854124215919500    0.8690970634806650    0.4536234403488519 O
   0.8806943147266730    0.9254605084589430    0.6652939890332756 O
   0.2229310045374266    0.1106305196574704    0.6633670446354346 O
   1.1620681101047035    1.0375832239304759   -0.0464885626720907 O
   0.4267910378603005    0.0224174096185217    0.6864510817156129 O
   0.7853361350482072    0.1537573813934683    0.8198497747800459 O
   0.2507109152816697    0.3199613472482272    0.9023634550184108 O
   0.1523883400175473    0.4812783339983155    0.8310359489808057 O
   0.1035831944565460    0.3871424963933672    0.7066708993283054 O
  -0.0475520575197605    0.5865985973227679    0.9850590597656351 O
   0.9581624706958963    0.5759393889895222    0.7291262053058647 O
   0.7745349554961055    0.5780223732248915    0.7001390817622100 O
   1.0180490659370978    0.8208787048510227   -0.0681150205872857 O
   0.1733920155936824    0.6863411886896349    0.8675751227362407 O
   0.8632993243501960    0.8210851856617888    0.7903117838235644 O
