Li1 Co1 H90 C51 N3 Cl6 O45
1.0
  14.3741154780000002    0.0000000000000000    0.0000000000000000
   0.0000000000000000   14.0281333057000008    0.0000000000000000
   0.0000000000000000    0.0000000000000000   14.4985614164999994
Li Co H C N Cl O
1 1 90 51 3 6 45
direct
   0.8655372396821090    0.6846320849401679    0.3235073172819842 Li
   0.5870797578199337    0.7652757440320253    0.7908529942323054 Co
   0.1563986484692411    1.0165365442532359    0.2032864243307460 H
   0.4580736980844227    0.2370736063328312    0.0479613589461805 H
   0.3777117445598415    0.2545121346579506    0.2493785834631327 H
   0.3822525457033900    0.3274862059539546    0.1506894819105034 H
   0.5498239697459039    0.9875882878351853    0.3436258650206615 H
  -0.0342224721272689    0.1771525903514354    0.2950879459965627 H
   0.6933165556484476    1.0163084312227801    0.1437653466727997 H
   0.8543226365820629    1.1780797767429929    0.0880232646286973 H
   1.1148054472100020    0.6022433611653243    0.2601975878797699 H
   0.2753221399784277    0.5656176755659984    0.3537716992020165 H
   0.3630944973058049    0.4884819671706179    0.2204350222404012 H
   0.5779747106119638    0.4607293081734434    0.2219186177077088 H
   0.4327210424335231    0.5220886480971845    0.3130745580823122 H
   0.8396552992893661    0.4604281989732418   -0.0070109915583982 H
   0.7309515670568344    0.4576500674035793    0.0522307480408499 H
   0.9993555607429078    0.4530279271239703    0.1217700610138323 H
   0.7649564420523156    0.3819653004525411    0.2084372801884182 H
   0.9418605447007110    0.4192455278786309    0.2195025159308708 H
   0.8597866249659192    0.6509847000947294    0.1372667708973594 H
   0.2062709346003210    0.7624335982431910    0.0143456100453730 H
   0.1304770534625588    0.7290642261536204    0.0994347416192152 H
   0.0515476750436609    0.8775879074301175    0.1656502765554912 H
   0.1270716265286428    0.7750888814609420    0.2624226362189304 H
   0.3053344214756976    0.8679957544994545    0.2291724408270364 H
   0.3217674326311684    0.7883066058694105    0.1353307167473211 H
   0.6738391832544035    0.8370286977618708    0.2109864986203888 H
   0.7876966239090903    0.9283986592576881    0.1429673364656054 H
   0.2422550618178636   -0.0075291448119533    0.6702403382752882 H
   0.2232716328606081    0.1555189208255914    0.4356039559285195 H
   0.0613848020805500    0.1042940012770996    0.5373015628595071 H
   0.0210094481404583    0.3244772525115996    0.4843453434151269 H
   0.3444429148546736   -0.0786362535243213    0.6852328602059552 H
   0.5960869207440216    0.2803993993485736    0.6484250704763707 H
   0.5531797936276466    0.2365589263078655    0.3151044146421849 H
   0.7424715802537120    0.2226696941659931    0.6266560141587687 H
   0.7857765057604472    0.0597257050985938    0.6710107595384135 H
   0.6653690968559506    0.0365572625897149    0.7131370079608892 H
  -0.0064524155550269    0.0604093313367408    0.4380041940625179 H
   0.7254075737501181    1.0992902488768086    0.3139408509260771 H
  -0.1213151354578258    0.2177545712128925    0.4284998028307659 H
   0.2724391799755374    0.3414930588771558    0.6571424870785559 H
   0.1134721810323834    0.3347708530109139    0.4109525446793144 H
   0.1172588488161024    0.3883346439747969    0.6086011194364486 H
   0.3877986260950504    0.4528132870193759    0.6263718480348585 H
   0.5828497236245732   -0.5674525379556752   -0.5227897495453562 H
  -0.0417958076947070    0.5124581436632761    0.5349838156682750 H
  -0.0922963063939843    0.5716819179100197    0.6551581522763968 H
   0.0726995852579166    0.6862958843560543    0.4858220416464172 H
   0.1435902081668249    0.7371187546883677    0.5773991962245932 H
   0.6416479850754124    0.8485348615887013    0.3229417439285708 H
   0.8822575728648950    0.8949829517088063    0.4283225438651230 H
  -0.1068718119491373    0.7022980134425227    0.6490451319943202 H
   0.0145220924389738    0.8397696183934403    0.6660130223203239 H
   0.3088595079464131    0.1745314290608552    0.8367189240233268 H
   0.1879609383850533    0.2043137237465096    0.7296662340761965 H
   0.1291607985577643    0.1593904266643570    0.8300134311673695 H
   0.3182333021256948    0.1259098494724394    0.6321351784508614 H
   0.0665113783984309    0.0837894912520114    0.7004971332357014 H
   0.4370802671869282    0.0808347146543897    0.8686814054508027 H
   0.6305106041183008    0.2049360446077216    0.8194930770702785 H
   0.3971132862009139    0.1910140212177211    0.7063515071671318 H
   0.4346049844431339    0.0788829225375530    0.6631920527892741 H
   0.6682103151599572    0.1475570632094667    0.5753549934138046 H
   0.7869925805879211    0.2675616257064580    0.7634951075699367 H
   0.8205348184207762    0.2302166712079764    0.8812998987443370 H
   0.8809239255855656    0.1910190111902623    0.7836433134234881 H
   0.6725076230600184    0.1657184246998426    0.9279700462549682 H
   0.8620928538292351    0.0336709199012299    0.8081912661324347 H
   0.7998622420486999    0.0502732713990850    0.9221846446837101 H
   0.7555269922745225   -0.0283530130796795    0.8397199114144264 H
   0.1843259321072779    0.6316813477456346    0.7017007009207092 H
   0.3320463259812417    0.4848630965130821    0.7264866082722505 H
   0.3602379737122076    0.5593010831820356    0.8578189484472568 H
   0.4247873368657238    0.4989753091422250    0.9372075144528530 H
   0.4626565887743455    0.3674786973121628    0.8018416706549667 H
   0.5709896547207911    0.4527086401666543    0.9087702103537867 H
   0.5142171735723688    0.4117914356112362    0.6998729333761415 H
   0.4357862745215382    0.6151894884969065    0.7201308052823671 H
   0.6301836274770465    0.5528340787686160    0.8561532659490942 H
   0.4627660215949184    0.6175255084994170    0.9109511163824369 H
   0.6215966643217197    0.4437154265115817    0.7967287495953893 H
   0.5565745068588490    0.5697957082894389    0.6869475130798401 H
   0.5250854736245775    0.6603252158386709    0.7761839526708467 H
   0.2555066598234268    0.0668471087681332    0.8867804424836331 H
   0.0984514306891392    0.7223869300402495    0.7429827276546752 H
   0.1232334773163007    0.7999745873772203   -0.1162045835652787 H
   0.2755865040713568   -0.0775569937489776    0.7738892422479121 H
   0.3764427969137817   -0.0260105773981874    0.8715120311122765 H
   0.4642213459264933   -0.0129118994774880    0.7853993497134765 H
   0.6154244584468058    0.0870664775051518    0.8479317606165482 H
   0.1185987573502643    0.1313118511749188    0.3553242670294965 C
   0.5037294465027812    0.2252145801620146    0.1732441334104687 C
   0.4251560552058617    0.2965098821245086    0.2077758352543652 C
   0.8306370052455758    1.0773557552920510    0.1772128030147866 C
   0.8130261824866076    0.3402256058516862    0.0892599390465878 C
   0.3229675064740704    0.4343913776770263    0.3527557363366775 C
   0.4661162799168100    0.3844260697685822    0.2570165826286204 C
   0.3970778057568628    0.4638721354505470    0.2839592556827515 C
   0.9970242868602616    0.5612136683717628    0.2262383566253040 C
   0.9471735672736049    0.4822571902814136    0.1742932030086904 C
   0.8080589203194657    0.4444559384366986    0.0633277110689818 C
   0.7819606187875097    0.5332867880475776    0.2209212773796164 C
   0.8440868763208359    0.5154189795132694    0.1368563853543338 C
   0.0686402050414917    0.8322925009670340    0.0098665449757796 C
   0.2177652070828869    0.9525308793202424    0.0939231603178415 C
   0.2507752382549768    0.7250444468450586    0.2499903682978615 C
   0.1519545489281062    0.7908607589572944    0.0606660676899302 C
   0.1862084827269258    0.8548450382936825    0.1389448684203531 C
   0.2714638156116252    0.8135173728540882    0.1870806785846470 C
   0.6473255518185561    0.8877482043772592    0.2622136499676082 C
   0.5492954502685400    0.9262643767164868    0.2316133726535365 C
   0.7610062859479693    0.9927350880848422    0.1803303536945775 C
   0.7250910325335845    0.9626277323307886    0.2755618708317660 C
   0.1540186759378976    0.2729144405367454    0.5367797869548032 C
   0.0820434645529985    0.2860230984025272    0.4630834408618723 C
   0.0485304459093619    0.1991327065422841    0.4132217353289853 C
   0.0119146276487149    0.1226171804484551    0.4849049851455654 C
   0.6877050799285361    0.1727435931846585    0.6420120204275440 C
  -0.0704313088238013    0.1584487475605070    0.5391625750816780 C
   0.0862238956961857    0.5651029955410327    0.6396904107841422 C
   0.0291650804073219    0.6606531283199509    0.6333939240240070 C
   0.5232125235956727    0.3651277073920285    0.3537089343542596 C
  -0.1085366100396094    0.6212045439687356    0.5181807347969032 C
  -0.0773938241975768    0.6422087641011658    0.6171033422748960 C
   0.0683702753887115    0.7256054623293355    0.5499411616952542 C
   0.0183901565355158    0.8190647966134832    0.5385721716786025 C
   0.8026123243101442    0.9065112139854620    0.3231534890743000 C
   0.2668242257807190    0.1124604477674143    0.8194723853622268 C
   0.1748700459201918    0.1408819056557563    0.7696557187805323 C
   0.2937392732208298   -0.0301793430297656    0.7178616146326962 C
   0.3743411023749951    0.1196410182542282    0.6862253724688355 C
   0.6621243754627362    0.1465726129124062    0.8545662119415280 C
   0.8135020378538801    0.2091782341209777    0.8083023116323121 C
   0.7220578024147135    0.0902137244722205    0.7013254912813716 C
   0.7969354532619819    0.0364410675148265    0.8452997753523708 C
   0.3737198467566116    0.4281208356110867    0.6968271139509299 C
   0.4623296121330910    0.4252777631130663    0.7539472637512761 C
   0.5066606877373800    0.5951611644228945    0.7385933266533057 C
   0.5849121113969110    0.4890963753610860    0.8466219754968750 C
   0.4280417979886775    0.5484635756757286    0.8786396348124889 C
   0.4094437840511135    0.0268410731987417    0.8262358150007288 C
   0.3336158138592630    0.0582871673002824    0.7595967897729945 N
   0.7499565625585132    0.1205099863296204    0.8032687087869330 N
   0.4932211129478447    0.5151363332114703    0.8048626600305163 N
   0.6357060542393397   -0.5753723372318096    0.5701668235092792 Cl
   0.5268222761456237    0.8584050272752320    0.6713514829976649 Cl
   0.3711937782791757    0.2784333501673334    0.9540395292293171 Cl
   0.2320436508809854    0.7283093145934560   -0.2051720309516130 Cl
   0.5334229605595771    0.7991583704401209    0.9345313868781652 Cl
   0.7398070684749788    0.7444155202500700    0.7700736912831769 Cl
   0.0791820710945314    0.0813479689729151    0.2959052684646053 O
   0.1958028122153089    1.0296002923661467    0.1498928511505127 O
   0.2101737834459326    0.1224239972257879    0.3741047509808298 O
   0.5057576756515326    0.2022949234269765    0.0859492657583143 O
   0.5549275185599006    0.1847173887239232    0.2281385451480527 O
   0.8434071823240155    0.2733136383400429    0.0391411735273384 O
   0.8390903949644755    1.1043536452997054    0.0936383044703296 O
   0.8666002616136766    1.1117708830556170    0.2468686792764603 O
   0.7903040886993492    0.3201473820522621    0.1728606470879104 O
   1.0891343023966209    0.5408713324542641    0.2403438940041545 O
   0.2601045079554494    0.5008462637038940    0.3764436037142748 O
   0.3180712051950303    0.3548989765357501    0.3872239836092155 O
   0.5350991680477440    0.4150364147547908    0.1899023378392984 O
   0.7374827515421467    0.4634702288050128    0.2528534109686164 O
   0.8604148375341165    0.6046257166271461    0.0882094900011627 O
   0.7725506484691955    0.6136425970091286    0.2553467617888475 O
   0.9676207384717102    0.6438240894980803    0.2479260255579026 O
   0.3099802725614362    0.6655233415201806    0.2696474909469857 O
   0.2593719411400432    0.9717451250168155    0.0207076205476720 O
   0.1111624736941605    0.8675723196866713    0.2041451302148919 O
   0.1645814128403790    0.7141399311360552    0.2798485030164786 O
  -0.0017495174808140    0.8597965167610119    0.0517438031780331 O
   0.5104580553099130    0.9036769095820498    0.1586399258675720 O
   0.5023674844377092    0.9741488660752426    0.2973743797362766 O
   0.8349183121610650    0.8395543367209477    0.2803913154910351 O
   0.2027736759288612    0.2013233044878792    0.5354346879867218 O
   0.1682685962417589    0.3358458356669364    0.6034068109918677 O
   0.5519374215298759    0.2802988870445290    0.3739937054809523 O
  -0.0258052585474018    0.2241296175609096    0.3489457031607561 O
  -0.0821210715961384    0.1464785162873433    0.6227521785730127 O
  -0.1380646878298302    0.2028880173061614    0.4917945652308228 O
   0.6892029112234741    1.0439407605963893    0.3299389898680573 O
   0.0506683165871808    0.4912398537088276    0.6096060467241599 O
   0.3242204531355581    0.3430321089795117    0.7027276993636757 O
   0.5350396165573368    0.4365802647748929    0.4046567476427809 O
  -0.0910078792884455    0.5350923026836346    0.4899871445325060 O
  -0.1520572009905763    0.6776675089790667    0.4690390662180356 O
  -0.0024125147980810    0.8530907065188340    0.4623773708107877 O
   0.0002812161698705    0.8710631619058639    0.6106482190863642 O
   0.8211818147534713    0.9272445498942262    0.4109380604836782 O
   0.1262611418753206    0.0640434570531884    0.7229421186829925 O
   0.6088828385367727    0.2212682247351307    0.6847169469518659 O
   0.1675047231521901    0.5666620055335535    0.6768665129170472 O
   0.0670721085534332    0.8307448966260361   -0.0836675623775670 O
   0.0347640336175682    0.7200373658265556    0.7117837702543073 O
