Li1 Co1 H90 C51 N3 Cl6 O45
1.0
  14.1235559503000001    0.0000000000000000    0.0000000000000000
   0.0000000000000000   13.7836046972999995    0.0000000000000000
   0.0000000000000000    0.0000000000000000   14.2458326342999992
Li Co H C N Cl O
1 1 90 51 3 6 45
direct
   0.9492143846122008    0.6638528925885696    0.3588387178431279 Li
   0.5817143004786614    0.8517086862553171    0.6516611949201216 Co
  -0.0426335642538528    0.1450582697711621    0.2869945493572686 H
   0.1566009635026100    0.9774239862841573    0.1763972932722495 H
   0.3004804515827231    0.3607304444514411    0.0668059453968704 H
   0.5141453749645645    0.1686304779950126    0.2341601507424920 H
   0.3838716318311352    0.2976264873152951    0.3089504439707512 H
   0.3889687901001525    0.3846175195113124    0.2138784299461704 H
   0.8252194072734519    1.1325089620175901    0.0958235543083142 H
   1.0482545983460720    0.4235615411796899    0.1290072938716864 H
   0.4822746122767558    0.5309764759891610    0.2762117468392783 H
   0.6338950687351390    0.3973021549052924    0.1999325971472045 H
   0.8070009075623692    0.3164401435173477    0.1380632755971336 H
   0.9804352755515420    0.3411760531351553    0.1960100465013787 H
   0.9316586075208986    0.5910453780059307    0.1218915286789991 H
   0.1970270433092235    0.6697911069960122    0.1018737447192613 H
   0.2763116090333544    0.7341066485011782    0.0213168527874483 H
   0.1044066009359830    0.8138637239645615    0.1888416343333090 H
   0.1837364810272783    0.7396871915948922    0.2811149351465606 H
   0.3468037714536019    0.8291093730247934    0.2557173322624117 H
   0.3919758231837080    0.7710875407419321    0.1582762043456222 H
   0.5720219113606722    0.9018450631448378    0.3443586937339484 H
   0.6555864898671870    0.7726350314360159    0.3472170735173776 H
   0.6986443431542754    0.7534535469255241    0.2233197875314168 H
   0.6924157417801199    0.9386714239660700    0.1566125599235379 H
   0.7998100839229555    0.8865573351065201    0.1387168000515473 H
   0.1562554414529808    0.0561403105786673    0.4818432515185372 H
   0.1154052474911871    0.2720250566482415    0.4106538710145010 H
   0.4463076786102234    0.2550316789982076    0.6369902377802218 H
   0.4767195664882812    0.4137707061286502    0.5929577114897133 H
   0.7481432089116026    1.0165276904193739    0.3533360559761578 H
  -0.1469783910939162    0.2360830798664318    0.3682534009608472 H
  -0.0353634404719012    0.1325390482910364    0.5487942697204203 H
  -0.1035445701667601    0.0538702222609046    0.4838813914255085 H
   0.0071329394845397    0.2841017233588449    0.4781390103306305 H
   0.1263430028655140    0.3433619834967465    0.5928643508533684 H
   0.1268124313878586    0.6153895178277677    0.4941135767769660 H
   0.3516049702620762    0.5416089631518775    0.3336657420539439 H
   0.5760734406073690    0.5000020676702956    0.3578798409314962 H
   0.4798992189892539    0.6182632218311739    0.6798631266929738 H
   0.7000929868295649   -0.7001915945319092   -0.6044057868663206 H
  -0.1508060390453410    0.4497716660297422    0.6422401941653563 H
   0.9312613987712225    0.4543419508995876    0.3851383389054955 H
   0.0535079460554654    0.8028673261913658    0.6432489102136835 H
   0.1879485930626144    0.7035203099302105    0.5708199391252763 H
  -0.0893894947237550    0.6676030001355544    0.6334825453004094 H
   0.9295486572998024    0.8637904314632757    0.4190394812534121 H
   0.1716708227327480    0.1113384983320520    0.9693183032245083 H
   0.0343052749325292    0.1958838713017420    0.7517550284365130 H
   0.1910604156202378    0.1364908447329838    0.7425719920104763 H
   0.0301221924136579   -0.0012974945083490    0.9505921250608189 H
   0.1347431536786299   -0.0661789257188058    0.8944114846907359 H
   0.0557198536026817    0.1602037998835348    0.9513593669820587 H
   0.3169288588264432    0.0402134173732200    0.9456664740440403 H
   0.1584114140782284    0.2094340277449681    0.8930693377983203 H
   0.4878920361237803    0.1116221686843196    0.7747856233074685 H
   0.4606244697010467    0.2053102878925669    0.9402761257245527 H
   0.3910079366225542    0.2464707834566288    0.8108796876699808 H
   0.6142300494597277    0.1089479770770095    0.8148731362426548 H
   0.5912754903429698    0.1661209748019346    0.7075736866955901 H
   0.3533644421746345    0.3354271941290985    0.6651619852871882 H
   0.6120344267632112    0.3890394397084245    0.8405409936004334 H
   0.5927701564224106    0.2068273076025195    0.9476452983587473 H
   0.6113901131050912    0.3547842495481547    0.7345605262766162 H
  -0.0366563160100628    0.1177091105143065    0.8346768225025042 H
   0.6885179981669876    0.2833160072680374    0.8095691289627944 H
  -0.0037772024472963    0.0718676913880186    0.7300714941756756 H
   0.2210599427570988    0.5853132054911838    0.7488531271534343 H
   0.4346187667964465    0.3606404824982923    0.8227477198405206 H
   0.5653114908169007    0.5875499208263267    0.9312496263053196 H
   0.5997011304876156    0.6012009217170341    0.6918462802496832 H
   0.4664760413796539    0.6611242885095969    0.9396204953911236 H
   0.5666660363766252    0.6783106490591274    1.0220691686383447 H
   0.7124850501750769    0.6376362382419178    0.8435158986893757 H
   0.7216866988574144    0.7448948278828119    0.9250864203872182 H
   0.5237711024002329    0.3106085775543638    0.9592093819914126 H
   0.4861901276182605    0.4835697188780841    0.7489226211609391 H
   0.9538569831355993    0.4128819690914948   -0.0412010794993339 H
  -0.0647476834671070    0.5554545430412501    0.6879609334664610 H
   0.8318607942109962    0.4089900989183384   -0.0347437524787628 H
   0.0236733915365626   -0.0610119174097275    0.8326909785910794 H
   0.1622992451735436    0.0166063851675054    0.7204637721482208 H
   0.3281158432201747    0.0451678542930031    0.7559239669271286 H
   0.1320278318336957    0.7085298848212783    0.7219793030795625 H
   0.2694224091503793   -0.0508788641869114    0.8234510834316296 H
   0.1509557846056972    0.7239525557893193   -0.1065675641341407 H
   0.4577876487091527    0.7294402349313956    0.8089289417421441 H
   0.5606103376346817    0.7713654070972223    0.7436445863889339 H
   0.4952222722459235    0.8406317580240608    0.9224288010699139 H
   0.6043578897507531    0.8777526716918930    0.8676576957207361 H
   0.7020960234656324    0.7587939496443006    0.7973437993193258 H
   0.5940779007372982    0.8361612293522634    0.9892279853947941 H
   0.4265528094411687    0.2489839141478177    0.1693720808772201 C
   0.4254907539607511    0.3252331989380202    0.2493224796526276 C
   0.5818282944335595    0.3020121325312988    0.3281420213968210 C
   0.8901109971269641    0.2805533047068228    0.0198581805895195 C
   0.8131133908706657    1.0313271572119727    0.1870818214361928 C
   0.5213766629177822    0.3686558023240010    0.2742946949756866 C
   0.5067084730703381    0.4731946027063317    0.3242243844686975 C
   0.8997502126672339    0.3878844443099336    0.0056062933736638 C
   0.9783161208496154    0.4767832720773917    0.2570208713728803 C
   0.9811298598357350    0.4152549332556809    0.1683542393531600 C
   0.8081620882209591    0.4646376393727050    0.1504374206910165 C
   0.9031402937607266    0.4549674766738205    0.0973671636265266 C
   0.1164297770112966    0.7654380751841123    0.0237252764212759 C
   0.2533145676973798    0.9162694466327759    0.0972927559013194 C
   0.2113400110003174    0.7437071850013234    0.0687861736309210 C
   0.2381654083247038    0.8187296499304402    0.1485287923434860 C
   0.3023687862269056    0.6896182861702331    0.2569885812279791 C
   0.3215070259840297    0.7819569760812485    0.1973929070547567 C
   0.5757535494966672    0.8392489557442091    0.2258391207933834 C
   0.6683679735555187    0.8062365464367125    0.2748309921649155 C
   0.7444422995808408    0.8893171356692461    0.2820450317116499 C
   0.7620228579666861    0.9325010496795336    0.1895358724486851 C
   0.8320597526043279    0.8392395242491210    0.3281209626066680 C
   0.0702685976104282    0.0592367429660791    0.3785890551679230 C
   0.1131303246521327    0.2057412346681345    0.5527095199856599 C
   0.0694685158151803    0.2331564143906073    0.4609281525103816 C
   0.0096592154539595    0.1485283344639901    0.4119897002698708 C
  -0.0758065131662015    0.1271231936115545    0.4827352316734497 C
  -0.1586404683058878    0.1943218706152150    0.4983779817829416 C
   0.1191989096672386    0.5264315110561293    0.6558568078782642 C
   0.0638105922525026    0.6233642096746350    0.6338138702654827 C
   0.4365899417681015    0.4617146957099423    0.4032496003967181 C
  -0.0767340416190995    0.5390462808364945    0.5484717894472113 C
  -0.0468371798453455    0.6008693683897035    0.6278591463698957 C
   0.1158739679765447    0.6697265375296393    0.5487580486013572 C
   0.0559485495494649    0.7580793325164654    0.5151751817882159 C
   0.0176685298502818    0.1202723006794250    0.7824847169873930 C
   0.1822538515766154    0.0647265986070220    0.7750762346115794 C
   0.0698395271963395   -0.0209723187619147    0.8830004282665155 C
   0.1246529185776762    0.1431298917754403    0.9186754227049835 C
   0.4479947891427160    0.2939257137426177    0.7858232371863098 C
   0.5269956444461780    0.2422701406442779    0.9244209626183844 C
   0.5582078973342784    0.1504262414755808    0.7756925552033895 C
   0.6205938858983896    0.3201866235662217    0.8011772010868374 C
   0.4309320182054237    0.3146510614490822    0.6827432672262277 C
   0.5319857475227692    0.6191497823694629    0.7343499383750866 C
   0.5413830268245998    0.6588164742114815    0.9489979746462394 C
   0.2743312295808692    0.0287548763407034    0.8106480409782980 C
   0.6891977136744547    0.7119919690182626    0.8617064816235079 C
   0.5268276980728747    0.7180440868663854    0.7860822603051913 C
   0.5684868242922529    0.8255870723591693    0.9162529598777207 C
   0.0997590461536758    0.0769897187205225    0.8421920027484259 N
   0.5392805109918665    0.2504472468857300    0.8216975881715594 N
   0.5834010569926605    0.7226880099478810    0.8788693955981753 N
   0.2310730018264755    0.4254503068960412    1.0508691700515411 Cl
   0.6383025989788719    0.7615276322206285    0.5387842546050766 Cl
   0.2618350847982763    0.7100940620066719   -0.1964619236197789 Cl
   0.8174600299335212   -0.5383979237922918    0.7446497926389023 Cl
   0.4412792707326385    0.9111902237779798    0.6520072610383020 Cl
   0.7090524868623673    0.9312321508403624    0.7005372429458124 Cl
   0.0503812547211162    0.0330998935778657    0.2987692208914638 O
  -0.0240412210136632    0.1945699914859963    0.3313703339272707 O
   0.1921890265774281    0.9900331697174318    0.1179163310577909 O
   0.3727200492867509    0.2673738785705244    0.1021727795394334 O
   0.4807892922855426    0.1686551449821663    0.1717306653743522 O
   0.8180519488546074    1.0568183119364567    0.1000928730319921 O
   0.8461079144623042    1.0719297435665875    0.2575683999168574 O
   0.8423822238369995    0.2450176077134270    0.0909709070973990 O
   0.5684538297686613    0.3825955520643311    0.1849977031707209 O
   0.3607938742786488    0.6252309202024725    0.2616250248599904 O
   0.9857915753577811    0.5673316973557575    0.2592278325809111 O
   0.7704690311839534    0.3779429229873696    0.1712863249021247 O
   0.9372938738999942    0.5463371892894687    0.0687938951873104 O
   0.7644287676483252    0.5420406354270673    0.1702600598620034 O
   0.9454497519526139    0.4201535067045571    0.3274681401119260 O
   0.1650096107595692    0.8269930906269303    0.2181814427340931 O
   0.0478089563475448    0.7939407788402144    0.0696776624140632 O
   0.3153725935291380    0.9238900946640254    0.0368161223400314 O
   0.2195305828652975    0.6800844956353274    0.3014078872976305 O
   0.5515347903397190    0.8221351451568955    0.1444798889567424 O
   0.5329197899159471    0.9016136287653663    0.2850416975504170 O
   0.7008449221097005    0.9644817985243078    0.3422387755252165 O
   0.8591556200577273    0.7569236116183522    0.3047548310126086 O
   0.1446181455355522    0.0222326347374158    0.4217778259329694 O
   0.1297628215124585    0.1221709331906378    0.5789932065634784 O
   0.1399210281641589    0.2765166248090817    0.6072910260274939 O
   0.5751132008456742    0.2119399034399353    0.3220188271800102 O
  -0.1924605630243042    0.2410266342918825    0.4224222249116502 O
  -0.1993214414278016    0.2009275446750519    0.5734657655200950 O
   0.0882775183733751    0.4524322907941177    0.6129600523366723 O
   0.4891159488594135    0.3934468499130933    0.6570038099819291 O
   0.3507333767311468    0.5016069453844929    0.3945551279022302 O
   0.4581233290446634    0.4103572304063512    0.4704862459890427 O
   0.6524746673095637    0.3506931571787510    0.3743400932747262 O
  -0.0487764931525879    0.5600150336661963    0.4669563715836025 O
  -0.1194407085606630    0.4574843799630446    0.5637713514731770 O
   0.0481289890656440    0.8310711240031349    0.5762557744314943 O
   0.0147627460558593    0.7594911547812038    0.4378442789003391 O
   0.8698363580057932    0.8922300166522494    0.3996836452641492 O
   0.3093068406619799    0.0803756254571791    0.8903267813607323 O
   0.9243544979635737    0.2267059972499144   -0.0418138902927852 O
   0.2002464874888626    0.5255030891896413    0.7080755878609024 O
   0.5067088978925303    0.5359679859396370    0.7914908595761447 O
   0.0661039240532175    0.6970263628121874    0.7044148681726452 O
   0.0962443505504807    0.7479774757774024   -0.0675308848275875 O
