Li1 Co1 H90 C51 N3 Cl6 O45
1.0
  14.0654248627000005    0.0000000000000000    0.0000000000000000
   0.0000000000000000   13.7268728137000000    0.0000000000000000
   0.0000000000000000    0.0000000000000000   14.1871982685999996
Li Co H C N Cl O
1 1 90 51 3 6 45
direct
   0.6704978355122118    0.7183741002508798    0.3432354325432663 Li
   0.7150140876775095    0.6743553344182902    0.5942194487377039 Co
   0.1370109289133887    0.1831983104185378    0.2029970315332878 H
   0.3115687559230091    0.3083987128208063    0.0821838894632617 H
   0.3285799733114378    0.1191225364285463    0.1400057359243495 H
   0.3280858538612368    0.0689486906191338    0.0232081858635004 H
   0.5105798080116746    0.0755955067759018    0.0248399386283319 H
   0.7000504444136544    0.2218203627384863    0.2414394350067834 H
   0.9222314329373178    1.0688982192765779    0.2380420059240674 H
   0.7242203506424764    0.9798699302710651    0.1789894724965020 H
   0.1737990106848961    0.3657715763046139    1.0421577857993114 H
   0.2062786552359462    0.5658477362045553    0.1296555598557599 H
   0.0762697847005577    0.3712542525864898    0.3666953147341455 H
   0.6299373828014726    0.3270395207799666    0.0640901125849795 H
   0.6106717009862996    0.4869658951111259    0.1891133882465124 H
   0.4155037606790172    0.6490414843727649    0.1527728796951452 H
  -0.0454158392110864    0.5435190525954162    1.0519842502893828 H
   0.7452492212871432    0.3827193548086746    0.0255187195840695 H
   0.8008081544603848    0.6002678118046181    0.2091420080360094 H
   0.8465621936225168    0.3410995330361724    0.2384360231143658 H
   0.7976976902954508    0.4395064330150099    0.2865089397739919 H
   0.1910235170446345    0.7483678217333929    0.1233611528622632 H
   0.2953012060812137    0.8673665202839993    0.2612262875399793 H
   0.6481522609513261    0.8950050075890869    0.0336528132800328 H
   0.4156964317164337    0.7697470538413138    0.1443187791934656 H
   0.7110710855612298    0.8527674194749649    0.1945690108814132 H
   0.9336544792774309    0.9280635203442352    0.1302250873866384 H
   1.0040348630669877    0.7782122011168117    0.2558193003006609 H
   0.0653707182666289   -0.0668367883677290    0.6250916471596707 H
   0.2558420354256705    0.0698177887860588    0.3797761215634077 H
   0.1588744703991145    0.1980072186643487    0.5001708582592637 H
   0.2862236274622704    0.2263683760294445    0.4789225473318554 H
   0.4410735535228689    0.3648522117726278    0.6906507506832011 H
   0.4979289281600550    0.2110225647249380    0.5800134021184733 H
   0.4192029024047662    0.2942716787445191    0.5114422592062654 H
   0.5214815832155388    0.2579888336450202    0.4585571450494700 H
   0.6454740624349131    0.2159115151006581    0.6123308471361247 H
  -0.0182072761043380    0.1083363943837078    0.5541682709616376 H
   0.7665866499769716    0.2084087137417636    0.4900214970341731 H
  -0.1254894957834340    0.3203125698383187    0.5005816511367339 H
   0.1792357465635818    0.4288061808896018    0.6821578828372166 H
   0.2374579480252446    0.4590591748261038    0.3747596272103600 H
   0.0823598957946890    0.4560877041529516    0.4595339411537912 H
   0.3843443748603744    0.6460415294260781    0.3408959995296700 H
   0.5096691280908733    0.5200768597254684    0.5543838878820532 H
   0.5229256419765268    0.4522072136200432    0.4489304381116895 H
   0.4173444445014204    0.4384771381281294    0.5141489599425898 H
   0.6747607710854562    0.4395786271712063    0.5597191907774478 H
   0.7169834558459363    0.2959224553130457    0.6753221427450631 H
   0.6574438395048168    0.3528341795347715    0.4721999373989915 H
   0.3004606662971968    0.7830654550883580    0.3495523950825404 H
   0.2988339824093410    0.9335593095909096    0.7270300265788731 H
   0.1853436317386556    0.8921981046241563    0.4035715174977251 H
   0.3921464854308854    1.0108573230860896    0.6598645452795107 H
   0.3541888691333629    0.7195651945534132    0.6426624173202401 H
   0.3537039922052521    0.8331475101441806    0.5906274780726581 H
   0.5010145086116695    0.9769457391209921    0.5997723421637697 H
  -0.0990068261423766   -0.1104534232798302    0.6161554218669998 H
   0.8746971418279872    0.9308456543756576    0.3861466535239029 H
   0.7425759995133944    0.9431951532236990    0.3602197585136243 H
   0.1760449435527878    0.2499105188310790   -0.0892361438623167 H
   0.1650257243316879    0.0567070094816580   -0.0989942368542504 H
   0.0347687276263423    0.0423861949255703    0.6932918641215697 H
   0.2942539572320828    0.2800113295261135   -0.0799721582950684 H
   0.4570560782026707    1.0871842486881336    0.7702683029732816 H
   0.5535644320739967    0.3034354556445612    0.7097771486416035 H
  -0.1151215188880666    0.1245061369763888    0.7611734839993636 H
   0.7772112846011484    0.2538371232901955   -0.0503391051692460 H
  -0.2932362949758961    0.0259017411777245    0.6852374196966328 H
  -0.1978179188442866    0.0882793862263059    0.6219099054834507 H
  -0.2293278095391151   -0.0401366065437809    0.5889922010037991 H
  -0.2004342635590197    0.0770932987551121    0.8393975264768861 H
   0.1463273911801990    0.6063624264437588    0.8392925022168602 H
   0.1635661168046915    0.6801053694824473    0.9365217065942317 H
   0.5448408420511038    0.4383249548866620    0.7078458300344164 H
  -0.0787969851475392    0.3865403270513585    0.7655400966897008 H
  -0.0549683412728128    0.4447979514100449    0.9179105618846811 H
  -0.0624057277023841    0.5456137030223731    0.8437486322295015 H
  -0.0260513335058733    0.6935942392718725    0.9691631056381106 H
   0.2550379360038327    0.8008087534568631    0.7557136321996295 H
   0.3106523243096148    0.8854900946316618    0.8415501713770136 H
  -0.0448044108266651   -0.1344953157398977    0.7291368555266403 H
   0.4662446381830189    0.7717205550434930    0.6055655931245256 H
   0.3861061417633931    0.6991038699813898    0.8041150139946386 H
   0.5003749260830352    0.7183500598154158    0.7693590325341315 H
   0.4562236824439724    0.7792415688534966    0.8747815389151318 H
   0.4848075328377261    0.9318684656299432    0.8126269130823727 H
   0.5382202101890013    0.8704451530194773    0.7239786841516787 H
  -0.0840431828785215    0.0303266382991853    0.8531373781593308 H
  -0.2633047426687598   -0.0660266985423974    0.8220290513675074 H
  -0.2184571816346944   -0.1641328016787174    0.7386271014124679 H
  -0.1513763782312996   -0.1235438046389888    0.8345720494021406 H
   0.1549044516798021    0.1283081682699193    0.0608724230076769 C
   0.2404575019250975    0.1995115671259583    0.0392479983544311 C
   0.1982895613339203    0.1987903540620390    0.3507041376387973 C
   0.3309744974960087    0.1360674009404295    0.0673945000413639 C
   0.4234665489412482    0.1950305756550815    0.0471924844937033 C
   0.7535269662636750    0.2383303139178848    0.0812562926431674 C
   0.2543973581266657    0.6148392296879667    0.2527397634412447 C
   0.6393988815687734    0.3469908967209359    0.2493289420032234 C
   0.7122775901756052    0.3934683434532506    0.1724370864481767 C
   0.7075731464317496    0.3398865837923080    0.0810772579985596 C
   0.8659558488204755    0.4802546797272362    0.1654131485209432 C
   0.8079867502714336    0.4052355538144327    0.2213480826055931 C
   0.2872339062230408    0.7125424734057541    0.2096579661456667 C
   0.2628940797804088    0.8015904318584645    0.2811400150181729 C
   0.1590550550614901    0.8123758454052588    0.2923120587860253 C
   0.3993464101390652    0.7115349606104000    0.1945401115883860 C
   0.4750824089018863    0.7098812700496959    0.2720437863226438 C
   0.7605235554858729    0.9114515794386259    0.1715912534815253 C
   0.7850176609510856    0.8961837174248662    0.0669229481624558 C
   0.8451786591619541    0.9016212268279916    0.2379264087519584 C
   0.8582155920516443    0.7904203713442468    0.2687196627637042 C
   0.2130363608102771    0.2353485714223071    0.4487446368033484 C
   0.0072978190848830    0.3202280640651726    0.4797184056673937 C
   0.0080855663522537   -0.0132069478358585    0.6440115209020488 C
   0.1965477014015573    0.3478803928331031    0.4648115159492119 C
   0.2207574215716904    0.3590475393551434    0.5702991514686444 C
   0.5174057518375598    0.3670843297805561    0.6769151281655897 C
   0.4940354801814429    0.2778964997033277    0.5301853115669652 C
   0.8253754891390807    1.0687874875738348    0.3339002560346582 C
   0.6949670572641051    0.2784829406290399    0.6006068973575323 C
   0.0903831159321245    0.3789603048997615    0.4412308206162628 C
   0.4944146368761078    0.4507550256184100    0.5179358598634085 C
   0.6520255886703112    0.3669459151521271    0.5442854880932033 C
   0.4675232344696971    0.9918172981986183    0.6687401525429050 C
   0.8183469065711864    0.9569003869323000    0.3324256872294629 C
   0.2474476924781560    0.2196734790017486   -0.0717344500606904 C
   0.2743100164881448    0.1378930170396032   -0.1356977487204721 C
  -0.2256308007030793    0.0150922871954664    0.6433877190891435 C
  -0.1344334133136900    0.0563485884438314    0.7969578573751576 C
   0.1064850113395359    0.6425957336762411    0.8947636378914630 C
   0.0406135564034675    0.4417403722680491    0.7983711032902707 C
   0.0526764696575098    0.5580608206083593    0.9438212450964324 C
   0.1383873537415743    0.4939757218433999    0.9913845473936511 C
  -0.0119571982817244    0.4962452846508084    0.8729362133262208 C
   0.0378223147322604    0.7264604285433089    0.8566574530222112 C
   0.3063943654790343    0.8651497007350026    0.7666333357990976 C
   0.3959145905906912    0.7830188312135187    0.6378242527509946 C
   0.4373921858780624    0.7580524747351545    0.8013505499153000 C
   0.4754108739177033    0.9099144485650199    0.7387356499765215 C
  -0.0705483896637531   -0.0752065023994155    0.6781895165020110 C
  -0.2044440962196432   -0.1016371399469492    0.7825075060007257 C
   0.5388476352462709    0.3692355845055599    0.5717129612724019 N
   0.4019528013684705    0.8305569710984259    0.7352346063553906 N
  -0.1575155457888321   -0.0245911867751190    0.7214200394275584 N
   0.5145490446714254   -0.0578762624220642    1.0169970744846577 Cl
   0.8547773738341310    0.6382932242262332    0.5687710132422278 Cl
   0.2814111173062844    0.9575327232348071    0.4624110419898556 Cl
   0.6117623185929303    0.7055000828108968    0.4804219977234865 Cl
   0.7898379917026862    0.3445293018290334    0.8212515898989937 Cl
   0.6639619504680431    1.6680397798942126    0.7363419426808984 Cl
   0.1124976274407580    0.1289842144550881    0.1455840043394148 O
   0.2407895217571031    0.2837528954819619    0.0923211975685774 O
   0.1522006584868321    0.2432833721215088    0.2870065715027051 O
   0.2316116973216441    0.1125704250175455    0.3240709721013647 O
   0.5090640912659588    0.1547890721825141    0.0412737683095609 O
   0.4169782984340054    0.2871214704390964    0.0467124742851287 O
   0.6586681182001348    0.2591799279475537    0.2857568532944778 O
   0.7942132594674870    0.2090891309151986    0.0013130946609262 O
   0.7560956764414822    0.1859746164656052    0.1501867453996089 O
   0.2117203678572959    0.5316666808128481    1.0175306541144535 O
  -0.0053921637448100    0.5981420545111669    1.0144158742147602 O
   0.2115461818640596    0.5516500378179650    0.1963671107963528 O
   0.5691670890958959    0.3954913825224466    0.2676468646176682 O
   0.6745204655111139    0.4909405075913660    0.1581079711322982 O
   0.8556120446751899    0.5785796965258874    0.1757224426628113 O
   0.9242427479367689    0.4468453223139228    0.1069400106755339 O
   0.2539558499560545    0.7326599469008380    0.1167657703047997 O
   0.1019320027653102    0.7830581701079143    0.2297598914589402 O
   0.5553668660742118    0.7404883868855627    0.2599307533793918 O
   0.7145299217126362    0.8785722772023908    0.0057473739885956 O
   0.8671666192142772    0.8816319689887154    0.0363305794802897 O
   0.9347991300901266    0.9439564336800583    0.2007689665269672 O
   0.9430626558019044    0.7505722568156353    0.2777468151002901 O
   0.7871832549731174    0.7429091858869810    0.2902045249774526 O
   0.0130210731483616    0.2414031186690079    0.5186230427599482 O
   0.2758698698316569    0.3020775352898686    0.6044462741653236 O
   0.8893344529657382    1.1195638012659355    0.2799220155461951 O
  -0.0230268958927009    0.0346043788156848    0.5612619901086198 O
   0.7752931057858360    1.1197838076753330    0.3860754625825432 O
   0.7783708656418359    0.2427151436469057    0.5539136752386755 O
   0.2751667271895724    0.5953096541146835    0.3355341233819063 O
   0.2642697936453568    0.3975289915525299    0.4071078041591331 O
   0.1747069107394379    0.4297323933032049    0.6118656390044667 O
   0.4485933405916895    0.6759398176647797    0.3565114858156639 O
  -0.0773231583557887    0.3602444616420319    0.4577417620696182 O
   0.1277307257717011    0.8608952721559229    0.3669046583933916 O
   0.2183650302768326    0.0563187200240126   -0.1487376736230129 O
   0.1152895800752028    0.0822211964893832   -0.0040198821938102 O
   0.3492583390799189    0.1391227217384879   -0.1837995646731255 O
   0.5092298025774017    1.0711521922258371    0.7185075545790559 O
   0.1282198684792381    0.4532307533723732    0.7855729456440311 O
   0.1187029145793966    0.3999668374081862    0.9974343676876244 O
  -0.0112433911910744    0.3909535682041095    0.7368811611971385 O
   0.0582141623159488    0.7757833886369055    0.7867366708339822 O
  -0.0321336240043899    0.7443843944268161    0.9140500392527234 O
