Li1 Co1 H110 Cl3 O55
1.0
  12.4295951547999994    0.0000000000000000    0.0000000000000000
   0.0000000000000000   12.4320277857000008    0.0000000000000000
   0.0000000000000000    0.0000000000000000   12.4111703044000006
Li Co H Cl O
1 1 110 3 55
direct
   0.7626104035849848    0.2137389763443472    0.6800601752445323 Li
   0.6042239094569163    0.5745505894875872    0.2799867028629893 Co
   1.2041557581720634    1.0221742672918646    0.2137278425113220 H
   0.2896714279555258    0.2492231312709814    0.2117385055354813 H
   0.3707867006127085    0.1670611527420309    0.2463597370117480 H
   0.5514506701172031    0.0743525439882978    0.1839530516627112 H
   0.5853399476643749    0.1589852377158848    0.2735489537998189 H
  -0.3314566058902577    0.0742355880077399    0.0265290576250712 H
  -0.0501310312073496    1.0511880377095029    0.2686565868021254 H
  -0.0785127279244601    1.0257537316211822    0.1471579720046630 H
   0.9611792201282067    0.2985561934690456    0.0881693366025326 H
   1.0604262176881887    0.3559088645127946    0.0324260841104827 H
   0.1666561582739926    0.5659679188372906    0.2132444070372417 H
   0.0677963816926553    0.6414334837613940    0.1776732248544070 H
   1.0118566550852695    0.5583432576288405    0.3289998084026290 H
   0.3877365688406082    0.5395651464450377    0.0034915041158236 H
   0.4536598744507324    0.4383531783180576    0.1959777033546706 H
   0.5161076042708184    0.6189809921154960    0.0725813626037056 H
   0.5273863304283524    0.3746612357283866    0.2822902728969823 H
  -0.0958399213943801    0.4643014793965881    1.0666973643498012 H
   0.7411229780756463    0.4182068269490482    0.2789416765131856 H
   0.7844220552617737    0.4983948716658312    0.1852373785721847 H
  -0.0726871158189816    0.6315292266182727    0.0916887468538377 H
   0.9044436634815632    0.5033771642626388    0.3321719508383865 H
   1.0873056128606839    0.9718124107393741    0.1985890606404948 H
   0.1897791961863746    0.9458472178067051    0.0464576376005079 H
   0.1560258844513593    0.7170406185106567    1.2914545735076732 H
   0.1866994498613129    0.8498451801203971    1.3067150199728106 H
   0.0155383642825580    0.7182399401544798    0.0412280743596433 H
   0.4655629170001807    0.7325272312595005    0.2703341078971844 H
   0.5900215160722991    0.7197770988810701    0.1171438805963823 H
  -0.3938914632074176   -0.0233986049753364    0.0506616730556899 H
   0.8751909005820744    0.7757832478377903    0.1534112098618928 H
   0.7333970627257071    0.7627845638913241    0.2740501152412822 H
   0.8721175905084758    0.8748370805050942    0.2318453926282745 H
   0.7283880500246009   -0.1627466686912715    1.0864940470133930 H
   0.2549486558438910    0.2797298198448475    0.3878637174524468 H
   0.2476941959136189    0.2724397782231382    0.5087902669389140 H
   0.1030177219332453    0.3200168919648202    0.4622652426392080 H
   0.3006870723345082    1.0398785391768719    0.6067423512455012 H
   0.1699724368403208    0.1753920543282654    0.6385507939884103 H
   0.2955799067985908    0.2083762148424234    0.6518041775103239 H
   0.4818200836643713    0.0259596341291340    0.3801569502698153 H
   0.6410280043854096    0.3135786824160878    0.5127262374237186 H
   0.6476637796437975    0.0509545106976554    0.6423368994762498 H
   0.8751024021244578    0.1895530587142516    0.3336351488732698 H
   0.9381052586332304    0.2969820335381524    0.5774953107894282 H
   0.9886539685610324    0.2084655003571546    0.3954464028633976 H
   0.8694465461513167    0.0256621122715771    0.4436642570481751 H
   0.7652725980963823    0.0178139711893775    0.5994183038131834 H
   0.2954198050434478    0.4628680849168478    0.4659594953869723 H
   0.2950682248072796    0.5664722613394214    0.5345187028694721 H
   0.0097421175743796    0.3933766057396755    0.4195255181015515 H
   0.5962212352940666    0.3462772901579068    0.6295323052194407 H
   0.4867784108852060    0.4508716509825906    0.6192818617173562 H
   0.5957361028400404    0.5751418043824296    0.4885028972691308 H
   0.4637132992359913    0.5566235060027549    0.4528849829904683 H
   0.9394246901831522    0.5598715682413582    0.6586681555164754 H
   0.6992326354284906    0.4765424430288481    0.5926220067734034 H
  -0.0851155173941000    0.6197885836181106    0.4726639396866771 H
   0.7541765005741119    0.5841540107522444    0.5784130324643907 H
   0.2237722582883879    0.6699541729129936    0.6303557569769577 H
   0.2676103715345444    0.8344575053743638    0.5563989924263504 H
   0.2003797023459913    0.7701606735317384    0.4731344835481153 H
   0.0872894542330295    0.8394124492549475    0.5813668232110220 H
   0.3610124482346588    0.7616045472236592    0.3340654064452014 H
   0.6446669000563223   -0.3200412013055978    0.6614970587656357 H
   0.3950763091027655    0.9534565959090300    0.5627787292326311 H
   0.4609762833013362   -0.0966263209757105    0.3939735361190327 H
   0.5999357569196699   -0.2069140410190259    0.6172296781298851 H
   0.6091741913634222    0.9053067678746572    0.4624690912641119 H
   0.6683675915375117    0.7571724464473578    0.3794446886713369 H
  -0.0256943543713624    0.8685629632537059    0.6540279806910937 H
   0.7306037295907504    0.8954531862939511    0.4756684911580867 H
  -0.0622105075000282    0.7182077651942164    0.5532679420058897 H
   0.9288290112121328   -0.0739558439740272    0.5140798567511436 H
   0.0790517764386358    0.0065805751250091    0.9140767851826239 H
   1.1063488718769354    0.2448545760412006    0.8032814317813012 H
   1.0522843595874509    0.1372800095221074    0.7971095722288749 H
   0.2916401163717812    0.3094458087702374    0.8191373096053477 H
   0.4008061819677313    0.0559545799600086   -0.1219939224638008 H
   0.5070767389367490    0.1019792518689753   -0.1024518491498913 H
   0.3898146735317353    0.2328235540246601    0.8043047035347713 H
  -0.0259267030491779    0.0787500566823158    0.9396102354719695 H
   0.6872274173870667    0.2880390033329042    0.8633241176620849 H
   0.9709864582950045    0.2394692920670922    0.6837592623470373 H
   0.7567284742792048    0.1912406353800738    0.8887528235987131 H
   0.1763290396914996    0.5791516088052721    0.7905896391351108 H
   0.0631022625943782    0.5429676484929060    0.8072584942814025 H
   0.1676264231820449    0.4249563292383303    0.8968020242421515 H
   0.2308762708407115    0.3615941799913604    0.9771731718080153 H
   0.3154606830364695    0.6337686038526145    0.6998721666981366 H
   0.5714851118587617    0.4456030012394375   -0.1968941919146549 H
   0.5077219731459182    0.5134720580453214   -0.0580748898066825 H
   0.4265761282942860    0.3898960794131681    0.7129805195778263 H
   0.4388307510799024    0.6623898397550377    0.8585864500160970 H
   0.6697417312248695    0.4738381376186984   -0.1144225172139118 H
   0.8484000038671959    0.5332685067214650    0.8241819587773764 H
   0.9705117847496058    0.4394117345107278    0.6930363890946399 H
  -0.1690120552147463    0.5375863863888307    0.9991936576523769 H
   0.7836818863435248    0.6487211122610834    0.8580143847051019 H
   0.1030651892877852   -0.3269636440062964   -0.0985634164867048 H
   0.1451140246272183   -0.2130707196654524   -0.0640920500074030 H
   0.2551795563651273    0.9288025326071001   -0.0704210260889054 H
   0.3619537500111275   -0.0734193265116328    0.7573486159373436 H
   0.4986862806232515    0.7089550509964316    0.7450862751372946 H
   0.3804161373328401   -0.1715046928750044    0.8323197892577296 H
   0.9827084812720549   -0.1874465813115770    0.8242383595826858 H
   0.9471964638247656   -0.0652742353209202    0.8228686257394581 H
   0.7050019303336675    0.7592662319865071    0.7793699075074952 H
   0.8066070095234186    0.8249739358366884    0.8131910532741589 H
   0.6726863162692074   -0.1769414567855344    0.9770684274552980 H
   0.8356079540844161    0.1312077901463727    1.0273376595017565 Cl
   0.2880712149355290    0.4824883756855485    0.1297236773577441 Cl
   0.6777468189820177    0.2722652290637085    0.3483396445432148 Cl
   0.2941582997566932    0.1848136870674336    0.2534146720301610 O
   0.5243709466179211    0.1071167886490545    0.2542751871740241 O
  -0.4012030448694240    0.0531741807688357    0.0590378372247647 O
   0.1064216944257574    0.6154441596085275    0.2413706829192384 O
   1.0031355343528585    0.3638126435015308    0.0849614199416932 O
   0.5079504600728558    0.4445693806409717    0.2511223821572299 O
   0.5598467601507308    0.6514165695571607    0.1389959697506058 O
   0.7615073909905075    0.4949609990317059    0.2638778271408408 O
  -0.1424729768383591    0.5246761835830892    1.0747062787037329 O
   1.1652486180780237    0.9564569109536042    0.1873846378028918 O
   0.4378982991491954    0.7745758824539014    0.3332508176713759 O
   0.6506502003226452   -0.1650479827241205    1.0538621525129670 O
  -0.0418800786443133    0.9931604968742263    0.2093100480040174 O
  -0.0351798604181518    0.6987990247892483    0.1030315933821858 O
   0.8226067261290878    0.8212802503984351    0.1986092037852482 O
   0.6866087327151825    0.7111534051564374    0.3144862697449458 O
   0.2457319437488265    0.1672348975274540    0.6025662744752369 O
   0.2268576363334797    0.3216369012140889    0.4481416752639497 O
   0.0250781198838665    0.3207086536104861    0.4509544639973073 O
   0.6662162744859926    0.3265669095004683    0.5909066165662081 O
   0.9400200434434829    0.1563686090724532    0.3555396102038521 O
   0.7259237702456919    0.0664269664639831    0.6497084847301856 O
   0.9107914164869805    0.2753717214771524    0.6462317779457574 O
   0.3427737206512866    0.5233505752202318    0.4842631681614458 O
   0.5464690114848149    0.5699761145121198    0.4296164278971893 O
   0.9606240934395200    0.5164731774639022    0.3802181854298655 O
   0.6826190613395344    0.5523683675079030    0.6049850632972190 O
  -0.1007853761122888    0.6482529665892491    0.5447498089525933 O
   0.1935830208010276    0.7766238186746750    1.3399109225263302 O
   0.2065464357790106    0.7817211367544249    0.5529206741903420 O
   0.0062091786931770    0.8510597848703454    0.5826342298789026 O
   0.3522865003136506    0.9728500532078729    0.6261144164176924 O
   0.4784724283721609   -0.0277328938724365    0.4366447739645279 O
   0.6658976800385724    0.8540922748751831    0.4814068702354209 O
   0.8525192048035376   -0.0292599174865436    0.4970347276608594 O
   1.0895824368157321    0.1926724211118009    0.7489867936873332 O
   0.0229770699562737    0.0569540146631946    0.8820411277668970 O
   0.3379602090883702    0.2819659795831628    0.7642698004745945 O
   0.4415259313800479    0.1198966828657287   -0.1363390644313460 O
   0.7134969777334392    0.2260716386133583    0.8279205264435980 O
   0.1791320272036508    0.3536453560582553    0.9200391560296153 O
   0.1303138643879719    0.5556341259746512    0.8535667783435625 O
   0.2474391594493962    0.6067118753930053    0.6739801684321813 O
   0.5979091422402472    0.4386137954961922   -0.1212913295748039 O
   0.4561933439328691    0.5689545595237527   -0.0248681099549960 O
   0.4950819798039526    0.4308797394228462    0.6959208874233196 O
   0.7908269299989253    0.5673281152824313    0.8725657924749215 O
   0.9638583097996946    0.5137793289158381    0.7241696336254166 O
   0.0780622027761943   -0.2495917126865788   -0.0798544636397939 O
   0.1878418844960014    0.9345940254545355   -0.0339337336826884 O
   0.3606439728384001   -0.0938238819367570    0.8338023247115761 O
   0.4290830482391376    0.6958147972248060    0.7887590301399264 O
   0.6029969990217755   -0.2555086878790420    0.6878499321835475 O
   0.9292554128715589   -0.1320429084857913    0.7883223267616738 O
   0.7529222360702531    0.7685084893222062    0.8432615454877489 O
