Li1 Co1 H90 C51 N3 Cl6 O45
1.0
  14.2334758240999992    0.0000000000000000    0.0000000000000000
   0.0000000000000000   13.8908788209999994    0.0000000000000000
   0.0000000000000000    0.0000000000000000   14.3567041548999992
Li Co H C N Cl O
1 1 90 51 3 6 45
direct
   0.9657193068418444    0.7823985113216618    0.2814101366100165 Li
   0.7000364865150592    0.7646012212303930    0.6807594537054160 Co
   0.1788180510687688    0.0637773118545010    1.0487812463810486 H
   0.2311524217597803    0.1733038594261307    1.0786195710674142 H
   0.3691292606057605    0.2707195821775429    0.2641882173357649 H
   0.1099437991211082    0.1629920568507996    1.0934864930083494 H
   0.5133051544886419    0.1922385865509812    0.1734341009353580 H
   0.0005544960976177    0.2532311278377972    0.2889627056976084 H
   0.7784312520515760    1.1990798512560144    0.1736521175474041 H
   0.6712459082287529    0.9653250225052843    0.3124228255389053 H
  -0.2134311836927638    0.1267193338292530    0.3506795169127777 H
   0.3433274111813089    0.3748505028082269    0.2014384392334888 H
   1.0719737466350583    0.6250657731873392    0.2708986711391275 H
   0.9677131978879054    0.4211685945784409    0.1881199228151687 H
   0.4996645580244065    0.5536282484067032    0.9489296380639177 H
   0.5357399345765332    0.4050564390493289    0.9595051850948970 H
   0.6318142186726645    0.5108657272117167    0.8661808409039142 H
   0.5940679923369780    0.4335813441403572    0.1806077529719815 H
   0.4134979030796330    0.5153156256520194    0.2739996614165378 H
   0.7628897214561153    0.3659093838480473    0.1560519777608808 H
   0.8647776944236529    0.4546093153554263    0.2562699654324407 H
   0.8430156172031658    0.6133861665842835    0.0322150594251917 H
   0.1713659008483425    0.6735285096833399    0.1474399733157101 H
   0.1990056709833282    0.7777055037128525    0.0857517201871027 H
   0.6002695695968727    0.9933426882710836    0.1477471468809253 H
   0.3112340556548570    0.8348876309371702    0.2188080247114266 H
   0.5541341766601638    0.8501530437834349    0.3131096126937856 H
   0.3659634843360102    0.6960562420199664    0.1739307330260574 H
   0.6078896338271682    0.7884564433707690    0.0920080307602606 H
   0.6421672766200768    0.7186811604322467    0.1803709298151263 H
   0.7119063911039253    0.9760082918586711    0.0761624719505559 H
   0.8734312377690844    0.7984637295757171    0.1046557804137231 H
   0.1239832370257730    1.0150504580879318    0.3207464629636700 H
   0.1199518956507559    0.1725026142246267    0.5307516958827432 H
   0.2734021158915386    0.1877773857300285    0.5480871509645460 H
   0.4686376321028932    0.1203799221091773    0.7066358662853330 H
   0.3677957844939128    0.0533164906298336    0.4970073214933989 H
   0.4392737574481634    0.1646902935357484    0.4838735271374259 H
   0.5518180171775883    0.1784914361754909    0.6372627017167736 H
   0.3760537814478951    0.2948908390380091    0.5805950995134970 H
   0.6663349503668898   -0.6953575230170097   -0.6149898909414073 H
  -0.0546238742249848    0.2057481709637614    0.5291738964271301 H
  -0.0901148538172406    0.3378506839614162    0.5126746144579357 H
   0.1580276268844701    0.3362229971684237    0.4235994565245926 H
   0.1149973785059980    0.4757706186673242    0.5972186920473408 H
   0.0685125979663271    0.4180862841968061    0.4648153925511104 H
   0.3173843453719883    0.5571463843453826    0.4026176213659159 H
   0.5023191450323125    0.4991067879750529    0.3665125380259430 H
   0.2170462397926152    0.8153352323092734    0.5951478825022508 H
   0.1095756529237382    0.7683590828223524    0.3661865579159188 H
   0.2655347473454525    0.8387167623179427    0.3327088185396456 H
   0.5134825602067677   -0.0032321273605904    0.4426483968001126 H
   0.5920972860705223    0.0930972710340657    0.4934042661234556 H
   0.6056702181067640   -0.0261867585332382    0.5273533532357403 H
  -0.0137097639123112    0.8204321020546897    0.6393272424135937 H
  -0.1010334798732080    0.7685563345610875    0.4967109442779816 H
  -0.0319393238038359    0.6986197947266651    0.6127020507347963 H
   0.0512125369662537    0.1512375809746472    0.8359245929995688 H
   0.2240459355261976    0.1510691251101801    0.8262879801316509 H
   0.2215159842728973    0.3063422383374919    0.9766818293538675 H
   0.0405475383477874    0.3192269522786589    0.8616059747444286 H
   0.1024487921868659    0.3027981861119715    1.0141841693192861 H
   0.2616059810559622    0.0717717664481237    0.9254848420739468 H
   0.3138096738982889    0.1164946387735823    0.6483690112345871 H
   0.0872283356604855    0.0516254529134518    0.9132745187219699 H
   0.3029149351910058    0.1875693355384430    0.9220954847761305 H
   0.1383915236968868    0.3127212443846860    0.7356710818544807 H
   0.3825511402900280   -0.0195500294113465    0.6647989660107669 H
   0.5579713279417591    0.2449494343983523    0.9133852683747344 H
   0.5312774968146722    0.2716295318044082    0.7883934888800277 H
   0.6936494310183215    0.2485575574441188    0.8241698059551898 H
   0.5825383419530474    0.0637600343299403    0.6882960024029854 H
   0.0156330336700501    0.1453229084000228    0.9608933867172866 H
   0.1372603874797767    0.4078268901126426    0.8667227480098947 H
   0.2251531843946233    0.6020780267592833    0.7477072705322994 H
   0.4395182514876381    0.3469206644589445    0.9096497313446915 H
   0.3629810785958660    0.4251955536154339    0.7725061377485251 H
   0.4350927688593298    0.5140901452328638    0.6975397674460022 H
   0.4646965005976134    0.3899568184491615    0.7029003292552901 H
   0.5903394582349886    0.5654863894302200    0.7637450740222748 H
   0.6245798648667127    0.4430147285711464    0.7683004370982548 H
   0.4579399640222557    0.6177473017421553    0.8480429732435902 H
   0.3790769361946185    0.5262981561287353    0.9185709989711672 H
   0.8365294994662962    0.4070597680221460   -0.0069171810903484 H
   0.9542161433121902    0.4210404529379488    0.0266531979325770 H
   0.1203059904665469    0.7008003623056011    0.8103058997374062 H
   0.1062799013743821    0.6976616120104012   -0.0227543814356935 H
   0.0799054581505860    0.8404661116797170    0.8015364775467962 H
   0.2437248954275968    0.7721572586382871    0.7166764715972981 H
   0.4969801820875530   -0.0618569278857292    0.6652531092409717 H
   0.4290148437573304   -0.0903792413480734    0.5637401864785013 H
   0.7502420728968512   -0.0416559021899483   -0.1765689321970748 H
   0.1682745969009609    0.1403750573039428    1.0537287607432331 C
   0.4219547270829583    0.2754133096832089    0.1177876244613455 C
   0.3989027330335184    0.3213196924410777    0.2155607613077234 C
   0.4834864295865088    0.3760311336532104    0.2527002046121964 C
   0.5551518479710235    0.3109128634806626    0.3033782705631256 C
   0.7234643550217376    1.0646139168778226    0.1996943063371197 C
   0.2967527017995323    0.6996550064065958    0.2895296881966677 C
   0.8847685949961062    0.3163214485650289    0.1010686061260630 C
   0.8831779786013625    0.4117478083426440    0.0525330932059771 C
   0.9560182329996979    0.5745851658020162    0.2412943834548306 C
   0.9138163135653082    0.4814311604525659    0.2037711473285128 C
   0.7513563474560664    0.5061583936554593    0.1154535232889283 C
   0.8600641584729750    0.4984826374002965    0.1126875681245985 C
   0.1546180591443240    0.7489477839783685    0.1439781759934440 C
   0.0576403414695705    0.7557032960816152    0.0990570023701868 C
   0.1668715664502971    0.8049190446897213    0.2336805189619350 C
   0.1300133874304039    0.9068377222797747    0.2362221886659489 C
   0.2655797117665054    0.7986638609018790    0.2662053934012141 C
   0.5110984060887312    0.7997026720660930    0.2010114610124528 C
   0.6821055184820883    0.9838983614080727    0.1481497462475792 C
   0.6159473985936499    0.7963076384899089    0.1667856390759958 C
   0.6803870345149758    0.8806968276193848    0.2025919073151131 C
   0.7823417515450136    0.8500256220397995    0.1966991899415977 C
   0.0688315643281706    0.1738279443378063    0.4051725253051659 C
   0.0220854280911301    0.2741635687399825    0.4220371202280447 C
   0.3360101542240410    0.1666700098916657    0.5939707321049409 C
   0.1097379463809757    0.3262286691068961    0.5735432720949145 C
   0.5272089192784707    0.1085556162379253    0.6570625107072640 C
   0.4052827628394665    0.1122148519605173    0.5324354388741143 C
  -0.0698527615803126    0.2653412327611580    0.4825572083085288 C
  -0.1585113587912150    0.2386640149425288    0.4156324469125041 C
   0.0931158645420894    0.3429043598954307    0.4708771598662986 C
   0.4462748583199036    0.4612942055770310    0.3190580531630316 C
   0.3711779520399797    0.4217340735593766    0.3969714786910086 C
   0.0342152832392079    0.7699342171448060    0.5124837440485135 C
   0.0211966782062580    0.7560322889451259    0.6105497461622003 C
   0.5533414679683841    0.0263981073642108    0.5051683867863694 C
   0.1511979528679937    0.2841802136040677    0.9578822499317420 C
   0.1213956751079989    0.3285229803891902    0.8663863198194209 C
   0.2429281820920671    0.1427391985813365    0.9014981389779952 C
   0.0693353063577780    0.1275205790307571    0.9101345222775481 C
   0.4434083764777861   -0.0361566101016381    0.6154596474347664 C
   0.5642622017315884    0.2974522320541378    0.8554910615266872 C
   0.1398093080982086    0.6229485565317928    0.6382155666537674 C
   0.5886589129981393    0.4997737724127829    0.8025004871029364 C
   0.4325993511981350    0.4487955003304251    0.7467620675209684 C
   0.5080740991287184    0.3797508407117649    0.8945919578008789 C
   0.4504748865307767    0.5459476688426005    0.8892084102146021 C
   0.1075382025947822    0.7267584031643898    0.6682489221751903 C
   0.1665603283483221    0.9016717424361153    0.7136130944095059 C
   0.1887481624306531    0.8032848788250185    0.6655533174192205 C
   0.4836320018996674    0.0553998721331153    0.5789537060748813 N
   0.1605231522529017    0.1760898602615490    0.9550751989843110 N
   0.4939176834724084    0.4683777026881891    0.8310711113614299 N
   0.5586799391147884    0.6911443857667211    0.6640905861562911 Cl
   0.7720961866666807    0.7437522883635845    0.5349442319516471 Cl
   0.6887637656433009    0.9238431258286766    0.7041854431505781 Cl
   0.1982033370951669    0.6231782036290792   -0.0871089846950120 Cl
   0.7957228822227019   -0.9787809154987085    0.8814148387379752 Cl
   0.7631152461304583    0.7001718923497044    0.8132717615076696 Cl
   0.0608468667458999    0.1314281791689096    0.3294079216563017 O
  -0.0069454288201772    0.3063127225663673    0.3336679523249093 O
   0.4879714198158042    0.2085485697363136    0.1092473635019280 O
   0.3761437102900008    0.3010365985036333    0.0498716188461423 O
   0.6074076714390083    0.3491336273964318    0.3682476159192559 O
   0.7174693330710542    1.0631539660524407    0.2886165259653818 O
   0.9513117227398095    0.2573741342480897    0.0987930142041629 O
   0.7752099728245887    1.1252997821036856    0.1515676616319574 O
   0.8089058884201263    0.2998466089995128    0.1521687745271517 O
  -0.1541329482911965    0.1491210842159574    0.3834398214315189 O
   1.0523678539178698    0.5616702161928679    0.2458518361469005 O
   0.2817430159968371    0.6596136233402392    0.3626892371201243 O
   0.5257606433791224    0.4249350949326808    0.1742149208142836 O
   0.3459163782372410    0.6503679880096768    0.2258026663030155 O
   0.7088270308308859    0.5673379641456452    0.0674188216917215 O
   0.7131850668276150    0.4401864697902400    0.1632695117353923 O
   0.8926198044533763    0.5841835505923603    0.0710519675333594 O
   0.9145919498284696    0.6468347342370068    0.2659818044795950 O
   0.0476842350517651    0.7260860195002345    0.0099968680799914 O
   0.0953458187986778    0.9474060698452336    0.1680965249030591 O
   0.0992949595914577    0.7523233803394217    0.2959670988309501 O
  -0.0168579759550877    0.7763729746311060    0.1425481820492564 O
   0.4916792281299647    0.8210123389211877    0.2920163313436476 O
   0.4464923034498387    0.7822660503000295    0.1473006655763835 O
   0.6516484463405118    0.8967382892771691    0.2972556954197212 O
   0.8362477692656370    0.8546653572812132    0.2625172210025423 O
   0.8049026498082673    0.8129372558796149    0.1111384660632867 O
   0.1079562311967577    0.2464907335685410    0.6109746347671464 O
   0.1182875095027225    0.1335180397439017    0.4693202565715844 O
   0.3730910476419615    0.2538495192377000    0.6316687994441137 O
   0.5608291681842055    0.2233669266345694    0.2796416248592652 O
  -0.2212437518506917    0.2946431945193053    0.3929642915692789 O
   0.1309000296080392    0.4046720141278526    0.6227175806536825 O
   0.0878908583019357    0.5743490396330195    0.5863638329990117 O
   0.3142810977502646    0.4895183377613312    0.4367111009500127 O
   0.3709292425860313    0.3376440735635441    0.4223373284062936 O
   0.2003398496642549    0.9745936945352610    0.6889549280100002 O
   0.1459504644173136    0.9423883887540538    0.3230687229782445 O
   0.1132746791244118    0.7787565531236305    0.4758239080359167 O
  -0.0404368968137404    0.7789142105352472    0.4564680031567905 O
   0.1726129609634793    0.2978251386259069    0.7911183482612562 O
   0.6606350074293657    0.3096530439814424    0.8374660331352177 O
   0.2164321944176126    0.5831317812847256    0.6797313625891858 O
   0.1185242752823288    0.9010965448476141    0.7973997342274928 O
   0.0702402153314660    0.7170664317826749    0.7617494906564213 O
