Li1 Co1 H110 Cl3 O55
1.0
  12.4003853387999996    0.0000000000000000    0.0000000000000000
   0.0000000000000000   11.4747248875000007    0.0000000000000000
   0.0000000000000000    0.0000000000000000   12.6535249149000002
Li Co H Cl O
1 1 110 3 55
direct
   0.1410232522313881    0.6590358825977560    0.4976791842472749 Li
   0.5473461093312133    0.3693304619805422    0.7510947361638881 Co
   1.0977661014135323    0.0721562784221479    0.2430955783615580 H
   0.2268318759900890    0.0916506020066444    0.1334707892747961 H
   0.1178417145496069    0.3566234035168715    0.0558155899047820 H
   0.2813269567103301    0.1971197972915235    0.0884297430973086 H
   0.0350172561203667    0.4830473495567716    1.1532806910046163 H
   0.2852832853775123    0.3868027763031630    0.0259316798842051 H
   0.0228566824059217    1.0620459804727498    0.0591449388635368 H
   0.2367493097342811    0.3520542307903763    0.3185986501479031 H
   1.0612269143140571    0.4152609749267943    0.3240303381923205 H
   0.3988547560634616    0.3902477390702496    0.2016636450840044 H
   0.3854374310808736    1.0411565907618803    0.1627811990218283 H
   0.3808004784032752    0.4837637066006739    0.0157853213901526 H
   0.5788596461547244    1.0277183600842996    0.1612298526474370 H
   0.4508216895412208    0.3364320697575417    0.3004787980480337 H
   0.6548363173838115    0.1083801534235258    0.0566676054555875 H
  -0.0489372155800059    0.4689929821029881    1.0550550970804726 H
   0.7678650629998437    0.4555155347989165    0.0306109135679574 H
   0.7099991192896268    0.1763663585524895    0.2772394238833111 H
   0.7917852874038301    0.3511391761722531    0.3274056822397098 H
   0.7750317757730292    0.4918632471919471    0.2912450074018860 H
   0.9379646157452036    0.4387857219378585    0.3048562344045051 H
   1.1217492270886236   -0.0486308440220546    0.1797748827144090 H
   0.2242182475330288    0.7851966414998723    0.1875814030843719 H
   0.1147579394123658    0.7642549629536814    0.1264166284302639 H
   1.0605979016030092    0.6246559733739847    0.0273497432397267 H
   0.1037818288898866    0.7064635991953756    0.3154469591947331 H
   0.5864174758059334    0.5480205848464618    0.0332605309848814 H
   0.4549586577561912    0.5450950245102336    0.2685461940726621 H
   0.3704628964251651   -0.2531960098986730    0.1123628370009209 H
   0.3912090259180164   -0.2780671944192614    0.2373675302099594 H
   0.4206887549758052    0.9067655691801875    0.1942095956681823 H
   0.6278307049894787    0.6252686242278329    0.2658441801887885 H
  -0.0679371896584566    0.9210055619993618    1.0148449577381249 H
   0.6921408032817284    0.5980880161472194    0.1731672377646966 H
   0.6962043866804097    0.9753162322864448    0.1866994354054006 H
   0.7485793719937976    0.7589276021150273    0.2025693215715502 H
   0.8260745444214791    0.8350723470711184    0.1283196554651769 H
   0.8474916208061152    0.8437252778362091    0.3052142374139800 H
   1.1273942129570043    1.0866478774914332    0.4124349533112879 H
   0.1348105420699590    0.2580118889843842    0.3610729807091155 H
   0.2189821199268295    0.0284104278748443    0.5549960192697418 H
   0.2043583808215132    0.4433322361690478    0.4587406273381392 H
   0.3032077283627260    0.0277197272194732    0.4563594726636404 H
   1.0012852286573815    1.1284266569131720    0.3969807615888112 H
   0.2087493734005607    0.4813653920206024    0.5897673579251000 H
   0.4358503805917228    0.0330213968103730    0.3400345742737255 H
   0.6049330294542217    0.2544606055854775    0.4011377060255398 H
   0.5035789210405532    0.1670319299670443    0.4210515246408795 H
  -0.4509260944580543    0.3339248201038842    0.5373139898348817 H
  -0.3624304574260042    0.4274991768337505    0.5616194700918374 H
   0.7799219463881519    0.1684611581324938    0.3844340600911871 H
   0.7724762100277579    0.0316832122220237    0.6586240603743944 H
   0.8654265473365129    0.0769096821450919    0.5166067164259154 H
   0.7904385550609450    0.4770402338589401    0.4414964205682879 H
   0.7826629902405270    0.4775430781586135    0.5623726199108873 H
   0.0313437976950491    0.5985202705192090    0.3389170990962475 H
   0.2025213411346317    0.8724771654182284    0.4944049977831367 H
   0.2836389816367083    0.7923915852400867    0.5596216078226264 H
   0.4779272988280792    0.5062653354006175    0.5359372983503224 H
   0.5933906462064886   -0.0258167894310660    0.6157925170973261 H
   0.3555423923484826    0.5353745300239993    0.4987682088544634 H
   0.4639519266710741   -0.0208750587529064    0.4475405861675465 H
   0.3855011387785310    0.6700897423846843    0.5909994256773549 H
   0.4672018256781561    0.6141372026685115    0.3711942710895685 H
   0.4868746014294625    0.8292055397480657    0.5731395801781858 H
   0.6054152725326920    0.8179277094498445    0.5335924971823047 H
   0.9492787802785436    0.5005763101176572    0.6527031805797231 H
   0.8839501652503275   -0.0358147633367389    0.6553625186081625 H
  -0.0023956780203473    0.7019223138477184    0.6345058797051770 H
   0.8727972860275128   -0.0016463624518423    0.4112084176143672 H
   0.9422789978017517    0.8283192439893692    0.3863054753813341 H
   0.7468584577304942    0.6590637699765941    0.5109347791212764 H
   0.8497980007466250    0.7765480681377251    0.6155190755051002 H
   0.7687843892698372    0.7792235135449996    0.4562591053740084 H
   0.2386710242091884    1.0078486026621960    0.9732518045622646 H
   0.0545436009382473    1.0279188006196980   -0.0583911635270873 H
   0.2221860526204118    1.0357621259178968    0.8462674258372554 H
   0.0708054342999124    0.2705481372526719    0.7960616527998994 H
   0.1677377446402230    0.2975535777349590   -0.0512872932139106 H
   0.1944764298456367    0.3875435348035485    0.7463261044659375 H
   0.1846162523866810    0.1979642619819629    0.7915032392046427 H
   0.4244942818776463    0.1598971183874494    0.7360665127021332 H
   0.4691154758875370    0.3588500364209712   -0.0423708054558517 H
   0.6191898444780932    0.0684649480926390   -0.0583571809014639 H
   0.5528177134907793    0.2565809178577572   -0.0707466139688772 H
   0.5456356786130940    0.1463647678062905    0.6898991400586332 H
   0.3565520383923700    0.4835815671576379    0.7392640406852138 H
   0.8756439717582818    0.1477756948793776    0.9750615769501179 H
  -0.1058610111487901    0.2351747401577954    0.8286675869387867 H
   0.7572847466293933    0.1973690407398885    0.9529096468053455 H
  -0.0840253993833413    0.1571563119360233    0.7301306173286981 H
   0.7598137002984277    0.4531215776217886    0.7376123270211905 H
   0.9190781058827074    0.3666419443644374    0.6801801091303276 H
   0.8419917917172073    0.3532368299492269   -0.0040585562398923 H
   0.7339298272387973    0.4306399928753847    0.8593862999151441 H
   0.1180336440691318    0.6490269280366657    0.8810956656331924 H
   0.2003036681149107    0.6947090690151416    0.7943814885655867 H
   0.0743654849591342    0.6091549481429779    0.6847970044534013 H
   0.2107839875928356    0.5228356673139455    0.7760869815758851 H
   0.2606614698727414    0.8550789269456461    0.8505429143168566 H
   1.0205185019375069    0.7558042156851668   -0.0004684103868180 H
   0.6060225117268192   -0.0265310549215553    0.7390451293527093 H
   0.5162865906568307    0.8713974009688431    0.8907372477868214 H
   0.3472821651699365    0.7570896495534826    0.8733823999102892 H
   0.3678016888014999    0.7490519840840062    0.6956224464485169 H
   0.4325472574321675    0.5468972463676419    0.8216181678559695 H
   0.6294395259619672    0.8565831024417229    0.8462200082201065 H
   0.6812266263184907    0.6231212960573038   -0.0017183387748656 H
   0.8636524089207361    0.7799756012930380    0.7295450097569081 H
  -0.1393494865996817    0.8086821718844456    0.9833912716959580 H
   0.2836978507750500    0.0894565624765616    0.7100366117681922 Cl
   0.4331286909766107    0.6589452486165325   -0.0231308702095611 Cl
   0.7571847497368676    0.7424400608576247    0.8650685110368320 Cl
   0.2975611296412401    0.1165941194160939    0.1012900331030114 O
   0.0271799327352690    0.4884548866095854    1.0731133062780485 O
   0.1791083590322468    0.3195567196381727    0.0263905954859092 O
   1.1113140674976456    0.0423919046921899    0.1715589902497265 O
   1.0103091417812642    0.4756763667376422    0.2918472111396783 O
   0.3652251559658605    0.3995542802768569    0.0313743372040563 O
   0.3947573027495699    0.3941406428599223    0.2782699667626827 O
   0.6538476384302924    1.0523464015206438    0.1839689709512377 O
   0.8390644633311756    0.4373024619759103    0.0035469924627208 O
   0.8196578083422357    0.4293807034247295    0.3284251610084132 O
   0.1477149797650770    0.7980640523918617    0.1875403078161761 O
   0.4363922992350874    0.9942622202845384    0.2069665152685003 O
   0.3532610116311041   -0.2258611497538616    0.1854191597423778 O
   0.4849391777031605    0.6182776069453717    0.2917373603266165 O
   0.6636497531774589    0.5581663618599763    0.0475000414147246 O
  -0.0981362512011875    0.8460904761539103    1.0417307466616050 O
   0.7027445060222051    0.6259335639170025    0.2451890661586862 O
   0.7779212021110873    0.8411404664101583    0.1935805219473390 O
   1.0841213641431038    1.1391720125717044    0.3677857347101749 O
   0.1707102329132018    0.3417202139697051    0.3657206974833362 O
   0.2274254059328217    0.0243377088808658    0.4786252050895702 O
   0.5271346406427528    0.2531847580036372    0.4152404956592701 O
  -0.4293638612939456    0.3933667680971668    0.5909109127920100 O
   0.4314303566567808    0.0489890998966227    0.4177978858108393 O
   0.8903128707505452    0.4469854827968310    0.6642873044492226 O
   0.7384627508911069    0.2179725848176680    0.3392008145055224 O
   0.8481932119068997    0.0446005850961627    0.6587370723619327 O
   0.8679103411186003    0.0806280283728502    0.4384277104451288 O
   0.7418949022990823    0.4996656129024775    0.4985919733773930 O
   0.0281482090970068    0.6218062318489725    0.6195669594223860 O
   0.2188587366642778    0.5112554332514493    0.5121976683246779 O
   0.0591210393362619    0.6735137896176423    0.3691608456074957 O
   0.2064607348442087    0.7920630370581511    0.5286974185052901 O
   0.3919670668774847    0.7507278412560546    0.6211744166437371 O
   0.4306182851182866    0.5633856591056332    0.5083015207822689 O
   0.5428333463427194    0.8712265907734600    0.5333957140711363 O
   0.9058769032162231    0.8026637269389609    0.6649535219701660 O
   0.8683780685191234    0.8573038168885685    0.3826764470821977 O
   0.7404393023715928    0.7462388447437190    0.5196501371532618 O
   0.2265528524028805    0.4617753798674679    0.7200061657737685 O
   0.1497665289149571    0.2715747413861472    0.8167657650343889 O
   0.5272346375352784    0.3327814375715245   -0.0923603541590084 O
   0.6247638648098428    0.0232606399209412    0.6777784068217308 O
   0.4948654821394315    0.1983285408680348    0.7253604050435093 O
   0.6389069736897941    0.1360664816897555   -0.0182519925517391 O
  -0.0608736994840072    0.2316896892836290    0.7613053297233050 O
   0.8352016801440979    0.2176780243786912    0.9458444218501453 O
   0.7086830311557414    0.4106987740450087    0.7843400178406678 O
  -0.0081005813815880    1.0391957594373307   -0.0090020008863989 O
   0.1392628230670060    0.6353377109495427    0.8053531348802451 O
   0.1950594762431851    0.9844057748264685    0.9087243305586736 O
   0.2998070275903030    0.7853247491464096    0.8211439916844795 O
   1.0820085265752242    0.6982333365157989   -0.0102232416160712 O
   0.5741081809066532    0.9166220146382573    0.8577108774425463 O
   0.4323440379409058    0.5079298633250130    0.7522461939669896 O
