Li1 Co1 H90 C51 N3 Cl6 O45
1.0
  14.6162824744000002    0.0000000000000000    0.0000000000000000
   0.0000000000000000   14.2374522811999995    0.0000000000000000
   0.0000000000000000    0.0000000000000000   14.2843002143000000
Li Co H C N Cl O
1 1 90 51 3 6 45
direct
   1.0024999696649266    0.6006143145140896    0.3717478649660420 Li
   0.1980799661111399    0.1206450148786891    0.2448918081193818 Co
   0.3738907445700781    0.1577822771891785    1.0019936498444277 H
   0.4909948032113821    0.0750315169597157    1.0589932919539451 H
   0.5083073175557922    0.2980131247149216    0.1905202261483948 H
   0.6473015798491114    0.2832380093470006    1.1229586235622304 H
  -0.0996072199172358    0.1174232305949539    0.1783040169269372 H
  -0.0741452051640434    0.2085659416903571    0.1193959859155465 H
   0.2385273234357847    0.5363182605628666    0.0761996101223318 H
   0.1416559060641029    0.4163896408719224    0.2032978909455319 H
   0.2305027111442919    0.6622742226676859    0.0457437954535472 H
   0.4082175305280511    0.5377275014581983    0.1577772850884067 H
  -0.0634680716129278    0.3434489223016986    0.2417253946919519 H
   0.6818445630518719    0.6084113555722419    0.3390014235595721 H
   0.2657469670556191    0.6185332507788930    0.3230762472060066 H
   0.1904583290638870    0.6841004591222469    0.2581378192757829 H
   0.3550610592186874    0.0121768725805617    1.0913875985043466 H
   0.3507576393778237   -0.1198846762741275    0.2870947855810637 H
   0.6307782264982852   -0.0421657151745271    1.0207359050465403 H
   0.4625709546214516    0.7883656022588589    0.1216579098120811 H
   0.5737931482843948   -0.1273424712435411    1.1453629412535946 H
   0.5496610202540435    0.6784554884903786    0.3269007257720136 H
   0.2869760313230527    0.2081304705205476    0.6497033783922604 H
   0.1678137201778928    0.2266948874386651    0.6490257113133853 H
   0.1796642026999276    0.2692053020863192    0.4330130993052017 H
   0.3297420356811930    0.1177870597336011    0.4300563566320312 H
   0.5761494245851793    0.0840324250905346   -0.6661013665391008 H
   0.4621815943302853    0.3010691490049874    0.3389636198175687 H
   0.3503402965951644    0.2566791845986075    0.3605208536603390 H
   0.4806615327464378    0.2184377921607949    0.5911383813360854 H
  -0.2560163481619911    0.1674061900419667    0.6056200148005594 H
  -0.0917762273101571    0.1504502069607260    0.3603367354353967 H
  -0.1046563834189168    0.2560456442838203    0.7867370426693818 H
  -0.1499490220333861    0.2346295935763056    0.6252471575932691 H
  -0.0622721450816353    0.1455097163019526    0.7512666316307807 H
   0.0235232685056680    0.1647041616705847    0.3988769503385304 H
  -0.1503506289406336    0.1071826343758872    0.6169674380252360 H
   0.0960321298974909    0.3485200543114148    0.7020727621756618 H
   0.1259419240442372    0.3787677412918064    0.5577170731279258 H
   0.2113234156913620    0.4227201274098132    0.4791963907582600 H
   0.2612567692153031    0.4664054713685273    0.6331222371080071 H
   1.0161368161304423    0.5100702849687034    0.6254438770655458 H
   0.3293527438068763    0.3687252142177175    0.5837358485963896 H
   0.8416355361731597    0.4388950718768151    0.6507541824060947 H
   0.7283064456262833    0.5602419930729144    0.4383891414527283 H
   1.2150895939720852    0.8070445059522648    0.6207093084142727 H
   1.1921631076656720    0.7379436597777639    0.5169238952152510 H
   1.0192935695717373    0.7689864328294849    0.5374767396385356 H
   0.4152117850643228    0.0362022384426603    0.4585213142358311 H
   0.5919646635424771    0.6790728742295116    0.6185978994164552 H
   0.4008852967546750    0.6669007526604838    0.6221297490165842 H
   0.6039280338663786    0.8293216657794350    0.4473587793123229 H
  -0.0092073523507573   -0.0888152130539342    0.3308099127228800 H
   0.7556772904837697    0.6741260622150475    0.5540117463561590 H
   0.7162596067458498    0.8296833877995187    0.3975083148641493 H
   0.9026373676280215    0.7446492134199745    0.3271009455907722 H
   0.3099668294681053    0.3353217660019166    0.8414530587341773 H
   0.3118900271108187    0.1235718025635211    0.9040259525120053 H
  -0.1099771618135744    0.1503020062884199    0.8626392558498777 H
   0.2725783894898041   -0.0065287212813166    0.9961781741995770 H
   0.0705242758550556    0.0873939815723215    0.9881518797168256 H
   0.2253646057381098    0.1937697551368001    0.7550820092959352 H
   0.1442913231113218    0.3370243178013005    0.8117785214001291 H
   0.4309093470402806    0.1662627270347898    0.8861790859399356 H
   0.3783433131431052    0.3222955590417786    0.7388186994722284 H
   0.5501588212518516    0.0649644068357181    0.9428125918074572 H
   0.4609255293881802   -0.0017013126521228    0.8074352914855202 H
   0.3429499084996145   -0.0323247691096887    0.8272339512558379 H
  -0.3412158509891366    0.1945507937510390    0.7498734937310271 H
  -0.2593550904232653    0.2932060848985092    0.7558989901647856 H
  -0.2761309019491756    0.2291019192111440    0.8560187005142144 H
  -0.3682610316424496    0.0594240897591750    0.7171018498298882 H
  -0.2377832577392542    0.0562402336095845    0.8408629003173471 H
   0.1580294265142695    0.4515402415633699    0.7582085187734725 H
   0.3282443908430928    0.4387602162887452    0.7632126141038439 H
   0.4001812873721236    0.6124689635528694   -0.1124207604648622 H
   0.5896911716297284    0.5062244634749028    0.7016485201820686 H
   0.5041036768484090    0.5286281908904594    0.9590310971961969 H
   0.6526298840972269    0.4392862935567892    0.7945386149080021 H
   0.7098626313067282    0.6430769678076357    0.9027231235514821 H
   0.7991603034258885    0.5608348659994243    0.8652855177901131 H
   1.0317837496376840    0.6732537151297195    0.7559430945304562 H
   1.1496112480468303    0.7012987608383009    0.7789116680746855 H
   1.1427900881400881    0.9359502935715448    0.8297065960105764 H
   0.4278299046390521   -0.1058098266421742    0.8708125648848644 H
   0.5481672067595218   -0.1108317925520732    0.9569266888913430 H
   0.3623604529042476   -0.0928664996788709    1.0281909429834630 H
   0.6860925652445463    0.7180215561318373    0.7417491895467856 H
  -0.3101340762084636   -0.0255257998778254    0.6545702601405454 H
  -0.3040381349076536   -0.1185698342904449    0.7826696400575385 H
   0.9311966131633426    0.7665885319041150    0.8458284918364186 H
  -0.1711438778760115    0.0022137136390348    0.7521788219239360 H
   0.0354387470348382    0.1183278868315902    0.1067562347697919 C
   0.0775438446256853    0.2713201467513130    0.2558058884496124 C
   0.5058211176575864    0.0314246982861382    0.9935368127444160 C
   0.3926212254895254    0.2304399394990262    0.2190718523310839 C
  -0.0385855475759852    0.1596990527091945    0.1650174017513474 C
  -0.0120528091262981    0.2110677937981976    0.2564471519250769 C
   0.1699319058420126    0.5382246409646355    0.2484418595212163 C
   0.2711587398602664    0.6052921177252684    0.0750822995253434 C
   0.3078192245586505    0.6290309154627182    0.1754414335741269 C
   0.2320071976673538    0.6233199217825239    0.2525232635189869 C
   0.3572161899815999    0.5988211566164712    0.0130169559873754 C
   0.3476474093942679    0.0040567400093250    0.3322982600469385 C
   0.3515423806429224    0.7257188602446462    0.1761583045335981 C
   0.5537200551080779   -0.0623350540652487    1.0171753526052605 C
   0.6156642602495542    0.7906061716648136    0.2991779816362131 C
   0.0167527370676415    0.0457236048586870    0.3288959232666356 C
   0.2279062917013544    0.2353614660907272    0.6903942061738078 C
   0.4148532807723335    0.2411721967162649    0.3251190494127810 C
   0.3862249342189000    0.0756503074445578    0.3981775811114681 C
   0.4607414196458628    0.1475641569014567    0.3676251568797861 C
   0.5143858399266898    0.1781841014947499    0.4576122742545095 C
  -0.0186461409238184    0.1429256865701319    0.3423673567364642 C
  -0.1897067375138988    0.1686606279601597    0.6386758868360197 C
   0.1982462190557074    0.3647652360638698    0.5306091298481874 C
   0.2619956711911589    0.3897633883294943    0.6126613117833343 C
   1.0677169632246473    0.6312159974131651    0.5896675357444360 C
   0.5779583660890336    0.6535879775756969    0.4861622713759460 C
   0.7200731619434609    0.6279373209282129    0.4022421834461262 C
   1.2713761361513933    0.6740221110325768    0.6266339948693556 C
   1.0954921516633658    0.7247509904511019    0.6344376673158648 C
   1.1942703466338531    0.7369947540512920    0.5970567671675010 C
   0.6505185401180686    0.7896502422097965    0.4027413328544299 C
   0.6670781543991916    0.7011273818617952    0.4621748358796673 C
   0.8165956533820997    0.6483644306565474    0.3705339448061561 C
   0.3212727138671944    0.3618307222776380    0.7685639438052090 C
   0.3796179190514564    0.1263194851704477    0.9316597878471684 C
   0.4131880146526734   -0.0308209888281371    0.8592845237817273 C
  -0.2758846012905570    0.2192441161977968    0.7775031286504119 C
  -0.2251192988752820    0.0514177415903724    0.7672919178937255 C
  -0.3134591350998145    0.0102811682461817    0.7212161570845879 C
  -0.1147465004003248    0.1821201989715435    0.7948767483781434 C
   0.1540290933172060    0.3739220709683947    0.7473203410072073 C
   0.5449941016911687    0.5380798819193165    0.8336178831693319 C
   0.6203138693494763    0.5082934221213100    0.7720355874458513 C
   0.6939851330162795    0.5874771326429357    0.7597724735815377 C
   0.7551689532911208    0.6168349132166361    0.8443807485315491 C
   0.7579719916198995    0.5433850445641626    0.6849462669095451 C
   1.0858768476182947    0.7264043761506687    0.7452740384539511 C
   1.0710078136911900    0.8220942491063077    0.7900427698867872 C
   0.3473347443915216   -0.0188230557270330    1.0192272557128876 C
   0.8106639125203687    0.7084018575161762    0.8373457521724414 C
   0.2420343711471149    0.3390541753508960    0.7065889092064712 N
   0.4094052470373896    0.0242963161854998    0.9457164792487528 N
  -0.2030480231890722    0.1546398610380053    0.7438234948718960 N
  -0.3858852121036017    1.3729842429823000    1.1991072611350442 Cl
   0.7056823617951739    0.2259559911956982    0.0613154368124516 Cl
   0.9337861909213185    0.3805082212253350   -0.4010131267799533 Cl
   1.0285934719400773    0.7802258032476953    0.3354982768005936 Cl
   1.1479945578903981    1.0605786305067291    0.8827088424378861 Cl
   0.4855620948507522    2.2020862316567142    0.7096986170208962 Cl
   0.0097851651027202    0.0981192150610149    0.0222249674423801 O
   0.1165790781742502    0.1139766869977687    0.1325691898651262 O
   0.1460879495822451    0.2459701056855683    0.3085337077127494 O
   0.3188206539769473    0.1943232249461708    0.1917194448530571 O
   0.2924370642594236    0.0235026348598794    0.2670595023885768 O
   0.4560985838140529    0.2532277243914406    0.1606622706587005 O
   0.5192398785732653    0.1050846466594021    0.3035240118280073 O
  -0.0827582023622361    0.2819252744818815    0.2740790972231645 O
   0.1899732536001076    0.4720215744760743    0.1873482121665939 O
   0.0776266290137210    0.3389235339999533    0.2010156650394029 O
   0.1024236319886431    0.5282975839878316    0.3005088133685908 O
   0.3793175690816409    0.5654420807387226    0.2108446379602777 O
   0.4265532462252124    0.5494639411455603    0.0343165643290858 O
   0.3207130640373334    0.7860484742117598    0.2285612916432248 O
   0.3853567243972694   -0.0815941177364977    0.3355444813741533 O
   0.4181981805500731    0.7331211677585517    0.1173153799667687 O
   0.5250821986125477   -0.1023850566034795    1.1010107510520919 O
   0.5614535537044534    0.7199418435161260    0.2724269336837583 O
   0.6347279312266327    0.8586211494062093    0.2479448103208017 O
   0.1018783496972014    0.0296034454743385    0.3234857877443764 O
   0.2138103681749135    0.2773612556731370    0.4910476118513681 O
   0.4641172438396290    0.2262727613530918    0.5140965253480475 O
   0.5885520310836174    0.1366408542677855    0.4692052117814190 O
  -0.0424777821506550   -0.0225519532117398    0.3261201485065738 O
   1.0524511115697681    0.5614717074666279    0.6517748834401855 O
   1.2644044591754953    0.6091200497824640    0.6837813516004044 O
   1.0509377308562562    0.6223738255474702    0.5046054758765250 O
   0.5257468683065697    0.6311450577548574    0.4230831763917920 O
   0.5475613755561698    0.6507061417535549    0.5738291679836190 O
   0.7792585260410106    0.5811385688172178    0.6085582056373765 O
   0.8751440566097219    0.5858862581274223    0.3607994812402898 O
   1.0353701608945693    0.7942353322041771    0.6016751243155787 O
   1.3494260781936385    0.7049398617161914    0.5912307904832048 O
   0.7135872445998381    0.7272071883233979    0.5399266321411426 O
   0.8342246230227248    0.7320065020384106    0.3402587480158321 O
   0.3488987535737496    0.6333013424182686   -0.0694120032430716 O
   0.4796278909824351    0.5859782689713658    0.8049150420186293 O
   0.5582570500735314    0.5117833021236198    0.9226961005765929 O
   0.6470539108535005    0.6657270876205618    0.7231693504214283 O
   0.7931396206596564    0.4637140488272487    0.7086198102352075 O
   1.1475204291225574    0.8700143394795620    0.7972527835699844 O
   0.9943002102384163    0.8459974020917178    0.8205762922474675 O
  -0.3426799715709249   -0.0624235530449196    0.7912363880370786 O
   0.8995524518788237    0.7051021098455881    0.8625608480886855 O
   0.7755051776710619    0.7853439942386651    0.8111995640920404 O
