Li1 Co1 H110 Cl3 O55
1.0
  12.4941665019000006    0.0000000000000000    0.0000000000000000
   0.0000000000000000   12.4966117702999995    0.0000000000000000
   0.0000000000000000    0.0000000000000000   12.4756459349999993
Li Co H Cl O
1 1 110 3 55
direct
   0.7724376211516285    0.2763829867395396    0.6814533300956493 Li
   0.4709529243191364    0.5900640126089938    0.4038180061976887 Co
   0.2578974956440668    0.1368427631931585    0.1208026001500980 H
   0.2772449246993174    0.3130953379298324    0.2377095729512622 H
   0.3411227351862061    0.2329688189657275    0.3038295962588971 H
   0.3391153984025810    0.0588453013278131    0.0684616629832241 H
   0.3698721519596560    1.0728900866605167    0.2517721714663266 H
   0.6174108732925017    0.2607563510090362    0.1935611574808611 H
   0.6098985674507533    0.1367811464914354    0.1599532784031354 H
   0.4674720998885202    1.1445895213928554    0.2761404487951269 H
  -0.3136196198765338    0.0522972864335299    0.0262128766080600 H
  -0.0649243588099009    1.0355359615120170    0.2977216960830654 H
  -0.0820203371584780    1.0402572412544366    0.1730107185428071 H
   0.8828323401423072    0.2674637691108940    0.0207023643381396 H
   0.1295487978933094    0.5703962815057414    0.2643695151885537 H
   0.2232509267885796    0.4826020841531847    0.1250220209539796 H
   0.1411798258596728    0.5695800602621366    0.0901176158218697 H
   0.2992343867381193    0.6308358641608620    0.1174176050788989 H
   0.5007652371247451    0.4486488808530382    0.2583794445830432 H
   0.5516545861584169    0.6244613362916900    0.1777295122875736 H
   0.4008890269101433    0.3944021768295423    0.3204836437593241 H
  -0.2236936532400927    0.4818450789605866    1.1554031384508028 H
  -0.1678027700912402    0.6156189394859719    0.0681089758339635 H
  -0.1097740892752973    0.4473597314182860    1.1008087708686645 H
  -0.1225048304556563    0.5077144910814242    0.3154346065929772 H
   1.2081521603465513    0.9709824637457474    0.1863150396869611 H
   0.1708496721790434   -0.1398922481495984    1.0712070971818584 H
   1.0875118599494995    0.9404461866320639    0.2141869432189845 H
   0.2095749444832360    0.8284238220318396    1.3180560391961782 H
   0.3538934950424746    0.6706978690911825    0.0103893191723543 H
  -0.3935097029683678   -0.0342724990319291    0.0721218341870168 H
   0.4332401245154563    0.6779942468354845    0.1579565882012986 H
   0.5642452619730923   -0.2140195409732084    1.1252644184230771 H
   0.6843277020279647   -0.1735445698932789    1.1344022218357386 H
   0.8339135107104235    0.7711338931167467    0.1138931382714013 H
   0.8625748863968724    0.8810380835681262    0.1832843348884284 H
   0.7950521749081382    0.7612312089112481    0.3035258043735112 H
   1.3054215540124026    0.0316326451094119    0.6128532748793499 H
   0.3982742066262106    0.1033376813600891    0.4527765934469830 H
   0.4152357222237315    0.1579940964391984    0.5671001328798132 H
   0.5954238123742545    0.3307937352286621    0.6252935125078155 H
   0.6583923985444772    0.2052797136017946    0.3722973937942236 H
   0.6726590565062462    0.2566968506474608    0.4846226399018113 H
   0.8801430851211827    0.1894754297182713    0.5369838565797675 H
   0.8059764730579383    0.0833822722793112    0.4286423721354192 H
   0.9699209826567582    0.1861273221856809    0.6224880465477879 H
   0.0256868155991994    0.5802293468404621    0.3429113402054882 H
   1.1499489981036428    0.4887037380575830    0.4122592524905606 H
   1.2151314174251839    0.3831871368990319    0.4004378204967068 H
   1.0597068839275159    0.4168450601610508    0.5065108853219471 H
   0.3038533423116043    0.4696689785265770    0.5121178094334881 H
   0.6592287888709875    0.6069853992925880    0.6646181296503748 H
   0.3620204877461943    0.5452102546221964    0.5886525239464485 H
   0.4207983181751647    0.3562782430179566    0.6025876741507574 H
   0.6617539673208828    0.5990688534465274    0.4996759686816168 H
   0.7850419033161131    0.5674218752680170    0.6352080292105533 H
   0.6779031037974389    0.4251225038314896    0.6146664074512308 H
   0.6868808935509966    0.6620987382247349    0.3951058320492486 H
   0.9627176209930319    0.3551627406516968    0.5565042887296401 H
  -0.1040738290787352    0.4841553051667503    0.4359918913889889 H
  -0.0570011412039129    0.5249367593214844    0.6257792588997517 H
   0.1936883305206468    0.7061026658578967    1.3579657963818288 H
   0.2077596973439770    0.8683466434469779    0.6169684926618592 H
   0.1732435893719551    0.8095234989409567    0.5140030825586267 H
   0.0648082647911619    0.7796369979545351    0.6522772856730644 H
   0.3434013985924982    0.7597484069853661    0.4323832606026904 H
   0.5733591152247425    0.9078933629165333    0.5854142146668737 H
   0.4880833187289958    0.9647807827281624    0.5193599194188738 H
   0.4442156465704207    0.7871390314435494    0.4891570744549188 H
   0.8304318859062891    0.6669944652525523    0.3881242296172940 H
   0.8794307526899919   -0.0113614087890154    0.4719828134093323 H
   0.7725392685884388   -0.0747209829322867    0.6408822845051350 H
   0.9112696112436622   -0.1768974787273023    0.5802016589131423 H
   0.8345378020546131   -0.1747384935162772    0.4719611712433550 H
   0.1520529001043086    0.2642204899929234    0.9039532322620376 H
   1.2010768584457356    0.0544835590410324    0.6794510289618924 H
   1.0590745888481443    0.0571678066288243    0.7313713867032730 H
   1.0966121068513404    0.1792902689451329    0.7631252535622719 H
   0.5091131329194857    0.0856458458398845   -0.0007820462804758 H
   0.4462958173442012    0.3094071382124067    0.7039026687077907 H
   0.4125984914812895    0.1417648973788573   -0.0517818905622862 H
   0.6823299697265579    0.0885228656802101    0.7113940643827674 H
   0.9894661039710024    0.3113124546643899   -0.0346009765545659 H
   0.7067981885511997    0.1560167604657206    0.8140003748431163 H
   0.1755982882624754    0.5521793436521510    0.7658513649137159 H
   0.1171390064937454    0.3455145254221453    0.8175737369144888 H
   0.0804364381447270   -0.4056146744389352   -0.0855754914865657 H
   0.0534640106563666    0.5364878903523026    0.7444929517791739 H
   0.3112928141631972    0.6170865372906494    0.7574974888464563 H
   0.6009431881557051    0.5696632828203081    0.8157237325042762 H
   0.6255706813104672    0.4668666189235340   -0.0328611067223270 H
   0.4692089104229965    0.3604913850253870    0.8869200460761554 H
   0.3481540165435211    0.3397625663054483    0.9267897251766628 H
   0.6957810470732894    0.4290955807672716   -0.1333461642922139 H
   0.8609901468308526    0.4312153553499274    0.7660621756415694 H
  -0.0594630901458709    0.6496057518961492   -0.0047727815305300 H
  -0.0647906964323629    0.6309270888880883    0.6899250357332299 H
   0.8542670092780412    0.3467572622763789    0.8691654543576947 H
   0.2128252613406130   -0.1411133791473836    0.9517904346890236 H
   1.0383529184621583   -0.1109203950861573    0.9160968920604431 H
   0.1042633977065937   -0.2944613453980784   -0.0190268731364089 H
   0.3026287708287708    0.9380455359155793   -0.2272146506296309 H
   0.2410272226276197    0.6773996856747019    0.6742649247443555 H
   0.6358714884895958    0.6884898917679551    0.8168779813564019 H
   0.4478085232935838    0.6672089233832249    0.8328707404519653 H
   0.3557567645928252    0.7569508486837561    0.8461766647195250 H
   0.3807636347952101    0.9319638874338185   -0.1242380186625583 H
   0.7237717097514936   -0.1045554698198513    0.7542848295413732 H
  -0.0190421465060370    0.8105485767968956    0.7542607826902873 H
   0.7841999103749754    0.7299923413545399    0.9087145087770560 H
   0.9394907814951055   -0.0371032663351171    0.8993843305557068 H
   0.6741149359358370    0.7752878190731705    0.9451775506403870 H
   0.2170840488309116    0.3032142595807820    0.0789570714520282 Cl
   0.8349219813433452    0.0981082638826802    1.0096792208699374 Cl
   0.6236401803845886    0.4489833715195351    0.1293849213026740 Cl
   0.2868694162555740    0.0634129394243778    0.1277954244458926 O
   0.3096072275338852    0.3083972644776721    0.3072979537471942 O
   0.5980210244407869    0.1894434210420515    0.2140827401976121 O
  -0.3840028663192854    0.0443434504796733    0.0629347347296291 O
   0.4021496152012954    1.1171180750272172    0.3086301492973558 O
   0.1879128352133746    0.5451310331485525    0.1499626133386255 O
   0.4484840385429377    0.4645539920666539    0.3150723007032822 O
  -0.1446991881151153    0.5008630339365773    1.1509785178509877 O
   0.1599934057782896   -0.1714736085418582    1.0009181514576224 O
   1.1610101601250538    0.9084375104122698    0.2118672236508931 O
   0.5012318548858510    0.6758808739880727    0.2090224811674250 O
   0.3468574114440504    0.6886435334138101    0.0890667684294136 O
   0.6165096527110178   -0.1647677908738114    1.0929935442657304 O
  -0.1362680534744827    0.6764178195316598    0.0197129117627527 O
  -0.0470761093915753    0.9931724785351196    0.2299512572292314 O
   0.8160115562290272    0.8144208264025853    0.1805999047455333 O
   0.4021312066103770    0.0909913747902807    0.5331796447379701 O
   0.4570672441520267    0.2932683636623865    0.6283626922680858 O
   0.7048372734316298    0.2056630174995267    0.4344272429449962 O
   0.9045784886315786    0.2314187988197839    0.6026229428656834 O
   0.8810555109319214    0.0611101552354352    0.4394466223283372 O
   0.1023256934190513    0.5958671856076424    0.3358984768671218 O
   1.1785863625845459    0.4276903998812226    0.4560758214159755 O
   0.3826213017309333    0.4923863362566703    0.5288103318956527 O
   0.6232407939990109    0.6303757394402024    0.4374523368116090 O
   0.7078898980300135    0.5678211835038590    0.6118865914656947 O
  -0.1134774175439709    0.5402104993966647    0.3855904930745376 O
   0.6692294559807942    0.3493691702559140    0.6029195206957435 O
   0.9875932299384335    0.4267269387270068    0.5384723566619880 O
   0.2193595107431310    0.7778629170750530    1.3789426661458071 O
   0.1771422087790674    0.8027864728135956    0.5926242621841448 O
   1.2537014172668475   -0.0037871157134350    0.6624114302823872 O
   0.5027229507502423    0.8958180898126160    0.5491868319441850 O
   0.4015413313274696    0.7252214481639796    0.4658925475909637 O
   0.7840478394065190    0.7306645235551557    0.3738973109531423 O
   0.8623988042228702   -0.1322141669413753    0.5347018104117107 O
   0.0969302154582166    0.2756531889217283    0.8493829115309852 O
   1.0864393594351223    0.1243993903127135    0.7042890214485716 O
   0.4370378968592765    0.0716322873474776   -0.0254951554538487 O
   0.3955929553402681    0.3294421688752813    0.8689410170808923 O
   0.6845309969015854    0.1621304176237013    0.7399881750090722 O
   0.9150713854550733    0.3305464682048642   -0.0133433197260740 O
   0.1061770907885903    0.5240501189901960    0.8031368090841864 O
   0.0711639508617713   -0.3684566024322818   -0.0156822767750342 O
   0.2670689757890268    0.6072862808490540    0.6910295877597781 O
   0.5820975932963608    0.6401183802646022    0.7853100768124677 O
   0.6217296887966647    0.4465699173325626   -0.1105160838712116 O
   0.8174466259471451    0.3794957363139842    0.8039287520466171 O
  -0.0915167689518239    0.5580057229410591    0.6888862117663169 O
   0.3211342069428837    0.8896244109640858   -0.1582450754683108 O
   0.3713912608971841    0.6825114712670031    0.8570698882614611 O
   0.9998709597074958   -0.0698532634961616    0.8589776051142799 O
   0.7199291164906547    0.7714371753239293    0.8832969871792054 O
   0.7171758315880747   -0.0586616699209822    0.6948337996015755 O
  -0.0093817982161655    0.7642416249097197    0.6883820294552148 O
