Li1 Co1 H110 Cl3 O55
1.0
  12.4537179510999998    0.0000000000000000    0.0000000000000000
   0.0000000000000000   12.4561553032999992    0.0000000000000000
   0.0000000000000000    0.0000000000000000   12.4352573425999999
Li Co H Cl O
1 1 110 3 55
direct
   0.7797550911085368    0.2196972167708121    0.6946407246280545 Li
   0.4404483863483922    0.5658987448504704    0.5029768181775529 Co
   0.1341085435014594    0.1053304667333756    0.1147830022391450 H
   0.0439467938609978    0.0249657895416263    0.1453187595249373 H
   0.1541362975408039    0.2561996518263177    0.2468437995958840 H
   0.4857850482365900    1.2141838539692256    0.2966602193878429 H
   0.6031596351462677    0.1277972707500098    0.1705076230418148 H
   0.5003871133157929    0.1807357564981204    0.1141396701568572 H
   0.4802180360180520    1.0194769045979803    0.1546687871758882 H
   0.8368850183153078    0.1821527266281672    0.0142037889955778 H
  -0.1318369366358565    1.0343209712861192    0.1513242645130942 H
  -0.0963720255358755    1.0174618365943444    0.2734455811984862 H
   0.7519449221806780    0.2356026061285950    0.3199190866578568 H
   0.1822989716415949    0.4822509438533231    0.1063987768767287 H
   0.1123431557622856    0.6129975474677254    0.2502775845850954 H
   0.1165419018881670    0.5916932209288859    0.0825846336031901 H
   0.2867199971623420    0.5815962048803882    1.0196335968025052 H
   0.3976587550035671    0.5277328751720430    1.0072333709164072 H
   0.6227393302186507    0.6418467381891029    0.1602569304756609 H
   0.4604785493069140    0.4756365433425834    0.2860500650207107 H
  -0.1839980665530973    0.3628513407024229    1.1649381892382422 H
  -0.3014890845563403    0.4019878148495339    1.1946360064868546 H
   1.2119938828602432    0.9754344222555630    0.2395267013249627 H
   0.0866916996064327   -0.2280677527717864    0.0094025534155575 H
   0.1673452043625189   -0.0560266254881321    1.0290342868549363 H
   0.2462308836317548    0.8492397850079397    1.3265914582151190 H
   1.3422521725027123    0.9573309228603476    0.2250034795673148 H
   0.4135367442736336    0.9588803576201154    0.0620658785046606 H
   0.4945615437722341   -0.1506080570224581    1.2379081306717403 H
   0.6281706399902057    0.7644688445139453    0.1751002099442471 H
  -0.0235990589761222   -0.2790834943490970    0.0618255939719261 H
   0.8950202677920355    0.7069687586078028    0.2890319092221149 H
   0.7918358207822573    0.7315991515765482    0.1374347248564998 H
   0.8659606727842624    0.8405934573588724    0.1635580282229004 H
   0.1729917109139050    0.1966748641252870    0.3553763343731511 H
   0.3196523312340138    0.0090237837489246    0.4067078012188978 H
   0.3296284685199097    0.0404622164325837    0.5367758774507503 H
   0.4029832693582657    1.1774229121817794    0.3845192777007903 H
   0.6400931839712893    0.3311449280587584    0.5692271560115546 H
   0.5143821307623383    1.0292311182410787    0.4035755781432589 H
   0.6737489967691838    0.1381246949726284    0.3436974445843182 H
   0.9828173420708393    0.1748454959631894    0.6504341605936458 H
   0.7128971452911228    0.2455519040445553    0.5105882408761209 H
   0.8817631825867761    0.1123928385373538    0.3986388085768026 H
   0.9216468544308239    0.1551187027419374    0.5368611189516534 H
   0.9191255190253417    0.0071567550042012    0.4618662897891543 H
   0.0220447401071702    0.6498299398736271    0.3422748765173592 H
   0.2717172485266628    0.5045563818664789    0.6314108309203943 H
   1.1574880716105156    0.3794784615882014    0.3761052982295682 H
   1.1362976125816366    0.5113562328588280    0.3865071738350596 H
   0.2358540627893826    0.4728042087143652    0.5104402744971948 H
   1.0118689073480218    0.4328368200717310    0.5007701891353056 H
   0.4734826979985660    0.3536815770619728    0.5097792507826440 H
   0.4231692090902472    0.3785488007323407    0.3545472401521026 H
   0.6238803549355904    0.6040581920013962    0.5970971059813667 H
   0.6562176859704905    0.5492443282228100    0.4864359461768297 H
   0.4646347378606645    0.3615266944052121    0.6424616677638936 H
   0.9266493765888353    0.3457931076580976    0.5570183214199371 H
  -0.2253608147719536    0.4583198035663175    0.3572902473179574 H
  -0.1732237740464850    0.4812321704283772    0.4757646752618802 H
   0.8566461852990408    0.6299843298935951    0.3863077408895504 H
   0.1671854127237639    0.7541221527088217    1.3673063373729106 H
   0.0930147912573918    0.8160979374676612    0.6624516038907825 H
   0.2711391079241318    0.9071228141163666    0.6187371888993238 H
   0.2073926827106172    0.8553251298157328    0.5253486913391126 H
   0.3272797723221275    0.7307417441550808    0.6045718206124485 H
   0.5640709066306999   -0.1196683335993005    1.3345848593375453 H
   0.4660062158455575    0.7260926370598394    0.3624393164715687 H
   0.3401393858631468    0.7233670769513357    0.4159717832038427 H
   0.6263631476342373    0.9842653975703021    0.4472626515212203 H
   0.6759218418670295    0.8805817192158870    0.6038625469917261 H
   0.7774770565399528    0.9103661905046890    0.5285750017317861 H
   0.9378107021099197   -0.1546084888400349    0.5392020435660783 H
   0.8802857121580858   -0.1953843131319366    0.4364771891616647 H
   1.2238859138650822    0.0629022063968986    0.6937167389248686 H
   0.2279150681543493    0.2976707147202706    0.9023300332483463 H
   1.1157896806529677    0.1702790789095315    0.7967713010214548 H
   1.0518730251509303    0.0749614651603314    0.7703568898878190 H
   0.4155963701701502    1.0183850749227035   -0.0943256577876943 H
   1.3531645763754849    0.0537175906616010    0.7040084439112684 H
   0.3630803261608002    0.3204514197685470    0.7874783690928069 H
   0.4590958296991940    0.1777966473501877   -0.2157095550737638 H
   0.5498366032125516    0.0953557195521901   -0.2191039359729350 H
   0.9659549078303521    0.2258050404248608   -0.0068379629192476 H
   0.7210898794128224    0.0181039089758504    0.6922402917960181 H
   0.7446635624810236    0.0460004421788318    0.8079604542626460 H
   0.8343797423710069    0.2922155804235749    0.8813493657147341 H
   0.1475639630523092    0.5696117685623494    0.7785432906349317 H
   0.2564438979700766    0.5208599679293628    0.8246235593590039 H
   0.2040635564077096    0.3709204436922814    0.7986409848856038 H
   0.5824300826532953    0.4522232193353967   -0.0398721003466047 H
   0.6421287206760339    0.5508443403866532    0.7821724877441379 H
   0.4857922749941216    0.3520165368071756    0.8235379364701432 H
   0.6544053757761676    0.3907909409663823   -0.1283788332333953 H
  -0.0459525441837594    0.5437651094479832    0.7744701943889468 H
   0.7551070300872988    0.5774063085015133    0.7518627008522493 H
  -0.0797633307820546    0.4772726822236233    0.6712797283899774 H
   0.8335767693119360    0.4022077864164648    0.8079604542626460 H
   1.0454893893313171    0.6887119213684861    0.8811081161838762 H
   1.0326980285003189    0.7000276120104179    0.7525856452797203 H
   0.2436051617285932   -0.1155755779488877    0.9391045034021249 H
   1.0407277590910271   -0.0688131552095306    0.8742083796013390 H
   0.4284768610107053   -0.3190870097089279    0.9002070373767963 H
   0.4085663410379851    0.7083215034628333    0.6943455960353050 H
   0.4287201618476038    0.8952571945571079   -0.1145069852090638 H
   0.5234974809289104   -0.2482641933165949    0.8570635796083682 H
  -0.3423708519128131    0.7304888571347041   -0.0062994939663727 H
  -0.0010462758552235    0.8581590700758264    0.7316049777461081 H
  -0.3114298910276370    0.7032083687555993   -0.1306103913938313 H
  -0.2154216142467749   -0.0178161192435684   -0.0242474940640799 H
  -0.2702951871575569   -0.1091450222878822   -0.0982121877298157 H
   0.9080444908101643   -0.0657255251131227    0.8504694257649178 H
   0.1481645869004942    0.2791898918343346    0.0614555976081003 Cl
   0.7424272825115114    0.0924513723343599    1.0875212147859294 Cl
   0.5499931829590703    0.4765276690334344    0.1493556683412935 Cl
   0.1235815666970409    0.0300196684044984    0.1438479415518067 O
   0.1412509888618944    0.2619606589952784    0.3214381545371590 O
   0.5234075479462944    0.1374439070574558    0.1707850600023014 O
   0.1794460083627163    0.5563436295599226    0.1129720224275047 O
   0.1020907957440694    0.6326512844386463    0.3273013223021098 O
  -0.2382710156156943    0.3577486426023791    1.2256606961551857 O
   1.2794195306304204    0.9652948569623669    0.2801048724152682 O
   0.0450143465430325   -0.2946316306146020    0.0294697698088312 O
   0.4311146275097530    0.9584789496512637    0.1396075789644270 O
   0.5474911189070056   -0.1819154701450839    1.2896883216448829 O
   0.6509285024303909    0.7091781080683631    0.1277919811081080 O
  -0.0815708231380230    0.9870511688741335    0.2020115951114503 O
   0.8607092289779391    0.7609444825474265    0.1570370534038103 O
   1.2898019722842060    0.0307480633047768    0.6655170812628841 O
   0.4411766829129695    1.2437595931142249    0.3594277181613588 O
   0.3625704382682903    0.0419651681495586    0.4628401337287175 O
   0.5916714995901414    1.0120829698117306    0.3808024265953722 O
   0.7088862948610640    0.2940219162834080    0.5735262226514430 O
   0.7420956546381151    0.1738074549557387    0.3700885349299711 O
   0.9135368265342086    0.1988167770470801    0.6042533712317161 O
   0.9421226674371299    0.0786753719697419    0.4340542397067481 O
   1.1426732186706590    0.4407951344621865    0.4292606115286008 O
   0.3001240264374113    0.4918783125782641    0.5587545138770115 O
   0.5099665819105078    0.3767593240071995    0.5754875813373181 O
   0.4234028742504368    0.4581881417525341    0.3597429508816798 O
   0.5983682949027921    0.5853678341557196    0.5240121689381595 O
   0.9354660207774329    0.4211558481781442    0.5318318703983682 O
  -0.2260232675456870    0.5081642366905187    0.4204067537461145 O
   0.2258128846857019    0.7998296753060363    1.3921148307961353 O
   0.2288119890613315    0.8409948653277243    0.6046401746461916 O
   0.3985235569881863    0.6920917764662181    0.6185570559162833 O
   0.4094463995107268    0.6853673901720131    0.4016142194573838 O
   0.9039975065924472    0.6929419585442462    0.3692505948927913 O
   0.7158617218252123    0.9405922105592283    0.5717972676802945 O
   0.8877051832239002   -0.1327494164882423    0.4842494212621539 O
   0.2362627760764496    0.3051160297265335    0.8249050171450049 O
   1.0985899977276707    0.1232942761554305    0.7376659701263624 O
   0.4733638579858235    0.1006508526325015   -0.2046635432208816 O
   0.4408265866592146    0.3060529159258336    0.7701309194939154 O
   0.8941771460800111    0.2093609615728787   -0.0419278680155555 O
   0.7073413746954117    0.0764550239308351    0.7437575207805254 O
   0.2036717055548830    0.5185574918200290    0.7672270793074886 O
   1.0344083611161397    0.6413634429946053    0.8163028630397136 O
   0.5869066574576152    0.4295235986968284   -0.1142054232954914 O
   0.3490700522261325    0.5777450968272242    0.9724210636136064 O
   0.6847457128131588    0.6094218052811937    0.7523218791259823 O
  -0.0983890938602614    0.4964391099203582    0.7446308440822311 O
   0.7893433924069015    0.3386496514444113    0.8328340850592024 O
   0.0167904457464873    0.8083941157294579    0.6721795891400776 O
   0.1675957319569490   -0.1090960505156823    0.9678614474803913 O
   0.3856021145216186    0.9446705155227624   -0.0697069473287444 O
   0.4459832796445674   -0.2684879296032854    0.8384069492220209 O
  -0.3460428477119440    0.7574313600040357   -0.0840669235705118 O
   0.9844232881889811   -0.0555916598130843    0.8200132808243087 O
  -0.2141922624933375   -0.0562040478103646   -0.0941752789134595 O
