Li1 Co1 H110 Cl3 O55
1.0
  12.8797694930999995    0.0000000000000000    0.0000000000000000
   0.0000000000000000   12.8987716913000003    0.0000000000000000
   0.0000000000000000    0.0000000000000000   12.8977922851999995
Li Co H Cl O
1 1 110 3 55
direct
   0.5696965501231142    0.5799476899607072    0.6282613693428967 Li
   0.7321101710439430    0.6213640366319428    0.4216035211576273 Co
   0.0700147814821610    0.2340984799146927    1.0129341792541835 H
   1.1251731061152681    1.0415319510431624    1.0045451466501960 H
   0.3529877028494660    0.1787071591673145    1.1693795580741999 H
   0.3343219961278672    0.2076882132511026    0.0086576555220333 H
   0.3842172990169661    0.0673056990601330    1.1121216969092766 H
   0.5470703687961797    0.1915339619016860    0.0786169152191674 H
   0.6303684433909740    0.1071587185803344    0.1011878322848772 H
   0.6119317780354944    0.3248931716906479    0.3094657251675617 H
   0.8329240870612767    0.2071090883407022    0.1877945146766985 H
   0.9160777491337044    0.3094366611971354    0.0884630964253668 H
   0.7608715553372298    0.2544624344280644    0.1069890576686863 H
   0.6889269447992526    1.0100483330895313    0.2078545369098747 H
   0.8585301353819926    0.0489196072929642    0.2795908449183156 H
   0.8678315440806638    0.0228030895297098    0.1612380317976064 H
   1.2563322857034587    0.3505320470746551    0.2302622477497859 H
   0.0700773602418532    0.3888829855856184    0.1394529081278432 H
   0.1156433931055940    0.5281039938317929    1.1157192118152379 H
   0.1197086832513571    0.4279991132352232    0.2575056698975595 H
   0.1433247891267729    0.6507497804121554    1.1214333680344051 H
   0.4600990918179618    0.4438758187775135    0.0604645838105856 H
   1.3708141481925293    0.3445803175737926    0.2222686316548589 H
   0.5316718012902744    0.4527379029151140    0.1574559891874169 H
   1.1855468574014678    0.9480656870567118    1.0473509220722057 H
   1.1710667845942710    0.7364967047294527    0.2765531157369456 H
   1.2078065725426117    0.7814924619914767    0.1682291507430920 H
   0.3988394551122978    0.7945844062510917    0.0481632537463653 H
   0.5642989379968067    0.7529021427869949    0.2588741211495038 H
   0.5962808768211526    0.9374677787231454    0.2478109874871844 H
   0.4866275168944390    0.8232941166686948    0.2030017684192686 H
   0.9964673865844901    0.7366905216338706    0.1929721449659247 H
   0.8999283917937745    0.6937926385452652    0.1343411805901270 H
  -0.0114913355770296    0.9400494198899908    1.0619193067883723 H
   0.8688796994849379    0.7128587950666552    0.3079546138417602 H
  -0.0906421309811042    0.8656469866220773    1.0940643429955181 H
   0.0387338412280797    1.2473267401540056    0.3500967097897391 H
   0.1235200868658627    1.1804599081298570    0.4053728364504302 H
   0.3015962551721919    0.2323176901969018    0.3882830899941372 H
   0.2935301170277432    0.2754202439365723    0.5313114439331923 H
   0.3064014653922316    0.1301529235401794    0.4575662649934269 H
   0.6067173990020823    0.2313563583509894    0.3989779435744886 H
   0.4697933646903832    0.0380899869738281    0.4623027345107799 H
   0.6294468430466232    1.0566884329686361    0.3625135635007241 H
   0.3895481397619641    0.0188599233727101    0.5660685550796019 H
   0.3582207157567318    0.2898495248366704    0.6325365195996792 H
  -0.0282309208712775    0.0557562272526367    0.4089292590525088 H
   0.6677285840563628    1.1140039679430744    0.4700125811109694 H
   0.8392440759433455    0.1010310033302605    0.4813749907977934 H
   0.7942541403462503    0.2097550767198143    0.5423458905154427 H
   0.8732198392700442    0.3292680068571670    0.6123842335143889 H
   0.0631180742043182    0.3864889591822494    0.6567282566892925 H
   0.1558366590081657    0.5150562398263852    0.6425777729503483 H
   0.2210039743432464    0.4234568202632871    0.5863557479738657 H
   0.1094617607368894    0.4478273578247841    0.4487864678393092 H
   0.1874606721722371    0.6381470300192909    0.4185417568551184 H
   0.0085146901626424    0.4733049775443156    0.3919085166536793 H
   0.4437206931119127    0.4299698435193436    0.5509171248441932 H
   0.5619852319932976    0.4068808233298573    0.5174997778696590 H
   0.3692667208949618    0.6597196267486121    0.6302221700319433 H
   0.7573016156714126    0.3427134731504402    0.6482330043564004 H
   0.7101229763079107    0.4059349968362984    0.4129919698514824 H
   0.7913340570310833    0.4311707330591164    0.4927040614456181 H
   0.2391766598191310    0.7492452054344394    0.4291412452774023 H
   1.0403812159665304    0.8219451510139467    0.4527282277060996 H
   0.3828298518262712   -0.1135144639615240    0.4725533260133046 H
   0.4247692669912228    0.7205052595797471    0.5389290266812679 H
   0.4320457947311182   -0.1824504852572373    0.3818463294878245 H
   0.9823056424556286    0.8253873392364073    0.5520599560880266 H
  -0.0798507887855424   -0.0409580204180476    0.4491485453093704 H
   0.8789652837082885    0.7581390755443644    0.4184929112863521 H
   0.2448530036418343    0.2303345556308986   -0.0690587456910800 H
   0.0716943922866548    0.1591781678781748    0.9212285622117038 H
   0.0669912025259644    0.0810486355383066    0.7706531802350134 H
   0.0166749293700525    0.2850955838051100    0.7181255859755362 H
   0.4017851600040139    0.0785520412291197    0.7126021600725042 H
   0.5006114628102792    0.2090798186248226    0.7866024214269380 H
   0.3813771860770880    0.2120087796843847    0.8087783096468315 H
   0.6264592119387362    0.1769690091684955   -0.0845489936018992 H
   0.6580335347725309    0.2657883190546243   -0.1643107060912896 H
   0.7813579468166235    0.1456714554431056    0.8089209697206886 H
   0.8040369241194771    0.1224583924347919    0.6915148302422593 H
  -0.0498378292984111    0.1278379744338130    0.7706469776231065 H
   0.2213052219705490    0.6362049846370242    0.7890997480459254 H
   0.0082331633851684    0.6183280886411421    0.9813706379133029 H
   0.2002574850413105    0.6109273839628520   -0.0266215604816337 H
   0.3246486863635313    0.5113326294587099    0.9310131824947278 H
   0.3475023562337639    0.3936919706180334    0.9230040598700338 H
   0.5629580754907463    0.5946661456821967    0.8307479610208229 H
   0.4832602206067815    0.4995966282624020    0.8111166943357064 H
   0.6697255142043580    0.4418407412811264   -0.2165979491393771 H
   0.9665444908209855    0.4173143749284775    0.7926236069354931 H
   0.7824620038424591    0.3869339627947928   -0.1840016729160094 H
   0.9196026569377084    0.4981042380983847    0.8860442461702114 H
  -0.0933199739361724    0.6596188419583149    0.9227637086586441 H
   0.9577322213109756    0.3794146421709989   -0.0025079763020465 H
   0.3029301299755573    0.6694562127589458   -0.0359265637989622 H
   1.0997456324189845    0.8506843216010214    0.7153530184531832 H
   0.1626007552170825    0.6917180224003768    0.7016165590590201 H
   0.1456571290041359    0.9463756036501885    0.8460141395765080 H
   0.2268837379555199    0.9774173190617469    0.7527245305183217 H
   1.0124226410717767    0.7664778540400368    0.7369435351743697 H
   0.4376476030584063    0.7861091806547092   -0.0710955283759852 H
   0.5800492198717019    0.7363145168392999   -0.0638028074265300 H
   0.3948059978343682   -0.0482787950049558    0.7183915229610415 H
   0.4523295428323523    0.7921461895935155    0.7239265787613989 H
   0.5119470694046532    0.8586928360915659    0.8095435568908367 H
   0.8388869266944817   -0.3122171049059104    0.7499682448522240 H
   0.8438559597221524   -0.2187268076233121    0.8309883122322126 H
   0.7758454258015514   -0.0644756860733444    0.8500458373159473 H
   0.8083514423280344   -0.1011218110930485    0.9562578129555255 H
   0.6782279955615490    0.7955945799569173   -0.1156581936206045 H
   0.6182160519926767    0.5957429924031421    0.2931264947519950 Cl
   0.3187122447182859    0.8950838980650561    0.1445584330536525 Cl
   0.7384658748508982    0.6339729891657486    0.6017793178066866 Cl
   1.3136159195755757    0.3070852745127384    0.2578747253060159 O
   0.3944604947566630    0.1442348845475607    1.1119433718169554 O
   0.6189963454603031    0.1723460883643216    0.0626571295870011 O
   0.6140863196998360    1.0081799381309435    0.2308049762916335 O
   0.8188089276170495    0.2780313452728893    0.1544205859855120 O
   0.8337781396129076    0.0728444435010619    0.2082259182977961 O
   0.1329767778466486    0.4099043670387753    0.1793434559536428 O
   0.1206007799621061    0.5904959811667428    1.0711689517944323 O
   0.4695868392551706    0.4193502276924823    0.1327416820446533 O
   0.9860712377969103    0.3403062671975708    0.0564050518502143 O
   1.1200332625772713    0.9623151058695101    1.0067703336717713 O
   1.1543040622399880    0.7447160920120037    0.2031002348832896 O
   0.5283813697322636    0.8198984445032945    0.2674655139669515 O
   0.9209147922215777    0.7466092955343570    0.1823036524861773 O
  -0.0904107603807533    0.9337464941583232    1.0610044215321148 O
   0.0548641997807929    1.1761494201756049    0.3665235520984897 O
   0.2559750970983004    0.1894857048557985    0.4403943339293684 O
   0.6074798350072655    1.1001654409676418    0.4234263137317469 O
   0.3919821895341122    0.0273395059731039    0.4832063119632849 O
   0.6155195751637547    0.3103328705631635    0.3863261659375324 O
   0.7829977277157549    0.1322523482488333    0.5317200409925548 O
  -0.0968666212596724    0.0209088006326918    0.4098193338611389 O
   0.3253055304168765    0.3334505756545036    0.5766982812349315 O
   0.1510190262055568    0.4600990689449029    0.5892430638164950 O
   0.0764614807064353    0.4475063970310681    0.3828100603128482 O
   0.5155962030343489    0.4528293844939992    0.5584432190666430 O
   0.8006812740029782    0.3343948516128272    0.5848361080566924 O
   0.7635455162352451    0.4598912972233670    0.4273510164157935 O
   0.1767182438955414    0.7112516652952225    0.4074879271106592 O
   0.4360676058378892    0.6791672149378964    0.6031237339374919 O
   0.3821015779231531   -0.1885673467606637    0.4403253298719049 O
   0.9692619307579929    0.8408384228565960    0.4784845736492107 O
   0.8489569826896207    0.7004521873810616    0.3810958134470981 O
   0.1027985203702062    0.1628668912030548    0.9901938533507684 O
   0.3177254258154469    0.2496782579594149   -0.0563720783621478 O
   0.0239358512405954    0.1524317890691992    0.7818031504640284 O
   0.3586454127983155    0.0164525623663172    0.6974057609007710 O
   0.4342018892182809    0.2017008214398273    0.7519864197014089 O
   0.6274887334691566    0.1992610542470157   -0.1598440501918838 O
   0.8177064234140351    0.0989936775577821    0.7598505562727809 O
   0.0015941470544950    0.3512181589162942    0.6893175549742649 O
   0.2032854895425473    0.6253900013705098    0.7175417651298058 O
   0.2557763357771936    0.6339613601514835   -0.0805862999199233 O
   0.3814594856866088    0.4613503508798243    0.9246399987604602 O
   0.5512055359688944    0.5309259679601164    0.7883942009415236 O
   0.7092673709334585    0.3765089391399669   -0.2166181076280743 O
   0.9125761336720177    0.4303760837510033    0.8496426675420035 O
  -0.0681991827470650    0.6127073984130252    0.9771373552868915 O
   0.1578351419789820    0.9609971509194689    0.7742886861389040 O
   1.0659406796026119    0.7880357206846222    0.6864705561090300 O
   0.6190856327725190    0.7493242827314419   -0.1241441420356361 O
   0.4408557350068963    0.7539867421841170   -0.0056598335425021 O
   0.4494405159736081    0.8533822529105175    0.7731132911825597 O
   0.7670704240392490   -0.1226571949767215    0.8940611220597888 O
   0.8804171730460610   -0.2822592136238565    0.8084061529324218 O
