Li1 Co1 H110 Cl3 O55
1.0
  12.4741694703999997    0.0000000000000000    0.0000000000000000
   0.0000000000000000   12.4766108252999999    0.0000000000000000
   0.0000000000000000    0.0000000000000000   12.4556785458999997
Li Co H Cl O
1 1 110 3 55
direct
   0.5503080386705599    0.1621033501100143    0.6036970804432937 Li
   0.5177311203463159    0.5309607316889851    0.4173041841073321 Co
   0.1428548601595083    0.1149944029584253    1.1865364635606142 H
   0.0704343273020986    0.3269878711394289    1.0449785393172668 H
   0.0561000663780111    0.0203791627678574    1.1961706235590270 H
   0.5066498214808477    1.0106262501376702    0.1216526877693689 H
   0.5544501982045158    0.2043592164972968    0.0614526756032859 H
   0.5610261871065947    1.1835738582833393    0.2421390984028542 H
   0.6377326966878948    0.1230598945738201    0.0987692295178053 H
  -0.0158492527433700    0.2674949519169402    1.2791528550120239 H
  -0.1274012084308359    0.2359318932053986    1.2151579472225660 H
   0.3274170472825101    0.4168231650100341    1.1460489061672838 H
   0.1405965935817739    0.4859813692757549    0.2913423592080821 H
   0.2174586245390345    0.6556540495926948    1.2951134467427279 H
   0.3696258693807973    0.5777963674383232    1.0562344495820792 H
   0.5179571875010623    0.3430595433914307    0.3060071564189997 H
   0.4452830105026533    0.4052839736370005    1.0752217732456180 H
   0.4552155354931148    0.4333725310911898    0.2419544436695513 H
   0.5852762985643396    0.3790068055349717    0.0295261130692119 H
  -0.2123351194630729    0.4761718142841205    0.2345281120041080 H
  -0.1474330029797989    0.3846581800137701    0.2911247877614513 H
   0.9129470112076986    0.5626119553689947    0.3291628599751852 H
   0.9581203593281592    0.6655710055459174    0.2741702718575776 H
   0.2800680032117580    0.6682175575993839    1.0352400092522043 H
   0.1233930434368744   -0.0092931156404177    0.0029518884069229 H
   1.2468770584051758    0.9689562800408430    0.2105310251413944 H
   0.0785307380683347   -0.2652867540348574    0.0639382888828764 H
   0.2744852668087254    0.7855595201322897    1.2889154704770822 H
   0.4216461663264017    0.6720839922165621    0.3172799264638094 H
   1.3725768096968920    0.9393969706126648    0.2095957087748818 H
   0.4806985947664635    0.8971258757308287    0.0567269595547310 H
   0.5767747305640294   -0.1463978970551949    1.1937379981594278 H
   0.5495937626603500    0.7145787055184215    0.2943634712142511 H
   0.6266337613777302   -0.1370075264136403    1.3060482183409265 H
   0.7428418987963985    0.6715998863897015    0.0970890320140820 H
  -0.1132944576433338    0.9991327442482971    0.1771109269535665 H
   0.7370114505110372    0.7915908054752139    0.1340799513206551 H
  -0.1090464794411986    0.9596989583517036    0.2977811894736881 H
   0.9734560496483795    0.8372538471439277    0.1801127706397386 H
   0.8983648780699671    0.7568730438919447    0.1336833450673871 H
   1.1619736103228693    0.2042742575276822    0.5877043748459282 H
   0.2588024591906141    0.0948651384076124    0.4450361136627637 H
   1.2269879587269392    0.2971119693244793    0.5227436425166294 H
   0.2957580257390632    0.0004925546597589    0.3636049819695115 H
   1.0358088982164260    0.0948494290132309    0.6629744612201954 H
   0.5428911120190869    1.1817464389369119    0.3695821754018601 H
   0.4335195018900599    0.0476743581352909    0.4721859793849579 H
   1.3468516501372545    0.2288995347205061    0.6041161664032246 H
   0.5538305176704056    0.0217780867420353    0.4652750752794296 H
   0.6783550404200704    0.2973660447336098    0.4957222322610807 H
   0.9397463905806711    0.1876134829863715    0.5326025995816719 H
   0.8728481492203795    0.1881023978115122    0.4126725616880950 H
   0.7589656175319233    0.2204581397395524    0.5456689290795195 H
   0.8550994726030415    0.0313936547580486    0.4484490148422015 H
   0.0807093199823039    0.5830966850426763    0.3467082710256282 H
   0.1939821116782060    0.4985697237735576    0.4649226255928210 H
   0.1842900836608791    0.4746489648287643    0.5928474105917476 H
   0.3386161896648141    0.5077853674776029    0.5308989589552859 H
   0.4175785608541175    0.6025538920838491    0.5646401958097276 H
   0.7059472581478101    0.5856975516124820    0.5139283861180816 H
   0.7133305152230441    0.5240173396722739    0.4014768649232727 H
   0.7881122473626900    0.6540502486662908    0.6527301377552163 H
   0.2789408740643335    0.9239761161278993    0.6533555553084466 H
   0.1160586874128444    0.8339356383306779    0.6437318323166986 H
   0.2526329101731329    0.9076896419527209    0.5329638805816125 H
   0.3293314031886620    0.7624819388859359    0.6055460363163224 H
   0.4983775272615925    0.7765514648540008    0.6198278756673030 H
   0.6008605024234657    0.8851755150048488    0.5102641939320185 H
   0.6320184886062152    0.7728565511754787    0.6275207524260358 H
   0.9708907486016097   -0.2020941121355664    0.5293719445955375 H
   0.8006774125523989    0.7489221667355583    0.5604621817570825 H
   0.7022620428628100    0.9404709802285476    0.4349949104044178 H
   0.9337179331207622   -0.2782774613887595    0.4220498107532170 H
   0.8637092642412623   -0.1020012249335668    0.4412450717033882 H
   0.1098258075257711    0.2989634336623072    0.8680793048130746 H
   1.0770140462801645    0.2001561520005136    0.7104604330057063 H
   0.2093210086247347    0.2180424196035294    0.8109254534691563 H
   0.3251972602204772    1.0253497998718251   -0.1731526081820669 H
   1.4282518589775661    0.3060687286211141    0.6756811154114356 H
   0.3801708599961751    0.1680625004787373   -0.2397712188777593 H
   0.3852701974832071    0.1852178003431821   -0.1147230334850255 H
   0.6641841571063991    0.0444488828388751    0.7642856820701728 H
  -0.2208022162305672    0.0305014252771525   -0.0693902964591600 H
   0.7962731113177263    0.2581061842748123   -0.0468103142475463 H
   0.1636730798106217    0.3853586907632339    0.7528113975120629 H
   1.0535575748337638    0.6603869053999994    0.8811657054775855 H
   0.3329925687763486    0.5884611226240970    0.8798008661444769 H
   0.2693907392611561    0.5326831545729643    0.7811302079807313 H
   0.1024698067741589    0.5086309496751824    0.7712134459556982 H
   0.4407648740340301    0.4629719155050352    0.7827142244538037 H
   0.5519947241088110    0.4067563286104160    0.7631849792903541 H
   0.5174890200600269    0.3574184107560135   -0.0780859287043942 H
  -0.2090523357797847    0.5246200674567096    0.7486109037527550 H
  -0.1097174659962443    0.6072322459106462    0.7819587457405949 H
  -0.0297538257421236    0.3420793092420093    0.9759899252619648 H
   0.7233496191238342    0.3496606950305434   -0.2033934335704186 H
   0.7228157158434753    0.3709341004221569   -0.3295126164163093 H
   0.7883367112042824    0.3856640621540185   -0.0149583361687934 H
   0.1289902096582951   -0.1951282781268816   -0.0239383367033141 H
   0.1872634279054006   -0.0412904268966499   -0.1057857443931645 H
   1.0325301228160233    0.6957787282421920    0.7548690935183906 H
   0.0061087622290862    0.8742109989262838    0.6930402660352426 H
   1.0111499419043519   -0.0145197754211143    0.8395782481511029 H
   0.3789154657964122    0.9082426767549293   -0.1411848596139997 H
   0.3675575954118392    0.6927250143343460    0.7018932562271176 H
   0.5578388005559832   -0.1881872906093104    0.9150217494053416 H
   0.4385779548916590   -0.2357579015957863    0.9668294447968071 H
   0.5740434866057967   -0.0248990364089945    0.6984032817676924 H
  -0.2719847820530857    0.7753900917693634   -0.0725615407919709 H
  -0.2926426703887761    0.7250959847569399   -0.1883657496662275 H
  -0.2477739517676194   -0.0674437632929668   -0.1413229492406437 H
   0.9031988672299738   -0.0005994886996742    0.7827752408004602 H
   0.1479870655662020    0.3090302700619253    0.2227198432327198 Cl
   0.8055073934295200    0.1238573867885987    1.0748203499123508 Cl
   0.6817083698821448    0.5019135805776346    0.0930122569260870 Cl
   0.1174760162411846    0.0501439390520508    1.1585331718318939 O
   0.5616250245696999    0.1420963142654865    0.1126784677308473 O
   0.5585466633135763    1.2297081817835003    0.3094417344584339 O
  -0.0973871861836302    0.2627500736139355    1.2859690232109009 O
   0.3506690963017463    0.6481664392706221    1.0085854999232620 O
   0.3992695262893757    0.4510848732564097    1.1246771279041379 O
   0.4938185063075364    0.4203698012415875    0.3115291357914234 O
   0.5014230205980544    0.6516641840196614    0.3234498030961263 O
   0.5250269968546443    0.3381575711446103    0.0025664417223197 O
  -0.1728078386152371    0.4609705707208118    0.2975885062737199 O
   1.3026402899093326    0.9325361330664282    0.2478955090019059 O
   0.2799437464423051    0.7073732230954465    1.2945434256094883 O
   0.4817014671444351    0.9360707468022813    0.1287948117148590 O
   0.6235016891309398   -0.1862404478055945    1.2427357302180229 O
  -0.0662267950311492    0.9606286980191843    0.2263190048387936 O
   0.9702574399056884    0.7576216446242094    0.1724223024210055 O
   0.7665733384487498    0.7448353196972103    0.0775140245906400 O
   1.2288798682489319    0.2256983448654046    0.5465857799727017 O
   1.0425107472011119    0.1726238353473859    0.6433223805167662 O
   0.2987906925702913    0.0247715679464233    0.4440486122629264 O
   0.5054216836047067    0.0812655317214818    0.4821886460033101 O
   1.4225200144511900    0.2328958122912463    0.6453551882764311 O
   0.6861816135824494    0.2491830879661380    0.5551987190112829 O
   0.8741628660068489    0.1625137179632471    0.4899826814420262 O
   0.1545879058221714    0.5458141243767020    0.3424636206996607 O
   0.2258567788408969    0.4686521439735141    0.5284944331890153 O
   0.4187585993356315    0.5257533880513801    0.5386408093606773 O
   0.9502881745697404    0.6287276667228563    0.3468431492656060 O
   0.6699969689470638    0.5298803100753954    0.4691215136587960 O
   0.0405687718529747    0.8156919018555098    0.6492530088424557 O
   0.2478285823064795    0.8729285993849313    0.6041819998298805 O
   0.3826832517088553    0.7066847348416827    0.6244145386732142 O
   0.5679717396907236    0.8166865629997715    0.6107171716954706 O
   0.6194396952546953    0.9227017315836803    0.4380409106572494 O
   0.7475323914291016    0.6949171160503457    0.5974445106043237 O
   0.8259031400644936   -0.0324389846623487    0.4144018934078101 O
   0.9127946964580467   -0.2193784534538598    0.4726676873848785 O
   0.1417116978805416    0.2620615853601718    0.7991412700977643 O
   0.3386434459884360    0.1604466502025293   -0.1730498438087505 O
   0.5987721870400797    0.0475485226802957    0.7169626881579685 O
   0.8145757326298509    0.3325703166428795   -0.0652957784598345 O
  -0.2319644824103239    0.0099650790219315   -0.1443071303001521 O
   1.0136430938591812    0.6454990482246087    0.8147871459351869 O
   0.0521994459707401    0.3470702479570111    0.9694868672630361 O
   0.1590523313001278    0.4659599064363869    0.7331665424286324 O
   0.3343794346547586    0.5703384126056443    0.8009717604974628 O
   0.4756192986938595    0.3935395983373504    0.7909546426391130 O
   0.6963450156671203    0.3956202915931951   -0.2605802016276647 O
  -0.1878693623860838    0.5978290512736780    0.7606937460840979 O
   0.1174944543424583   -0.0436954870864854   -0.0687825415325934 O
   0.1281989746166821   -0.2692461626187836   -0.0034528208753554 O
   0.3233847146996189    0.9459933132534974   -0.1803027605942224 O
   0.4803410559330700   -0.1700782060859846    0.9406727004011161 O
  -0.3158514299528480    0.7827703011298478   -0.1358539577482112 O
   0.9762137482736569   -0.0206321725350290    0.7666886021431103 O
