Li1 Co1 H110 Cl3 O55
1.0
  12.5556144009999997    0.0000000000000000    0.0000000000000000
   0.0000000000000000   11.6183664546000003    0.0000000000000000
   0.0000000000000000    0.0000000000000000   12.8119227993999996
Li Co H Cl O
1 1 110 3 55
direct
   0.4450373372453174    0.8280773605217836    0.4549609758788881 Li
   0.6372883831047496    0.5318610194855267    0.7332392683586841 Co
   1.1491462496133087    1.1690116919941484    0.1763306675408471 H
   0.0545208843340617    0.3336782535177378    0.1100026063040281 H
   0.1067749580134625    0.4551695152640172    0.1097106907142639 H
   0.1407718606235015    0.0941942425018542    0.0085026971677586 H
   0.2927795552726771    0.1440741462098795    0.2717698938884538 H
   1.0330229000555302    1.1594492461516854    0.1637228800503101 H
   0.3439478995274060    0.3719504152486968    0.1662275782523242 H
   0.4096746711248416    0.0678939014690562    0.0342789374066918 H
   0.4473781227346884    0.2432670925249540    0.1163396722754061 H
   0.4243254874150702    0.3350166516532041    0.2594188984541533 H
   0.5998708593583544    0.2778468246731798    0.1107534693985552 H
   0.6969358026639512    0.3117164742093415    0.0526972344644177 H
  -0.0516026359847749    0.4460959505411330    0.2066383743604811 H
   0.7366781827708345    1.1738660749420773    0.1382512935359672 H
   0.6897151285412432    0.4129820010454467    0.2004488272299197 H
   0.8825722777546774    1.0837931714844948    0.1951654672643750 H
   0.7324617423554786    1.0534790992458321    0.0809849478447209 H
  -0.1538851654560301    0.4948816384616225    0.2666488827001041 H
   0.6799306611248008    1.0473594781891344    0.2571116725628621 H
   0.2664797670302395    0.5091994860394236    0.0721166458904412 H
   0.2903933717659891   -0.0417997465132218    0.2373808324728922 H
   0.2167745132634230    0.5667652378698108    0.1754330661284706 H
   0.2648255269957298    0.7718827136623272    0.2281347574024471 H
   0.2614143040454145    0.6973817067107608    0.3275413819927580 H
   1.1026172641457819    0.6858267260235364    0.2876550973186158 H
   0.0945428206528433   -0.1855255453615497    0.0657829361678225 H
   1.0014593311736733   -0.2183184514459634    0.2055713994642040 H
   0.3557505875733368   -0.0476262971100313    0.1271983077962598 H
   0.5491182653674743    0.6447693190408933    1.0479117857569942 H
   0.4541002151233555    0.8776075593021948    0.2520585668726661 H
   0.5739939894877630    0.7371583828730993    0.1961559509098582 H
   0.5640438591309364    0.9130720974203622    0.3088462958803739 H
   0.9993726152899874    0.6014955936024139    0.2827424857625309 H
   0.8118525207088350    0.7439949721914326    0.0138533382130832 H
   0.6752833377731572    0.7297433989907575    0.1154256798807167 H
   0.6696850454271926    0.5591824162791630    0.2084515292134816 H
   0.9698957622918161    0.9907938669590119    0.2197535017797525 H
   0.7485270652905263    0.8633336077404121    0.0232004207607246 H
   0.9216782891626810   -0.1584614997206494    0.1244274512624020 H
   0.2028978526369130    0.1702611322366062    0.3426484040245379 H
   0.1639726368417325    0.1112295116830597    0.5621275598099356 H
   0.2391804259503875    0.2582210019819252    0.5153570625643493 H
   0.1158539243116726    0.2624178053957730    0.4755332197275900 H
   0.3630740045773407    0.3657567734591052    0.6068320127611212 H
   0.5509899380112382    0.1436790820657129    0.6304834197157581 H
   0.4201767457974676    0.2494469630154026    0.5720901549643472 H
   0.4097654671594752    0.3753114729458001    0.4498867960685754 H
   0.6240472947206751    0.2000673878193685    0.5459496602670421 H
   0.5811549293771593    0.4288370698900920    0.4236448333855233 H
   0.4337794254071884    0.4928090579405918    0.3901557149512401 H
  -0.0073639406680597    0.4547546548773325    0.6619642525552197 H
   0.6874046083967500    0.4582560076844557    0.3657440786264687 H
   0.6757978486360813    1.0891209428404665    0.3755693017386385 H
   0.7063650505063005    0.2804220576129322    0.4344246360866813 H
   0.9783620942931823    0.4008563721499816    0.4981590195032158 H
   0.9721099112065666    0.3817917298988067    0.3741573356908219 H
   0.9430312864304727    1.0999314126677693    0.3828960708325325 H
   0.7980045325143145    0.1889883776587760    0.4524656439524815 H
   0.9713931004068272    1.2140438401919573    0.4541562566996184 H
   0.8827793564301576    0.0370144657581990    0.5538430890351842 H
   0.7021119730945136    0.4685302575513756    0.5455250557728396 H
   0.8141463152680010    0.4826019431569944    0.6202726182577500 H
   0.1196912514596107   -0.0106117132026926    0.6215768721360815 H
   0.3326230853479681    0.5503136996310318    0.5805354134703591 H
   0.0143922228517633    0.6805411292711904    0.4455135258828837 H
   0.0263308660127113    0.7504571543143138    0.5559895271952149 H
   0.2921447794866857    0.9741305949959084    0.5618403273579751 H
   0.4171350786372401    0.9583366362912104    0.5987325259296161 H
   0.5328657751680502    0.6842671263955847    0.6548404194328196 H
   0.5682857861525051   -0.1259422982067041    0.6088964960095871 H
   0.6284644421599580   -0.1900029389954374    0.5208136986286311 H
  -0.0319940376209711    0.9147504745034228    0.6535814358865907 H
  -0.0308060431888697    0.5494116795371613    0.5702325103022117 H
   0.8141200322053439   -0.0697683082959624    0.5523600953973448 H
   0.7344250074903205    0.9214467687117361    0.3872943177531773 H
   0.7937530480154158    0.7971375548783081    0.4092340378405606 H
   0.1859771354808430    0.1029469359547051   -0.1111039398681564 H
   0.1590553147555204    0.4850549558168521    0.7922858308337114 H
   0.3012793384446977    0.0151682448637369   -0.0011132677368824 H
   0.1002357320243734    0.3069903364846824    0.7596201641299128 H
   0.2589922799987396    0.2085401796171367    0.7931514308044294 H
   0.1869360690396054    0.1255982269970705    0.7277225320259215 H
   0.0222399471329543    0.3857415106342759    0.8266569402210255 H
   0.5207492832831224    0.3343358330518190    0.7826502748025917 H
   0.5925569998316803    0.3021910387333256    0.6920573155588507 H
   0.4644772461342491    0.2440305389211974   -0.0037413666200240 H
   0.3726792692938484    0.4530341031906464   -0.0608140645630872 H
  -0.2974424572327227    0.0432213279949680    0.7621623274343564 H
   0.7523843038495682    0.2075770493833189    0.9012437149746755 H
   0.8700121596303553    0.3790959980915526   -0.0879153830331189 H
   0.6901380469130894    0.3165863498688065    0.8558406939677707 H
  -0.1839729005468683    0.0334681496593737    0.7384789190380611 H
   0.9756541423830557    0.4158352420866496   -0.0081460918812973 H
   0.1156739251552936    0.6727930520908257    0.8140905204477547 H
   0.2455863251307251    0.5321269777002270    0.8742688412253438 H
   0.0974189841639753    0.7743073230177024    0.8931887179523056 H
   0.2838090663421609    0.5046102005999985    0.6950818420570759 H
   0.0556422950074317    0.8358822443111132    0.7114103825326552 H
   0.1532459614518549   -0.0945144721498463   -0.0011654066710970 H
   0.4069061885249593    0.5764653967037043   -0.0276685323390023 H
   0.4963538223986591    0.8899492254529666    0.8368895963221175 H
   0.6357846733381852    0.6504215766329233    0.8983635852253979 H
   0.5054007711478141    0.7251377601336001    0.9464438000100864 H
   0.4468293642446657    0.9126245301982127    0.9499561533628640 H
   0.6143568091646430    0.9507193864527048    0.9523679693317714 H
   0.4414046994035270    0.5800063419958639    0.6794823100329398 H
   0.7239611627270139    0.9978430507078662    0.9022037582244347 H
   0.9366357411839091    0.6942108650830712    0.8821911493432754 H
   0.8952279706522981    0.5737455651229498    0.9343613044765317 H
   0.7672772428988200    0.6470553546986414    0.8827843467984111 H
   0.3820368360562238    0.6424049591192690    0.4515063812256895 Cl
   0.3936706753359939    0.3037514990674737    0.8543577003299313 Cl
   0.5287576528290995    0.9939526586999515    0.7215720110437243 Cl
   0.0357609262406338    0.4167648047788062    0.1000108976429367 O
   1.0910208583188872    1.1893071441062342    0.1212975541635935 O
   0.2261073898760297    0.1127577816054609    0.2893379048360800 O
   0.2293800294050620    0.4931283799394715    0.1395071549903270 O
   0.3810181682641498    0.3055779176163222    0.1985833773381112 O
   0.4826412317996448    0.1983692144937899    0.0586343604673594 O
   0.6542441443443625    1.0222010360671552    0.3285943074756239 O
   0.6732229049521286    0.2997302797176999    0.1268384867083419 O
   0.7626434593067271    1.0965144090678971    0.1383824213944709 O
   0.9500321385745939    1.0701251570850068    0.2399854376147187 O
  -0.0792755151369354    0.4745715543441971    0.2759581801308992 O
   0.7042544409292902    0.4907597164868651    0.2411203180091494 O
   0.1474668734930672   -0.1791158663166514    0.0075442930162307 O
   0.2254821715673681    0.7057701493012778    0.2564045187545028 O
   1.0224379939127122    0.6827066660614366    0.2917341103456415 O
   0.3712775059521358   -0.0040359178618811    0.0256451982145402 O
   0.3424194996110728   -0.0848263632027030    0.1996675237396685 O
   0.5103929601397768    0.8508972639080318    0.2990070233547930 O
   0.6149135322191073    0.6855951960566936    0.1492566673746702 O
   0.9882700124584688   -0.1472482193934121    0.1631796360650805 O
   0.7653099954817575    0.7872050053713753    0.0642768390501515 O
   0.1807205229494209    0.2120613286667781    0.4848940316742259 O
   0.1738439180105878    0.0478268807815058    0.6185172221043286 O
   1.0010531383871544    0.3479040055325197    0.4414579285448765 O
   0.3611967567384678    0.2976972916817056    0.5571228465437111 O
   0.4515842092162702    0.4101382277724047    0.3878422448762106 O
   0.5656534976045733    0.2152287274696821    0.5919232435630313 O
   0.6631851643864449    0.4292743086378841    0.4355977621065090 O
   0.7193146358318143    0.1984466780514695    0.4505627289582433 O
   0.9304870974350337    1.1403157474047951    0.4500296317715884 O
  -0.0583446397845457    0.4764427296152604    0.6051374973991478 O
   0.0357719890206431    0.8726516130230858    0.6409533547989045 O
   0.3431466643445862    0.5076803396027046    0.6453960915286844 O
   0.3641460349511732    0.9483180161646335    0.5419213812328898 O
   0.5615286496802953   -0.1947583407307756    0.5582803621041932 O
   0.7339758060558171    0.5034129582807486    0.6153881055284873 O
   0.8514706536104301   -0.0178611832834588    0.6013488389159517 O
  -0.0102028300176053    0.6832841999192487    0.5190981091465411 O
   0.7534595200491774    0.8579447262444931    0.4415352003186377 O
   0.1875190751567267    0.1780229807161139    0.7927205821264887 O
   0.1814827317664771    0.0485609770964506   -0.0477847166179202 O
   0.0611368887243672    0.3795048335348621    0.7620928608902682 O
   0.5925203628352491    0.3574010377040531    0.7552008430891515 O
   0.7379182654543837    0.2931123097732627    0.9141145387051871 O
   0.9256287131256891    0.4362055756378260   -0.0642717813081549 O
  -0.2280655257517254    0.0629590424917600    0.7967426169769025 O
   0.2107166655491812    0.5476085000556168    0.8032030055771114 O
   0.0627250228740120    0.7379553968110039    0.8281633495478835 O
   0.3442457742375199    0.5245854700070083   -0.0307744673827152 O
   0.5000382299093195    0.8668056965368564    0.9135291464797242 O
   0.5193045112934255    0.6453795597341702    0.9701638929858444 O
   0.5126341885736285    0.6198398247671674    0.7026950630799631 O
   0.6935110399540854    0.6272539479433128    0.8545216101530609 O
   0.8772838069654891    0.6622881329632596    0.9220290415934459 O
   0.6880768176356168    0.9729600345687481    0.9696331373680913 O
