Li1 Co1 H90 C51 N3 Cl6 O45
1.0
  14.0683969999999992    0.0000000000000000    0.0000000000000000
   0.0000000000000000   14.0160009999999993    0.0000000000000000
   0.0000000000000000    0.0000000000000000   13.9987169999999992
Li Co H C N Cl O
1 1 90 51 3 6 45
direct
   0.7542191032851860    0.0587876013992864    0.2263813662352057 Li
   0.5433087934609750    0.8851351052272328    0.1303087725825160 Co
   0.6693906015020759    0.6415748850189152    0.3472738708840247 H
   0.6684074376064310    0.7020446067319773    0.2327067616267977 H
   0.6230513263167083    0.5822320553487405    0.2437355444788262 H
   0.5306241556873893    0.5998952111946910    0.4225933555196523 H
   0.4668001492991704    0.5548146657523784    0.3200991919473764 H
   0.4172559737971568    0.6497954980168738    0.3905145150087684 H
   0.5826516297485776    0.7634134187062344    0.4231018142591211 H
   0.4746258411672630    0.8093616274713451    0.3724362732670430 H
   0.5870760293443524    0.8303518271723869    0.3133152866794864 H
   0.5051070196554732    0.6508495276220372    0.1591244133301645 H
   0.5180492638926809    0.7765626322372552    0.1805677105980498 H
   0.3533876140970432    0.7513711921110736    0.1457984892472646 H
   0.3520964286123003    0.7584911202560560    0.2731692861567243 H
   0.2719173527730274    0.6219600547973706    0.2276433304566412 H
   0.6777756868817393   -0.0288230915508639    0.5277876315379475 H
   0.6701087252513560   -0.0099219542007738    0.6550083404071960 H
   0.7537330017058803    0.0564877057300438    0.5837273701582796 H
   0.6172038249986832    0.0869199509903003    0.4186563075744728 H
   0.6987532175840646    0.1725150383479568    0.4692741949137196 H
   0.5745777866518836    0.2006393977854311    0.4612164493360356 H
   0.5101748045637325   -0.0010098850592262    0.5217427039920873 H
   0.4607689980599780    0.1128904150335035    0.5525516409825273 H
   0.4993786968053290    0.0320199670362466    0.6455762538809807 H
   0.6948875426247924    0.2017754051244717    0.6397698824828019 H
   0.6159640128153905    0.1344179470306830    0.7138980207971917 H
   0.5681075086237615    0.2980416789353825    0.7134807789885318 H
   0.4775207800860326    0.2332642506232698    0.6529184724571545 H
   0.5451681623713064    0.3820030920374506    0.5852279326741158 H
   0.0603110340147495    0.2613148921721681    0.3142026944326398 H
   0.0068692787102895    0.2974127491857342    0.2033005381850351 H
  -0.0438695119280470    0.3360163530239474    0.3155909688009266 H
   0.1455543748161215    0.3661200338099291    0.4095439267755753 H
   0.0442090211130664    0.4430424013240296    0.4174298558932223 H
   0.1569283565142496    0.4904898344399377    0.3809970592304995 H
   0.2060595212091328    0.3196764176886118    0.2514620768460424 H
   0.2215423299470437    0.4444624640081005    0.2256022326903245 H
   0.1540391595431946    0.3701066502492402    0.1455525481370900 H
  -0.0256884675631488    0.5065007144334536    0.2826772289203361 H
  -0.0067526819153597    0.4551824760857252    0.1681533271941993 H
   0.0354896915405501    0.6295806892422454    0.1811589147776900 H
   0.1222002378806910    0.5543231318262606    0.1268882019687947 H
   0.1383516473127678    0.6617671274424138    0.2964718523847579 H
   0.1404468853132308    0.4043500096782243    0.7261176927857033 H
   0.0724835494761770    0.3214156862574425    0.7965837626405335 H
   0.0847144049176320    0.3701731121451833    0.9521550203493651 H
   0.2795161261087529    0.2007560644437740    0.8491092476546245 H
   0.2477913795011614    0.1197606899428732    0.7589452597691632 H
   0.2315062739557321    0.0710387670491747    0.9392613244485192 H
   0.2348275748829096    0.3143687125878487    0.5776315186598887 H
   0.3103657275238963    0.3469458706516931    0.7515044878755676 H
   0.8021914017638258    0.1070444957873505    0.7501461326777306 H
   0.8969404382034428    0.1852214472587438    0.7757161095548971 H
   1.0063957698947508    0.0946761868809798    0.7011830848498474 H
   0.9402601980879556    0.1507048001780251    0.9803210379922677 H
   0.8376759662099386    0.1922876118516259    1.0396533603758118 H
   0.8688331996886356    0.4250163274103648    0.9191688352582598 H
   0.6682715443699805    0.1603630343633680    0.9781298386130672 H
   0.7361266098760222    0.0261857636853765    0.9051525157626947 H
   0.4325203120156476    0.1881603062100238    0.1287036183387378 H
   0.5458974558366529    0.2185164705681742    0.0869469166352888 H
   0.4449537854241674    0.0480923089260624    0.0562703746350469 H
   0.6410975813378028    0.1955379184119636    0.3132336806294463 H
   0.6379995659775596    0.3212684138649819    0.3136318749782570 H
   0.6503413373961511    0.3716638219417935    0.1377055647313965 H
   0.3925564184746848    0.3351392462086725    0.2954604511256282 H
   0.4314479446379001    0.1645504570098133    0.3055136795750639 H
   0.0846272592392723    0.8988795192009477    0.5103677015543640 H
   0.1128934099599265    0.9806200513256244    0.4185626111307201 H
  -0.0124927729861476    0.8972303148380200    0.3249340878881972 H
   0.2987098807348129    0.8951467369330239    0.3426684209702933 H
   0.3780816513779076    0.9254683472125895    0.4330186787832057 H
   0.2336665328679593    1.0975472996898332    0.4647480458387723 H
   0.3021578762669265    0.8677288949965115    0.6587181439556212 H
   0.2278550434708375    0.7699445840507575    0.4676772657094219 H
   0.3684969652192784    0.5275040355662076    0.7874173040286478 H
   0.3453792169783096    0.6339101388477356    0.7224828539644027 H
   0.3059894613437480    0.5328659965135563    0.5830042467463269 H
   0.5485218841919233    0.7116475662351909    0.6896041315786298 H
   0.5673540247691333    0.7570968495221997    0.8056390124895019 H
   0.5209665472192746    0.9047170016611729    0.7919125316984408 H
   0.5137281781286098    0.5328597329580670    0.9341822082695151 H
   0.5595927865840010    0.5281300921710836    0.7468617352575955 H
   0.8773699626190532    0.7035364202670934    0.7910363199713232 H
   0.7659187063032128    0.6812768485104990    0.7349331220854027 H
   0.6764334017585657    0.5809558104340888    0.8416577112031054 H
   0.8019520866520898    0.4819327724077646    0.6555143582086845 H
   0.8672674434763250    0.5112848465122113    0.5522662376844965 H
   0.7494764449709516    0.4935713489175694    0.4569565703771282 H
   1.0441540830842349    0.6231456675837852    0.5944576492259970 H
   0.9609285727435756    0.5382004403395805    0.7655704347762728 H
   0.6316848941638483    0.6511570561389087    0.2795062368929953 C
   0.4827856244034058    0.6176785239955391    0.3634648110966170 C
   0.5451496734133960    0.7803065232372630    0.3565465035117147 C
   0.4852597115364317    0.7090469036068134    0.2075499068950390 C
   0.3773511466871457    0.7153757673105190    0.2120093870031090 C
   0.6829700320512707    0.0239223092235795    0.5853066313148556 C
   0.6263221374830409    0.1436251010541452    0.4718092100868959 C
   0.5123491304659656    0.0581574045264409    0.5729695507095401 C
   0.6221067773393089    0.1748756610391224    0.6470601212954017 C
   0.5521227102135375    0.2574894115661094    0.6476582396801078 C
   0.0221041402229408    0.3184304438905221    0.2771340580711790 C
   0.1102694955224821    0.4285495456228920    0.3786466616904964 C
   0.1733342156892502    0.3835026788311445    0.2203217516290958 C
   0.0291532652938355    0.4862951871935512    0.2304526500535728 C
   0.0870629048924337    0.5716699021354237    0.1953732602780670 C
   0.1446029750226696    0.3461792639712283    0.7797358600791773 C
   0.1971923873061018    0.3865134719953288    0.8663022596999426 C
   0.2015474179467640    0.2639911626718635    0.7338064902662152 C
   0.2202184648329159    0.1800298123551789    0.8014918152856438 C
   0.1387718721614126    0.1452685962279826    0.8647782221756467 C
   0.1464774096153243    0.2342200339454885    0.6420742786642520 C
   0.8593939991883938    0.1217195767894138    0.8022010295657810 C
   0.9237300916373060    0.0321948849746800    0.7984057960454519 C
   0.8111789139871444    0.1490011002425014    0.8966778048302571 C
   0.8771919892508010    0.1961904454772799    0.9716144965285034 C
   0.9092785126834281    0.2987648566805896    0.9645066258572127 C
   0.7271202895397394    0.2177190020177653    0.8707503444779977 C
   0.5082033589185748    0.1875460446956304    0.1489495101586810 C
   0.5433847637367640    0.0863209691551820    0.1608018927734592 C
   0.5244605970388809    0.2529511855771129    0.2356403711854451 C
   0.6284706566071459    0.2577653233614924    0.2677566101236278 C
   0.7051699721012992    0.2572702905771768    0.1916799525270780 C
   0.4931097366672266    0.3557124717670896    0.2089594775006881 C
   0.1306723033192765    0.9097844756146921    0.4471867050387547 C
   0.1058271038271098    0.8312027581904425    0.3759612291612153 C
   0.2355998753802583    0.9071038579406495    0.4823560366282139 C
   0.3064819474457537    0.9421332896594400    0.4053810545637861 C
   0.3139253811219573    1.0432247985712901    0.3663013289003557 C
   0.2449369156983557    0.9712162063915379    0.5730320721534695 C
   0.4010485757545796    0.5820873050736797    0.7405076122333213 C
   0.4350453694191314    0.5294657527493043    0.6513343208524038 C
   0.4805622168609544    0.6312875798168109    0.7987575311366035 C
   0.5124149588613400    0.7273631630020576    0.7579335463385681 C
   0.4369028290856450    0.8026335100860795    0.7382377420730772 C
   0.4439950038373242    0.6458551465571385    0.9022525564307073 C
   0.8323203930056851    0.6474485889377434    0.7586815498877505 C
   0.8183031414311098    0.5730934051731303    0.8361134745419885 C
   0.8854948207674265    0.6078480423909788    0.6705000751140267 C
   0.8226804247847144    0.5424522765088273    0.6091852689071435 C
   0.7312718165402924    0.5839922357311476    0.5663100561287153 C
   0.9229329546216247    0.6915481527148863    0.6064651403410757 C
   0.5341187798439296    0.6890656143646109    0.3019022971890925 N
   0.6100551519835558    0.1009565438815251    0.5686917079615226 N
   0.0849855630318081    0.4054439686469771    0.2759815917415861 N
   0.8782793746863983   -0.0109359039001210    0.3098842501066348 Cl
   0.6888451249989606    0.8347729013432578    0.1248866428259104 Cl
   0.1823027349882151    0.5219196937842684    0.5793015445629769 Cl
   0.8256542049531301    0.3987407335373335    0.4029075836021259 Cl
   0.3664652333879972    0.0977887594328796   -0.0237679931668024 Cl
   0.6459352000089278    0.9525375212230650    0.8187307686840160 Cl
   0.3414966623418432    0.6214740474119544    0.2145521314560470 O
   0.5642155549065043    0.3165484163421507    0.5664460578780185 O
   0.1579833246104727    0.6033198863213552    0.2605583733137830 O
   0.2815322463532981    0.4104323223150456    0.8590018270960118 O
   0.1508495481041657    0.3989174686845414    0.9483792986171520 O
   0.0575386158067618    0.1767655474625038    0.8599516077080493 O
   0.1607379625411481    0.0764155474874752    0.9274831557777760 O
   0.0753900718042006    0.1845714294683626    0.6413299233065431 O
   0.1814422140631943    0.2713411150584251    0.5606239871839684 O
   0.2923737707999000    0.2995442994046590    0.7017500932406878 O
   0.9151693224181832   -0.0369989093180002    0.8504641003886285 O
   0.9857609832875772    0.0308011999999144    0.7241862343527625 O
   0.9881504019256779    0.3252017026825270    0.9950251805219008 O
   0.8447496164630555    0.3575448346500546    0.9304316266983611 O
   0.7226668901936731    0.2676626271644815    0.7998446321902215 O
   0.6561733628927304    0.2155296756899490    0.9358648839032894 O
   0.7726518081626500    0.0709920183367567    0.9479538524851957 O
   0.6095244404888489    0.0599305244056418    0.2126101899195476 O
   0.5007165094928726    0.0206793385645449    0.1054339551260305 O
   0.7641251743180122    0.1921279364920137    0.1861109843137768 O
   0.7096600920488668    0.3313922323492985    0.1322023011108804 O
   0.5389428688997048    0.4085577498175121    0.1560967480091211 O
   0.4117860869294491    0.3852513216858361    0.2492553589018194 O
   0.4681744537064173    0.2252803106963249    0.3168663735398037 O
   0.1535945403019264    0.7562955346535720    0.3714987887818577 O
   0.0326068158298348    0.8406741623377454    0.3183176851135716 O
   0.3766976003022946    1.0583383662715209    0.3055513480271085 O
   0.2568587899531127    1.1121485757599476    0.3961743115458367 O
   0.2280712585804907    1.0579561680967347    0.5651608022363764 O
   0.2685139145561502    0.9341966028683932    0.6549130931070327 O
   0.2643325689486870    0.8144992448273941    0.5090706941214685 O
   0.5136517038863774    0.4868810711414761    0.6521946518384507 O
   0.3819875078873592    0.5272665412909145    0.5749569478402915 O
   0.3636197009510039    0.7836607103552576    0.6924879315725864 O
   0.4540540013194111    0.8916716251661227    0.7645601221883407 O
   0.3956417422681490    0.7137284001335332    0.9260631592166626 O
   0.4700674270138951    0.5778962522905071    0.9659193974704968 O
   0.5632056054431788    0.5703565910133711    0.8055930232749188 O
   0.8884961527599770    0.5275847040821415    0.8667343228668742 O
   0.7350974286551624    0.5591905387278441    0.8768610559096238 O
   0.6819344918969802    0.6438670944729528    0.6066526725270609 O
   0.7049174045912978    0.5477179817552811    0.4818304770358598 O
   0.8744008013137531    0.7611921510279573    0.5889798236509818 O
   1.0102836080045225    0.6799880272554205    0.5689930005728383 O
   0.9666304497946711    0.5535583188100516    0.6967440008966538 O
