Li1 Co1 H110 Cl3 O55
1.0
  12.4732985764999995    0.0000000000000000    0.0000000000000000
   0.0000000000000000   12.4757397608999998    0.0000000000000000
   0.0000000000000000    0.0000000000000000   12.4548089428999997
Li Co H Cl O
1 1 110 3 55
direct
   0.5716643632530461    0.1535071200027856    0.6456134340128803 Li
   0.5108240013114386    0.5435312863652442    0.4015599110776465 Co
   0.1289426592762040    0.1440736112685901    1.1440064666525813 H
   0.0598769670924986    0.0295974337134909    1.1412846264256122 H
   0.5530646321091855    0.1985112649080570    0.1090801133785732 H
   0.5782576472585251    1.2063857670203801    0.2759915457040825 H
   0.4512463366349852    1.0320554233548032    0.1315116096207748 H
   0.6249694289437424    0.0924987137209049    0.1037143144886515 H
  -0.0383688170907467    0.2717958971240503    1.2501020323138496 H
  -0.1513953746892415    0.2261889823514906    1.2032606875228826 H
  -0.1188001475721750    1.0270457003886446    0.1379613271851533 H
  -0.0986146290057903    1.0124734182246820    0.2613530232798638 H
   0.2626643039374212    0.3774048650290486    1.1952236312774664 H
   0.3028798088356255    0.4745445956763778    1.1243995821857418 H
   0.0229814019637166    0.3887180218201469    1.0602075095762487 H
   0.1983364924063397    0.5844515051085031    1.0242535256931582 H
   0.1155805162169486    0.4749333501785517    0.3303978399400358 H
   0.0114448706189840   -0.4338023414340264    0.0040520871762364 H
   0.2943568027239711    0.6394133761591487    1.0981366341550161 H
   0.2242229889108275    0.6535215575875263    1.2824268958943150 H
   0.0230958303958788   -0.3357600590971141    0.0616760943601548 H
   0.4372668749127654    0.3449955644385375    0.0785325552631284 H
   0.5583358921208615    0.3658504399799002    0.0594754182899189 H
   0.3994292494357978    0.4160158018738270    0.2642386556620842 H
  -0.1982707057345169    0.4899569081873057    0.2185583082068685 H
  -0.1535199129448980    0.4017889902056109    0.2933270183708938 H
   0.7483882656338495    0.3695079385230334    0.0231586749280828 H
   0.9047021699344631    0.5909938025244690    0.3041870805862284 H
   1.2043021496094948    0.9737743102556994    0.2119158939892533 H
   0.2217304645950403    0.7769106334661778    1.2606280869969073 H
   1.3089817571721623    0.9291757525217682    0.2020811385496826 H
   0.3951440958597661    0.6884998441150836    0.2872546650857706 H
   0.5167294159496143   -0.1297963207340246    1.1849143603293002 H
   0.5088341507640651    0.7348610227774282    0.2713363157229712 H
   0.4343358138325087    0.9399807230151791    0.0434795085241917 H
   0.6037176326867830   -0.1221358531520120    1.2841691948006639 H
   0.6946518785916278    0.6758913733538554    0.0966321504502956 H
   0.6840604541027681    0.7993798421361555    0.1256271355725575 H
   0.9688151225023313    0.6993096239425421    0.2747518639015927 H
   0.9412041423042897    0.8516653187893607    0.1508414926485865 H
   0.8595497191576427    0.7653690333078227    0.1079351740972582 H
   1.1757772171052463    0.1837185549335836    0.5891669639607829 H
   0.2817234163720333    0.1109725681309118    0.4749789417662927 H
   1.2312156398896414    0.2719313600330552    0.5113648873137223 H
   0.2995671325819000    0.0200526746625526    0.3847262526119725 H
   1.0268911795739375    0.1384290562081598    0.6640520950194720 H
   1.3801978829268668    0.2077596142814233    0.6389172253129032 H
   0.5708217633637274    1.2051273246112810    0.4006951848462466 H
   0.4580143939762124    0.0964240120149171    0.4781945671671810 H
   0.5713717381725502    0.0417719422324985    0.4507979204932457 H
   0.7070511648791686    0.2990047044978514    0.6583827989007024 H
   0.7659585978644036    0.2103438297762866    0.5875145901592776 H
   0.9459743319726506    0.2260535194424857    0.5501892484273189 H
   0.8814044032516790    0.2176099319664032    0.4378093631623668 H
   0.8768987787245887    0.0526541826929397    0.4628430671259864 H
   0.0706836514008464    0.5841597388429539    0.3756815534506726 H
   0.2170588855702439    0.4823148763858086    0.4765116830622467 H
   0.2225762713345564    0.4699709189971936    0.6040407368824947 H
   0.4845679153217214    0.3469313213926612    0.3372642640170387 H
   0.3617495613310432    0.5152027057140471    0.5337995951668112 H
   0.4323195067710083    0.6057432284925148    0.5900646092037775 H
   0.7056241165414068    0.5880825523143748    0.4843600571680352 H
   0.7141190627138357    0.4929771699691435    0.3939363497339675 H
   0.7952387435900966    0.6514254894984856    0.6356534257487056 H
   0.2832410582278664    0.9589375147191237    0.5518568773805386 H
   0.1314015116649204    0.8119001417731794    0.6279632234791156 H
   0.3452382913781203    0.7822009009184413    0.6293554567987512 H
   0.5470365554509663    0.8133998524403286    0.5786754340947635 H
   0.6367642239691078    0.8941557850991323    0.4486180396035050 H
   0.6689762324876068    0.7766252796460253    0.5866619074687052 H
   0.9601085242168861   -0.2049614025625952    0.5595141606385340 H
   0.7291343370497566    0.9568614855219476    0.3955036158469598 H
   0.9364499868869151   -0.2654836653278398    0.4414473153949324 H
   0.8047350287366065    0.7199039938896648    0.5281302990480417 H
   0.8905198749372694   -0.0823899134720208    0.4585941059221160 H
   0.1296241149431127    0.0822287816402796   -0.0254887915065907 H
   1.0490745658131886    0.0168473841734606    0.8004829313165361 H
   1.0565224753962259    0.2495014275911322    0.7145209543076210 H
   0.1256436121358167    0.2377257731757982    0.8609912862383199 H
   0.2053618994758936    0.0809881337671563   -0.1352680748555684 H
   1.4331028940554602    0.2725557719035572    0.7248647500728255 H
   0.3671827672776787    1.0897113230277304   -0.2424949304518809 H
   0.7766550466972221    0.2476209779785549   -0.0130992798964616 H
   0.6913688657022264    0.0227568613998982    0.7561843794455723 H
  -0.2026993658568741    0.0270736234542643   -0.1271876618631739 H
   0.1836066277379711    0.4152960048780493    0.7699565698329474 H
   0.1514322997092893    0.5408164172954234    0.7513244092703970 H
   1.0506699737863041    0.6531752855361054    0.8508987990250451 H
   0.0606740297090170    0.3342859790704021    0.8958533224197357 H
   0.3339638077972534    0.5446021647464903    0.8022099750711705 H
   0.3417332041125618    0.5812508932998836    0.9248461397046486 H
   0.4651961349928806    0.4397274218394120    0.8352341669223408 H
   0.5078544580288152    0.3484029776112000    0.9003094325258355 H
   0.6315378598601930    0.4019460951178296   -0.1930666330912104 H
  -0.0814547736004802    0.3804515781481477    0.9968103106613573 H
   0.7562410400542856    0.3675850064597030   -0.1672974702344039 H
  -0.2007303598357826    0.5160900278458133    0.7614586474252065 H
  -0.0903706188612938    0.5862582115990185    0.7654482710499291 H
   0.2786793138223247    0.9660072357689669    0.6673793238986933 H
   1.0500045523703816    0.7030761340574191    0.7312012583534274 H
   0.0366004457922711    0.8790705073034352    0.6710437719210789 H
   0.4909503489267333   -0.3324472294940527    0.8582935330930054 H
   0.6001692529435619   -0.2703314740477323    0.8353867184394865 H
   0.5304579416439018   -0.0332268167935956   -0.1370432927735120 H
   0.6239167803665059   -0.0451315216725378    0.6677085140146395 H
   0.4270538587471774    0.7466198445235958    0.7152186767728825 H
   0.4687837986510176   -0.1443157002234644   -0.1106221729065878 H
   0.3730224414868115    0.9831685427618401   -0.1725653149922636 H
   0.9267332307893464   -0.0160041106360491    0.7669392614043485 H
  -0.2197293438291968    0.7177189531207450   -0.1711530091045826 H
  -0.2591503515910405    0.7622068961715833   -0.0573823357448943 H
  -0.2182854595278997   -0.0975345063876372   -0.1688045186432597 H
   0.1212790890174038    0.3186748807521770    0.2295749364529580 Cl
   0.7743902087454372    0.0856101442535181    1.0354058444992351 Cl
   0.6755526805295503    0.5097425084587716    0.0983480338570967 Cl
   0.1275765410921894    0.0672450609485525    1.1117056901537707 O
   0.5705307417083300    0.1315372805180746    0.1477350620178657 O
   0.4948097931390844    0.3188391996654670    0.0371166650343142 O
  -0.1184762557022560    0.2658307197937858    1.2632937240333491 O
   0.2765186985019495    0.5862614178217168    1.0405925960821911 O
   0.0635958710949566   -0.3800836832346625    0.0155890204731468 O
   0.3286131782431962    0.4106317524076369    1.1682782159331939 O
  -0.1751396952619881    0.4808239828310797    0.2909472147034199 O
   1.2564214824397697    0.9402612675012840    0.2606320166356697 O
   0.2607417972441894    0.7108496209895481    1.2458386188609867 O
   0.4690219072781610    0.6715549571543484    0.3099760092105491 O
   0.4312804873071099    0.9549377519029426    0.1208049018253078 O
   0.5629505495546573   -0.1716271067236125    1.2365811504784043 O
  -0.0682738175773676    0.9939174043580302    0.1920785764412515 O
   0.9296113788413490    0.7719642333983113    0.1434684369541153 O
   0.7229771846710993    0.7475127775450838    0.0834095469760062 O
   1.2453658663848630    0.2059529077909078    0.5551833033570380 O
   0.3258737264622233    0.0494418681714713    0.4520335877821264 O
   1.0397907344922444    0.2124415009766766    0.6459875866812483 O
   0.5697410548472651    1.2518419893261177    0.3406348496432382 O
   0.5393721834796168    0.0994759352459009    0.4961017065719280 O
   0.6934020087272622    0.2429198539471115    0.6077421184300840 O
   0.8750468227356957    0.2078173262899935    0.5164544876673380 O
   0.1396864091494315    0.5399763869484580    0.3699504338223227 O
   0.2612797463647727    0.4532512691810168    0.5345037408538472 O
   0.4417644823143627    0.4174634114221282    0.3376095121874212 O
   0.4385015122386941    0.5450125612518779    0.5407679878894853 O
   0.6685561351117714    0.5254634199044148    0.4469512135530071 O
   0.9455494243215192    0.6514198786087634    0.3375565206077811 O
   0.7531432227637737    0.6657789469632861    0.5654564436827223 O
   0.0583349531751666    0.8042428804138650    0.6483416974616240 O
   0.2617575670441580    0.9121507099935744    0.6142873814183589 O
   0.4022977769372088    0.7307995401743039    0.6423913853902173 O
   0.6234173134482892    0.8413172350304632    0.5782924494964555 O
   0.6560870998324411    0.9327987841708941    0.3803592647079947 O
   0.8682483003175949   -0.0135583238061867    0.4187307886864847 O
   0.9104263975364961   -0.2072241942319498    0.4972731416430631 O
   0.1045657875020563    0.3080959489589989    0.8327210814030448 O
   0.1336503153657191    0.0910752309984087   -0.1072756743620429 O
   0.3213689036476822    1.0347085726376808   -0.2131536533856982 O
   0.6169001921349943    0.0139223872835473    0.7229297545132397 O
   1.4323492842591141    0.2004061425227769    0.6940116071814559 O
   0.7969191330934384    0.3244420738308189   -0.0229735381499459 O
   0.2064955210206100    0.4879273692192554    0.7433138488148009 O
   1.0285026217980391    0.6355138078022908    0.7759614792894376 O
   0.3877338667665461    0.5611366552018376    0.8644196808604905 O
   0.5107767002710296    0.3750771473500527    0.8264022369823230 O
  -0.0091271535674203    0.4049727693450640    0.9918162557316382 O
   0.7089303790947379    0.3998396068050192   -0.2232927089568386 O
  -0.1674232119749338    0.5890227771206634    0.7522886954393025 O
   1.0014688746354969   -0.0035759097460351    0.7363398357730742 O
   0.5169218269614474   -0.2633122510053880    0.8321670785249891 O
   0.4661790345783278   -0.0682200122567002   -0.1026220501863753 O
  -0.1900595658045419   -0.0184150297940670   -0.1942509146058946 O
  -0.2485340740131524    0.7811973532138605   -0.1347453851836637 O
