Li1 Co1 H90 C51 N3 Cl6 O45
1.0
  14.0524336842000004    0.0000000000000000    0.0000000000000000
   0.0000000000000000   13.7141943303999998    0.0000000000000000
   0.0000000000000000    0.0000000000000000   14.1740946171999997
Li Co H C N Cl O
1 1 90 51 3 6 45
direct
   0.8009837722170177    0.4857982543263029    0.2989176679728535 Li
   0.5738823980551740    0.5163134264113548    0.4939163662774367 Co
   0.0928936133438380    0.0709805214763650    1.0461280038731078 H
   0.2477941842283980    0.3344382145025521    0.3088421113887525 H
   0.3347022620351019    0.0559654214246222    0.0411883315560460 H
   0.4467841288060437    0.1330548934365857    0.0302909864929923 H
   0.6531197049176821    1.1047299097706536    0.1554693522312125 H
   0.3601163652449638    0.2528198581461163    0.2226242588200916 H
   0.9467905446271055    0.3136291175097085    0.0597030943742330 H
   0.7837604210567038    1.0786933821119715    0.2695154372656956 H
  -0.0311795571248728    0.0463243155153300    1.0813930429108354 H
   1.1981398894720001    0.5187455780344409    0.1465460309598476 H
   1.0601894074725999    0.4576977337477265    0.0830597890302899 H
   1.0435317946163163    0.4505406235569788    0.2078776379144884 H
   0.3476309834283416    0.4429815211042593    0.0316808459889275 H
   0.4241479785740984    0.3473729881922309    0.1504863179064457 H
   0.8071649079513684    0.5088035430366020    0.0257919336982821 H
   0.9086284716330902    0.5876466725672351    0.0060291193834913 H
   0.8952286574634124    0.6170177016117281    0.1877091539498687 H
   0.1453585469324552   -0.1419164179762089    1.0087464275319258 H
  -0.0136758274843224   -0.1719378680213892    1.0641362087633348 H
   0.0604700481280639   -0.0340165323285450    1.1174983472580342 H
   0.1381882586916866    0.7751553178472379    0.2081577263509788 H
   0.2177808776739461    0.7590515647080216    0.3471479090191099 H
   0.4781684434316215    0.6871238979246074    1.0909082891147330 H
   0.6320635657001252    0.9432621671784853    0.1436287370432525 H
   0.4388251515560211    0.8925293291248695    0.2812678633993449 H
   0.5426849549750534    0.7288988637882631    0.2832482368029440 H
  -0.1163149882456145   -0.1141036284815689    1.0142903442421081 H
   0.7133719017276898    0.8785088190338189    0.0693199343686966 H
   0.9061627065721272    0.9051330589420010    0.2428774042768495 H
   0.8524986924271686    0.8193839458939799    0.3298649709115334 H
   0.3206947239514090    0.2213203774188806    0.5801596878449825 H
   0.0545749838380155    0.1903050665845332    0.5123404051351360 H
   0.2884931843341977    0.1305888353375670    0.4905739305678211 H
   0.2492181368653351    0.0293754525781355    0.6082735822955276 H
   0.0329331809421982    0.1078663922619837    0.6008699348080432 H
   0.5605695439116001    0.2990763122050910    0.6840131641872189 H
   0.6320379473618296    0.2020687908043645    0.6450046761721147 H
   0.7439623325143035    0.3453495372091508    0.6421875650212164 H
   0.1828331945155354    0.3534593829150309    0.5738667285831077 H
   0.0654570846496306    0.5772712909318306    0.5387749633992898 H
  -0.0958146246449731    0.4619754185016867    0.6060907268232314 H
   0.6567817040529536    0.4115510200033296    0.7121581717361248 H
   0.0231135295493473    0.6580190164868980    0.4531994093509839 H
   0.0103527505960461   -0.0535904127573030    0.4323074929360434 H
   0.2224113923208974    0.8936362115004787    0.3494281252073650 H
   0.1706822743377739    0.8168471581569940    0.5676590657745619 H
   0.3231654703559295    0.7318323208350853    0.5020567804002538 H
   0.6502248326902658    0.9934364598436185    0.4472171577652561 H
   0.4394513776032498    0.7683069388803591    0.4998568515270430 H
   0.4153345585798627    0.9369650418848348    0.4286995023460876 H
  -0.2836938247417145    0.8236780370072624    0.5609121798123395 H
  -0.1332565376846755    0.7421624938359127    0.4738278168716442 H
  -0.1394234410088617    0.7450828257952772    0.5970996763581559 H
   0.7759333070868534    0.9807109583817393    0.3572910612896992 H
   0.1649003577085317    0.1154439427542968    0.7418990484118355 H
   0.3390751700580795    0.1989442908178786   -0.0607511601026763 H
   0.2599600484368319    0.2976741153616809   -0.0231833284787902 H
   0.5006567189219598    0.1107276613277879    0.7058466574972229 H
   0.5564332497076037    0.0563176112714069    0.8583551639225190 H
   0.4926926891663289    0.1926756032137201    0.8073353267103094 H
   0.0363119551152004    0.0782715075591824    0.8829817809606486 H
   0.7476257548905916    0.1272397505212473    0.7990526107294568 H
   0.8345003865334093    0.2149634600601444    0.8035643627479876 H
   0.7920024097828434    0.1842492970658015    0.6914478542218208 H
   0.6587621439273144    0.2308630451722391    0.9066235026402375 H
   0.6031383269027334    0.3356165556876540    0.8611821522474999 H
   0.3793244260026878    0.6431585007985471    0.8542596642403342 H
   0.6500519089067698    0.6567393204597608    0.8531534207430619 H
   0.5581990648366870    0.5805496461101831    0.9011698915216692 H
   0.5594275353200175    0.6008279062325106    0.7816751339556594 H
   0.4408354794917269    0.6046057439057856    0.9960175721889494 H
   0.7253605724295783    0.3379849048022645    0.8913145883243497 H
   0.8756356100107445    0.5593139837749604   -0.1517262830170689 H
  -0.1248828991645162    0.6174581212130904    0.6888522739753509 H
   0.7763602793917820    0.4009016157086669    0.7591960967681016 H
   0.1744645373389337   -0.0365759243828193    0.9379214452588562 H
   0.0994163269221315   -0.1402910946460158    0.8903106441300778 H
   0.0327979730456375   -0.1291704997116175    0.7198221533119342 H
   0.3463699918877857    0.7648411866199698    1.0782274086173016 H
   0.4141112829262421    0.6707766014958962    0.7471833365461273 H
   0.3614243237390620    0.7596779230483697    0.8271023740997071 H
   0.4826130828018272    0.8295143258968385    0.9601048727363648 H
   0.5004699185385536    0.8719222126445710    0.8060745759898849 H
   0.5508765609692113    0.7772261649794712    0.7246640851498041 H
   0.6161104571469742    0.8199847832309378    0.8162614700314123 H
   0.5789132704000468    0.7657191091365928    0.9825563949389775 H
  -0.0736846500805208    0.0506147607709854    0.9379122735972080 H
  -0.0817665241923120    0.0126402368978932    0.7563091398861894 H
  -0.0545726580914058   -0.1843221172093651    0.9351149167944753 H
  -0.0865244189102337   -0.1021342778915651    0.8198793377954507 H
   0.2650844277164841    0.1600954902857908    0.0945046117425039 C
   0.0383599989378415    0.0135115968707872    1.0608400546694214 C
   0.3517854239552975    0.2322579503003949    0.0786764402748353 C
   0.3615452992254584    0.3000694438227325    0.1604044117104343 C
   0.7342209593773562    1.0297871187295684    0.0721694990915811 C
   0.7494012480585864    1.0083779135712925    0.2934294867449955 C
   0.2794904732847769    0.3733869115336245    0.1747009156828362 C
   1.0258622573973519    0.4911289356801428    0.1460465281562323 C
   1.0749882675614271    0.5886310541265712    0.1594992392569902 C
   0.8754498770581005    0.3814464444042497    0.1542234172719122 C
   0.8850133450679942    0.5142539543549183    0.0214339833904689 C
   0.9186630324194219    0.4891362557354360    0.1259690552956612 C
   0.2650609442397129    0.8276316050181671    0.2244233155280281 C
   0.2612324259055193    0.8234578272065813    0.3291862679495589 C
   0.4001457304525339    0.6996707523627552    0.3260947124616461 C
   0.3697268002083998    0.7995657930042015    0.3640710357850990 C
  -0.0426309543430594   -0.1395305687449878    1.0025527338695830 C
   0.7086296626609488    0.9385480732665527    0.1229290022154658 C
   0.7636642579047284    0.9248374610738118    0.2179029696085187 C
   0.7301718386856161    0.8244276253354088    0.2642621916785211 C
   0.0888850550210661    0.0407731326921988    0.4795723107669506 C
   0.0895746152935259    0.1262356813307243    0.5475381333480266 C
   0.1811736954903793    0.1551954576348724    0.5981212583632900 C
   0.2623845395083185    0.1949630142890074    0.5359469168056571 C
   0.2524246988753493    0.2862509142442274    0.4703768027983613 C
   0.6432417006431576    1.0381820705018934    0.3138914638823609 C
   0.0174824764678465    0.6383729480771220    0.5272440681700686 C
  -0.0900882144153716    0.6090690028129689    0.5480746755544523 C
  -0.1106882048871630    0.5151137205005578    0.4880127793281541 C
   0.0635677322003213    0.7266209319428064    0.5835855856755977 C
   0.3667515148635552    0.7872960237457187    0.4757955616026660 C
   0.3357262839464224    0.8836363532006729    0.5210861439881541 C
  -0.1548350063552617    0.6966563572766099    0.5377114739555472 C
  -0.2651062970671536    0.6808158350580754    0.5339173691853744 C
   0.3301386397159227    0.2676533944880259   -0.0232440025481559 C
   0.1596151521940231    0.2269889568576067    0.6811290293550447 C
   0.5430293793010291    0.1574274516742267    0.7622008742265728 C
   0.6018132895164381    0.2328945170420990    0.7111224794823009 C
   0.7739735042072308    0.1948004090388356    0.7628337188803057 C
   0.7209449671761078    0.3647250829829906    0.7162056965727647 C
   0.3987089686464489    0.3471834035956180   -0.0624838986417712 C
   0.5726527178169796    0.6371756484323589    0.8493873953677815 C
   0.6700249617108242    0.2958818117521634    0.8631082011936437 C
   0.9249103488610364    0.4540494698545212   -0.0573879823274868 C
   0.1200255684605297   -0.0971904949491206    0.9514870383491318 C
   0.4107474527839124    0.7036607789499316    0.8176407468408302 C
   0.5443561245765441    0.8055377077975082    0.7972323886484857 C
   0.5044885818725421    0.7531547545818347    0.9619434381406324 C
   0.4430571587183723    0.6809011481265513    1.0248031850283674 C
  -0.0132723386561648    0.0156415068965807    0.8976839545828793 C
  -0.0418503066455482   -0.0353064367570382    0.8063066895808304 C
   0.6925221324575153    0.2697672627402599    0.7649678939946226 N
   0.0258255153061525   -0.0524959262976261    0.9778781419859082 N
   0.5094240899531091    0.7233732019685221    0.8558879869391253 N
  -0.0143077464956168    0.8379588613328929    0.3388680150879951 Cl
   0.4904498036485386    0.5365307277941560    0.6248326646453226 Cl
   0.6277454524562801    0.4411042690120286    0.3768104738145927 Cl
   0.7502381137762467    0.9678651436181636    0.5564555283149418 Cl
   0.4343348261491880    0.0116762721412691    0.9207097639071629 Cl
   0.8367128146934479    0.6919298674487449    0.8333595638811536 Cl
   0.2044436861089912    0.1876530697465287    0.1486160044426262 O
   0.2654708376524444    0.0715901088716280    0.0570045093123283 O
   0.4338594636497007    0.1744492317639647    0.0878622121718286 O
   0.6021804856986767    1.0921757636172513    0.2584508857556690 O
   0.6993657868850133    1.1182691666549172    0.1016126495199392 O
   0.7760194131683473    1.0242060398738946   -0.0035778434368895 O
   0.8939911493996275    0.3010071584044410    0.1039048594195806 O
   0.8211368650096504    0.3774236050984287    0.2228542558737336 O
   1.1690701917114408    0.5849735297549929    0.1544534143255543 O
   0.2634356029989512    0.4407681938559560    0.1147182485029306 O
   0.2350632933364418    0.3837863558293683    0.2523778347196230 O
   0.3442685765270285    0.6298372662003883    0.3268531383287173 O
   1.0374645181632802    0.6698913872640190    0.1629499005740558 O
   0.8705311561053224    0.5496065232568538    0.1964003616302881 O
   0.1843304440648185    0.8211769786750228    0.1779709658166737 O
   0.3358152365099493    0.8528682315134478    0.1827945543312469 O
   0.6521554591290516    0.7897278107830420    0.2473108444151525 O
   0.4883002827414261    0.6827393895421711    0.2926661222908828 O
   0.4415969134355163    0.8654493570132910    0.3469856411591783 O
   0.8590000573902158    0.9208058717096855    0.1882883796585808 O
   0.7838671641329360    0.7840125643666882    0.3294536571622286 O
   0.2151414772089788    0.0719072984851920    0.6532669322923672 O
   0.0029661297207803    0.0014649540990874    0.4777206228314015 O
   0.2894083283077615    0.2852278865940431    0.3908466436986696 O
   0.1612426282963095    0.3184569621796089    0.6747963497431083 O
   0.6026978338081486    1.0167633861137866    0.3980146500330362 O
   0.2036459595192829    0.3564074233923618    0.5066081328317323 O
  -0.3003386284288501    0.6003510280548766    0.5151016277075117 O
  -0.1040167626226527    0.4299079860732903    0.5413143143047312 O
  -0.1293340854433975    0.5127965592270327    0.4017115351897370 O
   0.1598300615875039    0.0168001604504958    0.4324133198012161 O
   0.0434509320536075    0.7583384349561469    0.6606176663472654 O
   0.1290880556326404    0.7696230934837679    0.5313231294125299 O
   0.2751780530049975    0.8861257447885055    0.5840484018326199 O
   0.3770657425096152    0.9622796897333369    0.4851793708400193 O
  -0.3169265024753284    0.7614826225738196    0.5416152153580390 O
   0.1412738452153044    0.1825233480650985    0.7627765723731125 O
   0.5997994034781913    0.0966378799418212    0.8177762052282513 O
   0.9643746873850841    0.3748569213289000   -0.0419746521712954 O
   0.3976920629402105    0.4364119773287065   -0.0204064315366577 O
   0.4591204972882458    0.3326342441486277   -0.1229427867149542 O
   0.9153810386355370    0.4941116118049316   -0.1446993791695993 O
  -0.0915192832573908    0.5726673019202385    0.6429763279229707 O
   0.0438316490255023   -0.0685661375466723    0.7567253922225355 O
   0.3453616256276459    0.7109459316605455    1.0334111422415178 O
