Li1 Co1 H110 Cl3 O55
1.0
  12.9352681376999996    0.0000000000000000    0.0000000000000000
   0.0000000000000000   12.3616925280000007    0.0000000000000000
   0.0000000000000000    0.0000000000000000   12.5553782595999994
Li Co H Cl O
1 1 110 3 55
direct
   0.4735806017848220    0.3814263907082351    0.2489444814145789 Li
   0.6359715145698351    0.1491871570031983    0.7136990972731937 Co
   1.2602361153526533    0.2726637761265631    0.2358672171055997 H
   0.0904857213967361    0.1805194360679539    0.1892728423361503 H
   0.0563073035012869    0.0600255800182122    0.1683941404300915 H
   0.2083228612050359    0.2929781464630843    1.0502449115555439 H
   1.1462377054006974    0.3285946285105660    0.2465988730711997 H
   0.5747938109787051    0.2522547585564733    0.1314577781468277 H
   0.4154588843224054    0.1829317270978801    0.2920049124761935 H
   0.5991960882751481    0.1566424467858274    0.2124533466572740 H
   0.4619527021233045    0.3034475866070497    0.0185292808380440 H
   0.9042790566365362    0.2022373358937180    0.0809982868514867 H
   0.6900492493762185    1.1242453840783637    1.0661026576053505 H
   0.9108502385475061    1.1040458847432675    1.2981307128152786 H
   0.8137281699033704    1.0420236334808795    1.3166805322778601 H
   0.7566400607015381    1.0142604449674433    0.1496499819400790 H
   0.3136960150886753    0.5277218915794731    0.2537567617577698 H
   0.3962231021684343    0.5451580152746539    0.1611127986728171 H
   0.5102207390401655    0.4129503910922706    0.0380548574420427 H
   0.6541303959706319    0.3495925622006378    0.3219920615859483 H
  -0.1218712990189552    0.5587855990070941    0.2656656024878908 H
  -0.1391202649951388    0.5441597700932559    0.1470988839693341 H
   1.2012887482101291    0.8115373959736462    1.0979615145612656 H
   0.0730914936463088    0.7934063836149151    0.1967055136639653 H
   0.0044697232623645    0.8441623782797907    0.0085114504390411 H
   1.2333097311221730    0.7414668940550759    0.2817678652648341 H
   0.4883812226890008    0.9990521715393371    0.2067983995475991 H
   0.6552529084570705    0.6796800474505379    0.3151678944259914 H
   0.3637622366084677    0.9112163029848820    0.1087129436945761 H
   0.5328008662467079    0.7386121069844490    0.0223943973639356 H
   0.4803342306288495    0.8986290298709813    0.0597841111816821 H
   0.6288344379342969    0.7995123436061570    0.0856998576667558 H
  -0.0230397953816976    0.7253663479891399    0.1528470182356050 H
   0.6706673550597564    0.9994566468964676    0.2345761369274613 H
   0.7456793292740402    0.8253866322017938    0.2109551839089221 H
   0.7933513213375651    0.7057897407040246    0.2033536606392408 H
   0.2903134306087698    0.1075706875080431    0.5259938803317582 H
   0.2523652416130309    0.2684192117288358    0.5217431123424152 H
   1.0999379307362280    0.2566627309984812    0.5895538929016562 H
   0.2952000707098570    0.0120623259041798    0.6114162370162288 H
   0.5237303159688949    1.0144950406745790    0.3338196622308318 H
   0.3734620741892841    0.2498424675265471    0.5694382106196915 H
   0.3641518690417769    0.2515873742172079    0.3767622155217095 H
   0.5764489757400446    1.0372589137738824    0.5558416469423310 H
   0.4120820699003916    1.0006215359250035    0.4923541132720076 H
  -0.0040815490284369    0.1185594740105640    0.6262122866579797 H
   0.7613968233248556    0.2755865150571879    0.4934564297226823 H
   0.8006731641468352    0.2196435284124711    0.3950221193859921 H
  -0.0703841560459437    1.0409558185380550    0.4828705280276557 H
   0.0144934041493580    1.4235086113120639    0.3366710299283862 H
   0.0305351125848583   -0.4634838007030552    0.6639801651077929 H
   0.0930997375609200    1.3588330017069001    0.4086951443200468 H
   1.1266401217015105    0.3789655626354533    0.5720601945471633 H
   0.1469959531305155    0.6231352014744108   -0.4109934215844483 H
   0.2512806100576084    0.6412775391431415    0.4084745217356271 H
   0.6384399597276853    0.4813140070037502    0.6292094086261073 H
   0.6170410991046680    0.4686612088819946    0.3443824662545653 H
   0.8272802662444649    0.4046610731232386    0.3906407300831299 H
   0.7577950425574193    0.5882799420490488    0.5861346410788626 H
   0.8542762276951790    0.5259300657473851    0.4273357615249526 H
   0.8642644241998534    0.6454670948922989    0.5588507159818170 H
   0.6912173735959215    0.6442382987573365    0.4284691403611593 H
   1.1669407938213767    0.8380386213728352    0.3374643154665884 H
   0.2335940806741766    0.6953300079686304   -0.3745516680554251 H
   0.1357816513892767    0.8029786974167651    0.5099147152261080 H
   0.1700437938730740    0.9283822371414995    0.5199980434526550 H
   0.0078855782357316    0.9610638459976424    0.5189594447158922 H
   0.3591222090990980    0.6987898901735244    0.3840578937646139 H
   0.5047968081828285    0.7429577902214587    0.5377394444199800 H
   0.5280958999984534    0.7115640309024195    0.4200544197676783 H
   0.4748283532676815    0.9042269688136672    0.4582667292720265 H
   0.6823223125291427    0.9810368391327455    0.5947381253998074 H
   0.8481688939191011    0.9091211206349461    0.5582661059566760 H
   0.7728237221279198    0.8066027966166542    0.5512372456407774 H
   0.0105756654940378    0.1920850044297429    0.9344618606635102 H
   0.0603970525066296    0.1583048405036336    0.8241585331678939 H
   0.1633133574357911    0.2536372553271453    0.9444894358903844 H
   0.1613087604128328    1.0474274242521426   -0.0728610362256935 H
   0.3101228382895573    0.2697078702166535    0.9312042925397680 H
   0.4003057388357087    0.2485918297222996    0.8506412080124982 H
   0.5405911956722190    1.0505095264734770   -0.1402138457161932 H
   0.3849933388226990    0.1028488421889019   -0.0935207084901804 H
   0.8334726388452730    0.1841734664442707   -0.0170463100174903 H
   0.6984719584256323    1.0663730499801345    0.9545409052599756 H
  -0.0577868137825019    0.2200876423546003    0.6719193922612068 H
   1.1359170843993505    0.4222864912855564    0.9463531790223054 H
   0.1135633257279501   -0.5167685753007105    0.7396377821352755 H
   1.1466397071176038    0.5460599953210549    0.9128854497901169 H
   0.3274467930475485    0.6409288813852949    0.9276918535603783 H
   0.5537822635483225    0.6541592703170329    0.6905886824373730 H
  -0.3588304379692055    0.5331944431614485    0.9313874809672645 H
   0.8788137940309656    0.3724397572235101    0.9950733360221383 H
   0.6798368596063464    0.5327131174864632    0.7428714561163009 H
   0.9563305481736661    0.4641391743892758    0.9567391663899337 H
  -0.2342315519745177    0.5134948753677656    0.9377433229299694 H
   1.2188763233247839    0.8758085302216795    0.9875626104947813 H
   0.2510332243856660    0.7261122005476884    0.9634056322079589 H
   0.0397252738350554    0.9214171714917126   -0.0916075841299777 H
   0.2231876477678747    0.9822179071755666   -0.1587517181074161 H
   0.3002931232309711    0.8758327987431075    0.7296149857369447 H
   0.2741823386376758    0.7093742013189150    0.7926636636527004 H
   0.0182038026883816    0.7289402922447448    0.6831791087808511 H
   0.3697041312164341    0.9654483588689368    0.7952370628233143 H
   0.3750298808852190    0.7194642435778920    0.7139093657291027 H
   0.5484974871314531    0.7776180925246841    0.7230433000183635 H
  -0.3751663961998767   -0.1644300917043485    0.8985011758745213 H
   0.6287857338801334    0.9768950114757294   -0.1768308229584739 H
   0.4091806998166422   -0.0044292022209728   -0.0252048854010458 H
  -0.2124059510673997    0.6907812781023409    0.8645475990737551 H
  -0.0803994103584867    0.6882047700774199    0.7371018171215848 H
  -0.2838973179378533   -0.1761024415604199    0.8176832204916042 H
  -0.1136263984212499    0.7769256307132766    0.8712379590344972 H
   0.4859893124734077    0.5919719931089358    1.0158054871861999 Cl
   0.4845397870518702    0.2576723014898789    0.6963885873461974 Cl
   0.7671013823038022    0.2592238689598315    0.6861849919346416 Cl
   0.0310165251024582    0.1282005486231262    0.1985573097245278 O
   1.1910608968357606    0.2786208891863808    0.1990853702785721 O
   0.5280711614312592    1.0429862848308500    0.2608357997733741 O
   0.3816505399305774    0.2547341924956831    0.2974734852726763 O
   0.6310910591105466    0.2071007475878548    0.1626109614211690 O
   0.8945382458038043    0.2278034142672214    0.0077341468964308 O
   0.7387355226947071    1.0897517256222762    1.0163948760398844 O
   0.3735618015382859    0.4916637224420050    0.2109289003519335 O
   0.4944390793306903    0.3448699079307823    0.0758870111357644 O
   0.5924826596028113    0.3955733207992309    0.3225750786682416 O
  -0.1170952093900172    0.5970732363130654    0.1989435983651183 O
   1.2560460205341291    0.8307418859302013    1.0443988113041336 O
   1.1911768588694835    0.8111976366736565    0.2631686645739710 O
   0.0256935585224826    0.7871240723679646    0.1357762462072019 O
   0.4328098968882653    0.9473602208980617    0.0997391001615188 O
   0.5768718506230212    0.8083420406523153    0.0316824488737206 O
   0.7422885994079798    0.9812957033613090    0.2221025979577967 O
   0.7260647378099074    0.7517324786190475    0.1979591596851805 O
   0.3290153728237083    0.2421574357410679    0.5029655020525990 O
   0.2822378345803002    0.0292360259876543    0.5363806641708103 O
   1.1414368772045653    0.3039612703106054    0.5440968793255330 O
   0.6427630243448788    1.0478076310878452    0.5888593698200172 O
   0.8585436305361854    1.0994186866576947    1.3545368190557259 O
   0.7655954220258528    0.2865300003197103    0.4191910447441730 O
  -0.0486459132042303    1.0077726602390704    0.5511376867127901 O
   0.0863361359819923    1.4029450841555502    0.3416927822560622 O
   0.3072508452543510    0.6487708496093407    0.3559663466437360 O
   0.6331667795141882    0.6352589458290399    0.3796127867478399 O
   0.8702712575467048    0.4705751862719360    0.3714155028530830 O
   0.8031818094763762    0.6187150947716890    0.5288938327861703 O
   0.1895911273576475    0.6776042799177442   -0.4365179413061035 O
   0.1230675740118871    0.8757357246573960    0.4816925467917107 O
   0.4794374575680582    0.9875893399182593    0.4661406457686809 O
   0.4868080044314921    0.7648811635286451    0.4653155013735227 O
   0.7770617479203830    0.8857828925285173    0.5515845071815968 O
   0.2086112201288937    0.3125337210296288    0.9755996097078353 O
   0.0131722873531632    0.1858795435006471    0.6667725939199788 O
   0.0750946218168399    0.1637385624513245    0.9028897334201985 O
   0.6173688851199917    1.0587365552375110   -0.1606082929965220 O
   0.4220756779666397    0.0336183546920202   -0.0955556929782394 O
   0.3793212492131948    0.2304608173635687    0.9237094964408890 O
   1.1007187417632962    0.4854040618150537    0.9114040129416667 O
   0.0847867285954081   -0.5203117794291736    0.6675228700012906 O
   0.2549604719277516    0.6617747323410857    0.9123757080788222 O
   0.6519665444213607    0.5469457963531706    0.6683089872966778 O
   0.8891885306480499    0.4514960836760912    0.9935520756024934 O
  -0.2931843306786158    0.5518569361394490    0.8970834567399831 O
   0.3085372507484515    0.9519631504622065    0.7451167090602691 O
   0.1689738508419231    0.9756734958971953   -0.1060707087165392 O
   0.3037124570653499    0.7392746376194286    0.7239823398271390 O
   0.5157041970748137    0.7200984609378726    0.6782768271667596 O
  -0.3547478013019311   -0.1467164979141762    0.8233779911724739 O
  -0.0113747878693887    0.8659959580576940   -0.0651590779094587 O
  -0.0355802389405926    0.6780880324448721    0.6716533708056249 O
  -0.1729007784988732    0.7471303580056169    0.8261576764418775 O
