Li1 Co1 H90 C51 N3 Cl6 O45
1.0
  13.4219194754999993    0.0000000000000000    0.0000000000000000
   0.0000000000000000   13.0740452224000006    0.0000000000000000
   0.0000000000000000    0.0000000000000000   13.1170649976000000
Li Co H C N Cl O
1 1 90 51 3 6 45
direct
   0.8494158572855909    0.7575187285823045    0.5466462581463118 Li
   0.1873875970043626    0.3664087153448455    0.6674542285489848 Co
   0.2843171011915077    0.2124861943677776    0.1525829519916383 H
   0.1224974744261570    0.3042795130832299    0.2245540827417513 H
   0.0559488707312503    0.3956077882795132    0.1568285663886234 H
   0.4413132747899565    0.2030147570357543    0.1273433118693567 H
   0.6832488642507205    0.0113388099687777    1.0072398437621051 H
  -0.0013804852825873    0.1774021792678360    0.2179359863904804 H
  -0.1238100679514094    0.2078625297734078    0.2552827556631517 H
   0.8011835607663269   -0.0037093252222282    0.3145559238713030 H
  -0.0791115431915854    0.2576007698466380    0.1420867014946566 H
   0.1091491601014411    0.5314073797447537    0.2687125892449957 H
   0.3229784864685691    0.4284859061602384    0.0945867462749486 H
   0.2674730126531522    0.4680809198835405    0.3286307188070436 H
   0.5858432731661937    0.5034659894722072    1.0734574008268083 H
   0.3677552414697469    0.6856786833611985    0.1640641789297952 H
   0.5332732215213476    0.6523554086907424    0.3429814901140732 H
   0.6428775894126396    0.5787984503323359    0.3417982985995965 H
   0.8227460504331947   -0.4579382879479553    1.0614425179220703 H
  -0.0949311880931646    0.4685705158648236    0.2198884048625003 H
  -0.1727799638891523    0.3670642125420954    0.2790548418773355 H
  -0.0892911602165125    0.4561929389750984    0.3522732028579149 H
   0.0341010269459205    0.7213791870737227    0.2249993042910131 H
   0.3759872980099224   -0.1384618038951292    1.1048470447811025 H
   0.5297587465547748   -0.0109435054924596    1.1421579828674462 H
   0.4876740059160699   -0.1257564784067792    1.2161341353205708 H
   0.5926731457613417   -0.2411270446195761    1.1334624400748421 H
   0.6607103591917241   -0.1311671985623742    1.1476386296442331 H
   0.7877994840455637   -0.1246864193881649    1.0002794452265558 H
  -0.0203546715355199    0.9671730439355773    0.1524701218729898 H
  -0.0623158828978776    0.8214583880970010    0.2367999624434521 H
   0.2545642777798530    0.1457226192728639    0.4101438469493248 H
   0.0540929513863704    0.2446590982276577    0.4042543434655703 H
   0.5013092091620782    0.1229094811104697    0.3456627301633095 H
   0.6137155905856858    0.1230716344428116    0.5355879916799536 H
   0.4022264660099138    0.2677200556338195    0.4264901103885340 H
   0.4823071878442221    0.2517594255112862    0.5255333796136010 H
   0.6402505434029865    0.0202595378702061    0.6296995936447124 H
  -0.0790422535492435    0.2657466801741877    0.4159473555858932 H
   0.8661437180367921    0.1080051422707858    0.6728128968191246 H
   0.9164524686765620    0.0489079013742788    0.5619710278289184 H
   0.7437156254678055    0.2378876668539678    0.4878444453824713 H
   0.1218813181442559    0.4356527775000639    0.3694538755191569 H
   0.5331748749322170    0.3908770412958611    0.3402476468338455 H
   0.3471791978938549    0.6490756280818660    0.4385434927594324 H
   0.4431550381864010    0.5519959577572281    0.5996928810095294 H
   0.5483517652698349    0.6228565050660841    0.6073927742416266 H
   0.6365729770094389    0.4360061493846956    0.4593891621260193 H
   0.9079060010711358    0.4076369649669662    0.6820664912796391 H
   0.0038482750395190    0.3700533409514910    0.4372794904843020 H
  -0.0108880672817891    0.5936864973513647    0.4692579094428684 H
   0.6572861097701794    0.5193290904843306    0.5973600420699039 H
   0.1132178777017578    0.8581081007030921    0.6528915195866559 H
   0.2421822931983362    0.8543219733677521    0.3424211513491632 H
   0.2180404407165451    0.7744889926609284    0.6611990182549891 H
   0.1546284971749680    0.7518938436481448    0.3621877683513233 H
   0.3095862141987115    0.0238903957410867    0.3709465874942505 H
   0.4174113283816505   -0.1346588493271877    0.5347044861089955 H
   0.6591949276592128    0.8596516168571762    0.4070339286857907 H
   0.0250620813449240    0.9736729449650156    0.3475229023896775 H
   0.2144887877590814    1.0647610496596227    0.8696229301971969 H
   1.0213845540292448    0.1794260364252723    0.8240144041961853 H
   0.3750291638158175    0.1620159696763816   -0.3313400903323431 H
   0.3885175475250526    0.2904773579789450   -0.1515658801388693 H
   0.6054656528474865    0.3102570050278121    0.7094178842982484 H
   0.5493278551669553   -0.0118927143860267    0.9748461642249719 H
   0.6467086360892242   -0.0392063723951159    0.8853459597040062 H
   0.7766326758797431    0.0405975430917598    0.7777106007072851 H
   0.0972387921178003    0.4364971986269761   -0.0409184143936318 H
   0.2905993620971788    0.5475691717842960    0.0406501377326071 H
   0.3338197078203743    0.5059424226992033   -0.1948080231109276 H
   0.4859597205605364    0.3505115697816725   -0.0829941378958773 H
   0.9844092167158377    0.4924107271152772    0.7459085169273904 H
   0.8229129416147496    0.3693909598863588    0.8658591309014677 H
   0.7501990498512435    0.4737716604871088    0.9146002174263099 H
   0.8360295454150746    0.6565866928158133    0.7371931526274562 H
  -0.0021918446429142    0.8038196239595715    0.8284757680768023 H
   0.2954704984588104    0.8989975110505550    0.7532821176542066 H
   0.1913877700122550    0.9776625288399919    0.7338768619779886 H
   0.0669435723660925    0.8706474484880545    0.9315857244769166 H
   0.2343428779647651    0.7927503644046139    0.9356521829422637 H
   0.1459121581883164    0.7022382099895038    0.8968386221271613 H
   0.2655112962199652    0.7155676728325281    0.8416700306676842 H
   0.0894895279242655    0.7257144940912392    0.6934897784271385 H
   0.2219042695895065    0.9651461272813044    0.9525279093368880 H
   0.3760975653977355    0.9846137056528345    0.9625736017249420 H
   0.4947621128126773   -0.2241024744721017    0.9721618747130694 H
   0.5843747797784946   -0.2978271697445770    0.9057544885973966 H
   0.5380862439894021   -0.1667124328104389    0.8585236484579788 H
   0.0255634999395061    0.9351011034713063    0.8117967320241465 H
   0.7433870584541193   -0.1827097768950119    0.8914250635290303 H
   0.7463374561280351   -0.2625282249918616    1.0052935242154173 H
   0.0701875197075645    0.3683775015592224    0.2318781297002422 C
   0.3455840460201546    0.1567092724132323    0.2749418791063291 C
   0.3867555044697974    0.2601783959315059    0.0076160710355768 C
  -0.0575594842235649    0.2366493355093384    0.2237650342768780 C
   0.1317062914083790    0.4518703288694539    0.2870680673983825 C
   0.3446229316263790    0.4834486195191333    0.0335128703624196 C
   0.4413215448440425    0.5206757662606875    0.0650473637933573 C
  -0.1029084375615020    0.4135547967232339    0.2832844465953232 C
   0.2288071570765847    0.7323245370067966    0.2199249984144944 C
   0.1175458726734186    0.9140387623736785    0.1624357658660566 C
   0.0978057751051362    0.8599437988050752    0.2698004850511544 C
   0.1900511504599810    0.8014156243201829    0.3033582969611007 C
   0.5127865094305826   -0.0965757624531314    1.1379299028807917 C
   0.6024176536343580   -0.1617889375260786    1.1040457984655645 C
   0.0059195138106012    0.7850977979419720    0.2695229839485324 C
   0.3314482139324768    0.2570707120196905    0.5676346423656757 C
   0.3234962961613397    0.1083065027091947    0.3757014621564873 C
   0.4089080736714483    0.1085114889972495    0.4582464522284361 C
   0.4104428765018186    0.2199704885044042    0.4945363539775771 C
   0.6604406511215327    0.0998538778237720    0.6049219471163566 C
  -0.0053791681906444    0.2985834948476184    0.3947377328500980 C
   0.8528721438535949    0.0563531869262383    0.6149828868177416 C
   0.7661528037380008    0.0992771626700657    0.5561645459662504 C
   0.7604710530659600    0.0233863436372505    0.4612341632756232 C
   0.4459626842960939    0.4965480082000424    0.4005583947141635 C
   0.5912322192205959    0.6188760996816176    0.3910745658223527 C
   0.5349781192479187    0.5462424974685086    0.4631223143219534 C
   0.4870930159902822    0.6042876538903167    0.5538157735841941 C
   0.9232756358224510    0.5588802080767690    0.6138728824072530 C
   0.4004778338531763    0.0196988850748921    0.5370316073061219 C
   0.4328898894309270    0.7067509678235454    0.5430154916593947 C
   0.6500561453692505    0.7151469920174903    0.4298534389996274 C
  -0.0139219105464823    0.7391900479082131    0.3730011629655874 C
   0.6261162014151440   -0.0368888035413623    0.9654370471684824 C
   0.4014084012003281    0.3314860887030367   -0.0763318243359468 C
   0.6428865300116516    0.1675429507117688    0.6960909700813878 C
   0.2304462668954268    0.3974786705951175   -0.0915654150848347 C
   0.3370301279155518    0.4240213354013739   -0.0646752532944847 C
   0.8224845379120976    0.4512725031875747    0.8729864875179904 C
   0.8229777609575856    0.5098459888206176    0.7741595014325219 C
   0.9055978364262391    0.4716778173395345    0.9431218417430646 C
   0.7255408777765172    0.4756052169413062    0.7237030921579551 C
   0.9147358736662838    0.4876981076503822    0.7026739976119977 C
   0.2549807606838224    0.9907212262129738    0.8793781612662976 C
   0.2279428991721044    0.9258591284020309    0.7905435019722251 C
   0.0544833575432219    0.8629344569628892    0.8459987429223227 C
   0.2009586812544575    0.7549548702332014    0.8721151035611302 C
   0.1419149653800946    0.7905368184433059    0.6933952450844871 C
   0.5598661392222417   -0.2164269617831852    0.9246161775533688 C
   0.7370124113586589   -0.1855321627268108    0.9740693136107633 C
   0.8420614695484134   -0.0424700906455999    0.6780175672246224 C
  -0.0220496600981862    0.3304007322002392    0.2822415303634906 N
   0.1571266495488669    0.8316304502046145    0.7985208963069444 N
   0.6311393279599773   -0.1519427118315671    0.9913208862789937 N
   1.6967924207317306    1.5751126574824352    1.1219476690473573 Cl
   0.8379808311494144    0.9588374448041560    0.1821230968388962 Cl
   0.6555821806085012    1.3305058853931964    0.3641295137040116 Cl
   0.2275815499620414    0.5439360192907879    0.6804365534845674 Cl
   0.0763036344815985    1.2333240278742146    0.6688402093307624 Cl
   0.9944241777089629    0.1178949657952194   -0.0996167588892088 Cl
   0.2636091837801907    0.1906520951931077    0.2304677532171353 O
   0.3011582095301925    0.2398258580999782    0.0361369329866650 O
   0.4323457794760632    0.1571957324102578    0.2378581259886156 O
   0.4662255088866034    0.2331072030467203    0.0593547793612711 O
   0.2335471646527090    0.4318689447873513    0.2654999803261782 O
   0.1741838223636719    0.6778050682521096    0.1668521501723476 O
   0.5201078169514161    0.4659980144371570    0.0427870486959308 O
   0.4472062471136528    0.6052360979096746    0.1124337265287502 O
   0.8876719354074478    0.5067190759711839    1.0339211173598217 O
   0.2019525778446100    0.9030046870323422    0.1246590223574543 O
   0.0442582924733179    0.9640722438916444    0.1165817581204177 O
   0.3270695555664154    0.7414104777374033    0.2063022863190146 O
   0.0899097360778232    0.9457848664248475    0.3440015353759094 O
   0.4286830395758770   -0.1064028662924139    1.0709682769255411 O
   0.2686323103250241    0.3251468112575220    0.5450855431537622 O
   0.5033111642512179    0.0887264878289182    0.4115395860116341 O
   0.4164084911924862    0.0344793142926922    0.6272821321161004 O
   0.7911157012290482    0.2010788604123714    0.5279820981345413 O
   0.8178205254275742    0.0408828411717763    0.3802543099170897 O
   0.4635421371031754    0.4171474108836565    0.3435616503863134 O
   0.3630107635941167    0.5317059866360097    0.3993515698640240 O
   0.5993718895709821    0.4784004497386800    0.5110009365682340 O
   0.0295644179973161    0.6599399013487689    0.4083634944082439 O
   0.9626291724730144    0.5293403071944999    0.5261911487106955 O
   0.6968966886423339    0.5475969367180885    0.6585909653097409 O
   0.3655029555686743    0.7171509624454885    0.4715145118158395 O
   0.4555436537121848    0.7855789038195333    0.5928483620552948 O
   0.3807615778822589   -0.0702587355385772    0.4984796903877773 O
   0.6270758257090843    0.7968822148824940    0.3753096062038835 O
  -0.0732122379435892    0.7945363456830015    0.4252316733827694 O
   0.7038152221776829   -0.0503092864152766    0.4649548889111925 O
   0.7077885733885396    0.7171700843007174    0.5049222139260432 O
   0.9100502547341482    0.6529068829955464    0.6252367050327621 O
   0.3341788218806842    0.2267449793749308    0.6615558053869317 O
   0.5683059156794597    0.2403291453296052    0.6904692856562902 O
   0.6915710718309325    0.1532941090693347    0.7756705101836127 O
   0.7993827751153536   -0.0305778264415865    0.7726286711741009 O
   0.1992979649880034    0.3590016735033441   -0.1712570229400416 O
   0.1684268216499479    0.4332701943385317   -0.0211464608318059 O
   0.9922501220492441    0.4481644368386547    0.9207898642729829 O
   0.3846440330031617    0.4956967796926687   -0.1404383908699890 O
   0.6903097023203416    0.3907531316739772    0.7340064641413011 O
   0.8192241994724372    0.6137499127318301    0.8013713815341535 O
   0.3598830440397989    0.9949639834511821    0.8910271086510941 O
   0.8635159269772212   -0.1285956914711796    0.6511754344712647 O
