Li1 Co1 H90 C51 N3 Cl6 O45
1.0
  13.1726729873000004    0.0000000000000000    0.0000000000000000
   0.0000000000000000   12.8556093028999996    0.0000000000000000
   0.0000000000000000    0.0000000000000000   13.2867172675000003
Li Co H C N Cl O
1 1 90 51 3 6 45
direct
   0.7816546423589968    0.4247204486969210    0.3415492737924326 Li
   0.3650216624549760    0.7128645508332844    0.5302133320042817 Co
   0.1604823102219364    0.1146323069313849    0.3036542851460206 H
   1.1587686878370369    0.2456793822045860    0.1130978106590466 H
   0.3359797208256018    0.0957137170559804    0.2836922437583584 H
   0.3513274031217398    0.0897855655227187    0.1485316947796639 H
   0.4685705777977520    0.3083259655772095    0.2056142671510339 H
   0.6298995656234482    0.1953091520005671    0.1742588923347841 H
   0.5888208111047791    0.0666392491569222    0.1629709272956801 H
   0.8325000554840123    1.0663125977473269    0.0333949029596147 H
   0.3279889356522749    0.5234283333332211    0.2369914682765338 H
   1.0044476930047899    0.4054385154832162    0.1803296168317446 H
   0.1780133003423655    0.6456300869012621    0.2051687093897891 H
   0.5146258090013885    0.6510759586876897    0.3565379271964703 H
   0.6818647211131471    0.4083404393921502    0.1459275902967128 H
   0.3916009300294125    0.5307639638566789    0.3460981776927090 H
   0.9884691592475999    0.2766526321391634    0.1065980862906173 H
   0.9081566819683135    0.6682513406394570    0.0814376201446480 H
   0.1428298565229653   -0.0835870026290856    1.0880677553937421 H
   0.2562996133020994    0.7609540645571138    0.2102677868094404 H
   0.1178410026800620    0.9281472289849672    0.3501285185904555 H
   0.6461832766217250    0.6367981445697237    0.2293921495007081 H
   0.3598101157881615    0.8029302935545422    0.3485224032821845 H
   0.4515743310818536   -0.0225506113144402    0.3638309250114402 H
   0.7197256776920309    0.7687312144100925    0.0109258465335971 H
   0.6722478422820902    0.8670003800508856    0.0945635109488868 H
   0.9187407145435104    0.9289686602957039    0.1626962168516694 H
   0.9149138526720739    0.8492571525907493    0.2666617014923999 H
   0.2510964172563097    0.2249965819004402    0.4896441688959119 H
   0.0230986522699951    0.2315602536807396    0.6266814041544442 H
   0.2829631462341495    0.1054542122009093    0.5449590360074243 H
   0.1763568407900000    0.3469417937579877    0.5989047914238685 H
   0.5811353550020121    0.2853391126760920    0.3381052327190268 H
   0.4821205991314695    1.0249812234436493    0.6097328987060122 H
   0.5880543759241796    1.1175820463180235    0.5770169921921235 H
   0.7572434996615336    1.0647957501564780    0.6109348509774782 H
   0.7418145885972457    1.0327770421900537    0.7397710386930982 H
   0.8234502597352731    1.0969552526941551    0.3266020151128349 H
  -0.0291731987555221    0.1803569241075929    0.5267884077672537 H
  -0.0399515730563861    0.2835694571534348    0.3900766855690903 H
   0.1613948053557326    0.4619568167850532    0.4499291671105772 H
   0.0021924929608322    0.6442229190592899    0.3776055840423564 H
  -0.1565831786144396    0.4963221890976934    0.6554025692336047 H
  -0.2473809993113576    0.5702567633061356    0.5863754362303774 H
   0.1044913962509386   -0.0052087650629593    0.6133703660372557 H
   0.5416532392232766    0.8993247911471577    0.5359489097595490 H
   0.6522602512856507    0.9613918609530210    0.4879142457299978 H
   0.0005512163557845    0.6623963089387799    0.5548542567269616 H
   0.6659028885980065    0.8433632273621016    0.5509295100081048 H
  -0.1003872948546524    0.7329616146061946    0.4976334259759622 H
   0.1661113879399887    0.0427710689119935    0.8439465074814425 H
   0.1350258216016467    0.0484238542672241    0.9787006355292718 H
   0.4808482681462428    0.1034675307921768   -0.0731686651132392 H
   0.3937956250641920    1.1185302705299440    0.7646981891194969 H
   0.6059757955348845    1.1194917185413744    0.7801203581831241 H
   0.5318814184148422    1.2113255610441707    0.7257231744808782 H
   0.7779052135188809    0.2653089457712910   -0.1606929178377657 H
   0.5971400793433254    0.9137962950344167    0.7989707630617345 H
   0.7913193474741047    0.9408677462429949    0.6568589109025383 H
   0.1855288592646471    0.5620408944576498    0.7841446780300430 H
   0.2533875240065567    0.4277339970311304    0.9029836634777326 H
   0.3056441920847562    0.4298213348902505    0.7788168006789417 H
   0.3863552217311332    0.5594731437410383    0.9517970751687028 H
   0.4495811896727173    0.3957488930728728    0.7194921395056321 H
   0.4254915458847071    0.4275570314788646    0.9420429728279383 H
   0.5877056995390277    0.4439845686748153    0.7198880235975489 H
   0.6424292928974137    0.5522933984776863    0.8650668485220704 H
   0.5373109162904028    0.3616987761405501    0.8202687251017776 H
   0.5642262584037175    0.6051839292941927    0.9552667057081260 H
   0.5365973936812056    0.6212944064501280    0.7216627283289935 H
   0.4072181096404405    0.5848231674016426    0.7047879807531999 H
   0.5797553010055660    0.4685316105586111    0.9493171548590716 H
  -0.0690162891067369    0.3805745831351871    0.7486588623460374 H
   0.9720321004814139    0.3375023345195504   -0.0847953142613976 H
  -0.1568883558555262    0.5548712615115702    0.7625486739740320 H
   0.8486706535247719    0.4055023008690878   -0.0903497336498885 H
   1.0159260011770019    0.5190115842968926    0.0201892332319097 H
   0.3098179843024031   -0.0244392810326871    0.8889711729391250 H
   0.2055900875555777   -0.1649896009301971    0.7797907056503112 H
   0.1576871296207404   -0.2571509269385048    0.8736558775276881 H
   0.0715573060766617   -0.1678965032107113    0.8150590108731686 H
   0.1604823102219364   -0.2137877547336489    1.0465435783609744 H
   0.0472281512947143   -0.1417017121225880    1.0196573285215349 H
   0.2956576084865123   -0.0629415401117915    1.0208630439497683 H
   0.0479250485765985   -0.0075307086827974    0.8896899358816736 H
   0.3392653106251609   -0.2288636640455692    0.8680442581563347 H
   0.3419428233846444   -0.2327117897029693    1.0077650005056074 H
   0.4476612300696524    0.6738278946798656    0.8068116765020190 H
   0.4677502431541744   -0.1068243298503331    0.9795014352893470 H
   0.5156638519265552    0.8671613992566835    0.7143960726113946 H
   0.6349691517328417    0.8173208989036226    0.7217492809346407 H
  -0.1491435344287468    0.8086375298489316    0.8347613944438891 H
   0.5289184662457851    0.1744598873967076    0.0512623712906142 C
   0.5617611550772093    0.1468804867128349    0.1553437611597766 C
   0.4747362208740132    0.1581759451060239    0.2366633210064278 C
   0.3863567400258650    0.0766131054696740    0.2230346724580816 C
   1.1130346139265388    0.3806274783332269    0.0612640893466653 C
   0.2827475483822375    0.6605348646901124    0.3330641079135915 C
   0.2104213013920827    0.7072685500288907    0.2575300252809417 C
   0.3581392324358442    0.5850681966278567    0.2912215678183129 C
   0.4425301530236219    0.6409107462173231    0.2256432927291534 C
   1.0076383893836132    0.3598381097624420    0.1104455377694745 C
   0.8232961528199980    0.4292554340582799    0.1193401351045946 C
   0.9178752865463992    0.4133413692185955    0.0493123034538147 C
   0.1387737321470309    0.7802717020294956    0.3164505234174466 C
   0.4133178587253428   -0.0387785469248464    0.2264312977562198 C
   0.7970843125706507    0.9250248565594964    0.0075359949176400 C
   0.7611318524696070    0.7176453432914167    0.2130254280884960 C
   0.7485345610800775    0.8299364036361299    0.0608554105217397 C
   0.8212608787320549    0.7874203324704713    0.1469775110347813 C
   0.8667148272645407    0.8801751737156085    0.2086059767810138 C
   0.7980499480200590    0.9544376981518979    0.2673533697062241 C
   0.2619317276096153    0.2346686244361409    0.6522738806972962 C
   0.1238504132284237    0.1316972312637160    0.5500247718581177 C
   0.1247834053410989    0.0759254678951558    0.4445853339747827 C
   0.0426740262467580    0.2192146700323475    0.5494348594032803 C
   0.2356029786659213    0.1738624828070809    0.5570465213333027 C
   0.0599264092839066    0.3192262657262184    0.4900356877259787 C
   0.5138060740842301    0.1483934449508869    0.3423124419848350 C
   0.5591246362754836    1.0607959397399929    0.6350815226903449 C
   0.7359516934905002    1.0036800160447725    0.6660184344740743 C
   0.2400417133142628    0.5857216078977608    0.4133871838482695 C
  -0.1002810142234282    0.5806498918504093    0.4586289834514234 C
   0.6229138915625558    0.9178707810246050    0.5472925695188088 C
  -0.1382733032966104    0.6481698342777349    0.6364046486097172 C
  -0.0780774720659644    0.6590646893328279    0.5366134832446490 C
   0.5356672863285208    1.1235444241558992    0.7338395509965268 C
   0.8643326228303871    0.2457618364838834   -0.0427029005567722 C
   0.2957859043913472    0.4745924450289324    0.8483561745813298 C
   0.0004024234720706    0.5162400314937157    0.7163175404567628 C
   0.5173675676432997    0.4269732396240276    0.7651648205586384 C
   0.5714174336565556    0.5403223595036499    0.9053311206691559 C
   0.3945896932089098    0.4919731148000335    0.8996796118360694 C
   0.4635713646491761    0.6072343960887968    0.7600108010501849 C
  -0.1084911929854964    0.5538693642310504    0.6935301209682341 C
   0.9009964040132671    0.3568588655199026   -0.0476198411888876 C
   0.1492894414592980   -0.1791499565936922    0.8434542865762835 C
   0.2836805404949126   -0.0889224167960771    0.9435030776536391 C
   0.1292001247158296   -0.1400712954300652    1.0244342797219079 C
   0.1293261431785669    0.0082522849676264    0.9057917310574698 C
   0.3525784779807216   -0.1885925273143671    0.9380058582480106 C
   0.5938613218700592    0.8901840342035338    0.7224537438814737 C
  -0.1174772203555012    0.7441971769663090    0.7024510604007250 C
   0.6299360046970107    0.9694599343952190    0.6479944188215564 N
   0.4843382204166987    0.5200142594479719    0.8317726953393230 N
   0.1695108498444308   -0.1027871816469965    0.9284790505759891 N
   0.1236446842922684    0.1134118280236710    0.1743702817750953 Cl
   0.6094602819443059    1.4052572480811745    0.2485985490095023 Cl
   0.8123947966458602    1.2586597624548133    0.3494037345970792 Cl
   0.5161321699365709    0.6360000493757695    0.5159179122872835 Cl
   0.3254981731447996    0.8132969744997959    0.6492708815970144 Cl
   0.7617930698252945    0.3501800688968105    0.7227397437957862 Cl
   0.5293458662127796    0.2648422234356451    0.0161649133849909 O
   0.4195269250309328    0.2551849604405731    0.2324290170118953 O
   0.9051185742100336    0.1780458706755865    0.0137135930667910 O
   0.7849592108427030    1.0116259638091432    0.0562801645240924 O
   1.1766352210931881    0.3027774148769398    0.0582204481532970 O
   0.5168260473302337    0.6813016750146743    0.2850304223047997 O
   0.4549317362222256    0.6438806560131496    0.1348834778161279 O
   0.9410960861741516    0.5226534964689932    0.0217486853962666 O
   0.8262439220417374    0.4765191603962400    0.2006205581208662 O
   0.7340728037599297    0.3998187896267605    0.0752163693769967 O
   0.1692861422241282    0.8805508851958034    0.3088858256838797 O
   0.6880373483451745    0.6608957966296785    0.1702150040726755 O
   0.4126042602014089   -0.0959201403485272    0.1533583196493648 O
   0.4312048889603729   -0.0851894159814697    0.3162164550665223 O
   0.7697732269354990    0.7071269775870781    0.3065353579670427 O
   0.9097812573313118    0.7416208696735440    0.0994661515852866 O
   0.7070593038922057    0.9509310576700787    0.2673586381256983 O
   0.1922943805894323    0.1129847770865551    0.3802014095804195 O
   0.1074945832303877    0.0675548028053475    0.6338855914697065 O
   0.4869156016386217    0.0753451764578361    0.4013322874599958 O
   0.5731916369653702    0.2220251163634949    0.3797761728657180 O
   0.8529659093209607    1.0259341148789261    0.3148767712573741 O
   0.1222956794230871    0.3863004883230022    0.5220846875975718 O
   0.1870342484912011    0.5028282206695406    0.3813153039835315 O
   0.2490444419263171    0.6117118190287594    0.5020144930844184 O
   0.0206913959727673    0.3342422790050641    0.4005661087421795 O
  -0.1699692241171256    0.5137292986891088    0.4606791512582323 O
  -0.0356145641550735    0.5728377378222571    0.3861073078109736 O
   0.0765980445861516   -0.0082393487624197    0.4317664414996177 O
   0.0595407624220360    0.7486605982362021    0.3555181117125401 O
   0.3255110786500197    0.7480375239181151    0.3857197026639447 O
  -0.2408007099438488    0.6401702134447650    0.6196954799316836 O
   0.3237369512559417    0.2046957160409645    0.7168579297685428 O
   0.2268295125583649    0.3301226765224301    0.6572435055241533 O
   0.4553228489451306    1.0845124352258368    0.7922061124568894 O
   0.5048266209304139    0.0853781509331031   -0.0000926764809704 O
   0.7881119498532319    0.2170117406080991   -0.0966101212479195 O
   0.0786697577476573    0.5622128038512794    0.7034490495754052 O
   0.2456442208745090    0.5698172664400691    0.8252804972844282 O
  -0.0011834353752674    0.4172337557108259    0.7611103954575814 O
   1.1341351149613685    0.4673826817406928    0.0237281058558507 O
   0.4587358236726855   -0.1601255763222079    0.9328842018877557 O
  -0.1564396997622870    0.7373768079014044    0.7976310792525863 O
   0.8488763824609273    0.9181982645301164   -0.0710582867981540 O
  -0.0737624784382626    0.8245558729766926    0.6690906756588738 O
