Li1 Co1 H90 C51 N3 Cl6 O45
1.0
  14.5014405448999995    0.0000000000000000    0.0000000000000000
   0.0000000000000000   14.1523936829999997    0.0000000000000000
   0.0000000000000000    0.0000000000000000   14.6269888182999992
Li Co H C N Cl O
1 1 90 51 3 6 45
direct
   0.7581615589815748    0.2878757073012947    0.2953133049295674 Li
   0.4388574191160735    0.9239080422986279    0.6772784564315661 Co
   0.2495058859702377    0.2281918107874049    0.9463755377854211 H
   1.0230235213574985    0.2255003932891936    0.1445085133623329 H
   0.1379776557235678    0.2737579541864981    0.3347787073559221 H
   0.5099144838821247    0.0909867525128823    0.1765875698126225 H
   0.4424680948856897    0.1747040392516757    0.1217587865297206 H
   0.6431426410447222    0.1514288246570112    0.2435487203383282 H
   0.8414360444549989    0.2693438599068118    0.0392079611343173 H
   0.2201922464953305    0.6270360011366566    0.1727904793321462 H
   1.0707249892122406    0.5491530631200291    0.1115140258437399 H
   1.0341424167183257    0.4003217030561741    0.1458163696981542 H
   0.3430048729020460    0.4564648557833649    0.1307497006292423 H
   0.5970030869826044    0.3428409674137525    0.1132956639049788 H
   0.5637741123501865    0.3884198295093456    0.2148155336776409 H
   0.9772377252537103    0.4254281273091122    0.2492744374384342 H
   0.8736583604761706    0.3900697270830719    0.0119350887095496 H
   0.7904493857357704    0.4218242139964641    0.1609684972312467 H
   0.7801710965176403    0.6498335580183280    0.1571659374090629 H
   0.0563009425492652    0.9589240269511233    0.1447313890369162 H
   0.0815260226968129    0.8863511447231693    0.2567346195275515 H
   0.3181714779793153    0.8649003564819784    0.2322887130978809 H
   0.1602306173518173    0.9693378130074732    0.3049277239837515 H
   0.5827198852993865    0.8651151611339752    0.1589961158779565 H
   0.7012747967702079    0.8304687252742247    0.3051376099717791 H
   0.8254376338638807    0.7981801944266900    0.0473839433194120 H
   0.7775003273702524    0.9194176358399426    0.2809836296557497 H
   0.7554707918209478    0.8939809494345593    0.0424834131494347 H
   0.9000288440716429    0.8017866514786380    0.2117609063339664 H
   0.0562423276828753    0.2422841265092018    0.4844178454717320 H
   0.3042797546449154    0.2339830572603214    0.5048743456931341 H
   0.3073256589371985    0.2571176595992379    0.3855697491232149 H
   0.3231937376489323    0.0666184366134835    0.4871104023943657 H
   0.2286162371755503    0.3270683705654798    0.6363609437818533 H
   0.5613140119284702    0.2746341310564855    0.3841613936335172 H
   0.7560652155248075    0.2457040426791525    0.5911937526253631 H
   0.9012845813857129    0.0794452420335486    0.7119410931709662 H
   0.7741406611461175   -0.0055375550069766    0.6451604309216101 H
   0.7346459641726211    0.0734186996753855    0.5651985867902536 H
   0.8982669501466295    0.1819098874130719    0.6407295804707698 H
   0.1697600154534838    0.4791647613396878    0.3875810995361716 H
   0.0697334011658339    0.3501747091343968    0.5340206043862852 H
   0.0580800761408637    0.7149525775031395    0.3351492552566095 H
   0.4411165050254056    0.6948499710909293    0.5930280331005372 H
   0.3874204603056380    0.6538067374860208    0.4908656524107791 H
   0.4912705568072325    0.4427372133539877    0.5659902740024235 H
   0.4014294133728177    0.4970227297979554    0.5054316032463635 H
   0.5951646489379526    0.6014424508077755    0.3997585888480628 H
   0.4760240715138968    0.5656223618987918    0.3896177456545257 H
   0.5597218252813223    0.4817150719661760    0.4311854262997253 H
   0.6360095565984063    0.6568246015277273    0.5664682261008932 H
   0.6291998882972299    0.5355279475163254    0.5867861468767800 H
   0.4177933048955433    0.5188853918274653    0.6239585277922384 H
   0.5606479401702823    0.6019490788850180    0.6590805892350738 H
  -0.0641919143217381    0.6993587490001143    0.5438622745884184 H
  -0.1706751285388984    0.6362789605207734    0.5425237899390348 H
   0.2355665811560625    0.7608091311389785    0.4399760257592075 H
   0.2105787188207279    0.8824811280159750    0.4309324692457505 H
   0.5599535264002281    0.7752420252892706    0.4961640088232104 H
   0.4297831482122577    0.7910527782270427    0.3492738302163935 H
   0.4423881028327341    0.8220312833350962    0.5061369022062624 H
  -0.0668544084291652    0.8496930350336975    0.5157115181261697 H
   0.6609629396005703    0.0425504232703304    0.6654140869324330 H
   0.1217840921067045    0.1460572951685886    0.8319172565358028 H
   0.1384748477078867    0.1264175079901217    0.9470441648091706 H
   0.2374484631605091    0.1190880058349773    0.7201314323780432 H
   0.2750371425963395   -0.0007652174425453    0.7563268521309882 H
   0.1581066904285136   -0.0462677673591395    0.8431034276631980 H
   0.2949544741956183    0.0564342936883803    0.9951743718357337 H
   0.2513070863350653    0.2481001037808679    0.8311816300761355 H
   0.3519998413395695    0.2078892382024475    0.8808794871696289 H
   0.3539975739034691    0.0900434491891459    0.7529898700216606 H
   0.7354238179289480    0.2835308592581073    0.7108759388734182 H
   0.3807618114837485    0.0430796623635728    0.9172383035060874 H
   0.4962997123434836    0.2570597188707388    0.0030672347984480 H
   0.6516983427776534    0.2129491596266246    0.6482711190177871 H
   0.6501178101451170    0.1264917003863706    0.7843285143382889 H
   0.7160802224336265    0.0577061633383620    0.9708535765976235 H
   0.7494817316492297    0.1815756683328267    0.8385454150176570 H
   0.8840738774403194    0.1977517304978436    0.7512930067568889 H
   0.8510047489964799    0.9981096242728086    0.0023363940127748 H
   0.6935755616732322   -0.0341772331475638    0.8391538792826234 H
   0.8039321841787681   -0.0126381206251242    0.8011296483962118 H
   0.9304423742746893    0.2987410070833881   -0.1262403091872062 H
  -0.0608839670973590    0.4371368886474185    0.7388646113941633 H
  -0.1097811782264545    0.5995777485820523    0.7817989437985404 H
  -0.1693152636386533    0.5484203248827897    0.6799146791346120 H
   0.0865531094730738   -0.0270943323856659    0.9387041023728491 H
   0.0267714624487106    0.7101583355169586    0.6682936953414654 H
   0.2762170253774345   -0.0305870277633655    0.9082070530114723 H
   0.0043950648077108   -0.0625166087319054    0.8167842716986868 H
  -0.2315621829847082    0.7649208030796693    0.7405430156306719 H
   0.5662569001731287    0.1476118025185662    0.0523651462795759 C
   0.5116040539578794    0.1589999820456521    0.1388621017169866 C
   0.5401153593499088    0.2376849045360180    0.2047075065343492 C
   0.4698251011618365    0.2335908974515770    0.2885306375444747 C
   0.9790327193385672    0.2775290476986938   -0.0004098991921358 C
   0.9218542619685779    0.2504763802435837    0.2187350006788239 C
   0.5390624984322140    0.3355397290286077    0.1637674328500926 C
   0.4513314901878345    0.3644472063899411    0.1186063947030234 C
   0.8961995693297256    0.3233735892322830    0.0463878394609219 C
   0.8953762028536137    0.3396259635762988    0.1500995479228902 C
   0.9653085655633761    0.4168881585443103    0.1736197682685556 C
   0.9411702739973630    0.5104429330691620    0.1360959821483861 C
   0.1862252762157308    0.7238825156345109    0.2494118546488368 C
   0.1852874383534928    0.9304376797627839    0.1657220388428333 C
   0.1517659410584562    0.9038831612539167    0.2629580467230458 C
   0.2066301455860407    0.8229124063648334    0.3039958848903252 C
   0.6830903964560791    0.7408838798835157    0.1516118209050316 C
   0.6559675738108264    0.9537616493606977    0.2232875439826575 C
   0.7255744516154591    0.8772537437545503    0.2481580080623778 C
   0.7643416346590576    0.8137273877092159    0.1745953620956424 C
   0.8025930068784253    0.8588490833250657    0.0866572351182885 C
   0.8888540921910794    0.9178355713142154    0.1053555470810228 C
   0.2237767179717371    0.1362872164739794    0.4152005914916561 C
   0.2600889724935951    0.2376721858395182    0.4402549621862933 C
   0.1408022026968963    0.2342232993053179    0.6007377539050621 C
   0.1108768998515442    0.2859036027495731    0.5136472039754524 C
   0.1875727285560345    0.3112194615382083    0.4521614456165747 C
   0.7244407711408125    0.2284193341359016    0.6591598946898336 C
   0.8690788154444631    0.1470740842943239    0.7004219758671230 C
   0.7324075658631914    0.0582848640291036    0.6410734653306330 C
   0.2265212728921099    0.4089396798261749    0.4894000055666947 C
   0.4485493527943059    0.6763075247826964    0.5213919627502913 C
   0.4499776936502275    0.5070594065030858    0.5570865959031374 C
   0.5385875800971233    0.5533057175272192    0.4277370063531062 C
   0.5891162843131812    0.5994194714700546    0.5880618708300691 C
   0.0924332149519731    0.7976594344644475    0.4422881899660802 C
   0.1885050497249652    0.8142615729622081    0.4063525639442446 C
   0.4873463259817637    0.7651356077316662    0.4740619204155450 C
  -0.1833187000125257    0.7796497602207071    0.5214126778820087 C
  -0.1318100241890956    0.6961840210349100    0.5649467236046203 C
   0.1512625427941667    0.0969970432032957    0.8797945065083910 C
   0.2790684662306359    0.0778864951180711    0.7647776687368879 C
   0.1067000734312682    0.0023218928356602    0.8728853605963107 C
   0.3039742677530247    0.0392795984871275    0.9269880887675336 C
   0.2797711550406510    0.2020146136080321    0.8836401373965219 C
   0.7246786785396890    0.1205223921624566    0.7960335892601891 C
   0.7484321807475193    0.0261312926833170    0.8390636351444486 C
  -0.0226643158645082    0.5485354997455379    0.6755323690914263 C
  -0.1167866891400394    0.5941101222756311    0.7047577965057944 C
  -0.1402167752027302    0.6958745327534145    0.6699775689196816 C
  -0.0714353326341996    0.7706449230988368    0.7251830531126920 C
   0.5081825318100367    0.5868936752004851    0.5220795957364748 N
   0.2570734100145020    0.1041442440419427    0.8643812179087622 N
   0.7663986716760105    0.1378438436067070    0.6996713087177598 N
   0.2034621844543339   -0.4943241274374320    1.1424322953056127 Cl
   0.4660746461755471    1.0371892324569953    0.5759533635904647 Cl
   0.6765675962068813    1.3483676873985104    0.4176747849466154 Cl
   0.8608741133232077    0.3706200137578521    0.8040673685608872 Cl
   0.3273022949895307    0.8168858640066704    0.6930103341856604 Cl
  -0.4605256428368202    0.9230403445596405    0.7782978814379861 Cl
   1.0473066261228279    0.2473977490963781    0.0435916385129298 O
   0.9937078131226013    0.2015369558950390    0.2027207681590766 O
   0.3902036320791619    0.2179094512615531    0.2685483976158897 O
   0.6303377062918569    0.2212714267030046    0.2322757234113254 O
   0.6340821618741747    0.0947189833413285    0.0455510301796646 O
   0.6716273973502102    1.0350468386910263    0.2486762281891694 O
   0.8713496243270731    0.2281013667234061    0.2822894349884307 O
   1.0040874715802526    0.5704731314249718    0.1026201925595274 O
   0.1097011545904297    0.6843930827853300    0.2558615758574816 O
   0.4266262204671655    0.3327232443481483    0.0420554371608178 O
   0.4036478136690085    0.4349918804827244    0.1624595765142713 O
   0.8587839761464111    0.5369345646897802    0.1403593340094322 O
   0.8041349226578106    0.3601892694395025    0.1817075573186158 O
   0.2468495981427813    0.6908421685049870    0.1921478469706420 O
   0.2663255942774775    0.9251177316546105    0.1406321174270970 O
   0.1182327207901416    0.9643075685417957    0.1140907694557159 O
   0.3064843632078380    0.8399074112655885    0.2955689966543960 O
   0.5861931264469850    0.9361158711557019    0.1726735721531471 O
   0.6016826220805065    0.7582053313277661    0.1399778474253297 O
   0.9072295080109728    0.9855138751724901    0.0472943828489506 O
   0.7148265538795465    0.6533297863672777    0.1371604527782208 O
   0.9453739942975119    0.9014199736984521    0.1664145942365535 O
   0.8430848461672129    0.7619410951274623    0.2099505542287627 O
   0.1611960386805916    0.1225015626566781    0.3607122747300501 O
   0.2134342971939098    0.2646421817673795    0.6504691107165145 O
   0.1011523487241326    0.1637800921468332    0.6265086083633901 O
   0.2701569377793850    0.0584664587513510    0.4426108811268264 O
   0.1486917637129732    0.3315545374586651    0.3674108509863890 O
   0.4989534487002854    0.2471617466168815    0.3750542560227098 O
   0.0391336825636665    0.5954936338171112    0.6386854140075678 O
   0.2695652724221790    0.4185401759007865    0.5622530044468735 O
   0.2031291140959068    0.4884051769845046    0.4452615975853974 O
   0.0320095627439750    0.7427690733424887    0.3978060338584624 O
   0.0691210482087255    0.8437159542730337    0.5126205510815079 O
   0.4848912595426905    0.7612726569669719    0.3780774346515657 O
  -0.1351683112399036    0.8597118349043033    0.5070019879841478 O
  -0.2666207689524863    0.7707410199168355    0.4973797067512591 O
   0.5444023817189978    0.2033585558715128   -0.0160323901120788 O
   0.9789285917523922    0.2645241805276312   -0.0874599418097239 O
   0.7723132564880804    0.0403726997918618    0.9345084336154340 O
  -0.0092290989012859    0.4574340911160759    0.6951385917776162 O
   0.0297380642747016   -0.0005497061962984    0.8137877561106552 O
   0.0200597154537385    0.7679881287188751    0.7057327066651676 O
  -0.2322241861815821    0.7169444666938608    0.6904021418588658 O
  -0.1052954169809707    0.8202160427068724    0.7833713795394651 O
