Li1 Co1 H90 C51 N3 Cl6 O45
1.0
  13.3020320431000005    0.0000000000000000    0.0000000000000000
   0.0000000000000000   12.9572650767000006    0.0000000000000000
   0.0000000000000000    0.0000000000000000   12.9999005900999993
Li Co H C N Cl O
1 1 90 51 3 6 45
direct
   0.8098663036365242    0.7650599089329349    0.5190562226405530 Li
   0.1947249497826614    0.4045015679292451    0.5252981934492986 Co
   0.1772967854804821    0.0456627255904444    0.0498125574508735 H
   0.1327253998396287    0.2768380532748633    0.1989683134169339 H
   0.2918379319055754    0.1537997430633363    0.2004944789335463 H
   0.4610461395468686    0.2638237328143493   -0.0198510521839317 H
   0.5583070689904344   -0.0947666002919136    1.0105083653488884 H
   0.4801621662694098    0.0762903308490281    1.1336962304329923 H
  -0.0155361585155104    0.2419008966048160    0.1342747417875887 H
  -0.0604232853894620    0.1923333376949559    0.2514140990808038 H
   0.6284143275640399    0.0103080425390214    1.1893458867504361 H
   0.6515107987651724    0.1323615770340320    1.1455101669270111 H
  -0.1257200759238487    0.2925527892777682    0.1786043115412885 H
   0.7770044071545693    0.0381287282984122    1.0900874354217651 H
   0.1971313490377740    0.4543309876546334    0.2457825175550379 H
   0.0102749355254258    0.5094564555502021    0.2200030896527033 H
   0.3790095757749408    0.2969426045407347    0.0855636000668405 H
   0.5668962830014820    0.3778339032674056    0.2928413389483247 H
   0.4346843777601124    0.5820661223611255    1.0321369922796300 H
   0.6274986779880553    0.5519088324016367    0.2468156023780270 H
   0.6557492489370953   -0.4826092484319701    1.0498109735849157 H
   0.0194569912898573    0.4092363634001135    0.1134199669282746 H
  -0.0910374049976942    0.4485196532754824    0.1700134766171315 H
   0.0233112896281774    0.7400168154962263    0.2130814982623411 H
   0.2512268434455820    0.8875101320786426    0.3212861718481704 H
   0.5526559023298493    0.6651815787190100    0.2774473750781394 H
   0.3811581196896899    0.7296349950114469    0.1768696828921146 H
   0.7075195346925873   -0.2350184195796017    1.0815858319491845 H
   0.6390202259367762   -0.1478163755285150    1.1645256969525448 H
   0.8647060452366353   -0.0765551954465866    1.0131868473694754 H
  -0.0481236608306062    0.9881386205969986    0.2368139874349854 H
   0.7809338819769603   -0.1548680179437268    1.1649056998583949 H
  -0.0646850402714469    0.8057066038089291    0.2872666809347712 H
   0.1087004990602194    0.2490752501006909    0.3242954256289102 H
   0.3306485435720684    0.1537372298713003   -0.3395865740974903 H
   0.3002389040005093    0.0432864525252767    0.4564050512446542 H
   0.5528261770662701    0.0711881739039733    0.3829081815280027 H
   0.5111375088836031    0.2225557648570106    0.5649080348039422 H
   0.4679817716142906    0.2251095445168481    0.4381432962139433 H
   0.6696832102596546    0.0910434441695040    0.4996180739986750 H
   0.8663027937583031    0.1847761873688364    0.6725419347943450 H
   0.8965124638822333    0.1372329754060159    0.5463472005631210 H
   0.2562569019947725    0.3565678414581508    0.3132022638773641 H
   0.1447573961151918    0.5187112712300663    0.3870212899036714 H
   0.3628293411083401    0.6154426873569033    0.4697592302860082 H
   0.5034829881554850    0.5510889062878224    0.5371803612343071 H
   0.6017356968969245    0.6342182544661593    0.5385811411767221 H
   0.6698854350018055    0.4226342524586749    0.3976036785186093 H
   0.6937577275185507    0.4633483998406437    0.5633287919583752 H
  -0.1263628348626557    0.3947657170955036    0.3247000441076089 H
  -0.0605969430676660    0.3128780661352726    0.4027737180534642 H
  -0.0396317251899464    0.6482574825689411    0.5061106621084854 H
  -0.0221682279402537    0.4398420504530944    0.3922213296679354 H
   0.1243176618611283    0.8561655545311532    0.6692626789489222 H
   0.2402518285360572    0.8970823681381668    0.6828758599708425 H
   0.1937273578390392    0.7772360895594860    0.3782358381066802 H
   0.2097722748343122    0.7570505026743087    0.6454378813780958 H
  -0.0050392660446771    0.9573535747066206    0.3746927340897867 H
   0.3836396954288735   -0.0461220756743369    0.3955359703993280 H
   0.6228392395053348    0.7739406410410494    0.4081022203385319 H
   0.4908462481855800   -0.1122471410278824    0.5204847720260877 H
   0.7951144221672725   -0.0369789425132322    0.4384541447448219 H
   0.2004669296360041    0.2301437858952465   -0.1302534348831490 H
   1.0398830401837134    0.1728654948664874    0.6440924864745902 H
   0.3184376272644163    0.1713721241678516   -0.1441196947634188 H
   0.6139172943757890    0.3379744115503822    0.7231415524945708 H
   0.6298073478138755    0.0757323427275223    0.6982729007876339 H
   0.8373899179845977    0.2010689774561228    0.8596210576802603 H
   0.7462316651649473    0.0537554827717851    0.7745211761594363 H
   0.7054176001979623    0.0624671977310618    0.9724426896485027 H
   0.1326096280541593    0.5043851461642298   -0.0719399120414971 H
  -0.0175839659416043    0.5952115661713543    0.9508856017263523 H
   0.1724839869702569    0.6360558336048941    0.7885682066528128 H
   0.3220754173286118    0.7110708922801890    0.8475878887405586 H
   0.3363799987176412    0.3766608162069786   -0.2248595429434368 H
   0.6878984723500572    0.4526742337121211    0.8985790478964072 H
   0.8183123816219008    0.4173530453833446    0.9011006056400844 H
   0.9205298470132355    0.4849991107228700    0.7525840853314358 H
   0.9153028260757791    0.6101282942660476    0.8074368124779066 H
   0.1681786297275109    0.6845953978012748    0.9853743269971778 H
   0.0645531087895264    0.7168946521209669    0.7703049900724641 H
   0.2843518576217855    0.8161077184887813    0.9381131963645415 H
   0.1614112426314397    0.9572555601956507    0.8047267917546074 H
   0.1390199268508932    0.8906334763770296    0.9334054680572492 H
   0.0533232455990008    0.8917309301927713    0.8227492372630310 H
   0.0527030396054151    0.7495797903421155    0.9617303000394581 H
   0.3458281792356841    0.8514531403265692    0.8230838552064415 H
   0.6192390376831748   -0.0616909475624913    0.8910682212309821 H
   0.6194435177198478   -0.1997277932558204    0.9365816461913685 H
   0.8194791206546826   -0.2026481626220414    0.9638587778542094 H
   0.7580058061001469    0.6975039860727896    0.7639372490711952 H
   0.8065254606844092   -0.0769009474222915    0.8946151714311332 H
   0.3865264724171998    0.0972098689147751    0.3188738457090088 C
   0.6234617007934427    0.0572778310242779    1.1216492152335633 C
  -0.0541761195631622    0.2607814241352681    0.2049122050232162 C
   0.7092846785385745    0.0207438867700046    1.0521902225480619 C
   0.1088583696767685    0.3153731914420888    0.2699950103982295 C
   0.1837371548708444    0.3942162184198298    0.3009421701254645 C
   0.4066752736779084    0.3206644314988570    0.0096607119515699 C
   0.4640557549101669    0.4201939226658656    0.0211846462279664 C
   0.6118198704702081    0.6104123048175194    0.3090176164931042 C
  -0.0091649514904934    0.4363362180315840    0.1856074420167116 C
   0.2434626161707295    0.7682503970301753    0.2127499572655367 C
   0.0888208296124849    0.8659523420398869    0.2956967453987608 C
   0.0906205546411446    0.9391429416290967    0.1989506209739489 C
   0.1951113569107863    0.8234688397929610    0.3063760578317902 C
   0.0135962325916824    0.7773310169992441    0.2869620632207699 C
   0.7116955883827313   -0.1617961775104726    1.1225976840248855 C
   0.3537239653576609    0.2418816024097432    0.5490296056906308 C
   0.3741824937327420    0.0370629169625900    0.4218092482319374 C
   0.4479799403799408    0.1962786147034448    0.5120199380654493 C
   0.4559039176834442    0.0691074879073212    0.4932984102881260 C
   0.4361422753157012    0.0084226137965061    0.5898959181918645 C
   0.8746533976089096    0.1170759439295465    0.6255369599666645 C
   0.7675479572232786    0.0782058585358570    0.6123560899428974 C
   0.4802313286347552    0.4925214543210781    0.3536518039608051 C
   0.5725784975499884    0.5426394380279754    0.4009775504721689 C
   0.5379383013373339    0.6091373444071080    0.4932476406691257 C
  -0.0538588748003826    0.3772851763595348    0.3509856297266425 C
   0.7089087961182194    0.6663099032468681    0.3411663238700108 C
   0.8869635468755352    0.6229288350451549    0.6531256324733701 C
   0.1933537307132064    0.8280269004369623    0.6885582111156086 C
   0.0184045205128634    0.6973434583697838    0.3701350069295405 C
   0.4745242306700214    0.6985265784116488    0.4682626034568141 C
   0.7546559419699432   -0.0394686654454280    0.5941797971041702 C
   0.2717372435946722    0.2213996566882476   -0.0884692692093235 C
   0.2522702930444875    0.1575991559570746    0.0019029603210073 C
   0.3226678080230913    0.3267683430520923   -0.0733022301513361 C
   0.6978683776675527    0.2168778691309831    0.7488525183349203 C
   0.7083487313118905    0.1059763793880585    0.7119368514285545 C
   0.9583361008525400    0.0501150540454467    0.6653534182859059 C
   0.2349097875779722    0.3964327355497946   -0.0314949873779651 C
   0.1032727569102934    0.6854157869757707    0.9393724367630771 C
   0.7699874341313824    0.4846566001719375    0.8953736387695302 C
   0.7795235711357884    0.5420798291940835    0.7910182253878988 C
   0.8832212614984810    0.5604813204492679    0.7511448435564450 C
   0.7824336528341768    0.5598331898483819    0.9867720299929865 C
   0.7062084568103892    0.4915538890265667    0.7087422116147987 C
   0.1321247397319014    0.7050788870583761    0.8199322926451708 C
   0.2986940272528503    0.7961266500713758    0.8531302388147483 C
   0.1311278995531200    0.8933030212073040    0.8514217642117261 C
   0.6201238649006904   -0.1187994496746097    0.9589972022166133 C
   0.8069870442966051   -0.1139002676617210    0.9717765307082878 C
   0.0010725821102950    0.3482458692393450    0.2566241389215376 N
   0.7122421214219274   -0.0942680382912321    1.0281292693252195 N
   0.1913826033008648    0.8032014455206751    0.8039121701406494 N
   0.6890035666659008    1.3242921201369884    0.2732619584572280 Cl
   0.8514757358049805    1.0311909157146710    0.3299808537202824 Cl
   1.4530913366447895    1.7092190295176413    1.0471378762208894 Cl
   0.0612949599698894    1.3185347323272607    0.6052606510692922 Cl
   0.2198399095811001    0.5336653991924889    0.6273685124339295 Cl
   0.9195630774280825    0.1622444263628051   -0.0914377534475328 Cl
   0.3031174115755878    0.1219319069454721    0.2776196840880795 O
   0.2951690019147613    0.1729874341793476    0.0878020787227589 O
   0.4747697570669973    0.1031493939259899    0.2803297048113787 O
   0.5283863772712731    0.0685718810520999    1.0753734767515222 O
   0.2106247761636772    0.3781387515495560    0.0589557042908206 O
   0.5561359721304640    0.4288161125600043    0.0271931537129763 O
   0.4943207549263733    0.4148309082034264    0.2911744031244844 O
   0.7129750921416197    0.5642034793859347    1.0566794876463232 O
   0.7902490001181975    0.6436253322158602    0.3065445206584727 O
   0.0002524066690804    0.9766909887763969    0.1724242642829900 O
   0.2066126072088081    0.7480717560552244    0.1295923982897965 O
   0.1689078416229996    0.9672345178873097    0.1598603220537408 O
   0.3394456957380564    0.7465282204493993    0.2413040217698980 O
   0.2991450861572763    0.2862621099162282    0.4884782734289472 O
   0.3218077890453191    0.2301175457899475    0.6425855518742657 O
   0.5530917004080089    0.0389305950456384    0.4521832497301260 O
   0.7254370979060689    0.1322265176685223    0.5266889733152438 O
   0.1596476023151341    0.4457597344354869    0.3968329033937880 O
   0.3933735465863862    0.5131006273503846    0.3807804729499029 O
   0.6443231751231445    0.4779743258271996    0.4474952908047777 O
   0.9499591852325087    0.5917112133012445    0.5856312701958468 O
   0.7471443076815693    0.4723776972508188    0.6190484488111071 O
   0.8302398825846052    0.7068261693641700    0.6541202554637834 O
   0.0598786350099918    0.6119674169403881    0.3618618667424605 O
   0.0631811379552307    0.9298832715297521    0.3838843428387795 O
   0.4586802604166702   -0.0890917916370978    0.5838712567371728 O
   0.3789306404666662    0.6861451075495230    0.4938185681118827 O
   0.5130316555762560    0.7808371581278757    0.4395369991791643 O
   0.6987840272435376    0.7526637744825538    0.3956690483400407 O
  -0.0368810176377886    0.7141224621729051    0.4520852489807226 O
   0.7845423532123682   -0.0823534869498685    0.5047347285099145 O
   0.7170895011148253   -0.0962761781144105    0.6575733587924494 O
   0.1834928312976137    0.0891780813898644   -0.0149010143314111 O
   1.0448243904817001    0.1064934638160099    0.6756673433094641 O
   0.6196126648090077    0.2656636272564928    0.7004375327250065 O
   0.3947319856535491    0.0455083720298618    0.6668041986106695 O
   0.7510121377870220    0.2633521826867697    0.8093468270836267 O
   0.1948512462759006    0.4591167969772743   -0.0991962743147469 O
   0.0568941285923732    0.5868078637422200    0.9529202326696184 O
   0.3759190705147821    0.3611112385138969   -0.1632298408970893 O
   0.6182978281026060    0.4643973866383624    0.7299223735777051 O
   0.4069789866735553    0.5068934687004758    0.0150515224054106 O
   0.7332667287220631    0.6430434192924641    0.8127360837702166 O
   0.8570440579801191    0.6199675619853795    0.9913405264663541 O
   0.9570190088516162   -0.0379590876229311    0.6953321090688792 O
