Li1 Co1 H110 Cl3 O55
1.0
  12.5472328946000005    0.0000000000000000    0.0000000000000000
   0.0000000000000000   12.5496885488000007    0.0000000000000000
   0.0000000000000000    0.0000000000000000   12.5286336654999992
Li Co H Cl O
1 1 110 3 55
direct
   0.7482277189132617    0.2573895967170330    0.6487909655450529 Li
   0.4467875502504343    0.5499323148668831    0.4988608095398861 Co
   0.1548976944738507    0.1050909964316293    0.0855626687969904 H
   0.0851634345497709    0.0318736415604711    0.1610370601189960 H
   0.2582407989569158    0.3074537873586468    0.2121679349696203 H
   0.3246251569262714    0.2232094656060489    0.2849300592633726 H
   1.0100384326853618    0.2432450225859903    0.1399318057824332 H
   0.6208052016594311    0.0661759270973630    0.1688312061214366 H
   0.4569627021004447    1.0949219353984609    0.2661905856489025 H
   0.6607088205852804    0.1828459141099095    0.2935431293619222 H
   0.3638098922483995    1.0067842899342820    0.2778239372091249 H
  -0.0535522499856667    1.0875273295770382    0.1701960796149515 H
  -0.0747059180676731    1.0477892916121290    0.2871018842784920 H
   0.9085817999207093    0.2457470767109114    0.0684407698152438 H
   0.7187064688407127    0.2972862043541904    0.3099663088955851 H
   0.1269417297646149    0.5411703444345162    0.2164365568662975 H
   0.0287715985215646    0.5619174728582647    0.2911206784538416 H
   0.2033673455203166    0.5344745607365188    0.0167944437053346 H
   0.1472952214185324    0.6286259012582707    0.0676984701959638 H
   0.4739871728976618    0.4760890480482327    0.2837767012527708 H
   0.5628203052195859    0.6529619633694856    0.1578339973532208 H
   0.6059724491662422    0.4563371634467857    0.0008709914497739 H
  -0.1857543071192273    0.3535999524804398    1.2196377307189932 H
  -0.2864992291764263    0.4263013582923985    1.2421302073548126 H
   0.3103765969846653    0.6849699290204267    1.0622382845662750 H
   1.2489118181702137    0.9450616426360695    0.1670153656549182 H
   0.2482401875827535    0.7893446308233054    1.3079474402643114 H
   0.0023522674399949   -0.2240582078643593    0.0486603207561876 H
   0.6067128514587666   -0.0016432061576518    0.2691869219615662 H
   1.3351459710777973    0.8501031107676472    0.1539492960123218 H
   0.4250353438243097    0.7313400040814245    1.0814183489225113 H
   0.5853176958690801    0.7677321422786447    0.2085426394096525 H
   0.6517450912160420    0.7807563698811399    0.0510017572434543 H
   0.6733163812585250    0.9083356316113519    0.0269263226786619 H
   0.8292176876606614    0.8410431249713564    0.0841016156216225 H
   0.8692583886040718    0.7996564405145805    0.2443605914689995 H
   0.9198432470610435    0.9194036353677705    0.1477818237992282 H
   0.7079527033584389   -0.1661252960496259    1.3033020813565588 H
   0.8358008124574881    0.7118136230842299    0.3316366687487611 H
   1.2914470930378452    0.0499889915244141    0.5835524070699392 H
   1.1889304656025175    0.0628629365129093    0.6580952522783299 H
   0.4007582779119446    0.0763988899622277    0.4097617082489034 H
   0.4467373399765602    0.1244986493827688    0.5272844995852434 H
   0.5653077062475393    0.2322710450673874    0.5543385271072838 H
   0.6541942367972343    0.2646487410093997    0.4644612084735075 H
   0.3653472830151160    0.2677085779010229    0.6221743360782441 H
   0.9540340526038840    0.2197767110932591    0.6126649192351230 H
   0.8120808414885833    0.1280150713105640    0.3890643196171278 H
   0.9070436121655185    0.1911401438507705    0.4983116674559456 H
   0.8638149573253399    0.0246319797736780    0.4445268719234866 H
   1.2402246438015199    0.3527744339857206    0.3971074951692625 H
   1.1558235643845782    0.4524478238978239    0.3941279204609050 H
   0.2535792133713664    0.4777512406930051    0.5298945208272281 H
   1.0523346110107357    0.3957922346188384    0.5297588316495102 H
   0.2673535651708281    0.5651621748954235    0.6222693185026467 H
   0.3789837558085426    0.4080785953042391    0.3358095100494021 H
   0.5751664536732954    0.5156334557098439    0.6559170418901416 H
   0.5908057585023667    0.4074004908264341    0.5778191402255427 H
  -0.1465512410621928    0.5041997058249735    0.3451034205514419 H
   0.9402381821156189    0.3873059682397271    0.5428799751348273 H
  -0.0644423004970274    0.5473027675381444    0.4175989555195603 H
   0.2088044008912550    0.7116199927809319    0.6598456426708904 H
   0.2044847233611339    0.6670802420272409    1.3397465981483088 H
   0.0513488075667491    0.8113451768070860    0.6499227729215465 H
   0.2008807414808373    0.8950922750647951    0.5951897494883298 H
   0.1756385225262255    0.7967742972757780    0.5046435630255678 H
   0.6039026700987653   -0.1361763456403395    1.3613291591217849 H
   0.3494704756207355    0.7223429680545188    0.4412336157631107 H
   0.5834933892516544    0.8888690130534468    0.5620839846400728 H
   0.4883489052026032    0.9439381087774267    0.4897472858270476 H
   0.4646974752424788    0.7621901720751968    0.4834441244362362 H
   0.7564287303126982    0.8954508497005321    0.5926012788804532 H
   0.9215886518195242   -0.1156268316825083    0.5648592274102199 H
   0.8680389962385578   -0.1539042756311817    0.4533730081390575 H
   0.2355545220390381    0.2888628877444640    0.9125332129617930 H
   1.1484115715745917    0.2205695594545000    0.7472765652475770 H
   1.0568854151983726    0.1365093060149139    0.7447224160199467 H
   0.5028676442369604    0.3262088344727448    0.8850441818994217 H
  -0.4396843988585161    0.0388331768238663   -0.0084119841008851 H
   0.3885914518649282    0.0240964366027168   -0.0895161992235681 H
   0.3755678632081554    0.3050106988404914    0.8623521623551936 H
   0.4375448749152287    0.1406098061826986   -0.0703696580759443 H
   0.4495451303711390    0.2553018955045193    0.7048681100093102 H
  -0.3132079069235514    0.0699056610917955   -0.0222748684853387 H
   0.6927644940057603    0.0604418405724125    0.6760213889981267 H
   0.7395524993716808    0.1135445926772624    0.7775057195282155 H
   0.9428363645414852    0.0234391055488088    0.8569405586791519 H
   0.8190242050757446    0.2805742358312700    0.8329235742230905 H
   0.1660786457782915    0.5717177160692216    0.8050665860376138 H
   0.0916949941923173    0.4767225299047016    0.8281425261376202 H
   0.2166005421458019    0.3852836072941699    0.8375769148471796 H
   0.2821903026063880    0.6607063786688832    0.7603514147781434 H
   0.5804927276463212    0.5508152053033203    0.8356533212101205 H
   0.6240585086110831    0.6578210480999853    0.7843931425548473 H
   0.6742655945312878    0.4353645314187847   -0.0975593747757027 H
   0.8650502894603376    0.3834102540305745    0.7799600973016414 H
  -0.0723237195183129    0.5641215116192621    0.7942090573052840 H
  -0.0218354560644133    0.4959859561690224    0.6923216501002099 H
   0.1521520691802589   -0.0103654146470781    0.9926456998296852 H
   0.0908458029730657   -0.2103606567792021   -0.0399797520282919 H
   0.2188871020782590   -0.0639610076679356    0.8924751598085586 H
   0.3046087913969372    0.9511494431183615   -0.2509759444765849 H
   1.0684018986504482   -0.0172184134020332    0.8467558886339761 H
   0.4576640519577337   -0.3103360462178484    0.8011603340626067 H
   0.3583011079147838    0.8523262735092171   -0.1953090602320158 H
   0.3747174765061924   -0.2715486294539045    0.9086620805386658 H
  -0.0203833430644354    0.8888291714272537    0.7182494574471920 H
   0.7020557856378915    0.8601671055440017    0.7025701738760766 H
   0.9651281321646379    0.6909278458013297    0.8900088094606282 H
  -0.2959355727108606    0.7954284471429781   -0.1183301951977726 H
   0.9661163978726360    0.7230059327143705    0.7690722380472336 H
  -0.2183949700797642    0.7377337882528789   -0.1982511208735925 H
   0.1900664048745248    0.2501511700702868    0.0722809331789860 Cl
   0.5888882042334606    0.4825322358361665    0.1711107843070967 Cl
   0.8191979485631186    0.1533312374261270    0.9231808225544769 Cl
   0.1509023912527258    0.0292232490929082    0.1188225605877023 O
   0.2922283724388373    0.2952104556295345    0.2851822814996011 O
   0.6033431841898824    0.0758780005413802    0.2455474726882140 O
  -0.3688432813414784    0.0309617464201655    0.0305155648259384 O
   0.3857517819313818    1.0787542034893371    0.2968292019775953 O
  -0.0391090654586629    1.0302510077619655    0.2189108889305644 O
   0.9327385205734714    0.2382863337900081    0.1400036412294603 O
   0.2130714771820794    0.5835913175072627    0.0791000327137788 O
   0.1103404598471938    0.5571030107491013    0.2918142896034699 O
  -0.2141015931692914    0.4009700523588822    1.2725644917452952 O
   1.3038562035810159    0.8970285780977754    0.2058352412283644 O
   0.0540132197348207   -0.2667947266165544    0.0035208414562770 O
   0.3567605291941705    0.7469555310515134    1.0438883187090184 O
   0.5481947697296869    0.7292706300169596    0.1467489897053053 O
   0.6396754977628770   -0.1356010325581125    1.2911618908089784 O
   0.8971529852007949    0.8442145184163201    0.1234982500175330 O
   0.7020605675687368    0.8322221889322238    0.0187365549242940 O
   0.8312181287308835    0.7888744996342278    0.3168712916981570 O
   1.2437951521659005    0.0139473799544401    0.6328315237305316 O
   0.4224618680411434    0.0594260384709955    0.4896531015742788 O
   0.4366227592505885    0.2402489322962759    0.6296963055536154 O
   0.6268455773053329    0.2794459209774839    0.5401103195661157 O
   0.6895303147774888    0.2301761723621588    0.3459279318489864 O
   0.8790852564908602    0.0915347237529525    0.4010289124053086 O
   0.9020783739713020    0.2418792516400939    0.5617136330020663 O
   1.1878067118539064    0.3973125910743637    0.4421738619475321 O
   0.3077297982618734    0.5096149796571277    0.5733653425098624 O
   0.4229440460680297    0.4732172636322405    0.3442214408962758 O
   0.5680461586448634    0.4876869454330182    0.5833951672581132 O
  -0.1015564597632044    0.5671231797366435    0.3549273170182151 O
   0.9967446649358378    0.4418738563061988    0.5500667125240721 O
   0.2327060852322756    0.7370891507410761    1.3650167120691763 O
   0.1808994434443675    0.8163540660520714    0.5814420412706096 O
   0.4174488105384753    0.6982029267441734    0.4742619579629053 O
   0.5359498388121997    0.8767093487393399    0.4971702820198483 O
   0.6923157894947901    0.9105667626781606    0.6398083419801305 O
   0.8695134249158133   -0.0972072510609555    0.5096800260338014 O
   1.0959617600880105    0.1876651572142161    0.6979208241101557 O
   0.2430183190998470    0.3079733221642036    0.8388060991629767 O
   0.4339273442308708    0.0679080816377303   -0.0432279913085308 O
   0.4490039751971625    0.2777048419128493    0.8587843351528475 O
   0.7006315672345103    0.1326741510775747    0.7092269253005880 O
   0.1623957620390498    0.5060579192706156    0.8467878154993214 O
   0.2202690800925081    0.6498096939050946    0.7081525862817160 O
   0.6007107312596260    0.4539323228897755   -0.0781654004216522 O
   0.5668682096800075    0.6011439443428556    0.7754943270114566 O
   0.8033370809382219    0.3362409559481449    0.7774362785960893 O
  -0.0446412812534199    0.4940289354904218    0.7702702936693189 O
   0.1504018824909331   -0.0566705478573813    0.9287281154082364 O
   0.3316290916374715    0.9242643137633177   -0.1800703674026664 O
   0.3847412005461063   -0.2901084525996567    0.8261550787698703 O
   0.9983625515384478   -0.0030772656508430    0.8034566738525730 O
   0.9152446235649551    0.6911023521240550    0.8269053601054867 O
  -0.2865741460930003    0.7737984282827924   -0.1960928647762449 O
  -0.0230645716893124    0.8257758138141946    0.6708795673342534 O
