Li1 Co1 H90 C51 N3 Cl6 O45
1.0
  13.4290563845000008    0.0000000000000000    0.0000000000000000
   0.0000000000000000   13.0809971544000003    0.0000000000000000
   0.0000000000000000    0.0000000000000000   13.1240398047000006
Li Co H C N Cl O
1 1 90 51 3 6 45
direct
   0.8323220464768463    0.7679017097806824    0.5051325659592922 Li
   0.1548343854300837    0.3449446572948947    0.7049382690066811 Co
   0.0679764583648360    0.2654660068733330    0.1698796967608682 H
   0.2645055311778894    0.2288655860989154    0.1803513199839845 H
  -0.0426307174092125    0.3321298849941748    0.1299735392214464 H
   0.4472526229864084    0.2177318783027164    0.1571298116271706 H
   0.5837677248304950    0.0284190934461717    1.1985195211513269 H
   0.6666663267966710    0.0675239104537910    1.1104094561707345 H
   0.7177101217122378    0.0133369099037926    1.2235186833667984 H
  -0.0459205985993006    0.2414319063923731    0.2353831555123521 H
   0.2981519756534313    0.5885842638464476    0.0002528110512749 H
   0.1418863423940373    0.4433849355703824    0.1830837103556716 H
   0.0674939225995175    0.5429335391385735    0.2423771909896850 H
   0.0185843059299428    0.4811814425311454    0.1278674803850429 H
   0.3099405924755874    0.4873036057771685    0.0754545031130859 H
   0.5894412433427816    0.5423122562268754    1.0143521431207900 H
   0.5600454325950037    0.6180576285639315    0.2889931727379958 H
   0.8331791431834537   -0.4917079213136657    1.0230880203130355 H
  -0.1224025174022829    0.4488955246446835    0.2323734115167682 H
  -0.1302452128966262    0.3652909655203709    0.3393229499887055 H
  -0.0742129811108918    0.4953054422399791    0.3517840520909282 H
   0.2467261732569874    0.8798633578655434    0.3012272106096655 H
   0.0562548603989741    0.7310895314493059    0.2007124286042360 H
   0.0176460419418235    0.9875997928915199    0.3468244511625090 H
   0.4342364441131294   -0.1263007628546327    1.0574783457552339 H
   0.5939136350194836   -0.1899503447765997    1.0197384419321274 H
   0.4891165472937701    0.0040470982353354    1.0678090062848862 H
   0.5482483267177169   -0.1435846134152111    1.2150974958632053 H
   0.3716068761137905    0.7262917320721468    0.1581439810596066 H
  -0.0165045332638427    1.0189162128222595    0.1709662524412993 H
   0.6395102862262465   -0.2434202746102541    1.1726562957229461 H
   0.6665940953626651   -0.1463382261233894    1.2721751953480647 H
   0.8096711623573121   -0.1391789859756687    1.1711445660806072 H
  -0.0438057813562381    0.8194451809734123    0.1884799146535767 H
   0.3164071674540224   -0.0014387220850109    0.3436204072380962 H
   0.2487769502595910    0.0896063248592430    0.4079138727073049 H
   1.0394356306606360    0.0975850743970712    0.4843882826401802 H
   0.1037094232330051    0.3143514238222164    0.5094935707148176 H
  -0.0042341253303269    0.1903096569104166    0.3503995698529596 H
   0.1622027363526556    0.3502439474928657    0.3264389598060908 H
   0.5010026616587552    0.1265629875886888    0.3482424596627069 H
   0.3664054682113990    0.0741289115083885   -0.3300905942199729 H
   0.3846264059298842    0.2456991651755634    0.4723912754424716 H
   0.4630009372346157    0.1873236460169840    0.5692673912513160 H
   0.5860500892142932    0.0355362878695865    0.4355336456883491 H
   0.6781563373813385    0.1639745086083527    0.4826131584904000 H
   0.8674689686794202    0.1642428367761957    0.5756747171396362 H
   0.8678859748963621    0.0969345123719019    0.4644277976143587 H
  -0.0186007341579347    0.3328691252742438    0.4688710941044468 H
   0.1031539113797218    0.4495200183207831    0.3852341182696961 H
  -0.0100647658279255    0.6452367492229718    0.4350152077606034 H
   0.6599368889707709    0.5218409651747306    0.2950301858207834 H
   0.5791970388312282    0.3314609757438539    0.3154880634251967 H
   0.3494906535366926    0.5663269392278830    0.3799445884425205 H
   0.4516257522903991    0.4941299966819294    0.5357441768640477 H
   0.5570470089643996    0.5697632980520175    0.5474504808898082 H
   0.6526258764030286    0.3800291385911564    0.4283808938377807 H
   0.6993305727005229    0.4688396464054811    0.5518050089810391 H
   0.9491269771501940    0.4568634187409635    0.6743371731568976 H
   0.2279594041866836    0.9241719066068020    0.6834601262857901 H
   0.1933352290632048    0.8011705802546444    0.6307873204815563 H
   0.1797579534319513    0.7752887613073695    0.3504681462984285 H
   0.4316519736182362   -0.1780452890563164    0.4898463047938731 H
   0.6590358576805928    0.7914129143448199    0.4542966183449707 H
   0.1575732226906415    1.0709130133697784    0.8870552113176950 H
   0.2304912276466881    1.0206362651802274    0.7966943150047089 H
   0.3814996039567786    0.2884627246655095   -0.1170784393041639 H
   0.7060972432243643    0.2019326240439932    0.6481097306070257 H
   0.3925867567497217   -0.0472051107581120    0.9173469512023629 H
   0.7585454555062746    0.1696002265204804    0.9355738084475179 H
   0.0924361069503558    0.4484493812864123   -0.0615650447365029 H
   0.1028441353328506    0.6726253340358268    0.7667675542020370 H
   0.3397974929546696    0.5013196626446932   -0.2260159327341970 H
   0.4759183005275585    0.3692883672002888   -0.0611314892090377 H
   0.9903115536509198    0.5576121601743875    0.7612661993544129 H
   0.7464627003703828    0.4762525369409234    0.8682965056399026 H
   0.8117249179757511    0.3875392694199026    0.7827793922585434 H
   0.2546187605665719    0.9924885639267225    1.0077398498565679 H
   0.2669762930132702    0.7135480552688898    0.7653205912026412 H
   0.0589527416917966    0.9383573695198939    0.8121217293537183 H
   0.0960029994131268    0.8944165297493829    0.9307292635553857 H
   0.2431942795302811    0.7533485378968426    0.9002211268872378 H
   0.3162991926299927    0.8352589601187140    0.8069823057460692 H
   0.1002132728963225    0.8953507092966883    0.6567328376445000 H
   0.0499141319395806    0.7405704600464262    0.8776289979077282 H
   0.0105137463241991    0.7794061844184879    0.7549327836350980 H
   0.6666730286823005   -0.0292814007203695    0.6950160193078219 H
   0.6308179405648840   -0.0749522309291391    0.9618515403907336 H
   0.8355128886904107    0.6890957909480149    0.7632305335368471 H
   0.7991551591507877   -0.0314838322062834    0.6964789834778273 H
   0.8007866959745730   -0.0818737216176028    1.0442667125553784 H
   0.7551289831431862   -0.2127712349944061    1.0684239084125915 H
  -0.0048894208140928    0.3003264991292016    0.1963623960799857 C
   0.3376968241368247    0.1476278954659383    0.2807548557556532 C
   0.3806201676314065    0.2951090069766983    0.0448633127498701 C
   0.6571399687014248    0.0092187223249596    1.1681134871908774 C
   0.0631592919051981    0.4694351667551954    0.1982848224346334 C
   0.3437084155464177    0.5216422723710152    0.0101438203694204 C
   0.4492396576101367    0.5696693449698867    0.0319122700427968 C
  -0.0825181067136653    0.4286179420667546    0.3042430502892911 C
   0.2445227421928247    0.7618364229326294    0.1994879580723617 C
   0.1166738486561457    0.9516614011579914    0.1627683193657329 C
   0.0983665310784368    0.8812883256856555    0.2592363291279861 C
   0.1935027762039403    0.8234257643636079    0.2815640578121874 C
   0.0160956723995502    0.7963085655894545    0.2361108277948288 C
   0.4903366628053046   -0.0693066368564304    1.0256184911508415 C
   0.6259575841756343   -0.1626985996846675    1.2039271548568102 C
  -0.0269617088076201    0.7570149250563162    0.3336958716577215 C
   0.7665266566369593   -0.1302935777282627    1.1015486174556344 C
   0.3216629350954082    0.0772196544787286    0.3720506776085334 C
   0.0906660644902291    0.3770171357954256    0.3537240035371956 C
   0.3080633198453899    0.1859460751951802    0.6044707285525747 C
   0.4011033640768015    0.0804250676062665    0.4639927943619337 C
   0.3896773937325931    0.1783220386769508    0.5280332889434123 C
   0.0562831572494095    0.3095268680750444    0.4392452315052829 C
   0.9398180580109246    0.0268725752594297    0.5828127631524539 C
   0.8519816556437811    0.0905366820679751    0.5457795015018801 C
   0.7422315765763400    0.0580483331306732    0.5671514269283446 C
   0.4750366302403099    0.4314472370786834    0.3458598091629118 C
   0.6086064022810567    0.5682335217082264    0.3387469078467660 C
   0.5475470116192958    0.4977548732444972    0.4106473298236993 C
   0.4938138244660372    0.5514174489422439    0.4947970288824066 C
   0.4303846470457121    0.6468084948442974    0.4804249984095599 C
   0.6759975855547052    0.6511093902069323    0.3900878066878909 C
   0.9283742159717043    0.6107890695330156    0.6019410196752738 C
   0.4083108697442672   -0.0242175665785114    0.5212554978574584 C
   0.7040531681073900   -0.0363985951437843    0.5062028918809622 C
   0.1965692612063810    1.0032683231710375    0.8671489931190546 C
   0.7418369099781628    0.1042711090294219    0.7570289369849338 C
   0.7338169868416192    0.0158604178298605    0.6800000636316265 C
   0.2247812210904192    0.4220075897381544   -0.0975387241085300 C
   0.3940097904650360    0.3511666600244513   -0.0544155693161070 C
   0.3372232242190121    0.4473907463951615   -0.0796913231949701 C
   0.8174617320745377    0.4630566010376779    0.8265822158216147 C
   0.8300687235974423    0.5497024420711926    0.7559614303171330 C
   0.9117259874142573    0.4543447269614980    0.9037825302885946 C
   0.7410058761601143    0.5473679105641868    0.6728871623154807 C
   0.9331548943873599    0.5398386680425743    0.6984280784501573 C
   0.1235149845758695    0.9174140120092740    0.8530466280886072 C
   0.2569547400354055    0.7784314880823059    0.8201916530644092 C
   0.0730311694373391    0.7484299526207685    0.7964245809858640 C
   0.1721304629317084    0.8611178450345495    0.6808511735159474 C
   0.5943850009754197   -0.1072418182606313    1.0250325435223342 C
   0.0137693734321814    0.3887929964719327    0.2659560588234429 N
   0.6588087382231512   -0.0927857337765526    1.1197952856739248 N
   0.1603105706432817    0.8253170574896582    0.7900942131085702 N
   0.7460576086167821    0.2224494085698370    0.0211023363553667 Cl
   0.8949377639125512    1.0542032780629040    0.2729135201965256 Cl
   1.7208937866158527    1.5877895114069134    1.0729057601042433 Cl
   0.7055335401775339    1.2659279629099160    0.3549530458321012 Cl
   0.2110185266234184    0.5033435909192358    0.6635424786795716 Cl
   0.0191740718653321    1.2577909685551547    0.7268865413592873 Cl
   0.2511203762680128    0.1897385995275712    0.2477703474455693 O
   0.2986687655008557    0.2928630008310493    0.0913299502391595 O
   0.4202417154725589    0.1567648135914650    0.2427741724128999 O
   0.4640813556634746    0.2549354641039949    0.0853721810489138 O
   0.2065788997209046    0.7140373146062673    0.1289967058537658 O
   0.4650277363797451    0.6551358416600069    0.0667338651309447 O
   0.8983021104985217    0.4770674595247430    1.0025348976454707 O
   0.0395209966362622    1.0058369346922700    0.1216521685440358 O
   0.2032555091026693    0.9612562354445947    0.1269295070031281 O
   0.0792572211870736    0.9443821395790701    0.3478500500025232 O
   0.3436533111534646    0.7626964491116134    0.2166503564917369 O
   0.2346590558542307    0.2463741901676015    0.5884124109052504 O
   0.0487539610717315    0.2071569964059284    0.4029428423713076 O
   1.0265233310146131    0.0391300505961679    0.5341184579301292 O
   0.4969499569532468    0.0877073870560462    0.4154863124041436 O
   0.4067694360494998   -0.0208355614088887    0.6120103277516388 O
   0.6694334609076642    0.1389473645660592    0.5534358330503425 O
   0.9752427361401402    0.5817303521039592    0.5203951682510245 O
   0.0164188522176802    0.6712378251337325    0.3630046824906670 O
   0.5078981945501712    0.3564024994021063    0.2905460482476160 O
   0.3871336558092474    0.4548110522674361    0.3430573184247452 O
   0.3536785874011235    0.6368153728783599    0.4165380464894865 O
   0.6150208514823738    0.4314533528204007    0.4748956872309995 O
   0.7672214187805430    0.6401713861456844    0.4026494875768014 O
   0.4167716280244351   -0.1031129281337931    0.4626392477204767 O
   0.6433623811552476   -0.0211023606413025    0.4327321454988393 O
   0.4392231682791918    0.7222866857150825    0.5432324961211110 O
   0.6238837229003071    0.7436313887758947    0.4082095133833269 O
   0.8802092532609544    0.6955807705714121    0.6150894101531968 O
  -0.0976487305030274    0.7993220973206147    0.3803156632085584 O
   0.7317758903404803   -0.1237810772671381    0.5253358725589145 O
   0.2719327097632084    0.9780577068772273    0.9355189472911427 O
   0.3217701652654789    0.1330838971946746    0.6864881573334991 O
   0.7301153120123008    0.1977479277739854    0.7270640781570015 O
   0.7626455202035644    0.0825801020938719    0.8486729747886954 O
   0.2033627392727401    0.3474605205438160   -0.1520082327840518 O
   0.1572701485293998    0.4682125535391516   -0.0335698538145413 O
   0.9964743098141542    0.4410711975852152    0.8680823947379382 O
   0.3841580185897833    0.4830639442784772   -0.1701215579139305 O
   0.5255844111539034    0.5089407024494812   -0.0052310187047295 O
   0.8343623983240264    0.6419785878231228    0.8164534748258434 O
   0.7580763235122151    0.4776962342200446    0.6018061526658514 O
   0.4657839324749318   -0.0477868706889626    0.9259174829649774 O
   0.6720821950392041    0.6092800102642915    0.6772333850372050 O
   0.9426633807875944   -0.0362304122465607    0.6548058395268210 O
