Li1 Co1 H110 Cl3 O55
1.0
  12.2968609485999991    0.0000000000000000    0.0000000000000000
   0.0000000000000000   12.2992676020000005    0.0000000000000000
   0.0000000000000000    0.0000000000000000   12.2786328551999997
Li Co H Cl O
1 1 110 3 55
direct
   0.5941745218507855    0.1484445139565148    0.5947733769567984 Li
   0.4998024699221897    0.5317461992725898    0.3975234038888034 Co
   0.1573435271397682    0.1254098090319768    0.1610296480900678 H
   0.2977281348226369    0.2496009437749609    0.1174539498580446 H
   0.0633894680649166    0.0319574964883344    0.1611102759589580 H
   0.5933304039866095    0.1788609592364897    0.2142008771429431 H
   0.4265520685583725    0.2226790155175290    0.1255313963595904 H
   0.5260701492388998    0.1502690128393874    0.3190390961189948 H
   0.4820304546970455    0.3193660735181718    0.3226290723419040 H
   0.7792689137865690    0.2222399649842174    0.0198588011039628 H
  -0.0030415506653556    0.2860722211319197    1.2294849195125725 H
  -0.1270054635998635    0.2464267710304268    1.2388263503829831 H
   0.0472298155462286    0.3409941906230263    1.0239408634468217 H
   0.2207898004009800    0.4801748357958851    0.1931610754771907 H
   0.3347148098693106    0.5138426941919952    0.1449977329476068 H
   0.3747079432434008    0.5898862465615617    1.0038083289118136 H
   0.5003822926940177    0.4703685608287166    1.0942418497357338 H
   0.3978992276851809    0.4034068500463545    1.0530483385391030 H
   0.7748466469798364    0.3483970704485856    0.0193501369820158 H
  -0.2083205247508023    0.4902152710474866    0.2428905532782479 H
  -0.1517605617726746    0.4158132798385794    0.3207892909699548 H
   0.7370077219122991    0.6454066256684412    0.1097405504008819 H
   0.9999138418979910    0.6429032245720220    0.2765449515221857 H
   0.2755484906727980    0.6735001684045804    1.0020165984920313 H
   1.2421219966823298    0.9640426718800651    0.1861146883899378 H
   0.2865830140822416    0.6738847441494997    1.2552451164115332 H
   0.0817240658897110   -0.2921492006740061    0.0515626564590922 H
   0.2925406320715985    0.8112075551212159    1.2698232866452164 H
   0.5184755281083232    0.9976137765475378    0.0646639521731239 H
   0.5627038886853304    0.7246926475321681    0.2789181799054791 H
   1.3727000366155870    0.9416998780737643    0.1686640485241764 H
   0.5065749300116470    0.8845176113926462    0.0262863896580563 H
   0.6014983421636640   -0.1300883313198115    1.2038224533637818 H
   0.4274807608520997    0.7119634342923048    0.3159442890302799 H
   0.6651479193420665   -0.1360846233256874    1.3080685868783872 H
  -0.1242722457371514    0.9919549030070774    0.1863484277674276 H
   0.7336434486906271    0.7639356346447921    0.1513689634357689 H
  -0.0769479731091639    0.9671810701366996    0.2933644136264328 H
   0.9102405501035074    0.7239690272087471    0.1321453248773412 H
   0.9849262771226911    0.8106855728205010    0.1673756314677694 H
   1.1778454302233112    0.1670927788306528    0.5473470871680796 H
   1.2494490698578835    0.2548045056512463    0.4790300351076174 H
   0.2903221797272134    0.0746221507572334    0.4524692604801812 H
   0.2172344214971487    1.3192101616328422    0.3461219158369221 H
   1.4044235798540274    0.2028428750338203    0.5705923460960005 H
   0.4591823472674834    0.0358791121130043    0.4283305796111235 H
   0.5896676806145015    0.0268026366989848    0.4300612283120496 H
   1.4454991032832407    0.2852616037583797    0.6540275307848347 H
   0.9746309667561529    0.1926487720955598    0.5622322948418800 H
   0.9370116099191818    0.2410565325627915    0.4482049420810994 H
   0.7715344195609652    0.2609373911563747    0.5659574652691909 H
   0.8886578062545402    0.0571074493155824    0.4942499706007498 H
   0.0852295946730472    0.5655530903375819    0.4283623421049288 H
   0.2217981878302460    1.4267124977707271    0.4357401993198413 H
   0.1349906680524827    0.5341813036193828    0.5549000453103801 H
   0.2889153166202535    0.5819524408133128    0.4506311079540682 H
   0.3692496396746643    0.3652988898679952    0.3754419553108229 H
   0.3738353628308182    0.6486978785551918    0.5313444912506696 H
   0.9291966073423702    0.5487073718196509    0.3352005045054310 H
   0.6773339561384785    0.3495995810759334    0.5571266775684185 H
   0.7815426647964301    0.6189278132270367    0.6631596549652977 H
   0.6755530138238878    0.5598649467615674    0.5198391386869131 H
   0.6935698069653295    0.4909803572546091    0.4112399146751548 H
   0.1063418932576349    0.8947621238365833    0.6248492008986802 H
   0.2941605576837742    0.9320488969063412    0.5450618164599391 H
   0.3067922366666681   -0.0183744435939625    0.3537791201127370 H
   0.5548815671675001    0.8002987754815094    0.6138544915045617 H
   0.3776119363965531    0.8031208947428511    0.6334307751865192 H
   0.6475003261142431    0.8943474649995667    0.4761005558712734 H
   0.9611966439081900   -0.3134195728998661    0.4512565847551559 H
   0.8110241724360910    0.6837666333751830    0.5563073681128271 H
   0.9700606946977055   -0.2222726821843810    0.5546638626641359 H
   0.6768753025012961    0.7678716413702762    0.6251611248763059 H
   0.9211132435948671   -0.0714807765185171    0.4897584282075229 H
   0.7514179035627776    0.9519850433448598    0.4355007589819250 H
   1.0409893653272047    0.0764011997793428    0.6913582340809985 H
   0.0907613316166729    0.3067872757387948    0.8505257914994393 H
   1.0873833192301274    0.1939577931300628    0.6995944930515704 H
   0.2016426374799578    0.2593226608616398    0.8105677598695402 H
   0.6665848714287707    0.0450395762679333    0.7729161739436518 H
   0.3384669869649826    1.0450637564069158   -0.1551708642785187 H
   0.3577312529423067    0.2125678443466718   -0.0483347844421180 H
   0.3800361323051352    0.2396629536477988   -0.1753384189990045 H
   0.6963217287884231    0.3279299980873772   -0.2633140114561506 H
  -0.2369294519778807    0.0429435978052964   -0.0483694788584283 H
  -0.0605759899793619    0.3110216742156222    0.9590639337923414 H
   0.9076789207469041    0.0107802354977982    0.8322257085301177 H
   1.0887169929268985    0.5968045446873919    0.9146778847568259 H
   0.1674827000979039    0.4222152870594970    0.7271342040265422 H
   0.2759282623901102    0.5532881323838684    0.7247951814058082 H
   0.1229786594091861    0.5351171317005711    0.7474003039201159 H
   0.3317441330313198    0.6056294604069548    0.8330401314482004 H
   1.0360694105311892    0.4841344211611211    0.8992852916050599 H
   0.4235147080355431    0.4558587537593118    0.7640414074053029 H
   0.5358547601654549    0.4076607618802178    0.7834596930411524 H
  -0.0928959455892729    0.5674401945742785    0.8071341528469029 H
  -0.1982252654387798    0.4995540385023326    0.8017483740896210 H
   0.7297392002648966    0.3410535437506777   -0.1352460075876217 H
   0.2190340677721210   -0.0761900000165555    0.8825896217843614 H
   0.1279278899692770   -0.2415307394658962   -0.0528213588555447 H
   1.0283845224613799   -0.0353595200033928    0.8685652591349746 H
   0.3086553137638039    0.9479522828907386    0.6691440345673706 H
   0.1519177521977822   -0.0307790846617925    0.9925041388088235 H
   0.0021992177119868    0.9222109127339890    0.6851946814369474 H
   0.3939543184760120    0.6891929727442968    0.6828719472745751 H
   0.4119873759308291    0.9391387499627801   -0.1528505733849007 H
   0.4527986042676947   -0.2377882401976865    0.9167872401146604 H
   0.5774775777397457   -0.2039545182667699    0.8927780524895779 H
   0.6302837371908639   -0.0341231862238491    0.6751797228132826 H
  -0.2492147010858816    0.7136928055596264   -0.1599946912223235 H
  -0.2344532102664977   -0.0772177034871218   -0.0995930155027085 H
  -0.2622424160994631    0.7392666860684832   -0.0314503313890079 H
   0.1449631317985220    0.3050505869625846    0.1760834413079113 Cl
   0.7271588669479119    0.0997595012080623    1.1306384099448565 Cl
   0.6811658283696892    0.4860979527128757    0.0880601236677655 Cl
   0.1386078513471400    0.0489356619171477    0.1392470927230237 O
   0.3701067689895404    0.2601779963450542    0.0804290623676209 O
   0.5263612804483169    0.1974254792866812    0.2504215220017600 O
  -0.0706105834024947    0.2920579434027343    1.2782444196181932 O
   0.2683466527102338    0.5413654712348294    0.1761901307101801 O
   0.4242148867263479    0.4752330781265003    1.0687015470246553 O
  -0.1929182199844332    0.4808862602711585    0.3218838753718582 O
   0.3163467075589633    0.7332289281789057    1.3018219630966918 O
   1.3071792501833610    0.9333172651136857    0.2208872893004034 O
   0.4963365447419222    0.9290568488274771    0.0958864021413745 O
   0.6481021057091276   -0.1790302699359058    1.2441363878088831 O
   0.5061317274721713    0.6734017885628568    0.3113427995431118 O
  -0.0610634314512184    0.9574975667075497    0.2167003410785394 O
   0.7759087066432407    0.7157766694797703    0.1012037693735374 O
   0.9860810433723343    0.7327565423273241    0.1545590580058995 O
   1.2472371232388486    0.1778649649711069    0.5112575643990741 O
   1.0542041199446015    0.1416741921215416    0.6483347145874355 O
   0.3243877840916907    0.0049667673862195    0.4298950860367607 O
   0.5315935100611373    0.0829442723105001    0.4383406516972799 O
   1.4491341773226107    0.2088066447779693    0.6377626906878020 O
   0.9098339422691258    0.2094749772564547    0.5140990859602651 O
   0.6957679289179957    0.2785790920300686    0.5868237948533918 O
   0.2553791156561408    1.3551797831026655    0.4084993815558060 O
   0.1506198599904367    0.5443827240665318    0.4750287753110763 O
   0.4486910519247734    0.3794867265463048    0.3644562045688033 O
   0.3617387797579703    0.5821353785355260    0.4841877754478361 O
   0.6498293757895800    0.4994475280951774    0.4739268611029102 O
   0.9909766016982869    0.6053058639027733    0.3504489448006962 O
   0.7480772135954996    0.6538933098660455    0.5974650447010623 O
   0.2899009340107941    0.8948678211871952    0.6133104569952824 O
   0.0248537798123834    0.8916725089725388    0.6153970085114107 O
   0.4213800169050405    0.7334143050707485    0.6171805947020120 O
   0.6276830734821602    0.8342056725013114    0.6137518742168833 O
   0.9222029525910095   -0.2692868637366201    0.5099105088925651 O
   0.8780860025606227   -0.0148067514825343    0.4524904354760514 O
   0.6748617805054393    0.9367890165530199    0.4156272109348671 O
   0.1393852855264774    0.2980656182002145    0.7839752227482988 O
   0.6374197046842583    0.0475464735074881    0.6979689049070771 O
   0.3357053065538639    0.1956074848561540   -0.1271025928297112 O
  -0.2261754879741603    0.0070322155756604   -0.1158684430976763 O
   0.8141607452705095    0.2846038410149554   -0.0169652496948616 O
   0.1694449895066288    0.4945195923870265    0.6969728656782617 O
   0.0161131914256995    0.3446814020463005    0.9539330694084194 O
   1.0540984019076625    0.5481788850665906    0.8607305106630175 O
   0.3470268950943808    0.5871381154456484    0.7569518559033916 O
   0.4655343748561903    0.3889433871999105    0.7529782864860654 O
   0.3470155100750181    0.6578740347014038    0.9729579887748350 O
   0.6979367751065862    0.3797387740746874   -0.2007182803952205 O
  -0.1673816215539409    0.5736714599211304    0.7832674892324848 O
   0.1374994383906162   -0.3060215714135658   -0.0068802507002417 O
   0.1461585588316034   -0.0765444926693774    0.9234736522721207 O
   0.5035912417229560   -0.1736307614327164    0.9026570024859228 O
   0.3382799473611672    0.9646443337220105   -0.1793803999414497 O
  -0.2864990130673226    0.7635307324862937   -0.1084384628160064 O
   0.9832510528450396   -0.0107201666852553    0.8055541723858222 O
