Li1 Co1 H90 C51 N3 Cl6 O45
1.0
  13.8774062423999993    0.0000000000000000    0.0000000000000000
   0.0000000000000000   13.5433797651999992    0.0000000000000000
   0.0000000000000000    0.0000000000000000   13.9975518505000007
Li Co H C N Cl O
1 1 90 51 3 6 45
direct
   0.7953206403858385    0.4714581657827202    0.3039728640225051 Li
   0.5897462016060869    0.5661248163697767    0.4531603806899576 Co
   0.1094576027441639    0.0353437170705322    1.0185806830778563 H
   0.3093025846923448    0.0832195066622911    0.0898089850801371 H
   0.5639778416003518    1.2099286637967221    0.1228611934192313 H
   0.4316208313697179    0.1615810396325901    0.0805587960911694 H
   0.5971986028829206    1.0847523762384177    0.2619776632703819 H
   0.3738485080698166    0.3274982655361212    0.2758808087688605 H
   0.6872694690207869    1.1704783929438831    0.2896803647242899 H
   0.9947483973930711    0.2531401645702410    0.1164757911035537 H
   0.8081112150004001    1.0502794449543329    0.1919718500777701 H
   0.8304388744050306    0.3796617588626016    0.0237281439531253 H
   0.2649556808653392    0.3482774214690527    0.0134742080125435 H
   1.1670414007278569    0.5457591465900129    0.1141896770500554 H
   1.0785039623522321    0.4230682799963105    0.1253080498671163 H
   1.0360234015253231    0.4722144393405450    0.2372897747245248 H
   0.3471295381468122    0.4858231472993652    0.0460699079515798 H
   0.4339101640767861    0.3965923185881129    0.1829474148515854 H
   0.9082682598920702    0.4785156655838852    0.0033195751511605 H
   0.8679415597706780    0.5514748542894238    0.1555111885670382 H
   0.0224845777481568   -0.0635001478441744    1.0267428246594872 H
   0.1417302041350234    0.8171662889522885    0.1894828434020238 H
   0.0272923926117261   -0.0727046449609367    0.3044743802929912 H
   0.2639533321730093    0.7135355834465367    0.3201428344871556 H
   0.2279804715908386    0.8471691395733794    0.3254416182167798 H
   0.4478004398698988    0.7247993892796996    0.2010598678510678 H
   0.4986077728602504    0.8978536815341551    0.3012309559795904 H
  -0.0080369759630753    0.0384633224225554    0.9536886212586635 H
  -0.0393778470453923   -0.2612417785471256    1.0212111430606627 H
   0.8233828007923102    0.8702047485135967    0.2224093154681756 H
   0.1644491470334965    0.1099587701458808    0.3974206336018172 H
   0.0687446632991997    0.1815841706602018    0.3912652715127730 H
   0.2538837271215229    0.1704820674476526    0.5267503206310056 H
   0.1644116760543440    0.0201687752492826    0.5657457110985538 H
   0.1976678906479571    0.2401116589048094    0.6182856843635022 H
   0.5699368802388070    0.1302129463379156    0.6473964891922369 H
   0.5333128893342860    0.2559740214557001    0.6238223668368186 H
   0.4521872106350294    1.0140521509918090    0.4677559329823894 H
   0.6867066837377461    0.3404507192840952    0.5872838345661394 H
   0.7824925947921243    0.2946357151449983    0.6653603447782420 H
  -0.0514089137363625    0.0682904414285500    0.5256845628356903 H
   0.7667382098457491    1.0751019047707389    0.4236273591719674 H
   0.7264093479370982    0.2122072505110440    0.5826858162349766 H
   0.2383721829438861    0.3942334539211050    0.3364906932015940 H
   0.0753698206516661    0.3440834904869245    0.5411558396927404 H
   0.0431130723673712    0.5906711265053171    0.5238855339577154 H
   0.0277730299789325    0.6703491698525764    0.4223485641232917 H
   0.5980373763393346    0.3869789870374062    0.7277569702259128 H
  -0.1395730835119679    0.5093206793421211    0.6158431143794676 H
   0.1860425193658882    0.8173914912321387    0.5348325911028923 H
   0.3341861972326288    0.7673766491658683    0.4891220978085135 H
   0.4500789636406731    0.8223112380867020    0.4868448424469725 H
  -0.1462883153335510    0.7497244822662665    0.4089033558461544 H
  -0.1320803288729701    0.8155455709054978    0.5197356725662089 H
   0.7693871198335310    0.9459118480541860    0.4284246266311053 H
  -0.2738193516876417    0.8209932509734805    0.6222642372272311 H
  -0.0635487903860255    0.7081676471366648    0.6499105002404434 H
   0.6792960770145826    0.9679587820674547    0.5817973751609358 H
   0.1489138231960130   -0.0024267662850636    0.7536386389540811 H
   0.2409461509733630   -0.0637290419646779    0.9406591999750064 H
   0.1777290061642997    0.0683251447306909    0.8488774360121809 H
   0.3397967557649655    0.2414975758860514   -0.0253997326459127 H
   0.5469295549200099    0.0873713506609719    0.9094480278596201 H
   0.6538561645530343    0.1970049890689600    0.9118320161710338 H
   0.5939624073564982    0.3131421739717694    0.8421884091737731 H
   0.5074119397100111    0.1874497670901360    0.7375744012644049 H
   0.7136857887275594    0.0781491327090739    0.8999285060587245 H
   0.7138817907723571    0.0997294180637675    0.7218045007591165 H
   0.0501504104905153    0.0730285497229719    0.8112880056875342 H
   0.7780522837625510    0.2008880670680818    0.7856306619008655 H
   0.6134610078351135    0.5907796666205236    0.7834860011544273 H
   0.5200778152295276    0.6745615600379709    0.7762383051941958 H
   0.6984430267657666    0.3698104512633844    0.7940521345454401 H
   0.4971438825881669    0.6470174752919657    0.9551688801083038 H
   0.9473101377859827    0.3940466467840489   -0.1407734792301993 H
   0.7535628370991213    0.6238098265773055    0.9162077813515580 H
   0.6009831717773250    0.5658641724196551    0.9488827808718250 H
   0.5971171755628391    0.6500167266386920    1.0442280251155409 H
   0.2101889624509217   -0.1559017508189042    0.8578997280064407 H
   0.0685565878076842   -0.1404691185200555    0.7684297968802155 H
  -0.0473325035620203   -0.2653242159415247    0.8514278820031150 H
   0.0720954335503384   -0.2687347383370264    0.9031283513229804 H
   0.1678042408591528   -0.1625352501047211    0.9781193219735020 H
   0.6380808823298241    0.7053618482401708    0.7362184498664236 H
   0.4710465706212177    0.9221039060493021    0.8844836623954179 H
   0.4697860324706120    0.8256169122076508    0.7952666326363611 H
   0.6435847926907268    0.8590760640483439    0.8643751460629747 H
   0.5976352839091981    0.8325177007567650    0.9808926640846524 H
   0.4055612065606471    0.8045675135388990    0.9917609931771119 H
  -0.0412766168543709   -0.0881136494796044    0.8279837823844896 H
   0.7598925501928852    0.7416843916915494    0.8454732693043936 H
   0.7462934671435327    0.7404070148255139    0.9697357130929386 H
   0.2641442900475366    0.2095838285428219    0.1588231963020439 C
   0.3383598878336170    0.3096836576477750    0.0216434937005915 C
   0.3519719416065222    0.2745521019911450    0.1249937091847603 C
   0.6695723579245041    1.1040599644869509    0.2489732463591848 C
   0.6828241138209429    1.1294878861704949    0.1451558063153324 C
   0.7283232502568884    1.0160782331423301    0.2878378996792986 C
   0.9205969326290017    0.3246319204529132    0.2127712015007549 C
   1.0266232299283116    0.5629461415673011    0.1068826850065612 C
   1.0216114864666621    0.4634399825904396    0.1614915200488616 C
   0.2856800147196936    0.4320466149546528    0.2049062547460788 C
   0.4218935093008746    0.3736315063395311   -0.0054605316355567 C
   0.3649448269465759    0.3567450271914199    0.1999232405200941 C
   0.9034539596667245    0.4018928418876558    0.0317352584255033 C
   0.9225396587789092    0.4171998777674799    0.1464067393489810 C
   0.0546289130949942   -0.0074838496119291    0.9777649742952099 C
   0.2858169279127509    0.7909601272590326    0.1935456967214754 C
   0.2851547004158054    0.7905259667982067    0.2987869571742723 C
   0.3822268748891692    0.8088530021692285    0.3476090660186549 C
   0.4465277236510685    0.7100807589631956    0.3388532491937562 C
   0.6937973459466072    0.9134384176679190    0.2596708313082737 C
   0.0927786934467756    0.1167458500028742    0.4304914166175962 C
   0.1017393016344981    0.1434718228601120    0.5363160648004203 C
   0.1887872685888102    0.2133029888169380    0.5419689818851441 C
   0.0300256123026012    0.0308596074130561    0.4037917477046605 C
   0.0067510900786167    0.1880352930177465    0.5767701389162287 C
   0.1918577270920579    0.3070292242180653    0.4800912328865533 C
   0.7195507175606815    0.2776569399805551    0.6297262563799780 C
   0.0170808301969119    0.6636566011163071    0.4970159067531150 C
  -0.0946655561891804    0.6586704011299847    0.5218531785641554 C
  -0.1266888314495250    0.5557721568098438    0.4841486566851278 C
   0.0680759504404778    0.7460178742503716    0.5497137647698832 C
   0.3305853802552224    0.9249842801269927    0.4832337109762793 C
   0.3770184087869691    0.8268787833429424    0.4576710980407023 C
   0.6300822694722672    1.0166504684435889    0.4529314835203511 C
  -0.2598470000382699    0.7246576225986135    0.5073610800767506 C
   0.7281186010630555    1.0105958497722065    0.4021486032287085 C
  -0.1547164032598559    0.7471158276606575    0.4859220382210650 C
   0.1192195134091479    0.0238332962817301    0.8220506020050196 C
   0.6663685892069637    0.1325653872021868    0.8625455404095344 C
   0.6319904070260339    0.3324372099620816    0.7752102682807632 C
   0.5588192407242547    0.1986707475717208    0.6769173657293179 C
   0.7109864370370722    0.1650498931104137    0.7682283330792510 C
   0.9770094917431184    0.3404979748444572   -0.0191300648541934 C
   0.5775087562914768    0.6393923476066774    0.9636303597488145 C
   0.1848434480330076   -0.1108236380742023    0.9196090904167785 C
   0.0072641542547050   -0.2217782170679347    0.8905075729263860 C
   0.0281780047920809   -0.1284743282375428    0.8373747102698756 C
   0.5964318890017998    0.6703934719404157    0.7912895085939157 C
   0.4855529557830883    0.8433274101895742    0.8723501120564755 C
   0.5914482487745149    0.8145886458081671    0.9037034518895637 C
   0.7296311315484618    0.7014477587795613    0.9045043062189299 C
   0.6524135318556624    0.2451561899734537    0.7146218161672814 N
   0.0963939223392407   -0.0549801179845306    0.8905018576412524 N
   0.6205862586401156    0.7061430417224051    0.8922307313942105 N
   0.4058314299679970    0.0318342533455225    1.0127203725838414 Cl
   0.6367312064845805    0.4381986982192816    0.3556561874869692 Cl
  -0.0119829583061367    0.8084594519555887    0.2424228151852703 Cl
   0.5439407399155696    0.4921644743158812    0.6009505101422092 Cl
   0.7565706037718639    0.9112779525176185    0.7048972585122127 Cl
   0.8498012822863416    0.4750474471026539    0.7851148574175449 Cl
   0.2045834480888555    0.2481133543367325    0.2145129346452639 O
   0.2596773169751046    0.1115876102421088    0.1339552762744738 O
   0.4365086323618627    0.2195761644549945    0.1258252831717203 O
   0.6285546064760491    1.1965191601758720    0.0962729725664037 O
   1.0421614361488067    0.2974097642118742    0.0282153571937576 O
   0.9596546636294787    0.2407953877937972    0.1859500827787271 O
   0.7552137219690909    1.0984963606224551    0.1045165569611905 O
   0.8234094628351687    1.0241301376071379    0.2578019330695388 O
   0.8786020533395695    0.3265974564167204    0.2907591247932845 O
   1.1162048115499361    0.5910373570981226    0.0872771137658877 O
   0.2782045543787662    0.4886659384392052    0.1357405884681277 O
   0.2355892421460587    0.4470012277257147    0.2825026810069469 O
   0.4095756455002371    0.4750583011141746    0.0115960224354662 O
   0.9601958310399314    0.6178954978507480    0.0875178701521467 O
   0.8483110902692760    0.4854277511653986    0.1808349025840245 O
   0.2038297049312876    0.8259196431412198    0.1530986238299557 O
   0.4771642844444688    0.6814394591750350    0.2527239022282056 O
   0.3547829856387141    0.7697726537498483    0.1434297902049411 O
   0.4275278474930581    0.8885103712088295    0.2969830703039338 O
   0.6098890146878245    0.8811015853858234    0.2728288465074402 O
   0.7552663254590550    0.8490645305647743    0.2223628787764639 O
   0.0659372222457725   -0.0114843281438253    0.3290136714253710 O
   0.1209100310455289    0.0590445956964710    0.6001660872576026 O
  -0.0109114324215252    0.2751206454517504    0.5906679977759586 O
   0.2563820325969418    0.3238913372178648    0.4202267645173886 O
   0.3797804523079615    1.0113275725896869    0.4790364770151205 O
   0.5537786013729127    1.0417121595343273    0.4109894349199718 O
  -0.0614569009152609    0.1218782468790666    0.5794788268643034 O
   0.1271957877983638    0.3761190685717123    0.4999702805208766 O
  -0.1001975697844474    0.6513302835431296    0.6253454903249618 O
  -0.2941761817080003    0.6567417835727102    0.4569790484520699 O
  -0.1395248035965214    0.4868897200640982    0.5471834651590455 O
  -0.1331547371405933    0.5425757462315010    0.3989894793710306 O
   0.0455342740972262    0.7905916815618352    0.6278902210307622 O
   0.2466727254219219    0.9290947755103567    0.5140603086991222 O
   0.1471591725376210    0.7693562141241581    0.5013273749758845 O
   0.4721051978418517    0.6620011797673755    0.4105857929074009 O
   0.6203924183825765    0.9905107598820920    0.5458603052095192 O
  -0.3113263606278068    0.7685816659550995    0.5725912653085621 O
  -0.0413839856215579   -0.0016064392919044    0.4474648847309873 O
   0.5735616930547860    0.0885645535601126    0.8458976292255743 O
   0.9844222602535405    0.3392744988519596   -0.1124063758794933 O
   0.4993798912095181    0.3475080418769088   -0.0398544031597977 O
   0.4076307575630709    0.7953556327408301    0.9245249500424416 O
  -0.0384569256731439   -0.2017514582601420    0.9818456878807045 O
