Li1 Co1 H110 Cl3 O55
1.0
  12.7950068452999997    0.0000000000000000    0.0000000000000000
   0.0000000000000000   11.8398887995000006    0.0000000000000000
   0.0000000000000000    0.0000000000000000   13.0562021646000002
Li Co H Cl O
1 1 110 3 55
direct
   0.3798945542874410    0.6916380329641117    0.5133165447201335 Li
   0.6331152081857339    0.5465640353035479    0.8051426019430097 Co
   0.1586731017143429    0.2512538293371156    0.1998402406309504 H
   0.1592397290001003    0.1698670852284468    0.0283971232695261 H
   0.2823572872043503    0.2829982153161353    0.0068491266581686 H
   0.1187754286476403    0.2950321121214851    0.0022782721901052 H
   0.0731548981502756    0.2377807298256796    0.2966585943959810 H
   0.1870310388680289    0.4064883953980415    0.3125261489411849 H
   0.2351107317855809    0.0078829625328864    1.0746620192771705 H
   0.3586300091965610    0.4476864174622858    0.2516416750353418 H
   0.3839469163242027    0.3879265656611541    0.1490559473394630 H
   0.5699233701683122    0.3890634006625578    0.2075446250094901 H
   0.4525502403093271    0.3028109013955778    0.2929898399300097 H
   0.5832598225878496    0.0225845364199107    0.1292155682817344 H
   0.6059655548717457    1.1313169934810245    0.2967236975545629 H
   0.6370198563507603    1.0053276345215896    0.2778391860487200 H
   0.6836099056729279    0.3880583236553732    0.2554145945550442 H
   0.6937998181580387    0.3043810174933561    0.0787002659231173 H
   0.8643241505308239    0.1287670370573399    0.1337053884653510 H
  -0.0888726822227298    0.1843807350532034    0.2832167069475894 H
   0.7695231070717840    0.0829473499651005    0.2023356064034211 H
   0.1156302173565043   -0.0021807299576235    1.1009253993686432 H
   0.1780861433018306    0.5405166812098994    0.3028679038856739 H
   0.1448411435028465    0.6018652303644044    0.0303551352302565 H
   0.0213456253601243    0.6553268811213551    0.0284519631066375 H
   0.0817804503937697    0.6302675241439035    0.1814957023815814 H
   1.0561802417139030   -0.0789604206620150    0.2320601767729157 H
   0.0902598518752822    0.7800729851609784    0.3025232401049459 H
   0.3376405714223522    0.5776496313114717    0.0299461342104592 H
   0.3455397465632492   -0.0475361390407457    0.2157009019005398 H
   0.4660680134603070   -0.0050795747509503    0.0830676921685999 H
   0.3632677558361259   -0.1437777523950975    0.1400556271453861 H
   0.4650168221508673    0.6875357984902499    0.1386141666224303 H
   0.5812699838712450    0.8362111813261376    1.0956788507064505 H
   0.3720727530793578    0.6626208685449233    0.2171821902381574 H
   0.6260007141412514    0.8054811629821000    1.1976457154360445 H
  -0.0289468838804139    0.8468345919113206    1.0467442530382034 H
  -0.0061602606667579    0.6299271493255041    0.2656449814865637 H
   0.9540857281435688   -0.0161149824488265    0.1816787571451236 H
   0.8363757481326369    0.5479415820251597    0.3108281053814650 H
   0.8185742727013310    0.6240884120560358    0.2139936673066672 H
   0.7279912809129570    0.7091736706306385    0.0986237472479770 H
   0.8372276429484654    0.7031516546128014    0.0421589659351651 H
   0.2263354336276714    0.1283405127811817    0.3704051546790799 H
   0.2883994879577166    0.1663493157033007    0.5532914159284785 H
   0.3049473493664642    0.0244345537951520    0.3953343029793789 H
   0.0105808792630486    0.1995886481551916    0.6436055811914155 H
   0.3078156557647121    0.1288971058465049    0.6652435733455188 H
   0.3237406179365649    0.3361169574471053    0.6433421048790368 H
   0.3330676938375706    0.4605522477567758    0.6027996873117597 H
   0.1377297756778715    0.2128657998803530    0.6600874031858279 H
   0.4064322501328111    0.2050574495178138    0.3614676398850467 H
   0.5113497399185326    0.3185086839632526    0.4615051533620766 H
   0.4834771483434057    0.3568266114102704    0.5741933594308493 H
   0.6143328813839098    0.4718276914928385    0.5145925666283399 H
   0.6619295733875334    1.2629398512958558    0.5457685544744556 H
   0.8316629722248891    0.3536399260757263    0.3572367004967325 H
   0.7326868626134130    1.3082527768718677    0.6271222273579776 H
  -0.0512306546862680    0.1887473301180306    0.4000554308558397 H
   0.7422945167152282    0.4408704750690255    0.3970499626878916 H
   0.8523194676215355    1.1981841755472475    0.5611934075413022 H
   0.9151017708834581    1.0858098093237922    0.5294054500045161 H
   0.0500959812175053    0.5543022836563423    0.6412036575994978 H
   0.0120506713645595    0.6703092853486220    0.6004552076832966 H
   0.1850240059441322    0.8587198386719104    0.3653554473316584 H
   0.2447988860397175    0.5335081694404725    0.4443125580598518 H
   0.2010568226889982    0.6111989328907885    0.5418470465692838 H
   1.0133588500081800    0.8980715596120323    0.4176493679827345 H
   0.3673310596411643    0.8566319812250530    0.6389579815881767 H
   0.5610456883215279    0.8547654096402816    0.3557224776200675 H
   0.5879921373675203    0.6528361482690967    0.4695243306603479 H
   0.5514833644025733    0.7585575803870115    0.5291603557604428 H
   0.6858107642062974    0.8357441161286812    0.3698912226860387 H
  -0.1652079286050931    0.7217810525518524    0.3678914068383037 H
   0.7114371670651941    0.5361492415425451    0.5498447781211987 H
  -0.1426108324490870    0.7948003194250776    0.6395799082325125 H
  -0.0663631202129373    0.8588946713950090    0.5673919941578169 H
   0.8864812312911315    0.8848704221143052    0.4306025987820051 H
  -0.2163716370669193    0.7546774763777627    0.4773137321048005 H
   0.0144691929311476    0.4457488992652426    0.9641781295660315 H
   0.3047566499764989    0.4690954023178450   -0.0395110623438944 H
   0.0148573912385072    0.3921774501797761    0.8598828695177418 H
   1.0545155298260915    0.3656611538431704    0.7146101496189450 H
   0.4680945852561262    0.4270054799850402    0.7487525437378598 H
   0.5867611884363921    0.2619110240233806   -0.0495010271403683 H
   0.5641594029511245    0.0271180249440822   -0.0777473728502962 H
   0.5284876752593448    0.1927127389825111   -0.1378437155775412 H
   0.6304055574274980    0.0249613323912705   -0.1838839034071861 H
   0.4097749603413415    0.2964831392629499   -0.0188863817051315 H
   0.4244775706857120    0.0100734391867799    0.7730298945328266 H
   0.5243876383750917    0.3597227534755107    0.8447789367267285 H
   0.7649424139382333    0.2662919773311676   -0.0160551602263293 H
   0.6874012283808028    0.4449566620948736    0.9736908499141241 H
   0.9555472357633846    0.4438569896046598    0.7224546972683141 H
   0.9283022327544139    0.2815987089288203   -0.0077095480317330 H
   0.9106000147924750    0.1501228119536951   -0.0362209018930650 H
   0.8577981673086522    0.0683509290926935    0.8041392473813349 H
   0.9777199476212303    0.1107844357335005    0.8057936335288294 H
   0.7357341450784726    1.0892220035330575    0.6792254340503843 H
   1.1570008208348792   -0.1519154977431847    0.8558694512710425 H
   1.2140543268490751   -0.0672668986750647    0.9417290286479485 H
   0.3162017395939219   -0.0498469715547433    0.7703729197431702 H
   0.0107241382719856    0.8219956761934282    0.7489003662038164 H
   0.2984495021198611    0.7616192645475529    0.8577842500528647 H
   0.3305409269205309    0.6389280784562321    0.8724975638923862 H
   0.3313474915534987    0.7412702558634363    0.6891172845572775 H
   0.4931230986341893    0.7211585804894196    0.8146629814862296 H
   0.5968979551898732    0.7323622330106833    0.7536283873558917 H
   0.7653058369559949    0.9569319097218603    0.7183294547727563 H
  -0.0018470156120847    0.9235194337519249    0.8252403299570152 H
  -0.0371415649202693    0.8067742494510072    0.9377692247671402 H
   0.7284508351805782    0.5820888621936250    0.9912840211215062 H
   0.3316179095409085    0.8360186119499711    0.3738778337497926 Cl
   0.6734895515718617    0.7969481436513552    0.6458972123735003 Cl
   0.7735129447183932    0.5078736381421028    0.7027261424594440 Cl
   0.1605769693944878    0.2506659859782917    0.0518166442102367 O
   0.1487153110276734    0.2561533685965088    0.2741980046852069 O
   0.1630701294518205    0.0129612196870025    1.0431214537429958 O
   0.2247762316482424    0.4777593350402817    0.3193405348459336 O
   0.3440086805593888    0.3349243786789164    0.0113472187725227 O
   0.4177624511833288    0.4139040055855045    0.2127214749960245 O
   0.6431050426223565    0.3628224447497692    0.1948395521323437 O
   0.6436958981092981    1.0822962628112813    0.2494182106898900 O
   0.6961124390388058    0.2991106977245897    0.0011000582036744 O
   0.8489822282971435    0.0886617617425875    0.1968240495898242 O
   0.8901623547613624    0.2067458099693785    0.0174977056436380 O
   0.0680253190266732    0.5888972031641418    0.0488549866384167 O
   0.0708904210499258    0.6421274328286819    0.2573845395417829 O
   1.0199551731692733   -0.0575421451786584    0.1674119743815230 O
   0.3584205524895500   -0.0617964081073885    0.1444826419289589 O
   0.5462539807211899   -0.0046843852285456    0.0674180417247673 O
   0.6049870481658585    0.7712722268291604    1.1330940189032557 O
   0.3868933782101413    0.6943348488329694    0.1473839450431759 O
   0.6297764057515880    0.8713905657826528    0.3230789879875632 O
   0.8536012176196628    0.6182614992219462    0.2782995036758700 O
   0.7829431858631504    0.6560253674112220    0.0748607114058075 O
  -0.0610813723548012    0.7854336774001387    1.0078585193769587 O
   0.2781650268446222    0.1931679797445888    0.6219568661641340 O
   0.2926730300246430    0.1064932636743385    0.4116774935419876 O
   0.4706494881487345    0.2419336404511643    0.3423617776400252 O
   0.3672826032387961    0.4053203101031371    0.6470652396304118 O
   0.5421875506966439    0.3490207948553123    0.5255076856042389 O
   0.7884570555197279    0.4201143679668729    0.3417367873176384 O
  -0.0504045511813776    0.2294943344328324    0.3336517409412725 O
   0.7286180879242362    1.2425933764193204    0.5792361735026561 O
   0.9246680025767974    1.1610385564077694    0.5512525381855943 O
   0.0581890601233628    0.6058576665097504    0.5903021786225628 O
   0.1103515957178759    0.8535610064367142    0.3368042656556645 O
   0.2612177908937754    0.5644011960722300    0.5118888707484069 O
   0.6657404349673309    0.5298079657694845    0.4878688689097170 O
   0.3645815495842062    0.7767841029206618    0.6282779999026854 O
   0.5326775909544421    0.7042673745510289    0.4740999338293901 O
  -0.0665592904870409    0.8096391412227468    0.6250764563394787 O
   0.9479036290672362    0.9365600967695135    0.4488284195069012 O
  -0.2038151764145348    0.7810332982342297    0.4057783814549498 O
   1.0285757234615553    0.4387961312626009    0.7489968720624203 O
   0.0053814291334508    0.3741924839688610    0.9352416903751349 O
   0.0646368097023561    0.2179435502729529    0.6950225240004170 O
   0.5250292949290323    0.2634794509161049   -0.0945684971888475 O
   0.3644955785477465    0.0000608451479874    0.7264451379296315 O
   0.5556568674452556    0.0320874128324620   -0.1527531048123213 O
   0.5100375092802061    0.4406297633488175    0.8097993925804012 O
   0.9256918394655452    0.0684837006099451    0.8439211068724723 O
   0.7473183514639851    1.0370509054374333    0.7370355070321335 O
   0.2912138670694580    0.5526477073058594   -0.0230483883373002 O
   1.2274501774392574   -0.1259650850996998    0.8854645812428860 O
   0.0295192825737909    0.8478202430603832    0.8185155566352559 O
   0.3469910939696650    0.7038467624925601    0.8322867894741207 O
   0.5685579937983559    0.7019987721633838    0.8190210635136568 O
   0.6840968143612408    0.5272445970999002    0.9516323679475328 O
