Li1 Co1 H90 C51 N3 Cl6 O45
1.0
  14.3028961012000000    0.0000000000000000    0.0000000000000000
   0.0000000000000000   13.9586281655000004    0.0000000000000000
   0.0000000000000000    0.0000000000000000   14.4267254479000009
Li Co H C N Cl O
1 1 90 51 3 6 45
direct
   0.6111386451633830    0.6420528920492935    0.3916399978847898 Li
   0.7165082143287185    0.6686471959879501    0.6245133558850305 Co
   0.1047656736508266    0.2516821525042865    0.1342794476054847 H
   0.2584282594970320    0.1325758921835792    0.1305544165723459 H
   0.2900365433579537    0.0774358031379857    0.0340862329206924 H
   0.4332739678281010    0.0837487444209834    0.1052555362881073 H
   0.5903016064342129    0.9283475015637989    0.0321523221312512 H
   0.7441669484201175    0.2638695965699194    0.0014814674318981 H
   0.6876951685592378    1.0412017148376700    0.1858760488361785 H
   0.0493209585113895    0.4420449853339135    0.2638126536506596 H
   0.2712822995948674    0.3155752506960065    0.0457195034508687 H
   0.3284853998768695    0.5721878602970799    0.2255766726588473 H
   0.6547829529723188    0.4094975892278345    0.0747184610806404 H
   0.3992039447675884    0.6660316094441208    0.1828933900093092 H
   0.6920628154720025    0.3648107480422733    0.2716196920812963 H
   0.7583633739945831    0.6358037106135708    0.1529364880386745 H
   0.7616179596163086    0.4266896081823278    0.0327505174757988 H
   0.8684382839191480    0.3960831621236869    0.2239789434940939 H
   0.8856299070883444    0.5177681142451376    0.2608993106226949 H
   0.8573894726237390    0.5335102772567654    0.0431943288967704 H
   0.1128535461475229    0.7788500025790732    0.2659357965711107 H
   0.1933903823134066    0.7628319528574952    0.1416123659716132 H
   0.3554170085017607    0.8409442133943058    0.2307933796844152 H
   0.3198402975755513    0.8200596395992592    0.3560983219964033 H
   0.2980565974217160    0.9981666835381968    0.3095680125076541 H
   0.6364069542836371    0.9258959712562163    0.1905139689408922 H
   0.8466860459249212    1.0111407378544801    0.1419922165496109 H
   0.9358742768240449    0.8941478657299647    0.1991340816926811 H
   0.0929813469796807    0.0317121122112893    0.6146635808606723 H
   0.0665167766352005    0.1823508408219587    0.3652785064033422 H
   0.0662993381543505    0.2832461425164968    0.6398168979672110 H
   0.2435291790246428    0.2219385419519147    0.3339962863576497 H
   0.2610375212672317    0.1355131435748968    0.4221257794010674 H
   0.0082138990851051    0.2839883357948883    0.4252747961453080 H
   0.2479590510975221    0.3656102535429343    0.4806394042044616 H
   0.4147140902954852    0.1346025956435883    0.4006351091086532 H
   0.8110785719982058    1.1043433065148798    0.3251044556741544 H
   0.6357616304321113    0.1273354058598015    0.5000121302613425 H
   0.2955060650161189    0.6082773666602546    0.3911291404468622 H
   0.6141107705077343    0.2901737573833362    0.5033580731902715 H
   0.5333255231127638    0.3905303241885399    0.5331827206165959 H
   0.5821300445929579    0.4838374160143036    0.5965603736607309 H
   0.7327098282089002    0.2715401211179286    0.5259157215752257 H
   0.0358873155176549   -0.1314113676180366    0.5876650771872904 H
   0.3533460992404178    0.9537876806265012    0.5820186122085133 H
   0.4566925117111051    0.8218871830868815    0.5950160176611341 H
   0.5609739096494473    0.9280616568552292    0.6074256251390432 H
   0.7143331303611162    0.8832528122765115    0.3607799110544270 H
  -0.0523185968425806   -0.0305038870762661    0.5876747813991371 H
   0.8271277691940618    0.9467841270651547    0.3774101575276433 H
   0.2536620918958927    0.2582551479958326   -0.1272019269187052 H
   0.1491329119716559    0.0292312093897935   -0.0848458148399973 H
   0.1416805750990517    0.2038171336730418   -0.1202419275506839 H
   0.5207048203737672    0.2232789315502452    0.7383513855842135 H
   0.4268976368141081    0.3062863722716591    0.7177964785770129 H
   0.4770495078005594    0.2477011022648836    0.6240558716122596 H
   0.6163732493631379    1.0870880291950562    0.6516123674668243 H
   0.4897162431748589    1.0357348452359274    0.6021472270524501 H
  -0.0267265770579098    0.0468310764460129    0.7935732030976235 H
  -0.1584754191572313    0.0334766122544150    0.6911251454744612 H
  -0.2513027731844068   -0.0082925353356781    0.7665019178353917 H
  -0.1105375753003865    0.0265146100542139    0.8860072072530233 H
  -0.1187058510938601    0.3030503809217612    0.8084352035407808 H
   0.6789326075287145    0.2620570975406429    0.6986819538710519 H
  -0.0107368083857587   -0.0501268755786029    0.8784885225458301 H
   0.2462111533414933    0.5433153955232063    0.7922097613331680 H
   0.0980124958806339    0.5085362614819485    0.6963335346041606 H
   0.0243316138729975    0.6062542452141372    0.7120203930542841 H
   0.1299892365885265    0.3519835562955558    0.9745872529893215 H
   0.5103661659534505    0.4532243074098240    0.7625190320303274 H
   0.6293559347358172    0.4533827757043995    0.7612533255423276 H
   0.5828117247178092    0.3606548955249480    0.8228820023484991 H
   0.4648482725566455    0.4491615156134091    0.6137978265323526 H
   0.0160221079408368    0.5639778844569581    0.9631952014393335 H
  -0.0945687814013078    0.4346850213903278    0.8701096287742296 H
  -0.0887252096233524    0.5006089781781715    0.7766227176334674 H
   0.7074030653380133    0.3700089666021270    0.6462279162079070 H
   0.3007609448298437    0.9976293814544193    0.6827240706472112 H
   0.0132932899641247   -0.1551271651932019    0.7527184712231915 H
   0.2487539949969640    0.8900715339210387    0.6271473562434092 H
   0.4314540566845239    1.0050212253216424    0.7679443796105986 H
   0.2627728341594170    0.8198984489741259    0.7690541255510628 H
   0.3195326675704902    0.9211662801134166    0.8279746340940276 H
   0.3730057540411269    0.7349789292372422    0.6418922129864177 H
   0.3691806545918336    0.8003879357079934    0.8337749801463732 H
   0.5115973082252959    0.9074156451853799    0.7680733069965613 H
   0.4778711595777134    0.7634509248580069    0.7076562703552439 H
  -0.1095510618068839   -0.1946238831703049    0.8860987041075774 H
  -0.2150793400884668   -0.0724786422637515    0.6641855602301484 H
  -0.2200293865335402   -0.1245618406540396    0.8760222664208007 H
  -0.1893922346658681   -0.2144123607144451    0.7861612647207435 H
  -0.0772268390250928   -0.1887601264293453    0.6836029949773228 H
   0.2814802342626416    0.1472112845429029    0.0595771179678970 C
   0.0952060712435541    0.3214483206730849    0.3146266795117194 C
   0.3653723349609981    0.2080861778293495    0.0650759402950071 C
   0.7359728037398546    0.3016347690317018    0.1293760479909659 C
   0.7203284196642948    0.9559204116977091    0.0663756115244703 C
   0.6953376767076981    0.9674616604572522    0.1721161695956059 C
   0.1909810800464965    0.6814844173735648    0.3166153497822954 C
   0.3574131077391455    0.6468843123866218    0.2435932351101577 C
   0.4143260569936468    0.6249731334101709    0.3301575774143072 C
   0.7108506188720045    0.5010780787174482    0.2638043357547911 C
   0.7302767545325082    0.4106516424635109    0.0988119396219261 C
   0.7592107548267060    0.4914301392205818    0.1630115394094732 C
   0.9503699424943426    0.4895798857648853    0.1333734901138002 C
   0.8675139955857600    0.4735221688214687    0.1971641266878094 C
   0.2711403702970779    0.7145406743731202    0.2469252455635068 C
   0.2961884443000725    0.8158500568735563    0.2797809342443361 C
   0.2188656425279746    0.8924693340202435    0.2592260272371354 C
   0.7778503364969965    0.9396021892119939    0.2333095431846559 C
   0.8127887151627042    0.8364394727239143    0.2110827391078738 C
   0.2558490615682359    0.2173292064758811    0.4092448244906063 C
   0.1578066797961730    0.2597674742609720    0.4656654587460731 C
   0.1274974335475319    0.1903587910785802    0.5465252494319633 C
   0.0755722853296343    0.2538564349366399    0.3963292116806930 C
   0.3485274947065977    0.2598849643166247    0.4350691185305426 C
   0.6601853553566523    0.2567779254668333    0.5511222732153231 C
   0.7108890726226371    1.0423193031719273    0.3789836261627801 C
   0.0005091657765303   -0.0694733326084887    0.6314380041956104 C
   0.7569273011982298    0.9464409701343154    0.3396074002789854 C
   0.2125676173334517    0.1933161017476922   -0.0960299189932711 C
   0.2545758928427446    0.1015327269912440   -0.1393668496264806 C
   0.2038330226670248    0.1955362339578613    0.0091380905789117 C
   0.1078531602470758    0.1493590600724567    0.0406601432888145 C
   0.4913157793693559    0.2750053613569050    0.6937057726676833 C
  -0.0649992454830180   -0.0092790219614938    0.8387359118739829 C
   0.0779529220733454    0.5605047637874195    0.7480826305924448 C
   0.1264941402355714    0.4512359314984576    0.8767944444205991 C
   0.0446247068204914    0.5158466503532710    0.8364789894616457 C
   0.5755490697096892    0.4081642203767319    0.7636925485057841 C
   0.5327965393358792    0.4244591597721502    0.5994404451052213 C
   0.6592142233634029    0.3094256492464771    0.6437803753485818 C
  -0.0215534988591671    0.3706594603248872    0.7552491910412021 C
  -0.0406195675819288    0.4553726560616004    0.8170026362854023 C
   0.1568844889400923    0.6401981252560932    0.7567755249330838 C
   0.3157222504623475    0.9307252423852095    0.6443251975279729 C
   0.3302486791331514    0.8557572736426654    0.7897039952027629 C
   0.4632051787500683    0.9468937366902453    0.7268144640145148 C
   0.4219112340957093    0.7898403376020496    0.6563854533794021 C
   0.5284976896787920    0.9836251399428396    0.6503078441314377 C
  -0.1917414092499707   -0.0285631519496614    0.7211638400878034 C
  -0.0435399551527017   -0.1265849621001569    0.7131904437397953 C
  -0.1637841342218419   -0.1612681698093908    0.8355196588048046 C
   0.5630779590522444    0.3533210802827729    0.6751686485665986 N
   0.3812194751762573    0.8808779370662145    0.7049695899896977 N
  -0.1192581867847652   -0.0817467450075261    0.7748912089768279 N
   0.4519967494315787   -0.0361692002476173    1.0873633646492844 Cl
   0.8543362448235079    0.5990379200276147    0.6028951445226318 Cl
   0.6558177084438878    0.7371252719612390    0.5056127081812447 Cl
   0.4042672549872525    1.0032896798063218    0.3851374827895397 Cl
   0.7588807517303676    0.2868281564083476    0.8660872329637896 Cl
   0.6514976043500871    1.6880131273169414    0.7621509651381435 Cl
   0.0645164824432012    0.1924879401358963    0.1095953984575308 O
   0.1586435732417596    0.3082120629399181    0.2591726540719788 O
   0.4386602895530793    0.1597390199282617    0.0908440885378305 O
   0.7347716484019118    0.2793496278049416    0.2127581019674005 O
   0.7353610395252447    0.2374192895897152    0.0648305623668844 O
   0.6567860438007277    0.9329274645259193    0.0041286377920688 O
   0.8017510904129339    0.9611372567298007    0.0462019414112455 O
   0.0390950574795189    0.3965416599018439    0.3191793411837803 O
   0.2035225960255541    0.6238290381731136    0.3810707248678007 O
   0.7096802265345676    0.5808040365125378    0.2986875115535829 O
   0.6755507749503501    0.4266679011781431    0.3065458436754092 O
   1.0329797853988762    0.4791855262132350    0.1520298373890010 O
   0.7568762625837538    0.5757340540500122    0.1113671102775350 O
   0.9264628961464836    0.5285493312971078    0.0493696734211904 O
   0.1028464819147071    0.7223817027823813    0.3144485379085343 O
   0.2430509541985933    0.7149597699984667    0.1528366732882518 O
   0.1468676364798426    0.8741107964217302    0.2169267541135294 O
   0.2373311335817648    0.9840793393043262    0.2751229125579400 O
   0.5016249502503238    0.6337770071535616    0.3291497256982328 O
   0.8550465904715581    1.0018138900828792    0.2144459416707300 O
   0.7620912903286413    0.7672206362777906    0.2122458582134948 O
   0.9041583224613517    0.8293915021903088    0.1987202663732200 O
   0.0864029589850909    0.2134463034171150    0.6227201561673659 O
   0.1423860266333849    0.1037843809236613    0.5298475216364972 O
   0.1751045751489361    0.3508365954473852    0.4899605769463726 O
   0.3594532539999823    0.3402223718830530    0.4739767696137415 O
   0.4275450581429411    0.2114561364988027    0.4129206413065227 O
   0.6281995255804285    0.1592719253167644    0.5615332982634129 O
   0.7493022720273300    1.1235206924890702    0.3493927116103623 O
   0.6439229146345609    1.0384141916270317    0.4335219898989896 O
   0.0319943976354276    0.3770125201634736    0.6872656417914473 O
   0.3709103742111997    0.5939915788567754    0.4021136150992905 O
   0.0682709668231509    0.0791680650560847    0.0025447717870963 O
   0.1992598229781511    0.2895777102717322    0.0467287414829212 O
   0.2053564903511794    0.0220170334116061   -0.1290942482288036 O
   0.3260306522683027    0.1066621708843742   -0.1847485963273788 O
   0.6024641781797635    1.0335519659702335    0.6946186617392582 O
  -0.0601946241312461    0.2873368023809904    0.7735132108946023 O
   0.2054718516030773    0.4480415631499830    0.8477372615197475 O
   0.0332661680427141    0.5918187292299788    0.9034560733113042 O
   0.2481862778058058    0.6126488564138691    0.7715980153708654 O
   0.0894156355573821    0.4063645449571883    0.9495704880066250 O
   0.3729763893588257    0.2950137745540048    0.0536984450627891 O
   0.1413547669573279    0.7262689042578179    0.7465472856467057 O
   0.0660280644226148   -0.0045629424714831    0.6653063966984375 O
