Li1 Co1 H110 Cl3 O55
1.0
  12.5176319827999993    0.0000000000000000    0.0000000000000000
   0.0000000000000000   11.5832193371999992    0.0000000000000000
   0.0000000000000000    0.0000000000000000   12.7731650138999999
Li Co H Cl O
1 1 110 3 55
direct
   0.1449975517648991    0.6823821977725469    0.4927726213628698 Li
   0.5342413006380881    0.3562647437182642    0.7680896626892045 Co
   1.1145994714152894    0.0556376124667070    0.2288302080039880 H
   0.2392621859721799    0.0525467619045476    0.0959376948208581 H
   0.1379650714905982    0.3219979316649627    0.0342702851269551 H
   0.0762104200467644    0.4623216148037218    1.1594139738180902 H
   0.2313589339724457    0.3723656215977884    0.3253888916707092 H
   1.0526388704752934    0.4540501664946751    0.3196244628921039 H
   0.3159643930125592    0.3179955901180740    0.0596581979619578 H
   0.0380786551366067    1.0168790148669724    0.0502274891385054 H
   0.2853308034864493    0.1518414369441748    0.0298395430251805 H
   0.3759326043349127    0.3529962223428284    0.2060097089590924 H
   0.3833485437176612    0.4345737158264679    0.0542297861372812 H
   0.6503998521914431    0.0882118898774987    0.0605065389947565 H
   0.5744318095691124    1.0162056269449333    0.2062375303327952 H
   0.4051010605174956    1.0049911280894364    0.1323529450343978 H
   0.4177983502459676    0.3155610337845481    0.3302858768683428 H
   0.4203387668394332    0.0227137431262351    0.3194804108894876 H
   0.8435737690570765    0.3080501685002661    0.0322243395863188 H
   0.8052478300408785    0.4447125206423999    0.0304281050606525 H
  -0.0064131146138747    0.4160702243738222    1.0715892257012971 H
   0.6878030927279388    0.1610694414296565    0.2757128717250259 H
   0.9247632465394355    0.4779968769838033    0.3108098895363633 H
   1.1511878613463340   -0.0665063234126945    0.1821127343511677 H
   0.2575236271388555    0.7784867406974064    0.1909171301197668 H
   0.1465273938329767    0.7529860580804958    0.1289152692545722 H
   1.0563456418569539    0.5886405557997656    0.0530152085456571 H
   0.1071212984406704    0.7550174449786470    0.3037505585168490 H
   0.0282583073129201    0.6540938618219643    0.3296102416604199 H
   0.4339819223687427    0.5102789213027871    0.2947872358105808 H
   0.3836840704375529   -0.3130612678423624    0.1120431784481450 H
   0.4248739696699689   -0.3001089101572953    0.2308876463891809 H
   0.4442170850717240    0.8856227590938242    0.1840261207337443 H
   0.6107541747436713    0.6181289035601359    0.2855819996868756 H
   0.6623725639795777    0.5832784886410672    0.1834608732017392 H
   0.7435540527305109    0.5043971367991303    0.3182598833238424 H
   0.9937139874771748    0.7104244881362308    0.0404489417022139 H
   0.6939767843739456    0.9824585322365902    0.1903534483703990 H
   0.7378085570889372    0.7982204600845466    0.1880321756108492 H
   0.8220633108194496    0.8593744432198803    0.1128573854194542 H
   0.8346583447856690    0.8695874933708063    0.2957204422623121 H
   0.1425474078365473    0.2934031178780673    0.3621237181204878 H
   1.1559251790819474    1.1192598785523757    0.3782395359131797 H
   0.2473579663992804    0.0737744528289808    0.5427445742269712 H
   0.1794321797034961    0.4576476119704916    0.4879453134925886 H
   1.0324593348932372    1.1358010485347716    0.3584261224228981 H
   0.3049095864652712    0.0489408559138132    0.4382536357205339 H
   0.1891209131769395    0.4966782119132953    0.6116366615868698 H
   0.6032807164946556    0.2673948043660810    0.4121473418116146 H
   0.5037594970090720    0.1917120451538298    0.4301334869643619 H
  -0.4569988969527449    0.3646138906337001    0.5635232927130454 H
  -0.3492085415681166    0.4516346031538221    0.6093357440016027 H
   0.6035611209677080    0.0099236373976655    0.6019562104327947 H
   0.7653824624788921    0.3752827726087756    0.3458239208679327 H
   0.7596888935915873    0.0923058294481417    0.6250115768732604 H
   0.7894269463248436    0.1915894540193047    0.3472331252413524 H
   0.8651593213701074    0.1117246104840512    0.4587912236804896 H
   0.7728495297427670    0.4867811360950182    0.4820892864297109 H
   0.8861776737518932    0.0281422106506358    0.3744378156702206 H
   0.8674840422150712    0.0226229652544371    0.6197685537128204 H
   0.1170881196550526    0.7982783023804141    0.6520643863863267 H
   0.2279541366386879    0.8968346679957749    0.4927373912535343 H
   0.3048169171807296    0.7986348526519553    0.5333295232298901 H
   0.3249109733365279    0.5433172320572917    0.5505633098254951 H
   0.4787779349668516   -0.0084393059092007    0.4268617841440724 H
   0.4456918048929621    0.5064397468293156    0.5769890233923896 H
   0.4191492447301028    0.6986004868795036    0.6241182978787759 H
   0.4370855445277407    0.5978409341140867    0.3811464113790172 H
   0.5019939873639276    0.8562362828396084    0.5719886965407052 H
   0.6012795392724445    0.8375868906705211    0.5124952194601977 H
   0.8139259889889341    0.5175351078216825    0.6081073875227719 H
  -0.0075792297401268    0.8048118918598907    0.6535996362620357 H
   0.7625975907037912    0.6650096527017875    0.5411294694367684 H
   0.9395264222146693    0.8282501081360946    0.3582178733321593 H
   0.8307214979389400    0.8295709844447097    0.5948945307393246 H
   0.7890922184780944    0.7598278520319826    0.4482785590547783 H
   0.1664720607111089    0.1776485973973982    0.7664142752674722 H
   0.1556960608905880    0.4888280627144473    0.7774702664682686 H
   0.0761136765091956    1.0002169803857490   -0.0617751349913139 H
   0.3274841437288400    0.4521370541418052    0.7631300461860856 H
   0.0448301237942670    0.2363973770060641    0.7673263436536022 H
   0.1814852836799762    0.2737004779334828   -0.0724013188582173 H
   0.1679611602489139    0.3570710825890136    0.7475896535125400 H
   0.6385957026363969    0.0857918372838321   -0.0618087993180122 H
   0.5775785708778107    0.2522858786947913   -0.0468237114567259 H
   0.6252952636852624    0.0153969862270701    0.7233247199848891 H
   0.4831206093700210    0.3323896886105838   -0.0067349785982083 H
   0.5344010752666079    0.1516955362277330    0.6843743111035673 H
   0.4146140418995671    0.1650208472234679    0.7241123086513670 H
   0.6873261654618070    0.4643607715625120    0.8786691469801337 H
  -0.1091040230673493    0.2406811601716512    0.8208213074512528 H
   0.7852344600724828    0.1503807031440593    0.9726395919476738 H
  -0.1074855060804432    0.1928740709782715    0.7020058064890039 H
   0.9117416143150682    0.3891174411352837    0.7403087642498712 H
   0.9132674620174327    0.1527556905460202    0.9646227848455525 H
   0.7470874686402273    0.4619339850896250    0.7856765332694829 H
   0.0874132577873761    0.6288374981562549    0.9037138402610768 H
   0.0638662322473212    0.6631336630164145    0.7867717982241574 H
   0.3250332009273457    0.8645215442342354    0.8725860814348717 H
   0.2458305209506307    0.9794282865874143    0.9496147582686323 H
   0.2153463207021869    0.9832527846574568    0.8195999969942891 H
   0.4050043968672410    0.5183008707535398    0.8377787334114040 H
   0.4059822175937824    0.7586891357894575    0.8912815261222403 H
   0.5170175956836487    0.9432207360100823    0.8607644225245171 H
   0.4011210745210662    0.7852586059031431    0.7133170202596532 H
   0.6408293519431044    0.8914726008370765    0.8394854364858789 H
   0.6168831294936926    0.5680435185638575   -0.0173194343578322 H
   0.9344535777591642    0.5271110294002178    0.7532288196801746 H
   0.7174636547663629    0.6340260384273509   -0.0586647077826491 H
   0.8320460296093697    0.8475305856526314    0.7135565850031346 H
  -0.1400787314253490    0.8059583779630547    0.9345284425598552 H
  -0.0633222010112729    0.9080146341373212    0.9932922649314588 H
   0.2801549043955490    0.0869821799337135    0.7063821689597909 Cl
   0.4274719051297016    0.5760775544644929   -0.0054187817134343 Cl
   0.7394206830907024    0.7594687118068950    0.8149339647356326 Cl
   0.0714949115479439    0.4446909376961806    1.0824166126370722 O
   1.1232912112067690    0.0136852859283176    0.1632716718785457 O
   0.2961547356955262    0.0668521113222040    0.0442517579930190 O
   0.1942065396027262    0.2678471829188354    0.0057658385310027 O
   1.1025364869620411    1.1561926161226730    0.3321397635107083 O
   0.3780999471707843    0.3578057660783152    0.0899675222037335 O
   0.3711497508301710    0.3653675671156746    0.2889758335528614 O
   0.6464949602704181    1.0504966118980004    0.1878341041072518 O
   0.9991383361154235    0.4982278674518339    0.2809190989934933 O
   0.8600465332574724    0.3909494016103695    0.0480508164054949 O
   0.7218390829683787    0.2210173695302612    0.3200855858787396 O
   1.0637671733517007    0.6682108352850193    0.0374286252843161 O
   0.1749544957392275    0.7933677504566214    0.1925197086488725 O
   0.4436802423198973    0.9669274441372530    0.1868288716542124 O
   0.3840683284191431   -0.2582915201986684    0.1711827886526604 O
   0.4633900404941054    0.5839605097415940    0.3107527384701080 O
   0.6797368706071144    0.6217945511460051    0.2517603118334831 O
  -0.1134283233882389    0.8302625020415729    1.0042449144782044 O
   0.7747564399341514    0.8725495369099296    0.1776252013131444 O
   0.1637151494959990    0.3759380308559906    0.3654854534424124 O
   0.2349946056444148    0.0423842158477745    0.4698049387500835 O
   0.5299809101686064    0.2733137115372348    0.4368436484557957 O
  -0.4227895512403608    0.4167375690709199    0.6231522099916649 O
   0.4415113017377404    0.0537064567707977    0.3905685083979654 O
   0.6191071923226888    0.0634858623662876    0.6596020640014852 O
   0.7972543053760308    0.4519436709436810    0.3471955464580612 O
   0.8335159561917522    0.1025480597423561    0.6061110146604273 O
   0.9022510013809896    0.1096365899350208    0.3892070603949782 O
   0.0562878819546821    0.7471517560585214    0.6481585415979982 O
   0.1775268672583970    0.5264669942850368    0.5377779117019851 O
   0.0639419654212396    0.7187857215015494    0.3590148566944600 O
   0.2362200770451620    0.8096309320917139    0.5007040933112672 O
   0.4201390485537833    0.7821135389800810    0.6359078582450692 O
   0.4004348424915735    0.5577380934031132    0.5342165390938259 O
   0.5528622347189334    0.8988202990479414    0.5277201069323609 O
   0.8775258776175434    0.8708099514446619    0.6495278185141712 O
   0.7623826938284320    0.5254491425413393    0.5486953311393954 O
   0.8750174159497819    0.8773081448923390    0.3642406562458917 O
   0.7603927008302173    0.7480927725136785    0.5179057813628110 O
   0.2006957861400597    0.4356658129051595    0.7337802335443451 O
   0.0092882576800275    1.0157308021281111   -0.0220542044742588 O
   0.1201390161866391    0.2429585926567013    0.7960279222835696 O
   0.4067850851020947    0.4561894681239224    0.7874967555851502 O
   0.5358733984684182    0.3213513065962355   -0.0678957793198670 O
   0.6600981721425977    0.1342124864723312   -0.0041778206843745 O
   0.4809277025935861    0.2106471955308594    0.7064283595475863 O
   0.6811708478980800    0.4220158943982878    0.8135639049281412 O
   0.8470728334216610    0.1941267451768340    0.9483777899852971 O
  -0.0727824567659329    0.2456409212128236    0.7494075271542515 O
   0.8849474091122902    0.4733505003217336    0.7305703791382223 O
   0.0749422089328881    0.5929485118651182    0.8339112502976853 O
   0.1972917876794444    0.9490222319538036    0.8892694954335244 O
   0.3851124556165204    0.8217320583778958    0.8376769575399903 O
   0.5911338503614344    0.9581388684367942    0.8488331588295632 O
   0.6940862299944817    0.5646411829218626   -0.0215406277692792 O
