Li1 Co1 H90 C51 N3 Cl6 O45
1.0
  14.7674113797000004    0.0000000000000000    0.0000000000000000
   0.0000000000000000   14.4119626513999997    0.0000000000000000
   0.0000000000000000    0.0000000000000000   14.8952623331999998
Li Co H C N Cl O
1 1 90 51 3 6 45
direct
   0.7174283912252756    0.5841914130191097    0.4959484432935775 Li
   0.5857790486280700    0.4351355868307645    0.5157904637554289 Co
   0.2595471941662578    0.0256914921760522    0.9795236122884400 H
   0.1714965557322646    0.2893287282627631    0.1377505894627099 H
   0.1299415408267026    0.1078336700760901    1.0347780939880038 H
   0.0360564336571503    0.0214838764982452    1.0508261497155758 H
   0.3050067525640707    0.3302037994969211    0.2079420353474624 H
   0.4303672475350998    0.1940557919381176    0.0827592786904056 H
   0.5057480960384625    0.1077795483704719    0.2601264133471354 H
   0.5394557640380325    0.2974920855268461    0.2954826217991460 H
   0.6476653180968199    1.0960467500355016    0.1338802313105407 H
   0.0359372523087917    0.1076074691013267    0.9659850793315199 H
   1.0224547688470189    0.5640373224885057   -0.0065758380892482 H
   1.0798399109149726    0.5808837441642110    0.2067859630598587 H
   0.3415222925009662    0.6774153570784907    1.0497815222594136 H
   0.4751884408357666    0.3821238618853225    1.0193966931858616 H
   0.3616937357106732    0.3543406924666103    0.1032120906775411 H
   0.4463700522192611    0.3721224482342819    0.2966440649219999 H
   0.6549245456786670    0.4618600524234218    0.1923270032119370 H
   0.9828486398538221    0.3927566954352426    0.1051845299231739 H
   0.9456207204937828    0.4319532999272147    0.2103340710970165 H
   0.9175325207859998    0.6190180367164201   -0.0045248503780813 H
   0.8188483328447544    0.4488330272679158    0.0562944879950871 H
   0.9330978757483446    0.6513703270517484    0.1924042089686585 H
   0.2017354370445202   -0.0538937820675346    1.0517741021372347 H
   0.0558743958222936   -0.1117859665105016    0.9921209063677641 H
   0.1748519169886128    0.7249973566011847    0.2877727877974961 H
   0.0426845418260980    0.8342656109042879    0.2578887891110244 H
   0.3239782562891664    0.9122244585072449    0.2541634435106103 H
   0.4747082618918965    0.7678589719787401    0.2118432758023203 H
   0.6035655105370993    0.9447953172691083    0.1057236275114118 H
   0.6741039395966384    0.8640249164460863    0.0469358075716284 H
   0.7192919541268842    0.7041473164457718    0.1884170351497976 H
   0.7750816913270363    1.0049869803328293    0.2314072145555490 H
   0.8231659480557486    0.8219896978812400    0.2161936523549754 H
   0.7491380787229577    0.9285414588831206    0.3260668431313614 H
   0.1107167767363446    0.0608490909192588    0.6018693035447882 H
   0.2486610614604953    0.2324558359422728    0.4947755200103762 H
   0.3233877668813894    0.1200395024290425    0.3966731860391912 H
   0.2685833073054524    0.1671996301951227    0.5897956659023577 H
  -0.0084686346228502    0.1172550100617866    0.5365832429003574 H
   0.3212248962753801    0.6524361083316150    0.3645549198886399 H
   0.1446800751848090    0.3515922812364332    0.4803074297425292 H
   0.2410530930013488    0.5145718876102972    0.7961565833028400 H
   0.0284105438598896    0.7083937887327407    0.6183382984850941 H
   0.2026611239945560    0.8244723576594712    0.3567329697011422 H
   0.1624015290856427    0.8970662177260159    0.5015039010054942 H
  -0.0054891009138832    0.7288691401569505    0.4985682024577396 H
   0.4257686081220100    0.7195962879276937    0.3599158609412869 H
   0.3282532099947821    0.5890422443521488    0.6579448516832249 H
   0.3516391637764134    0.8806000357256797    0.4139209520907748 H
   0.6385614882824215    0.9589474494202548    0.4117390502703846 H
  -0.2260924223923007    0.8965506737866012    0.6544806629468514 H
  -0.1063740807992519    0.9065964949909696    0.5162706567080604 H
  -0.1383153593261309    0.8104027958027936    0.4466006719312931 H
   0.1821646407438708    0.1205057817389842    0.8744049534172861 H
   0.0793646332837387    0.0765284265840684    0.8222474295938639 H
   0.1711173423511234    0.0218967279705894    0.7989863421252846 H
   0.1620676858768879    0.2565684435312358    0.6950123425168278 H
   0.5138807468404232    0.1241111199747832    0.8090365175872055 H
   0.5729858111985431    0.1204669251298224    0.9094697940569737 H
   0.5272225435124410    0.2328749322268037    0.9719245517638253 H
   0.7125453417763299    0.2116370198477935    0.9350987485164811 H
   0.6342574164064683    0.0755729703195004    0.8085900669070333 H
   0.7691124664078217    0.1847440830996990    0.8378550768309204 H
   0.6981751861313321    0.1779185033796153    0.7074760370693033 H
   0.7459736784906842    0.3014034195597944    0.8479482189748427 H
   0.5914347453410910    0.2176937938008900    0.6790952008984790 H
   0.6779373805799254    0.2984183993345427    0.7036419320550729 H
   0.2907591641011918    0.7194873506484364    0.8576593604615952 H
   0.4226807277327168    0.5538159526748884    0.9712592395472078 H
   0.0605048620727292    0.2730158910950118    0.6546753557246708 H
   0.2881859304434475    0.5322872402083834    0.9067575222556270 H
   0.3530652769562054    0.4659030964840681    0.8276115512999926 H
   0.4985824529017471    0.2784461022253742    0.8047438775134899 H
   0.4763238463289087    0.6555564328209124    0.9916247754615277 H
   0.4818836562298412    0.5695646751417727    0.8435736736635617 H
   0.4201122342422368    0.5258130352540057    0.6939777853767595 H
   0.5981671371898525    0.3290006323489466    0.9775921256615898 H
   0.5850341652008282    0.3637328899954355    0.8107759968538613 H
   0.9560348679733746    0.5608496928011961   -0.1565523843244077 H
   0.2323210277338191    0.6758180728947321    0.7631601855888823 H
   0.1070919031126854   -0.1403254520718276    0.8791279316654231 H
   0.3337220086842408    0.7489781292662059    0.7470094126371503 H
   0.2437847836790699   -0.0822639638317985    0.9366408495876923 H
   0.4369059696927785    0.6427955060513626    0.6843586194436666 H
   0.4577317591349798    0.7048175929538130    0.8326554369543288 H
  -0.0706406684609603   -0.0080145346677525    0.7640886687327592 H
  -0.0701327933969318   -0.0253043380087149    0.9215514879522794 H
  -0.0542051542222467   -0.1375818979177958    0.8545093655873579 H
  -0.0869597100183233    0.6467325132010786    0.7037493487600767 H
  -0.0420195385193235    0.8612293221904985    0.6818564815714836 H
   0.0807162581208065    0.0630812643420004    1.0032412207532855 C
   0.2848000966832577    0.2272566828628189    0.1051059814576398 C
   0.3410821341121415    0.3054077319075227    0.1552890519722102 C
   0.3914714664647909    0.1814801279301073    0.2688399221861649 C
   0.4250670633668986    0.2551092390836058    0.1973702175118668 C
   0.7130491538398461    1.0083341996649107    0.0479018865622566 C
   1.0890994890823396    0.4546513881690839    0.1804198614622624 C
   0.4909121851014130    0.3290339380139424    0.2514551998357013 C
   0.5386867734744182    0.3965611737929958    0.1881666199562574 C
   0.9875684921155268    0.4518779976901600    0.1511904333219078 C
   0.9512276612006570    0.5547235320460248    0.0099623063549040 C
   0.9379064368545662    0.5397182197765684    0.1119202286813203 C
   0.8372097093262639    0.5474261220718335    0.1390362331507245 C
   0.1750543898474721    0.8650768203655381    0.2232388454944140 C
   0.2109218812026672    0.7932302561573374    0.2913443932388735 C
   0.3137543926668972    0.7822470192569404    0.2884736817976461 C
   0.3424087037793839    0.7272496521965279    0.1997629246158271 C
   0.6365652006974136    0.8112694369607060    0.2107060014380922 C
   0.6382235820731545    1.0143292193641607    0.2896304254396561 C
   0.6699637420746782    0.9237551572760108    0.0937265242712966 C
   0.7083252385776293    0.8875900621666803    0.1851649944058066 C
   0.7225294883683777    0.9580440332572427    0.2615792242823122 C
   0.2288370047945838    0.1672731802053219    0.5297271702971661 C
   0.2388055765513347    0.0743448239227790    0.4846778797919319 C
   0.1349552834587917    0.1900084597731030    0.5725939547630444 C
   0.0606179489203195    0.2172608201559442    0.4952821911807911 C
   0.1288655228577142    0.2770361624072173    0.6365937675004949 C
   0.1570850929153925    0.3730647210064557    0.6027481064626008 C
   0.3525506302246565    0.7233841134529491    0.3672302671976415 C
   0.0632250409156657    0.8357088563874406    0.5699911137299203 C
   0.0007096835342724    0.7530101963347642    0.5657098866811114 C
   0.3351325470287358    0.7590475419832797    0.4640611901942249 C
  -0.1481220882291448    0.6863877644547642    0.5989959066859357 C
  -0.2391955990442354    0.8576871259445874    0.5312906875739375 C
  -0.1417729727620368    0.8389589341966174    0.5183509893203255 C
  -0.0952875067348863    0.7785598045946932    0.5933034926751390 C
   0.1398918290811485    0.0608733762999849    0.8541743597386272 C
   0.2126947037595027   -0.0329847631303583    0.9792658121964307 C
   0.5838965250574044    0.1261899485649399    0.8373200073691200 C
   0.7201120030636021    0.2337589200852347    0.8642876425147378 C
   0.6514797984110499    0.2301077865600664    0.7198947508765586 C
   0.5439507969380606    0.2993516518224469    0.9387341326264546 C
   0.5605177492433446    0.2953639923072164    0.8400792739789059 C
   0.3044318379915905    0.5199148101436497    0.8350233039452569 C
   0.4367813710104035    0.6336343665734460    0.8541428060815323 C
   0.4171963542079613    0.6324651989584881    0.9579657509485776 C
   0.9185875465856750    0.4792002305826903   -0.0511853243229324 C
   0.2967229716863902    0.6967486017405515    0.7879533038125788 C
   0.0664415829878461   -0.0893788865165335    0.9204625511053030 C
   0.3832865519329079    0.5917205749122305    0.7034546241757225 C
  -0.0262693170336723   -0.0685885190109049    0.8734160483768445 C
   0.1244673248032277   -0.0030041136899418    0.9383407189443780 N
   0.6281277029670205    0.2212082353259713    0.8144039960653655 N
   0.3554678645924361    0.6104668072287398    0.7996697809108715 N
  -0.0662560137415144    0.7755581315369438    0.2950401992454115 Cl
   0.4794885851445581    0.3901442823371318    0.5977894828178615 Cl
   0.5692275357247323    0.5624296302844359    0.4558328691846097 Cl
   0.7278073260337616    0.4197700876717386    0.5308496748644561 Cl
   0.8085479493795049    0.0387813123874357    0.7205251526640498 Cl
   1.0167347412925540    0.6527199003521005    0.7667834853195428 Cl
   0.1957154246189026    0.2262783289535663    0.1150064448869615 O
   1.1385401108153841    0.3884123877573484    0.1682562623293913 O
   0.3286683132137814    0.2038240659341874    0.3152895908474458 O
   0.3220456223788501    0.1677443165914088    0.0596707293042387 O
   0.4785528084099168    0.2109896409844370    0.1281488787441801 O
   0.4376711681225814    0.1039133157588721    0.2819769852081332 O
   0.5992770134964428    1.0624794967958462    0.2313810317337043 O
   0.6873831796041031    1.0962507472336012    0.0769399786968231 O
   0.7674561165323368    1.0004185532842340   -0.0135122718148705 O
   1.1214030518215590    0.5288428793533975    0.2256550500025939 O
   0.5112661789241345    0.4269004142265342    0.1122196527465184 O
   0.6120300949375739    0.4291468119437012    0.2290326340205581 O
   0.9768557140982861    0.6210927020984522    0.1499987792507716 O
   0.7829693296547747    0.4890710582722265    0.0969020306129723 O
   0.8071699150391076    0.6021077791828061    0.1937764573750824 O
   0.2821889416873993    0.6893727846800157    0.1546035991234045 O
   0.2246365394316923    0.9158353476872099    0.1775222958447842 O
   0.0858627254362950    0.8726392879236546    0.2164366826500465 O
   0.3555626679377215    0.8713181632121533    0.2977679121981024 O
   0.6571294006233026    0.7207064767608881    0.2028102022659045 O
   0.4315109821792920    0.7291362793449379    0.1748368782196884 O
   0.5564300998613426    0.8300649339066883    0.2352325919624979 O
   0.7902468407389267    0.8418655473355248    0.1650230195087760 O
   0.0693608488558818    0.2818349536387004    0.4404696620868777 O
   0.1046852524759424    0.1186337258190100    0.6335182929653541 O
   0.3064626610809523    0.0631575898242825    0.4295245712013936 O
   0.1940814212462350    0.0070132589255761    0.5152071440524497 O
  -0.0153615149918447    0.1681009647540725    0.4962096672930586 O
   0.1732544806205552    0.3969039445952447    0.5134475577213260 O
   0.1598208465936259    0.4337108676237657    0.6602267853101500 O
  -0.1989854373082207    0.6693824470023079    0.5359924510228363 O
  -0.1425402026920958    0.6311406049068831    0.6681017724957432 O
   0.0693391795198166    0.8817581014523057    0.6380385221827964 O
   0.3188040251368443    0.7076534315546041    0.5242952417960037 O
   0.1138791454683619    0.8450774624035605    0.4947302035879527 O
   0.3453794343205744    0.8527231941241666    0.4741106271662989 O
   0.6128745218773652    1.0102631527625860    0.3710885409704978 O
  -0.2897867270889921    0.8587529072244541    0.4621579004524384 O
  -0.1004339740503748    0.8264047800972503    0.6747622795603869 O
  -0.2703452696379820    0.8642185056238746    0.6147895190935300 O
   0.3381642225776099    0.6797266314555974    0.9851770877436727 O
   0.4651743634732787    0.3582700670680979    0.9560510481818844 O
   0.9334567741269247    0.4939379873433469   -0.1384842231883573 O
   0.8804529009446567    0.4075129090852510   -0.0276194419539047 O
  -0.0104405442047848   -0.0258802484659345    0.7880922741746775 O
