Li1 Co1 H90 C51 N3 Cl6 O45
1.0
  14.5928324871000008    0.0000000000000000    0.0000000000000000
   0.0000000000000000   14.2415858388000007    0.0000000000000000
   0.0000000000000000    0.0000000000000000   14.7191719991000003
Li Co H C N Cl O
1 1 90 51 3 6 45
direct
   0.7052284572921292    0.5008690394553029    0.3437962406995051 Li
   0.7002403920851623    0.5693913944125250    0.5571973070225333 Co
   0.0390822510231760    0.1143872907019788    1.0891547432478021 H
  -0.0124080953961518    0.0616171843032574    1.1837945776138368 H
   0.3128104668120636    0.2288956058895387   -0.0354744139501819 H
   0.3028384480056641    0.1367717360585825    0.1187380648590059 H
   0.4118261994518581    0.1015453219725040    0.1488966906313756 H
   0.5098224658562146    0.1473246338679365    0.2642061659268460 H
   0.5454781824869619    0.2991707853062384    0.1169349743046172 H
   0.5796267277019169    1.0895483547292553    0.0024169837476031 H
  -0.0725835274636591    0.0677162241842907    1.0712726232470240 H
   1.1584941276715519    0.3975390439999656    0.1215989594801555 H
   0.1930372835356111    0.5806626111026408    0.2524847185512362 H
   0.0573953509807229    0.5725293876462733    0.1375910275132210 H
   0.4052990224912372    0.3486891470941994    0.0313601878915624 H
   0.3981208410043601    0.3929805628915534    0.1530484187315525 H
   0.4298117413425098    0.6793608892235019    0.1754138072208051 H
   0.7307615400798181    0.3491638133340772    0.0542439479305507 H
   0.8952683280609820    0.3456571813785303    0.1707131351990208 H
   0.8790432394629114    0.3660509776374217    0.0619074224797235 H
   0.6973910480639275    0.5439560247774168    0.0849562733268190 H
   0.8113195812304446    0.5960899660676628    0.0713243924022487 H
   0.8748062278988673    0.5562524081986295    0.2253303378547922 H
   0.1659698858697248    0.0280422716908366    1.1088807169654646 H
   0.1269301723320266   -0.0359070672597995    1.2093687063775347 H
   0.1606707090259997    0.6925019819443790    0.2934747959847284 H
   0.1738408732261229   -0.0919619202119948    1.1098386512841112 H
   0.3045858812077201    0.7799290433751243    0.2010674241513694 H
   0.0094738799011236   -0.1713674030564029    1.1482504586897568 H
  -0.0096437245972914   -0.0776264380324903    1.2232078000447910 H
   0.4831454584730261    0.8938763255365564    0.1726772402452671 H
   0.5778516782025892    0.9385153149858920    0.0241675278692138 H
   0.6502295391102419    0.8699618539422401    0.2579483410977297 H
  -0.0888360267786247   -0.1031481744538485    1.1381350799164736 H
   0.7169054226893976    0.9607319419529531    0.2245768987346652 H
   0.7780443414557640    0.8101461838587055    0.0626017550142319 H
   0.3087865735718783    0.2885294142036527    0.3914008206339501 H
   0.1063721346607795    0.2236784902648464    0.5547857583292937 H
   0.1517300184427743    0.0767208393620907    0.4644499704139611 H
   0.2039741595767145    0.0651287314417616    0.6281478333200625 H
   0.1826671240663117    0.3244902970573527    0.5691281411761623 H
   0.3785694619110817    0.2331633890344754    0.6297382760434326 H
   0.6843572521803568    0.2416631447056598    0.5872542287044765 H
   0.7142979782447612    0.1270368651271244    0.6176193878334907 H
   0.8608473203200906    0.1779349889881029    0.5365766498266966 H
   0.3144996522407178    0.5040252188659933    0.3858712976414219 H
   0.4044438081241133    0.6115608555103069    0.6301262054731824 H
   0.4145556215866773    0.6909185908631298    0.7251539692689669 H
   0.4154074096141893    0.4385507688606019    0.7155882138033327 H
   0.8400453272684781    0.2997191792904759    0.5287765507445594 H
  -0.0713370251128592    0.6278947106464566    0.6356115683730070 H
   0.9379735397154635    0.2556138382765059    0.5893779894704974 H
   0.2954238490855677    0.7486144127540741    0.4043050791079739 H
   0.1024537726806399    0.8515369395422502    0.5684259957021754 H
   0.0617605076462510    0.8065932087495610    0.4630835892071086 H
  -0.0011087126241120    0.9000413693030164    0.6870859312003675 H
   0.3899031080792402    0.6676508169121973    0.4053316314168214 H
   0.3766548233359662    0.9681454421905710    0.5840944042250260 H
  -0.1200616301974819    0.9567569632784736    0.4555929504669171 H
  -0.0679518015763271    0.7307294663103947    0.5226810991793840 H
  -0.1426905475301459    0.7945755864189273    0.5789146291667100 H
   0.1679927967765755    0.3250941623921085    0.7426692208072846 H
   0.0957682988299503    0.0530142097899694    0.9490306927831352 H
   0.3351049733986088    0.2102431887355244    0.7384957523537767 H
   0.6673776835997515    0.1989670568624513    0.7029869615038595 H
   0.8385233472128834    0.1230239693269741    0.9445868286850733 H
   0.7907855279364806    0.2562120862593105    0.8464556294512904 H
   0.7468475192896465    0.1369564065039788    0.8172318388721531 H
   0.8525261119386922    0.0961877725490313    0.7130296459706922 H
   0.9288978513515304    0.1837847588763009    0.7355927357980484 H
   0.2528406151212689    0.5552314544814960    0.7115078212375232 H
   0.2474441302325665    0.6778884408432893    0.6763203799852796 H
   0.1261153887723229    0.5830738594277004    0.8210717287792387 H
   0.1261928240475512    0.6828366257433170    0.8986603322733638 H
   0.1209916405167257    0.6900219210579168    0.7740765581241028 H
   0.2613187498568911    0.5087512374963504    0.8821818238345174 H
   0.2638096987547239    0.6075613009210409    0.9590815298824670 H
   0.5046882261487259    0.5547539795656427    0.7444621205710493 H
   0.3649504472218029    0.5779122151535264    0.8963137328857005 H
   0.7693791285773334    0.3350488122186580    0.7517050551604760 H
   0.7877210097876201    0.3864496890792704    0.6426866946101599 H
   0.8850804498590343    0.3584443809264807    0.7052520345665316 H
   0.8007904396031541    0.6019734400675683   -0.0807011427390502 H
   0.2317042113235374   -0.0230285857426419    0.8952049748658202 H
   0.0742817231238852   -0.0267086534396826    0.8648921284620087 H
   0.0582896256194221   -0.1418201317930043    1.0038720928326323 H
   0.2599269707065477    0.7940931963201165    0.7968903414008071 H
   0.2678287951194527    0.7714377137318666    0.9152502600230314 H
   0.3576002634864097    0.7482549022291963    0.8391556264343699 H
   0.6730743158384540    0.8934901325899103   -0.0317928209907876 H
   0.6714344697002109    0.7273716941815551    0.0187793171733370 H
  -0.0389156291694578   -0.0661642313760331    0.9770261533990718 H
  -0.0063606059811933    0.0601538641199655    1.1117579168516123 C
   0.2745519587058728    0.3439214196256044    0.0814696641613620 C
   0.4131665835080234    0.2494796899457775    0.2518494926023464 C
   0.3771530131155328    0.1492464704042465    0.1088088378611193 C
   0.4207956712878232    0.2462756928266025    0.1417413968413146 C
   0.4088281522914679    0.1377133446794052    0.0089234638679425 C
   0.6962027934865294    1.0269752670066672    0.0221157820236019 C
   0.2134007051169037    0.6547203748894909    0.2477174666973757 C
   0.1874448120211095    0.6875186885946560    0.1506841553068077 C
   0.3109965626215373    0.6699237379454582    0.2870382926266732 C
   0.3794911472666759    0.3358303263088710    0.1030422091400751 C
   0.3759366625533173    0.5900400780162027    0.2488785374424587 C
   0.9849431736508840    0.4515833764719210    0.1185831648415226 C
   0.7232818407070961    0.3996265924188364    0.1802095932884124 C
   0.8937148256809581    0.4055995929654643    0.1251725300589364 C
   0.8038316586426539    0.4649503007846169    0.1510007492021902 C
   0.7709915639986815    0.5277385892604560    0.0739563339273813 C
   0.7761954886011965    0.4808465501603869   -0.0165059556688960 C
   0.1331928358746109   -0.0357490792361716    1.1360690669639881 C
   0.5706606136787715    0.9949626804056785    0.2131278851617343 C
   0.5950353195704778    0.7902853338661857    0.1075370271912566 C
   0.6490611573025927    0.9314030452466580    0.0265039364662532 C
   0.6508928784591009    0.9275516483151052    0.2056743408994138 C
   0.6674777327164183    0.8757498329589748    0.1175987344672539 C
  -0.0163422185385061   -0.0964986340815960    1.1519809674441457 C
   0.1786021147507838    0.2474616562573030    0.5606634666681384 C
   0.2269840858742190    0.2314971420119458    0.4728195308761619 C
   0.2284142400282154    0.1962566845459893    0.6450244619792825 C
   0.3176573668270213    0.2462153062931269    0.6757843443984625 C
   0.7103809868004661    0.2002555369662615    0.6428966248970123 C
   0.8659484547342493    0.2455714173257187    0.5714350644189966 C
   0.2631943281604313    0.6134524987798791    0.4517292141097716 C
   0.3864712863239867    0.6206279637285642    0.7039299493295911 C
   0.3146764513646905    0.6749421397448763    0.3873971986908405 C
   0.1078358669429723    0.9523782374325004    0.4470171963410928 C
   0.0645892936298146    0.8672360339079123    0.5026782756497723 C
  -0.0590357806383073    0.9715214707132521    0.5982222369599594 C
  -0.0350877225550716    0.8863729476677190    0.5306544417021276 C
  -0.0679319288065783    0.7899883163817650    0.5724224840918484 C
  -0.0237300920096299    0.7539796860364797    0.6592847749923267 C
   0.1527298243415193    0.1914433160927907    0.7187921983754869 C
   0.3199550701707444    0.3492066456427052    0.6923104098602203 C
   0.8063438508460803    0.1830165859969721    0.8279321690272482 C
   0.8539535250209991    0.1721449034643865    0.7329458477800008 C
   0.2807954347466306    0.6270542143607558    0.7236171980428828 C
   0.1499606566672023    0.6557041136499476    0.8322965449584437 C
   0.2910867884048569    0.5824096075594691    0.8915987937570428 C
   0.8128258001238245    0.3357888983382308    0.6921011589594095 C
   0.1008139265423967   -0.0217344882868804    0.9325372378513739 C
   0.0341681947518256   -0.0686534204594159    0.9935250434191659 C
   0.2834953903607877    0.7466160397974289    0.8481418656065250 C
   0.0364062797863020   -0.0302089658742843    1.0942351920668372 N
   0.8097544292957403    0.2367556856072784    0.6600606338518262 N
   0.2502311148728652    0.6525612052332420    0.8233204965769125 N
   0.6711425455652792    1.4389708176717182    0.4837029555694662 Cl
  -0.1491937401134837    0.5378920231291792    0.5642684928206451 Cl
   0.6976322623726035    0.6595786821582992    0.4300327491170718 Cl
   0.3787997119329997   -0.1217057987936860    0.5870959317567853 Cl
   0.6321165373860285    0.6207037979799057    0.6804748256296228 Cl
   0.7835415607290556    0.7316858204800895    0.9323884523082649 Cl
   0.2357205666165766    0.3064958122506247    0.0141873469182077 O
   0.3502863989509024    0.2948545525007225    0.2817336464139124 O
   0.4729383242424597    0.1940673216230027    0.2996544914190614 O
   0.5140725660375760    0.2409048021922456    0.1067869850013376 O
   0.5852058364919323    1.0775946297770667    0.2345502858252553 O
   0.4702068463038733    0.0823332761303498   -0.0105178470982924 O
   0.7790722433393263    1.0343915759202607    0.0307983356351647 O
   1.0528826912788989    0.4023807800805178    0.0969250172215688 O
   0.2289206530228505    0.4030672907058559    0.1340806398363082 O
   0.1242507747555408    0.6409775233408398    0.1106445389455045 O
   0.9841297606270251    0.5441168214770203    0.1377024468240423 O
   0.3752130196272894    0.5110514026865748    0.2806975827004826 O
   0.4274263237047228    0.6124940381032028    0.1808516130977182 O
   0.6982901195780833    0.3377535671831687    0.1175076967376804 O
   0.6814510309215648    0.4141157793911060    0.2503222327808446 O
   0.8218487228577349    0.5201074166347285    0.2313252402858118 O
   0.2186950850851722    0.7627680331641580    0.1157732241734926 O
   0.3500280529441670    0.7551087737786742    0.2482181742100300 O
   0.4872062191274353    0.9666266506567609    0.1900892251052627 O
   0.5200219524967673    0.7951576845148720    0.1491562160992643 O
   0.6099481200972005    0.7220955963613751    0.0505147979482449 O
   0.7557902656766391    0.8342088131107350    0.1209963440612622 O
   0.2233151614178238    0.1604362354910697    0.4269299930651151 O
   0.2757957199849833    0.3111315319483661    0.4462115124343672 O
   0.2578163455056330    0.1055645372935994    0.6211039588408229 O
   0.1232955112717501    1.0263742103478870    0.5011211228424404 O
  -0.1056435931107139    1.0376054034053503    0.5684779007957532 O
   0.2698935073695683    0.5222223496443614    0.4353115786602521 O
   0.4069368128257131    0.3755822195606482    0.6897776586971603 O
   0.2277461038038999    0.6451238312498315    0.5188654701478438 O
   0.1290750609290601    0.9481750538350026    0.3647845136824480 O
   0.0244003857862937    0.8020185777542891    0.7116294313389684 O
  -0.0895267768443786    0.8937983847782334    0.4506249400377658 O
  -0.0249101233719595    0.9719490916305386    0.6822419087238071 O
   0.1200576203385287    0.1132399465659428    0.7378910987767586 O
   0.1293217573811150    0.2683778662476575    0.7627294524574111 O
   0.3602803463308180    0.1816171631921253   -0.0529224062703819 O
   0.2478059516955805    0.3966936325313075    0.7029767707132357 O
   0.6475583647488247    1.1031395377752236   -0.0023760847758378 O
   0.8675814481932688    0.1378425437742831    0.8869511138465027 O
   0.4361278557830393    0.5460288276474156    0.7555904639323482 O
   0.7560116072155662    0.3956129944496923   -0.0311195494235686 O
   0.7977430531523529    0.5295514491689124   -0.0886601502163161 O
   0.1921416383610671   -0.0532358958603084    0.9414446682427041 O
  -0.0321253093266449    0.6643042794872600    0.6840898387569410 O
