Li1 Co1 H90 C51 N3 Cl6 O45
1.0
  14.3204680142999994    0.0000000000000000    0.0000000000000000
   0.0000000000000000   13.9757771261000006    0.0000000000000000
   0.0000000000000000    0.0000000000000000   14.4444494924000004
Li Co H C N Cl O
1 1 90 51 3 6 45
direct
   0.7648303459819139    0.4976992692671128    0.4656954042962513 Li
   0.5524907075732011    0.5382942211528631    0.5520737048785251 Co
   0.1884839589952423    0.1810555534958017    1.0528552683300045 H
   0.1108405468602688    0.2058520279153037    1.2059542148259268 H
   0.1313685072388298    0.0787635673614364    1.1006300208647473 H
   0.2685323204632690    0.3450578826199217    0.3109758352897711 H
   0.5575792982482568    0.3375212713066735    0.0737435335808714 H
   0.4953270032038635    0.2260705815921719    0.2023894886224747 H
   0.4023931690113604    0.3845891369476852    0.2498333181959432 H
   0.0014537587723538    0.1987611878778700    1.1608351536707817 H
  -0.0233177779990539    0.0529782391647666    1.0428742718181017 H
  -0.0739055101371793    0.1722996897684479    1.0246042782029867 H
   0.8193907136472576    0.2463470926901332    0.2591074688010240 H
   0.1366323016849839    0.3442901256713680    1.1029506354383685 H
   1.0510430588560435    0.4356720208230109    0.1702518844691114 H
   0.3932663723263996    0.4851126346626234    0.1726528067069750 H
   0.4276611979360204    0.4555668000178470   -0.0021804398856856 H
   0.6551363053659666    0.6566133661334932    0.1171020568897399 H
   0.9650703100065932    0.3587258166658407    0.2796468462384334 H
   0.8006189807868814    0.4006545763128202    0.0149832464237472 H
   0.7046849653183825    0.3876057849393926    0.2036882573993582 H
   0.7846488323412003    0.4717745026705302    0.1594221190230620 H
   0.8147623732931703    0.5614837724082815    0.2983218397120116 H
   0.7800651832639177    0.6748270223547722    0.0682147662822617 H
   0.1957784133312102    0.8422195028509770    0.2229489429759446 H
   0.1562371078770477    0.8373174498644524    0.0836525301179362 H
   0.2774943180650124    0.9376202800650069    0.1990082590348952 H
   0.4474278005161412    0.7335185707816680    0.1907545696116515 H
   0.4459371369443442    0.8740510064579712    0.2070757177539909 H
   0.6842715263366336    0.9766427970298426    0.2071539484958821 H
   0.8096487136050320    0.8861161673773665    0.1672985008858571 H
   0.8557100573642807    0.8950688001269499    0.0605211535863628 H
   0.1364332858429630    0.0498764438507126    0.6990425458244514 H
   0.2408216339407519    0.0667420533887903    0.5080994225540790 H
   0.1024378885197843    0.2584172622755488    0.4804611452898572 H
   0.3230682475866100    0.2943315442128757    0.5744502585969664 H
   0.3420131591446043    0.1163142520399955    0.5505122746549734 H
   0.5594301455790517    0.2071299532742196    0.6484113327495054 H
   0.4240041945512354   -0.0149915053030376    0.6128204990337248 H
   0.6401814868651923    0.3031925899266577    0.6707361711014044 H
   0.6774393473951145    0.0620389159956468    0.6655743267514878 H
   0.8182929841607419    0.0874736375708896    0.5951403513663202 H
   0.7754948019094366    0.2115304241349882    0.5967042738966931 H
   0.1125059952224442    0.5767151257762786    0.6441944880693361 H
   0.2045427916933328    0.3368121873029301    0.5964321970687000 H
   0.4630995648590309    0.6178548774203036    0.5693584065302817 H
   0.9434613793703184    0.4526824523614495    0.3649813548777929 H
  -0.1207964357221155    0.5801775450438005    0.5870313542002026 H
   0.3482287381264586    0.9337085119030846    0.3932967295976946 H
   0.2155717608472938    0.7186821865055643    0.3719598139774655 H
   0.0914920172086320    0.7871900048087015    0.5960687356572587 H
   0.0592919522708424    0.8748831605410727    0.4711207408617765 H
   0.3716658213045257    0.8235450493558224    0.4331030233787437 H
   0.3423448522146392    0.6290871687328803    0.5954961973958073 H
   0.4197445572307870    0.7378553600316059    0.5797400413637103 H
   0.0642107859241602    0.6890251594751351    0.5223724691044841 H
   0.2727975441933180    0.2632355989871612    0.7222133838806956 H
   0.1139801090557993    0.2718390561627518    0.9255980820338321 H
   0.1886040668016550    0.1129985151344993    0.8898764022099326 H
   0.0687853570858417    0.0689165299653554    0.8541235685507668 H
   0.1369954183090221    0.0072204974499447    0.9448892291382346 H
   0.5677217041986045    0.1638665272375504    0.8671209486239070 H
   0.3664543994483772    0.3507212528415450   -0.1595917694899274 H
   0.3409573277300931    0.3756601164807695   -0.0015712093293650 H
   0.5475209677623979    0.2752814407661921    0.7509676815241283 H
   0.6551048818119632    0.0703955174888040    0.8608043354467827 H
   0.5611392377662315    0.0700742473397821    0.7832326702483585 H
   0.0096462284516162    0.2301347563058574    0.8670884101737398 H
   0.0058747036700191    0.2783410201809314    0.9732149884698917 H
   0.6793973839601205    0.2901693427499341    0.8569654906345124 H
  -0.0712708197093019    0.0735466839393447    0.9351062325571360 H
   0.7692072979039747    0.1929275230115534    0.8588762591975180 H
   0.7701870144876779    0.2757701434650384    0.7668242913672733 H
   0.9318318711842941    0.2008841467467969    0.6551253304031388 H
   0.7607599482866855    0.0612067619125453    0.7505730662774206 H
   0.3432233151243316    0.5455018346609436    0.7374600708600696 H
   0.4665319247477523    0.5301162859318903    0.7022749293102024 H
   0.4333397832950182    0.5556064605952159    0.8223881950260652 H
   0.5720960724062250    0.6717810378906597    0.6946567781263933 H
   0.5236549181571256    0.7373301656231825    0.8056682777923160 H
   0.0156984049526533    0.5354171718383811    0.7161633090719617 H
   0.2858941832006966    0.7268405879290576    0.7145924634670849 H
   0.2806408632725436    0.7843572464123140    0.8827622508499886 H
   0.2887942280846019    0.6559464980290646    0.8693252555458670 H
   0.3685849164098015    0.8153036471811340    0.7384085320670688 H
   0.5167766303873654    0.7865589128901327    0.6958115469536010 H
   0.6298529138149049    0.8276628883482978   -0.0486709621000024 H
   0.3996223098494687    0.7377530401400466    0.9804219090281846 H
   0.6952153027441856    0.7180002924030745   -0.0456310400854526 H
  -0.1161415599224254    0.7288218731019793    0.6117661147868199 H
  -0.0758279333409816    0.7607914727863928    0.8025473558060735 H
   0.7673121084469753    0.9754364240426464   -0.0824479502958285 H
   0.1155003107683594    0.1534005618260930    1.0715683387133528 C
   0.0693621538771024    0.2191829502904225    1.1437303134946297 C
   0.2792568302939979    0.3965634263549963    0.1792726505473589 C
   0.3970553546379985    0.2392240540854255    0.1164104417468260 C
   0.4309830167447700    0.3442078404438902    0.1084274445366747 C
   0.4154793335007380    0.3780857418820712    0.0101267096594414 C
   0.3807137099538782    0.4034605025698128    0.1808088807797173 C
   0.9571264355545569    0.5129440744809931    0.2313050939018423 C
   0.8134174451818287    0.3309363065372989    0.1337409741517966 C
   0.7759780263398874    0.4056519370584755    0.1946854913148202 C
   0.9264423825221269    0.4271278090112043    0.2941659180874744 C
   0.8180087755723120    0.4216712251438512    0.2918349189020977 C
   0.2698800417794108    0.8582586824956909    0.2044816417374757 C
   0.2892250799250473    0.8182143976626961    0.1111426743570037 C
   0.3588003199943714    0.7186657294600687    0.2787710773137225 C
   0.3416772762673689    0.8259749678994274    0.2841246908273900 C
   0.6520896172300458    0.7923024217680823    0.1404965102524519 C
   0.7356923318064466    0.9953759234698073    0.0893827588846019 C
   0.7285172869756914    0.8093011187175588    0.0767536863750556 C
   0.7858108055381225    0.8994263395646866    0.0965751409864371 C
   0.2213376338563008    0.1859590375297606    0.6150663444027067 C
   0.2471133277534142    0.2825819292527649    0.5658955538943042 C
   0.1119620185875869    0.1679614694710755    0.6252799562179319 C
   0.2719316507052268    0.0968813434046109    0.5718835287247406 C
   0.2326836317550952    0.2841317536242161    0.4632651282224923 C
   0.2813950285686230    0.0145209859365174    0.6397187204027306 C
   0.6016143115851323    0.2416475329155757    0.7026522368706510 C
   0.7243973098952576    0.1073687745275842    0.7013908526960871 C
   0.8006622754612860    0.1542255606720225    0.6391011821570056 C
  -0.0049517581359205    0.5068126801959505    0.5741720202326650 C
   0.7932875164873097    0.3445806283005505    0.3636853553307109 C
   0.3216143844880568    0.8630705794938485    0.3888161157789365 C
   0.2250351387106900    0.8559804549801319    0.4189384129442892 C
   0.0330707422080821    0.7362518713813649    0.5731577205871362 C
   0.4111896692286864    0.6665677320871539    0.6048091172181085 C
  -0.0377837856597768    0.8038202070438210    0.5232023380452359 C
   0.1189366509739211    0.0752288801984776    0.9079352420526866 C
   0.0485416052957107    0.2397928954405981    0.9292534653717558 C
   0.4683273269632613    0.3248751051289133   -0.0656858023076070 C
   0.6055541269559470    0.1151522415232657    0.8226630410838599 C
   0.7227639833882857    0.2372964331912937    0.8144065824308148 C
  -0.0357943255407673    0.1120139544996346    0.9923808279257782 C
   0.4149919192630867    0.5711011266911419    0.7477789134077502 C
   0.0352920383255159    0.5738673413818299    0.6493791785651147 C
   0.5202483395487110    0.7203393394345952    0.7325453802699331 C
   0.0445291666000883    0.7225381438175451    0.7471198367150033 C
   0.3294458324468813    0.7259919768004606    0.8612896429694881 C
   0.3468412136419125    0.7417435159108606    0.7559654490083084 C
  -0.0020419370352142    0.6751711892627446    0.6601147901979146 C
   0.7767636151899702    0.8333198188564664   -0.1003323286610906 C
   0.6975860353184351    0.7986369532364375   -0.0284154307172424 C
   0.0634489393148800    0.1445259211616843    0.9755072184380481 N
   0.6661680677247279    0.1741443099113847    0.7564112950063432 N
   0.4253393464457760    0.6748470570188537    0.7151830017222457 N
   0.0577340422934784    0.9054159886013524    0.1137125196127561 Cl
   0.5454053246165352    1.0014628837320121    0.5648513465669198 Cl
   0.4815350656915716    0.4042072231210808    0.5638823930593898 Cl
   0.6718326870597241    0.6266801469482257    0.5020363531345017 Cl
   0.2398049073934448    0.3882383079053958    0.7978064343859784 Cl
   0.7127321883480296    0.5512653782029746    1.0302784300661729 Cl
   0.2329063898379186    0.3600838806810829    0.2511763946496501 O
   0.2309700006101148    0.4220043729865787    0.1115802126656339 O
   0.3357905971507492    0.2011209850971895    0.0721602264418881 O
   0.5290546020168140    0.3486297770161748    0.1357728965186160 O
   0.4433638970220734    0.1893935513723117    0.1776630357252618 O
   0.7308859246463406    1.0376168661146004    0.0103600172702142 O
   0.8273317948944934    0.2476192938593115    0.1615966567246564 O
   0.8017795573814036    0.2576180222834384    0.3332162121327257 O
   0.0727663722274608    0.3159417915196944    1.1155104772028785 O
   1.0307825478371107    0.5023873091098233    0.1845618794681425 O
   0.4306233916267322    0.6869336836497649    0.2330656317481188 O
   0.6171424353711670    0.7052961688042212    0.1519057370344563 O
   0.8262284789983774    0.3402295285762685    0.0405397759539470 O
   0.9085560955834439    0.5845121877225870    0.2253879421235782 O
   0.7792097642938277    0.5073063915608172    0.3308076745129081 O
   0.2199703601065569    0.8078178380518071    0.0542973096075873 O
   0.3716120521121201    0.7986548413293675    0.0898943740904212 O
   0.4270634521087575    0.8754205188526885    0.2735891560477454 O
   0.6999902863502883    1.0332779302935109    0.1678807314516136 O
   0.6177932520896355    0.8617554469016382    0.1818584188744697 O
   0.7970569463653064    0.7419309831247666    0.0898286048826366 O
   0.0843735347750827    0.1019966224588605    0.6869610885081432 O
   0.0553912417672317    0.2210468895737236    0.5854771239741345 O
   0.2999048984789716    0.3008070338535190    0.4137447224516559 O
   0.1495704263199459    0.2645686196723013    0.4288301017950950 O
   0.3051156220339200    0.6636140501825599    0.3231438310373748 O
   0.0355587893839440    0.4419038030855765    0.5376572329936281 O
  -0.0939404698684883    0.5267747186202031    0.5513015743791339 O
   0.7632396158481466    0.3662109102714506    0.4445929732094606 O
   0.1728762288723993    0.7777050224135228    0.3927934220812798 O
   0.1816566681621236    0.9188170323007565    0.4633045897471631 O
   0.3612883671702333   -0.0397550656315485    0.6402054125403368 O
  -0.1244296968660979    0.8029265179210404    0.5423818159578946 O
  -0.0071709593497542    0.8648314833618730    0.4653438505729562 O
   0.2607546416968502    0.1938362381323951    0.7077870812300033 O
   0.5495750207424142    0.2987570584037463   -0.0504308076388286 O
   0.4379925641911079    0.3300225827504368   -0.1535548485227503 O
   0.8786820719430990    0.1774314258681930    0.6932880862970230 O
   0.1290375778329844    0.7255132914336549    0.7438521455492835 O
  -0.0045565196566789    0.7607471103159266    0.8145879669828102 O
   0.2140438778215330   -0.0119362190306015    0.6886080879325599 O
   0.4116198227679317    0.7217031276395748    0.9136481631330932 O
  -0.1005722363655865    0.6741651629163639    0.6582947139109067 O
   0.8290070194734699    0.7747506249852116   -0.1366459313550516 O
   0.7881745551003714    0.9275070678461281   -0.1293296262196012 O
