Li1 Co1 H110 Cl3 O55
1.0
  12.7589780602000005    0.0000000000000000    0.0000000000000000
   0.0000000000000000   11.8065494809999993    0.0000000000000000
   0.0000000000000000    0.0000000000000000   13.0194378932999992
Li Co H Cl O
1 1 110 3 55
direct
   0.2667352364776034    0.8225127719261028    0.5117603771610444 Li
   0.5770194913231629    0.4813546709515544    0.6134759820015186 Co
   0.2703883503696473    0.3640028568394224    0.2426381593882540 H
   1.1182807089078373    0.2846214930033376    0.1907035055620730 H
   1.0560265067098009    0.2114942849744874    0.1026795824563174 H
   0.1687469811407647    0.3858813913270551    0.0271961393112228 H
   0.3155604634715460    0.4248580627703550    0.0869686123148749 H
   0.3139702107174253    0.1249728163909772    0.0237202596019084 H
   0.4094041862486061    0.3596315542769714    0.1380376373717987 H
   0.5407603177579136    0.2686498494419853    0.1148284940526773 H
   0.4074847535256678    0.1332470374203482    0.1061275807775891 H
   0.5128858282555447    0.2370106308369945    0.2307874173466641 H
   0.9703691762525004    0.0640067397943936    0.0360734196475327 H
   0.9748444563047576    0.3588540197386397    0.1706004871257171 H
   0.8623354455339139    0.3196317219161283    0.1588964488063349 H
   0.8602036133549052    0.3908472791247009    0.3133109493766381 H
  -0.0409257675212128    0.0403800061370361    0.2295492686545231 H
   0.2551214536729892    0.9634481063926014    1.1235602156240443 H
   0.1536141077171252    0.9035745589910005    1.1562574797831269 H
   0.3121667747454036   -0.1803644886193825    0.1801369971515374 H
   0.4474142837432324    0.5351138154858168    0.1552664917845866 H
   0.3948011358223967   -0.2726319205014138    0.1893470721933875 H
   0.5199937642965115    0.5821233165168489    0.2338689635953425 H
   0.5958133162571515    0.5771404889689126    0.0597183575106659 H
   0.5246767412338559   -0.1305489179527371    0.3049288670705994 H
   0.7040108531983161    0.6166981938471749    0.0638670005198849 H
   0.6774381920964376    0.9147886736832794    0.2189359072227589 H
  -0.1455611069426737   -0.0073216361511135    0.1757765938480111 H
   0.6969616992946384    0.9397070463605335    0.1009126858983762 H
   0.7936959357026483    0.7539813181510522    0.1652062450258995 H
   0.8455472671242207    0.6770841686950619    0.0789045928955704 H
   0.9420283484609734    0.6157427919307934    0.2736418020422679 H
   0.7142279724209475    0.6311893032331417    0.2657105840552656 H
   0.2333273884517781    0.3009590351709636    0.3376622310984975 H
   0.1705880376806513    0.4775254403983978    0.3470643267191536 H
   0.1075644948697785    0.4627954805333357    0.4975354926830972 H
   0.2352460374128859    0.3653385561498245    0.5828271933771382 H
   0.2952704372030989    0.1027825904980002    0.4240538256679393 H
   0.3096516830312717    0.2083968516338783    0.5007238023735917 H
   0.0823776030604386    0.4936215911243849    0.6173240744007905 H
   0.0113270850861338    0.2797377629946004    0.5735080506465263 H
   0.0200296629474723    0.1980873196071095    0.6639220923007958 H
   0.5719172018064914    0.2058516541527380    0.4079317778713890 H
   0.4487756780428420    0.2127952577967941    0.3953813128406300 H
   0.4186133877571914    0.3625358744642693    0.5551193919377503 H
   0.4885562935126082    0.3619150326161243    0.4522186360848854 H
   0.6540820895470043    0.2046887402952985    0.5683503778997977 H
  -0.3835480354939407    0.0063212152390589    0.5290890822748113 H
  -0.2770167762044570    0.4259650754518360    0.4498621595417784 H
   0.9016175884794707    1.0963827967969197    0.4137438567506884 H
   0.8521465417371812    0.3025818632487888    0.3915739288040650 H
   0.9087184706639628    1.1738567447502999    0.5108025785139600 H
   0.7353621101808624    0.1735382334861872    0.4767219981051591 H
   0.0845258158617051    0.6678833433248033    0.6636624804782500 H
   0.0994281065548062    0.8386902334534841    0.6546144708049122 H
   0.0290879903036829    0.9820987714623886    0.4035283619582102 H
   0.3279815209615936    0.7261603192615291    0.3349608855958549 H
   0.0832046285440011    0.5644009497629785    0.3663301354319153 H
   0.2675221333554433    0.6451891598606854    0.4188946167565801 H
   0.0652605581866600    0.8206663391444435    0.5417632085583214 H
   0.6493042774281673    0.7163115484426605    0.3404933825124130 H
   0.4655583701197216    0.8732922143842748    0.5850500235973962 H
   0.5770304639887902   -0.1055602453117776    0.4107429591451086 H
   0.5108488312580287    0.7207184244807215    0.5812764351827011 H
   0.4552009575294277    0.6717938846793540    0.4923278945858789 H
  -0.3470020050987218   -0.1214150045961257    0.5636566268714642 H
   0.7879807444345117   -0.1977658471052487    0.6580539434124849 H
  -0.3230721888893495    0.5429916463583913    0.4307730097615181 H
   0.9058420647459622    0.5393428241458281    0.3642901088026806 H
  -0.0768008977895084    0.9146192761803749    0.4052519386735727 H
   0.7136950143761953   -0.2874143935923763    0.6087284652111195 H
   0.8487842034842595    0.7818057049906333    0.5150907820798553 H
   0.9186800835298453    0.7173897635486478    0.4381212532712654 H
   0.2912920621513900    0.2871082483459758    0.6704361984162098 H
   1.0388934730946797    0.1464685125220457    0.8429106184643733 H
   0.2403592995951847    0.3734298278760587   -0.0660948314629494 H
   1.1499681997156759    0.1817514714145126    0.8007559567579384 H
   0.5799194100960791    0.2701744269681260    0.7222287570140745 H
   0.5161737091345673    1.0933505814949289    0.8689562897736167 H
   0.4602946256659635    1.0481299180945685    0.9745061615316888 H
   0.5503300497085371    0.2565040484837316   -0.1241372758597911 H
   0.4050237413778416    0.4714669387070179    0.7317022842900465 H
   0.6424103083669318    0.4218681968440903   -0.0146782491583868 H
   0.4431082962463671    0.2402766146929936   -0.1750503802067244 H
   0.6789124480996418    0.2960532834868488   -0.0170443267304341 H
   0.8636756782640994    0.2956941607806912   -0.2906521452241321 H
   0.8368475108054719    0.4005241114781214   -0.2311726188155064 H
   0.8014826094888436    0.2333745134371491    0.8693096076386198 H
   0.7450948645922337    0.1411866983814829    0.9271846100907426 H
   0.7026886469902326    0.2914160268448377    0.6950870322410067 H
   0.9232572526200699    0.1537924135601224   -0.0365033081454747 H
   0.1750021843101280    0.6877316487401253    0.9020990416755292 H
   0.1653579949856053    0.8365253333663644    0.8351453062574594 H
   0.0865020713173559    0.5973555399780228    0.7722048009364346 H
   0.1568847458358764    0.5581112204801338    0.9347194976030894 H
   0.0047564177799871    0.8865162304485159    0.7884113377876595 H
   0.2131165221282132    0.8543899940226745    0.9499428890908276 H
   0.0964259068630074    0.9766949911197345    0.7704558775046698 H
   0.3713533331387929    0.8357503397905762    0.8412285181940329 H
   0.4667379316746511    0.9109179407419113    0.8420734087407792 H
   0.5200548977192918    0.7135334293950265    0.8470966670823437 H
   0.6002666509781541    0.6207290074287879    0.9067152163900248 H
   0.6445029524544146    0.6300230014256442    0.7347669327277899 H
   0.4961047037023260    0.5324424168650126    0.7964362618171190 H
   0.6184083860691518    0.9746537512097351    0.9290664117630412 H
   0.4040863622285422    0.8333093217737222    0.6841264976027612 H
   0.9671635903656822    0.6345772532912320   -0.0562203652184305 H
   0.9219483703631050    0.5664760691735587    0.7212310180865986 H
   0.8592787743948942    0.5637851898399205    0.8323725290995010 H
   0.8723754345828482    0.7178835572696145   -0.0920629264583551 H
   0.7331080111562930    0.9272563298970518    0.9022219348459650 H
   0.7558065375299218    0.5606826745742244    0.6977707118503991 H
   0.2091483359803011    0.9621606853705270    0.4038862883171045 Cl
   0.2793498831397889    0.2706419640761424    0.8397307576793461 Cl
   0.8672417945929559    0.8269399756645124    0.7986283687447683 Cl
   0.2095519733230178    0.3501215784639120    0.2869603493882508 O
   1.0986709879082797    0.2799097014600485    0.1160013557480242 O
   0.3545996402496424    0.4186301635760705    0.1498469029683666 O
   0.3568239563246521    0.0768483409958277    0.0745408100298572 O
   0.4857998031546767    0.2433647311709429    0.1594502361556114 O
   0.9050818157703597    0.3786184733900240    0.1949932452925986 O
  -0.0833210124575867    0.0405571959250742    0.1664136704254315 O
   0.2105073789944191    0.8955789968539074    1.1091202680978345 O
   0.6594618307516792    0.5766145097223940    0.0121343523426077 O
   0.3676500584895959   -0.2058198513808439    0.2264177970553552 O
   0.5009883236682831    0.5969218823705873    0.1626592840686169 O
   0.7378873907987912    0.9199552975218672    0.1647807274232654 O
   0.8188202049417299    0.6804577199654054    0.1464980640739902 O
   0.0932599009486304    0.4271677977224581    0.5695063417842097 O
   0.3009879797567269    0.3208818754875636    0.5980759315812789 O
   0.3288170110729258    0.1821275338709606    0.4328906127045906 O
   0.5165060241507068    0.2291980180030383    0.3612815303739485 O
   0.4774597935161358    0.4043973853820331    0.5191877331492597 O
  -0.0295864581096460    0.2256804788552260    0.6141803134845790 O
   0.6688771616216906    0.1532181560252761    0.5101066959363671 O
  -0.3192584038220494    0.4829758050543506    0.4873530254301736 O
   0.8414795432238328    0.3818056874071724    0.3891729034866750 O
   0.8707295347387605    1.1655223876073975    0.4424102249194758 O
   0.1470791015742670    0.5337721872628131    0.4011972321315056 O
   0.3277032855117598    0.6979403892526659    0.4098074348851658 O
   0.1233287668240833    0.8007722964033374    0.5897314853086861 O
   0.5908952107706517   -0.1266011091475474    0.3409872594411019 O
   0.4001213111279522    0.8308428941314324    0.6089627303172628 O
   0.5173038936941741    0.6527705451031769    0.5376078832329599 O
  -0.4092272081090289   -0.0724066130308204    0.5400142851265565 O
   0.6844254288155046    0.6391408220194796    0.3338510066503563 O
   0.9582678935893042    0.6008874779135820    0.3447654563496884 O
  -0.0439824386602326    0.9843856377515996    0.3778321681023937 O
   0.7424763163164735   -0.2120418216625268    0.5957471060015199 O
   0.9142675044240295    0.7894582371843448    0.4730789836840521 O
   0.2169812517144969    0.4303643286022663   -0.0142852982459182 O
   1.0875102194417048    0.1391581632842013    0.7819233464709630 O
   0.6135976559534331    0.3427121316868685   -0.0092810115375398 O
   0.6332426462353640    0.3019771141634197    0.6682010788789082 O
   0.4940238160423011    1.0261251824672719    0.9097645031814640 O
   0.4811223125501460    0.4684872366309274    0.7468434909700558 O
   0.5213731851182229    0.2217496098003267   -0.1826428738927129 O
   0.7898359086873477    0.2037612889668963    0.9387058448191016 O
   0.8200608999194398    0.3178505071730873   -0.2324468673764628 O
   0.9906529324263035    0.1105978289932515   -0.0237504534246542 O
   0.2251582388922901    0.8138548655526530    0.8870983940592058 O
   0.1305550509014582    0.6181609412847554    0.8887113669211761 O
   0.0813109032091037    0.8954180692261480    0.7743600399129530 O
   0.0523043481187348    0.6024484759028471    0.6989282118994415 O
   0.4447001165241490    0.8312282734505402    0.8297149642888262 O
   0.5584184717994817    0.6402131082128653    0.8448461858987376 O
   0.6929472711987257    0.9773725811313525    0.9477768969618962 O
   0.8617397865427203    0.5353704527027172    0.7587979241242010 O
   0.8916403003769779    0.6524978151235007   -0.0478789912750987 O
   0.6810967923212952    0.5827746499155166    0.6810388066955609 O
