Li1 Co1 H90 C51 N3 Cl6 O45
1.0
  14.2320310749000001    0.0000000000000000    0.0000000000000000
   0.0000000000000000   13.8894688466999998    0.0000000000000000
   0.0000000000000000    0.0000000000000000   14.3552468976000007
Li Co H C N Cl O
1 1 90 51 3 6 45
direct
   0.6526784534979149    0.7205378430059818    0.3520095115636654 Li
   0.6841033427246371    0.7564369839669024    0.6087880975604182 Co
   0.1957851284497409    0.1977928712481123    0.1474243852367192 H
   0.3512984201473246    0.1048260332608706    0.1050559046150669 H
   0.3742480608754169    0.3054226169568676    0.0649263266210923 H
   0.3602690301275939    0.0709550476103449   -0.0129378862324584 H
   0.5211344110385252    0.0322055456718403    0.0655692971019096 H
   0.6155312608577587    0.3670916418457141    0.0455633715996450 H
   0.6586958658791342    0.2714695547336102    0.2385673665684260 H
   0.9860834309763905    1.0162611744979480    0.2052631675246653 H
   0.2581873249687110    0.4030672436138638    1.0257060400167479 H
   0.2269254483146702    0.5677271039182682    0.1526099456475572 H
   0.1197039286335292    0.3854710343781112    0.3131484592962003 H
   0.5626370536965866    0.5374080179512010    0.1725120763484764 H
   0.4038938646106343    0.6094529615731989    0.1968314072865160 H
   0.7867232704295281    0.3887490574978231    0.2408585149014790 H
  -0.0053506043866290    0.5186219863988141    1.0664939138984495 H
   0.7618765006228170    0.6086804338316109    0.1328109131385784 H
   0.7457199872769792    0.5009065501416198    0.2747102489375717 H
   0.1921918254467568    0.7201483392704747    0.1381845580887670 H
   0.2827010432260647    0.8626915870974348    0.2302087503178020 H
   0.4217992499107988    0.7256957076292228    0.1768442902381864 H
   0.6256766855859727    0.8758763965398426    0.0581413510163687 H
   0.7752688266370672    1.0030288470397482    0.1374329165407694 H
   0.7013637041380713    0.9140290434012022    0.1903285584908183 H
   0.9782995806308574    0.7644185706800862    0.2616523056408013 H
   0.9294569385412156    0.8700619193347486    0.1142330369165688 H
   0.2301140304475488    0.0593440924485630    0.3648083161617750 H
   0.1068013429777225    0.1865721397917738    0.4403444603838076 H
   0.2277159187640947    0.2048068183669862    0.4715896910092027 H
  -0.0542592946738227    0.1153930320151009    0.5950871837828307 H
   0.4483508361187888    0.1878313672102619    0.6213131346623618 H
   0.6309991866120979    0.1319437009094422    0.5296228969820850 H
   0.4680783787669469    0.2066420217344682    0.4988499675332815 H
   0.6086474928639701    0.2887891515198585    0.4526773029509110 H
  -0.0875222911856066    0.1580930089937677    0.7031271228422762 H
  -0.0765927197715636    0.2202264144914906    0.3301039322139593 H
   0.8310317740212707    0.3169068574098708    0.4703603147312545 H
   0.0879754987542281    0.4543360147857136    0.6286853519955025 H
   0.2376631988996529    0.4525656087124935    0.4299580141552214 H
   0.0653806914278775    0.4576277173342141    0.4032834468188687 H
   0.4330218223714286    0.3057977212936499    0.5658975081897166 H
   0.5497861121101423    0.3735814508510035    0.6907079703698931 H
   0.3567052380213884    0.6159629297367031    0.3792357935487802 H
   0.5716596590664180    0.3853011214731579    0.5235886573331325 H
   0.7274267444762970    0.4254186382875168    0.4909103618397664 H
   0.7338994678363847    0.3826501921679133    0.6079138527571403 H
   0.2239469556612386    0.8329719480992830    0.7322565417218575 H
   0.2903984688024608    0.7995091854026066    0.3440298508293627 H
   0.1617429037349242    0.8932939092374198    0.3821887208165854 H
   0.2887001869568971    0.7380201529978209    0.6118705941775540 H
   0.2703739200574390    0.9173106663705952    0.6488508010515125 H
   0.4455189845167304    0.9283391658539570    0.6242730280242171 H
   0.3499514585015052    0.8328884315866788    0.5578786980068527 H
   0.4134111288217055    0.7278001797528594    0.6005681065813897 H
   0.9263934263994459    0.9245636435083016    0.3368735824117728 H
   0.8041621025044323    0.9601179188697623    0.3536897334485313 H
   0.2510232034555266    0.2795231384404182   -0.1389238767835764 H
   0.2080216110068325    0.1028115573792642   -0.1520096844565469 H
   0.0245678238235899   -0.0271624553007753    0.8706777067616739 H
  -0.0082848306948928   -0.0419225589636816    0.6727319646738056 H
   0.0642452245423041    0.1939208729310004    0.6592908862042838 H
   0.3805549611012254    0.2821863072345790   -0.1146331068311420 H
   0.6035603763716737    0.1205645760671304    0.6462489649238284 H
   0.7028455727405925    0.1886024550119775    0.6165044399396301 H
   0.4439766888398533    0.9520261767563333    0.7414692011030146 H
  -0.0049444782357247    0.0921624820523022    0.8378381461910497 H
  -0.1788957566562852    0.1139998901884718    0.8228861219220776 H
  -0.2301421315525770   -0.0048001890810850    0.8645440609506274 H
  -0.0745803576674286    0.0302169887079387    0.9272960293720556 H
   0.7538671027090479    0.2872937739622829   -0.0429143821485226 H
  -0.2414335627723567    0.0307800051980803    0.7459699944687352 H
   0.1902476194613723    0.6164431496841769    0.9485056959261644 H
   0.1613972046583758    0.5792271837098687    0.8257631187647376 H
   0.5427540869920617    0.2581882693197459    0.7321952400942172 H
   0.6572336712077986    0.3051835869380352    0.7111701750324342 H
   0.4876388335281065    0.5784301769904483    0.8586228810081069 H
  -0.0594489966644445    0.4554883986656633    0.9138389288862189 H
  -0.0537491777437940    0.5613337708844354    0.8756779690707811 H
  -0.0941889432959532    0.3861334067194542    0.7763881407475710 H
   0.7228265577808459    0.4310714102449307    0.0298262685312353 H
   0.2944885385678831    0.9367462547994599    0.7735619963914762 H
   0.0269568011818507    0.6677201285132999    1.0048377120710903 H
   0.3096761108028264    0.7248115845475169    0.8020205804140401 H
   0.3811866348203655    0.8144586411587448    0.8499521837440418 H
   0.4803785908082721    0.6629532075654387    0.7257362776910348 H
   0.5162249691161261    0.7412470582520594    0.8252378752733659 H
   0.5190682407325974    0.8548842331088217    0.6992282000024777 H
  -0.1215870003932070   -0.0129142502625374    0.6485024963490114 H
  -0.0605935978752112   -0.1599875489283349    0.7826966355192729 H
  -0.1784397430370172   -0.1486854608692011    0.7645374215496697 H
  -0.1315848706375284   -0.1271000422107164    0.8794891191255494 H
   0.2988835542666835    0.2121699509049376   -0.0071016926373481 C
   0.1990910515293341    0.1657952473716894    0.0042258728973963 C
   0.2021131078875340    0.1971074598688095    0.3237006985631771 C
   0.3693942209957505    0.1353606782268489    0.0339049165975245 C
   0.4704541464856972    0.1719646697553509    0.0386606690054760 C
   0.7338861176687944    0.2887509931132376    0.0924653862290531 C
   0.8984901708549599    1.0626085191736190    0.2956976970914847 C
   0.2511883239494064    0.5988708434503076    0.2760470423857714 C
   0.5943852980351533    0.3937809273822215    0.2364016079282735 C
   0.4519520789582871    0.6923416603929190    0.3178617185304468 C
   0.6842740843417128    0.3810712980977336    0.0799333830330595 C
   0.6688419932477476    0.4381546904686647    0.1645324156141736 C
   0.8412404363854388    0.5026105029897248    0.1553824510794668 C
   0.7649723342229632    0.4538392355297063    0.2139965596351806 C
   0.2877066534320205    0.6982266946517648    0.2287180061910968 C
   0.2618361365632546    0.7959028559919683    0.2723571023674736 C
   0.1549687476434559    0.8043567429833270    0.2789289154942664 C
   0.3950188137246954    0.6806932667944525    0.2311840034848054 C
   0.8655932499913094    0.9603187904819738    0.3061572873075960 C
   0.7687553501338090    0.9234181713397399    0.1525813846619521 C
   0.7684321355500443    0.8667694968163119    0.0653394159982588 C
   0.8498021096532057    0.8967216861038700    0.2186596629922668 C
   0.8389554498063022    0.7909905011169861    0.2618501427118220 C
   0.1727975451400762    0.2284203923358658    0.4206694243489192 C
   0.1576907765510742    0.3372553677178910    0.4397781169375406 C
   0.6345938948958808    0.1709264731072893    0.5965340415170206 C
   0.4741605043289590    0.2397944773886240    0.5696243685064797 C
  -0.0127318417832553    0.3391935267862557    0.3800341079269129 C
   0.1336646907309656    0.3463485880126330    0.5479703348129198 C
   0.0817796157115388    0.3838899803981228    0.3790595513693145 C
   0.5809082335887248    0.3038062844500033    0.6885108643065154 C
   0.6194288071537212    0.3269173194033858    0.5173289600502510 C
   0.7197728826046691    0.3590402180487148    0.5352608355405316 C
   0.2819168965402355    0.8819918211782859    0.7156633056946999 C
   0.3559288203799536    0.7785911788750187    0.6158071339252227 C
   0.3166013345801847    0.2378361591620445   -0.1128762579117259 C
  -0.0382650912602667    0.1079643822129514    0.6697253984818151 C
   0.3343493284308638    0.1505635634005443   -0.1718658389367360 C
  -0.1948133722662970    0.0371812579012118    0.8059417947547987 C
  -0.0356266765601875    0.0218242991611605    0.8636607602250844 C
  -0.0662927141554621    0.0080296751827553    0.6948305048286973 C
   0.1445682644502276    0.4364258986577593    0.9682740776213231 C
   0.0749513563093099    0.5197127408522214    0.9418161558099262 C
   0.1368314910114601    0.6015750505308342    0.8966403392861141 C
   0.0199971480249174    0.4650968942440747    0.7856760339444683 C
  -0.0075140341766540    0.4992816499925142    0.8808872142013893 C
   0.0927892881311236    0.6990884986654470    0.8907985728157637 C
   0.3796597972322771    0.7643264145282472    0.7917727594570494 C
   0.4624808642884620    0.6938175987622159    0.7964630305809307 C
   0.4518759127389825    0.8931499152501713    0.6937577263449937 C
  -0.1190202550138756   -0.1198794637201409    0.8050745160455707 C
   0.5720571427404086    0.2610119914096887    0.5920687752309551 N
  -0.1036029193682997   -0.0130928028067255    0.7929458496950735 N
   0.3700764848236539    0.8276232914429378    0.7053298017808939 N
   0.5162805669430165   -0.0916904808064405    1.1062661312676578 Cl
   0.6746647742383085    0.6400905622400599    0.5069118978383150 Cl
   0.2485161825101518    0.9662563825461653    0.4620696178976181 Cl
   0.6796493052322797    0.9079546570491247    0.5693220400247085 Cl
   0.7822945279915523    0.3637675406500827    0.8330329345153430 Cl
   0.6951130151442219    1.7139005231978954    0.7466373462787276 Cl
   0.1618026281688807    0.1610139270251033    0.0911508842818135 O
   0.1968264415217828    0.2535552627800258    0.2571772868230657 O
   0.3084900538084898    0.2960126098901789    0.0482292957925893 O
   0.2261153039340600    0.1023522165599415    0.3079169226646322 O
   0.5352586002664785    0.1082847688345793    0.0540515571995995 O
   0.4881577334631287    0.2589967955581461    0.0418190960477570 O
   0.5989918084941998    0.3034786981290130    0.2605586288749475 O
   0.7422721308366892    0.2519360503934165    0.1708597188398107 O
   0.9767186397320083    1.0774291003111696    0.2462258903670227 O
   0.2276793814633213    0.4672712970476186    1.0064998221114261 O
   0.0454509991367866    0.5557424843595765    1.0346518979957890 O
   0.2295554313299555    0.5333787782000138    0.2145663861284726 O
   0.5293914826667099    0.4452013242226440    0.2619100511206522 O
   0.6250140956892550    0.5344255424903166    0.1410329939458219 O
   0.8282345625909072    0.5907179038922982    0.1218302590875252 O
   0.9143951389377808    0.4596678241455506    0.1387509015350340 O
   0.2589335290729678    0.6953676940349459    0.1343128030157636 O
   0.1056904685061313    0.7694482806546760    0.2178077096899489 O
   0.5298815743453531    0.7308794911701683    0.3153177009833779 O
   0.6878842507142846    0.8398757398179116    0.0288015560964767 O
   0.8437875078335844    0.8349403459049697    0.0342922314267058 O
   0.9389264232051217    0.9000789059165686    0.1760146284368286 O
   0.9162381647056390    0.7337687305243091    0.2651409255410535 O
   0.7620901033042614    0.7591015927009358    0.2825686996354040 O
   0.1377498420135915    0.2820192742093708    0.6030494292820083 O
  -0.0235546118565762    0.2661878552813357    0.3219145920487508 O
   0.8602777753691792    1.1265850477081225    0.3395959319665223 O
   0.7792703637121539    0.2841345458820511    0.5068366988530451 O
   0.2477629520019002    0.5816923607715629    0.3607018037192857 O
   0.0963727541685147    0.4401335278384271    0.5606312107488388 O
   0.2487550802459779    0.3826293130397623    0.4245161014833426 O
   0.4140933926496088    0.6533927267820753    0.3948168561104693 O
  -0.0777401315439282    0.3817754286953787    0.4233980433883137 O
   0.1144109385041826    0.8589463034891015    0.3415136976584940 O
   0.1524743742252718    0.1375097884865325   -0.0601269039367275 O
   0.2642574353798919    0.0950157229096311   -0.1889104778583352 O
   0.0576354863043161    0.1329538187299903    0.6936079553229182 O
   0.4160952151477514    0.1388525324176247   -0.1997915167644730 O
   0.7642261301187063    0.2469869770516860    0.0159665278093071 O
   0.0870634715156920    0.4980417897653112    0.7414880095569496 O
   0.1282838705516829    0.3548687122381262    0.9533018516796061 O
  -0.0314832061244040    0.4018299752784311    0.7396085573822531 O
   0.1130042524244067    0.7584932181048110    0.8293938469836102 O
   0.0405304084191689    0.7262839230671327    0.9647046510300907 O
   0.4370943261268638    0.6269323916852931    0.8626437104937809 O
