Li1 Co1 H110 Cl3 O55
1.0
  12.6794734390000006    0.0000000000000000    0.0000000000000000
   0.0000000000000000   11.7329796982999994    0.0000000000000000
   0.0000000000000000    0.0000000000000000   12.9383102769999994
Li Co H Cl O
1 1 110 3 55
direct
   0.3698195151525014    0.8700767504676695    0.6695378649172893 Li
   0.6672829719865151    0.5067069919213618    0.6223640078267696 Co
   0.1433400786194904    0.0932139897385541    0.1014964559038608 H
   0.1425230099888535    0.2211512263654523    0.0649113849119048 H
   0.2463751144421637    1.1982048218524530    0.2292585797523304 H
   0.0364700570433523    0.2760375396941379    0.1808905945516305 H
   0.3469952234820088    1.1592462613031471    0.2826117599761130 H
   0.5315147156561665    0.3219551168018576    0.1056830149552612 H
   0.4509498558522908    0.2981487174742877    0.2561948637444939 H
   0.5689705297548200    0.3113056481065266    0.2972017640770017 H
   0.5873104080722228    0.2652900566810827    0.0089199931079996 H
   0.9969788398876110    0.4775268510872644    0.1786631012095336 H
   0.8952159389116727    0.2828414379410228    0.0458570420555389 H
  -0.0659951128432661    0.3093214973964241    0.2478004136443852 H
   0.1909863789888570    0.7169349189634062    1.0069366369779786 H
   0.1653055018162730    0.7974396180499357    0.2108520030895840 H
   1.1023381047204068   -0.1243807786534777    0.0580913289609464 H
   0.0958585327259346    0.6909040207727060    0.1546120471431325 H
   0.1077731442219712    0.5760534001588098    0.3114176853265458 H
   0.4922244405200019    0.5026219256183029    0.2741137414832767 H
   0.3602008191879773   -0.0238731471461239    0.3235916088627591 H
   0.4743435718001192    0.9557344457712434    1.1790224775809806 H
   0.4967774687098345    0.6486095642271192    0.0239230341422736 H
   0.4707132948630328    0.7685697138388955    0.0744792494436482 H
   0.5710960123412741    0.9084318837391610    1.1090983545207804 H
   0.4654204883184345    0.6112823028441088    0.2028030385980517 H
   0.6242583146437237    0.6561430299172378    0.2950732017369134 H
   0.9442637170384153    0.9393532702350881    0.1020238818083185 H
   0.9469688766939022    0.5972057422220930    0.1981988825123922 H
   0.8227618260165512    0.9449613938057385    0.0744804087913280 H
   0.7484164673914422    0.6568120841730068    0.2926231136402975 H
   0.8080530133125191    0.6581953645005397    0.1183105525936523 H
   0.8501273157326102    0.7702478894180156    0.1717997629451966 H
  -0.1316192891154965    0.9936787712067084    1.2453294358802462 H
   0.2464697555962915    0.3056676940913514    0.3597601648782905 H
   0.1790647482738893    0.4206938881787360    0.3957494084526816 H
   0.1108643609186711    0.2472937756485166    0.4639886128849251 H
   0.0509553273413344    0.1309132793797089    0.4993216656725569 H
   0.3011857501790063    0.3679826404051113    0.5195406892080364 H
   0.4658313886626061    0.0348822208615344    0.3674984241916400 H
   0.3653500866488151    0.3116533858598435    0.6199780703017685 H
   0.4686871854884131    0.4275523335241805    0.5468897009742040 H
   0.5532269737656571    0.4225757630790394    0.4578023336655834 H
   0.6332681525166922    0.1872485000138816    0.4270718911667047 H
   0.9949834888880830    0.2606237228589989    0.6004098272638759 H
   0.8487313587092249    0.1779354352332588    0.3400898992445767 H
   0.7287547676213875    0.2676730830494017    0.3830599616481898 H
   0.8209320970367466    0.2985271379705444    0.6410480550342116 H
   0.9147593372390675    0.2405614704684911    0.4190770295668958 H
   0.7363923087595025    0.2906152517841692    0.5552524622377318 H
   0.3013852852789591    0.9983067516001176    0.5168131305667250 H
   0.2032723781472169    0.9714252595912548    0.5831711001639014 H
   0.0130360870579682    0.9316399695794061    0.5540243265956112 H
   0.0812255118128332    0.9708456966690600    0.4592144191395636 H
   0.2020302129992892    0.5889998130825455    0.3862017938604117 H
   0.0089860766023251    0.5910939102881819    0.4779981702474672 H
   0.2738210491392316    0.7318458797336996    0.3777030024691223 H
   0.3850709371401996    0.7033825218666108    0.5335749793210807 H
   0.3805778483479814    0.6662478799253886    0.6466237444755322 H
   0.3730294276300033    0.6592598852208653    0.3693742487375348 H
   0.5400190120308355    0.7078698730215461    0.6293038630379725 H
   0.3553780637088805    0.5087627356983236    0.6663728457514716 H
   0.6958748533248140   -0.0870100500513026    0.4807550990299999 H
   0.7253894859158591   -0.2025143835494981    0.4184757145703131 H
  -0.0315902929508081    0.5529416240394587    0.5856691079646150 H
  -0.1725153091666964    0.9818403462224631    1.3614110545650198 H
   0.7168646839577957    0.5956733096719365    0.4334073397875122 H
   0.8195850379429940    0.5524634846286479    0.4980471561232447 H
   0.9563777847667764   -0.2462654180863069    0.5715018793176219 H
   0.8562080098853229   -0.1688963248685348    0.5432709904163632 H
   0.0831479102560546    0.4909215729772862    0.7716825786941205 H
   1.0368464260639554    0.1012376122471348    0.8278869813117252 H
   0.1049819399838565    0.2684750958579096    0.8909323081385244 H
   0.1899413829120290    0.4320422415743609    0.8842931104256128 H
   0.2244538571173074    0.2636323362639224    0.9403205192974367 H
   0.3777969757691922    0.0930051766268810   -0.0678698642017426 H
   0.3659739295897743    0.2293426664319450   -0.1344821173900188 H
   0.5515281650490628    0.3747643788932065   -0.2506796708427709 H
   0.6418789201897551    0.2342595759880367   -0.2859269319020985 H
   0.3630353217541055    1.1359785145738523    0.7030507418476560 H
   0.4917796270956012    0.4919170575259973   -0.2554121280716601 H
   0.4535106877477327    1.2243959521451719    0.7386280305464962 H
   0.5503443619461806    0.4575890342653454   -0.0245715518250591 H
   0.4085782224729814    0.2555781162422435   -0.0222404128003894 H
   0.6199411006629263    0.2180573831190297   -0.1708268942528777 H
   0.6975823374805368    0.0945810763962021   -0.0596114442293955 H
   0.7528772204560000    0.2177982844008720   -0.0448820092475511 H
   0.9189550950720674    0.2262965518967620   -0.0652953394541630 H
   0.8957916725992835    0.4028689191275834    0.9274517600518045 H
   0.9802746761840510    0.2098659430525370    0.7753723959096550 H
   0.9744857922565658    0.3698091159084402    0.7031512186465707 H
   0.1997903723515975    0.5741016367884769    0.8943407903170972 H
   0.1554833273703741   -0.0870765293276720    0.7911232934872366 H
   0.2604592955289521    0.7916277951581019    0.8556881386730096 H
   0.3100520489682143    0.9209947623761501    0.8540495939522444 H
   0.0400779828945387   -0.0704601194289787    0.7514001774854793 H
   1.0537714191271472   -0.0471680821948568   -0.0321093985694961 H
   0.3147628124149265    0.6949209032025655    0.9892990942761576 H
   0.3251496790804547    0.5287431674409923    0.7829004268437363 H
   0.4698457509501945    0.9833062994962500    0.7871683721022577 H
   0.5656817496488783    0.9366855761961617    0.7216992357262512 H
   0.5758832773875729    0.5154899270878592   -0.1264872557902099 H
   0.4519759236982932   -0.0249835215211761   -0.0348085918375754 H
  -0.0333126042206775    0.5036480929099538    0.7931822949665378 H
   0.8442674509395295    0.5290048230543950    0.9410779597815638 H
   0.7943718458070583    0.5030557455115341    0.7940649450000821 H
   0.8035323208503469    0.8042631191603654    0.7935038207230652 H
   0.7788081080107383    0.6225871890205690    0.7330987150123669 H
   0.8387546037115839    0.7982373693663686    0.6836726318292483 H
  -0.2583958471274179    0.7243550289643308    0.9811218286413955 H
  -0.3221800416281466    0.6085950059416375    0.9954590949480908 H
   0.6671552064284426    0.7386523348758296    0.6689226377485491 H
   0.2171791070700156    0.8894852899738782    0.3156817660928012 Cl
   0.5867725308462630    0.0337558624820074    0.4868555865210373 Cl
   0.7119599061451214    0.9038550412506513    0.9678511622001041 Cl
   0.1451327398139282    0.1721474766970449    0.1258401293246401 O
   0.3121893616989342    1.2276858240270430    0.2593946633407051 O
   0.5160937282673226    0.3463402267532073    0.2488902004633847 O
   0.5287409411639369    0.3116056571486039    0.0302977382755187 O
   0.4267390712738256    0.0191753378072066    0.3012687557376934 O
  -0.0364704640634091    0.3119005524001913    0.1802946898442201 O
  -0.1301633926944969    1.0264752142156190    1.3148902966674465 O
   1.0792298895875307   -0.0466399980969274    0.0387310883547765 O
   0.1442565204619614    0.7581043416012029    0.1421830671173662 O
   1.0161436735984948    0.5564462751219078    0.1994301097483257 O
   0.4949879622205343    0.9049289372535418    1.1222530861940931 O
   0.4412988241601064    0.6867107125709430    0.0661894497941016 O
   0.4887061556153002    0.5860389283888616    0.2745079196944042 O
   0.8758381626040014    0.9230743705087316    0.1307696756590930 O
   0.8412310472445952    0.6858413681876506    0.1809601554124176 O
   0.2139092551948994    0.3465072772425459    0.4222984703197963 O
   0.0431277625392563    0.2106636943689699    0.4802132972143129 O
   0.3547810357615908    0.3820668717128620    0.5770791145558489 O
   0.5298853104525991    0.4667273778708947    0.5165109272715273 O
   0.6528793770045452    0.2681145736283678    0.4087317837709327 O
   0.8652541268673736    0.2558525563318710    0.3638642556647353 O
   0.7415888967974044    0.3252091921502989    0.6244253280014302 O
   0.0777271015504984    0.9765390500812098    0.5344421713855610 O
   0.1323388331284157    0.5520441538084716    0.3787958808819344 O
   0.3129725172493419    0.6711247314559755    0.4197355390490146 O
   0.2805082353546464    0.9865876483939711    0.5884785938419648 O
   0.4053564798512135    0.7286114072488031    0.6037425653940360 O
   0.6127736105903128    0.6789198527594967    0.6491518953159203 O
   0.6910552525508546    0.6682507812006210    0.3386291211680454 O
   0.7519355409724282   -0.1471218049623070    0.4677959106653445 O
  -0.0536349781141728    0.5987083443277247    0.5277465520855665 O
   0.7431993737701460    0.5487875215647854    0.4930240890759556 O
   0.9304539952985976   -0.1685477348168029    0.5738924542333420 O
   0.0156101687149881    0.4935159693525233    0.7308433973259552 O
   0.1573280411995822    0.3087479005631342    0.9350570808312051 O
   0.3975462186068152    0.0067380027267459   -0.0806590149066959 O
   0.5842771590824261    0.2240541547669168   -0.2377003871183325 O
   0.5673734602789131    0.4619417222707120   -0.2500953596121585 O
   0.3748291869110007    1.2127279868439249    0.7183069844151952 O
   0.3503344788701521    0.2124842037833939   -0.0630121974234364 O
   0.8703489756645879    0.2770926851318986   -0.0257807514550766 O
   0.6853562777197911    0.1781093041099173   -0.0606656777195482 O
   0.8965961224093699    0.4846350198683017    0.9005935388034133 O
   0.9578604961814455    0.2833817951361280    0.6682741759463217 O
   0.9993369819779627    0.1717980343468980    0.8424947620770372 O
   0.2832055082472893    0.8614531951047756    0.8060371420400123 O
   0.2436305209724569    0.6935734194084625    0.9545109348980255 O
   0.0906684907011934   -0.0400001672949285    0.8007883886443915 O
   0.1998692399800373    0.5051745593712054    0.8479977990637579 O
   0.5670090918355210    0.5333873415042863   -0.0510175863283635 O
   0.4907054499962504    0.9429329235780565    0.7262585637016256 O
   0.3811685668849958    0.5479812472642025    0.7296546795049472 O
   0.7825424902173651    0.5358129827933549    0.7253666388866430 O
   0.7892643781892936    0.7620163913260183    0.7308766319594424 O
  -0.2495910650883930    0.6376907692326507    0.9892218044308385 O
