Li1 Co1 H110 Cl3 O55
1.0
  12.5044151423999992    0.0000000000000000    0.0000000000000000
   0.0000000000000000   12.5068624166000006    0.0000000000000000
   0.0000000000000000    0.0000000000000000   12.4858793836000004
Li Co H Cl O
1 1 110 3 55
direct
   0.7184245299677231    0.2493795889335361    0.6823465876973379 Li
   0.5522984076066499    0.6367285369454697    0.2629976704815171 Co
   0.2553848808467404    0.2208800349984974    0.1615398587342798 H
   1.2167925007230445    1.0143884041980946    0.1979017349026764 H
   0.3382436141981939    0.1655496110320904    0.0934834588689947 H
   0.3741173431884410    1.1335309957102737    0.2809883936896114 H
   0.6519488099493250    0.1383029692566355    0.2828809315937528 H
   0.4985158042348522    0.1382925749630333    0.0048740813466399 H
   0.6748399245468736    0.0538653249599864    0.1905694519943336 H
  -0.0696195238950547    1.0491773053234883    0.2550350755416215 H
  -0.2919785841418611    0.0778054619844886    0.0019240288218349 H
  -0.0711277911578753    1.0345053601235119    0.1292818184612789 H
   0.1636948668042328    0.5549694221539934    0.2732420430299182 H
   0.0768295486241837    0.6034220219999537    0.2017709057088156 H
   0.5288155020364146    0.4556215634655644    0.0381558380602135 H
   0.5307420215677692    0.4256260308128605    0.2469627566521417 H
   0.4198699828349039    0.4786009479368082    0.2149802276102135 H
  -0.1859664288428031    0.5148218628961614    1.0208906237347293 H
   0.7041775621590547    0.4374275518565474    0.2849256413987773 H
  -0.0895924692232329    0.4400341208675513    1.0519176734200595 H
   0.7646098167982719    0.4901210234921902    0.1852138019879886 H
  -0.0545903523696497    0.6015742364219077    0.1012741796513665 H
   0.8582311486773180    0.4951158813485528    0.3287879904712297 H
   1.0940358597670738    0.9784161527241469    0.1811756402813950 H
   0.2100049095695641   -0.1071878579171609    1.0955109184993712 H
   0.0088133327264795    0.6761125154040658    0.0218480319582702 H
   0.3160186643036833    0.7434467493588787    0.0564089376616201 H
   0.2028746280662193    0.8456970146454500    1.3040104498515155 H
   0.1606055579833018    0.7263977091681920    1.3233362812636742 H
   0.3387466365249777    0.7688368103847778    0.3044316763777711 H
  -0.3491216005774828   -0.0222294595110434    0.0262934216897219 H
   0.4579493327747052    0.8260118216850457    0.2998969537314536 H
   0.4712814237283012    0.6763787692324904    0.0943418685709239 H
   0.5940404638368639    0.7255621678747876    0.0820564703793091 H
   0.5928704770895116   -0.0129264068248981    0.3288440538031340 H
   0.6163117973481527    0.8296258376144131    0.2906408976340514 H
   0.7197096760394902    0.7509442332902235    0.2570501518712108 H
   0.7387981337787610   -0.1801821845188747    1.0815191126655375 H
   0.9044548219493381    0.7576549491519894    0.1466998947792078 H
   0.8821986830711318    0.8685004956865033    0.1990213997312797 H
   0.2099569265177246    0.2323121588387842    0.5179016225556036 H
   1.2526598319730464    0.0651522485142615    0.6500348868066572 H
   0.0173239586764409    0.2707318666755181    0.4628137926264245 H
   0.3257400306063594    0.1487932101843571    0.4743548299512984 H
   0.1871649768939777    0.3075884326666960    0.4213053025892119 H
   0.3517124568495325    0.2268879367005477    0.5820941375860433 H
   0.4497026455985620    1.1984873351133303    0.3373536666814674 H
   0.6339855547756899    0.3250924230927387    0.5244089735802115 H
   0.4880387048657045    0.0083268053034449    0.3675629926257363 H
   0.8032217786134912    0.0874246611083489    0.3537057387884728 H
   0.9037990535741989    0.1687494543394640    0.3805272376762383 H
   0.8765126914281550    0.2793655268536841    0.5634186408239747 H
   0.7613157802894924    0.0321818690326185    0.6569867399627920 H
   0.8780001660351785    0.0163642727874221    0.4992261257935351 H
   0.3189712214268719    0.4735757067606854    0.4328927923890921 H
   0.3025546199575287    0.5387143460823028    0.5453446235227654 H
   0.5367159115217828    0.3352140663781066    0.6082733108711336 H
   0.3934433170343172    0.3999617203480735    0.6030946608126579 H
   0.5717155492510211    0.6208580497370592    0.4736548392072359 H
   0.4553990335694375    0.5855454361263257    0.4649025521922310 H
   0.6307235069681366    0.4946281491102974    0.5934469622966669 H
  -0.0638279695380309    0.3560834092481113    0.4211355107840159 H
   0.9880972784808364    0.5194849029183011    0.3378149878125657 H
  -0.1145036703032231    0.5951809462955310    0.5092830866324275 H
   0.7296541635332199    0.5690329013977201    0.5892710449745370 H
   0.2125855980409968    0.7050934050889893    0.6103876993886677 H
   0.2047203761269774    0.8893530477745352    0.5758270579838825 H
   0.1791973911360341    0.8204548724131201    0.4782768604703759 H
   0.0221702229207012    0.8169847774720902    0.6263657489813972 H
   0.5670004146902627   -0.2055898358877930    0.6419401425844157 H
   0.4884337653258495    0.9380862935477540    0.6186746607488668 H
   0.5809994700644273   -0.3282552933700591    0.6489264346444348 H
   0.5721314023669630    0.9473771929059952    0.5253268104139593 H
  -0.1216035625404029    0.6741535908405812    0.6043705020658519 H
   0.9100608418392492   -0.0837479262832367    0.5835581914534874 H
   1.0570249324482313    0.3323876180793646   -0.0196057322579565 H
   1.1465613071806773    0.0682990009681594    0.7115251492393089 H
   0.6036370742047574    0.2476077616548904    0.8897184451734639 H
   0.6466146940198377    0.0523511162504651    0.7127801669692240 H
   0.3546554173623531    1.0328742555890185   -0.0865652129892965 H
   0.4162952454728636    0.2003696950382906   -0.0655446671441447 H
   0.7244072168145741    0.2529208448076884    0.9101895703659534 H
   0.9491030516859625    0.2664190343916668   -0.0149372585198101 H
   0.9254074212525722    0.2326191902805712    0.6682386506759880 H
   0.9623783626948820    0.0757506700515502    0.6828839947788778 H
   0.9614027073074795    0.1291775790349826    0.7967790562567164 H
   0.1390715640352795    0.5613387254489804    0.7249387018497867 H
   0.0279594021166589    0.5056197148140618    0.7714816790920068 H
   0.1592476376162449    0.4563267763084189    0.8854175867116616 H
   0.3146983306605673    0.3606760878981747    0.8594682730873791 H
   0.2880117566625169    0.6449056477661868    0.6983022119573056 H
   0.2158780351147149    0.4468695682525430    0.9905763792693250 H
   0.4369647447702448    0.3926561310678454    0.8833112072415422 H
   0.5993481890878396    0.4591172443600765   -0.0642367897012912 H
   0.4376620984569784    0.5849025890450843    0.8327020366267764 H
   0.4030615197755384    0.3354299478606131    0.7160398492670891 H
   0.7919225696228273    0.4895837184690630    0.8479913081418244 H
   0.7455013661207346    0.5965473961236922    0.8638812582129900 H
   0.8707947110839518    0.4017511379697382    0.7176720931302463 H
   0.8774163722377983    0.5239912289753620    0.6878592150330149 H
   0.0946081490199901   -0.3295865625121823   -0.1289490919089580 H
   0.1300963341887071   -0.2311118244863351   -0.0514581943698667 H
   0.2642665437422258   -0.1075068827746426    0.9865478284196293 H
   0.2785558965800192    0.9865476885652238   -0.1755897795296399 H
   0.3706945521572257    0.6878044965844067   -0.0391631853213540 H
   0.4357699667794420    0.6952212248500732    0.7951107716801923 H
   0.6565407880103621    0.7426807698765038    0.7885609727042854 H
   0.9726147470873017   -0.1850403174363164    0.8630082720447657 H
   0.9263990709905878   -0.0696028918127853    0.8774565935812488 H
   0.7843108581660265    0.7750358071768988    0.8147265306087703 H
  -0.0649299802952774    0.8495828813305665    0.7040454998585319 H
   0.6952135283579115   -0.2025586999611929    0.9607026324117405 H
   0.2576368854130727    0.4076263125380993    0.2883334910738181 Cl
   0.6149258868675227    0.2977650256516055    0.3361362914744023 Cl
   0.8892202029903074    0.1058295969213852    0.9565539458508212 Cl
   0.2947005940889386    0.1540679144069317    0.1603593251453232 O
  -0.3564710046842279    0.0535053625769330    0.0387334505597762 O
   0.6815943388108092    0.0657244143990082    0.2671039090911373 O
   0.9846345015730882    0.3294260439637944    0.0080069804239271 O
   0.1017847341683600    0.6018884639131115    0.2781371728099064 O
   0.4976241191881688    0.4857090456385951    0.2101035186392796 O
   0.7351426249461243    0.5052159364856700    0.2591052734378747 O
  -0.1363591506985698    0.4985555929698224    1.0868211020542027 O
  -0.0037241588886549    0.6625351692765018    0.0984290456476967 O
   0.2235361301882939   -0.1586308160763589    1.0306536525334948 O
   1.1691853161229864    0.9536057734568298    0.1956239618178783 O
   0.3583053281722753    0.6747884423113595    0.0396320656797282 O
   0.5513083573036955    0.6672157996416606    0.1127703663107169 O
   0.4112834157082312    0.7695756047915777    0.2654780724659122 O
   0.6548885715920232    0.7651836159641408    0.3098706204772311 O
  -0.0445118322177819    0.9984611481553954    0.1926397907510858 O
   0.6748607172026707   -0.1663345867576544    1.0273699430933849 O
   0.8434683630613752    0.8009024065864048    0.1803923554442176 O
   0.3214575432296869    0.1593881936091466    0.5557323580198933 O
   0.1493103475802912    0.2650565823687370    0.4784322359902249 O
   0.4061332348107950    1.1359056920178450    0.3482499756894416 O
   0.8836701633275422    0.0889411885449044    0.3677247753835173 O
   0.8594707108498375    0.2731945146981845    0.6419361380607082 O
  -0.0591840098375012    0.2815451302659531    0.4404901747668682 O
   0.2322162642660535    0.6361496547479338    0.6387805733792369 O
   0.4193373709594858    0.3351229164188261    0.6365836916733292 O
   0.3548913340338972    0.4983581013913813    0.5014438310227215 O
   0.6214251912391785    0.3382603939645867    0.5990861325814995 O
   0.5123989005670715    0.6240506969950159    0.4236927996235941 O
   0.6502694031349437    0.5698588479585689    0.5848884942291026 O
   0.9232801726210225    0.4924701338462791    0.3784761206332818 O
  -0.1361888108645397    0.6022666562880209    0.5840475442505380 O
   0.2092131892142129    0.7814538836957112    1.3503267710518940 O
   0.1780945806612570    0.8184447759426710    0.5582736287646417 O
   0.5635896194220072    0.9321295637526681    0.6003876027864210 O
   0.5436278701392581   -0.0493575263833290    0.3745076376391979 O
   0.8777042705488352   -0.0095503402629155    0.5765999310594205 O
  -0.0575551451710574    0.8099854200726028    0.6319472541248424 O
   1.2016058648158530    0.0162614092588130    0.6910612321894928 O
   0.4241244800980034    0.1462114275657890   -0.0141771198296617 O
   0.7135014688489939    0.0878994404576538    0.6948062627607009 O
   0.9960864566121077    0.1330090755689492    0.7251997967955126 O
   0.6718649753328267    0.2731265520092472    0.8564889074490355 O
   0.1982266697780362    0.4040290873907045    0.9280737732434297 O
   0.0972824044425098    0.5374790242657381    0.7935490074342865 O
   0.5221794459670163    0.4606444059585482   -0.0434923157205310 O
   0.3908162449461064    0.6450839498795161    0.8321654304499779 O
   0.3927627574157274    0.3360408125000017    0.8550392698669381 O
   0.8976332314128274    0.4721452920488186    0.7421597556013091 O
   0.7397378018772839    0.5257974373789994    0.8971188049848333 O
   0.0710086446337849   -0.2629191624700006   -0.0949594955848553 O
   0.3225387613311363    0.9654152901109798   -0.1129277934601880 O
   0.5563081913053680   -0.2689942272999418    0.6926117837690178 O
   0.9173222770176220   -0.1360352209073488    0.8372271484161961 O
   0.7191794633166642    0.7335281945792761    0.8373633022222493 O
