Li1 Co1 H90 C51 N3 Cl6 O45
1.0
  14.5878168874000007    0.0000000000000000    0.0000000000000000
   0.0000000000000000   14.2097244757999999    0.0000000000000000
   0.0000000000000000    0.0000000000000000   14.2564811713000008
Li Co H C N Cl O
1 1 90 51 3 6 45
direct
   1.0179754831256822    0.6036361756561850    0.4136398396521200 Li
   0.1912972972748476    0.1201067439841345    0.2283192147198820 Co
   0.5478071876952589    0.0551427820458064    1.0015450807345323 H
   0.4474828546373025    0.1542530781249787    0.9103619911361710 H
   0.5055003569498671    0.2187180859835092    0.1469471014991681 H
   0.6769635251063332    0.2544182855801971    1.1005232214864504 H
  -0.0700749169111756    0.0756604212510230    0.1646316897906707 H
  -0.0847536040411842    0.1811508551122051    0.1076519912073122 H
  -0.0859669452927657    0.3265315768509139    0.2275329056815362 H
   0.2182937973707705    0.6469128768369360    0.0333138717747622 H
   0.2364274223018926    0.5353551191408106    0.0854683965179951 H
   0.1179271687448916    0.4344618891248720    0.2142638529800308 H
   0.4003340588093211    0.5844408703239439    0.1849529735996951 H
   0.6941223640149981    0.6053892004978998    0.3363563931437323 H
   0.2164744709969302    0.6757973214789841    0.3134496185984522 H
   0.1557052683915910    0.7101730759724574    0.2241505843765376 H
   0.3922937878828807    0.0732726198508069    1.0436115621329933 H
   0.6130231831621147   -0.0986082638467987    1.0529715155742836 H
   0.3541619684136864   -0.1180132847161056    0.2952515796235694 H
   0.5309723177558014    0.6668752624893173    0.3279454817442635 H
   0.4238742500970666    0.8237755601549748    0.1094960647682499 H
   0.5251658971889818   -0.1089898866749707    1.1617262623712183 H
   0.1784173714127203    0.2263107736660708    0.5905972507893562 H
   0.3021829775987595    0.1330549190394176    0.4031449637986588 H
   0.3022981421921300    0.2099881489455839    0.5899147541842620 H
   0.1620660556647124    0.3123391834414952    0.3859352472457468 H
   0.0039875701860669    0.1749389120058958    0.3921625903701305 H
   0.5370620569323832    0.0740777023152476   -0.6692465903512976 H
   0.3309672709060523    0.2614458673021416    0.3065187358081802 H
   0.4472333999020196    0.2906118093093787    0.2754395378857663 H
   0.5647208219905393    0.1982342264621153    0.5303973326126508 H
   0.3982789192204842    0.0638333094526052    0.4463043516312381 H
  -0.1652920430049187    0.2384264202638073    0.6252088771837678 H
  -0.1727866531199135    0.1902460349814632    0.8754277044762473 H
  -0.0984609326663956    0.1298514790235663    0.3353112544576170 H
  -0.1527891440853733    0.2770267464653553    0.7822069451576409 H
  -0.2655256839455959    0.2249068055571904    0.7964341585606454 H
   0.3277502028305312    0.3652627993272748    0.5326022946662101 H
   0.1275070806041300    0.3939713081160797    0.5339355128545991 H
   0.1999949660884444    0.4580940151785403    0.4563265301957240 H
   0.2819338887679874    0.4649477019031393    0.5964416102072840 H
   0.5735422927420094    0.6246956972893906    0.6179539312572641 H
   0.9938855180052991    0.5247238785240571    0.6620812297428437 H
   0.7353629420016625    0.5467506251040521    0.4503329053332287 H
   1.2109392433461263    0.8217881887567401    0.6787831070952539 H
   1.2110283588052819    0.7394635805637906    0.5835892101095052 H
   1.0616043554177195    0.7839359418031820    0.5376383901190304 H
   0.5827047329502798    0.8185446353663494    0.4751447783157498 H
   0.9135671256753261    0.7495974857105963    0.3854758070850720 H
   0.7227812101759409    0.6425531863935706    0.5817283020999321 H
   0.0009734111560082   -0.0777457903692255    0.3746715982379351 H
   0.6929535804929945    0.8103847304929319    0.4242326358818105 H
   0.3793912404041985    0.1111980561193141    0.8168831036051550 H
   0.3253468274474551   -0.0437430198846277    0.8440076089689662 H
   0.3011053660465074    0.0521286490080447    0.9613331944274063 H
   0.0664636765860039    0.0795753458573897    0.9578190032747635 H
   0.2481440486702719    0.1892220883155880    0.6990763334898860 H
   0.5086169919029196    0.0853221145677240    0.8219572869980128 H
   0.4020142279661721    0.3154349507151618    0.6644401568578812 H
   0.5722041898476099   -0.0274626197689192    0.9016859371706945 H
   0.3453052627806732    0.2867961125242411    0.7737279945282707 H
   0.4475174725656668   -0.0736197427389671    0.7980313268749303 H
  -0.0413111887098419    0.1199709215054308    0.8005796415371161 H
  -0.1927731940979422    0.0424331760075210    0.8422350818147291 H
  -0.0363179809829946    0.2141254564704499    0.7143942788773934 H
  -0.1369492139722127   -0.0020785948629970    0.7431383984870034 H
  -0.0374668849025712    0.0872377041378355    0.6775808468885415 H
  -0.1617589578011610    0.1097560858661333    0.5884971533220882 H
  -0.3284754732861221    0.0862651307411073    0.7226691118170592 H
  -0.2619953407559661    0.1653602604119255    0.6295886395704147 H
   0.2037755180672422    0.4247185615722662    0.7490669301481084 H
   0.2994690691157023    0.6823196154304143    0.8550664388517137 H
   0.1215294898053780    0.3540690566005323    0.6805072352096643 H
   0.1726358346241110    0.3094573541653723    0.7810397567189188 H
   0.3648421134417317    0.4055809631998889    0.7487141081621246 H
   0.4402253601940150    0.5582409956793626   -0.1171818904136822 H
   0.6152092539255573    0.4582981007683023    0.7534993001867411 H
   0.4808295852519545    0.5516595169069014    1.0218123540208515 H
   0.6993027142060725    0.4520466072821840    0.8507231511037769 H
   0.6923674749731628    0.6492253776919641    0.9262431891176049 H
   0.8059163365187662    0.6027515701860785    0.9100687911557709 H
   0.8776289175084261    0.4425408635057977    0.7134683842024456 H
   1.0953640333600283    0.6925084125634318    0.7974954302600362 H
   1.1429263249184920    0.9659387670095728    0.8259217996516528 H
   0.4095204916412103   -0.1344597682772757    0.8906944450824885 H
   0.5304177453984402   -0.1532349387919720    0.9799983893519219 H
   0.3450776756080602   -0.0449534585549406    1.0330297082949160 H
   0.9806696954125080    0.7294035684753472    0.7596894672370547 H
   0.6720299561867669    0.7068436658856840    0.7230976888219025 H
  -0.2999311062150178   -0.1014007177094741    0.7815286571647057 H
   0.9037856757776895    0.8109998022358700    0.8528309643600027 H
  -0.2766651163400591   -0.0098035863071974    0.6583110146838707 H
   0.0463763665887760    0.1172530644445305    0.0850840099408198 C
   0.0632404389786953    0.2757388960196154    0.2416100119175416 C
   0.3748950227380272    0.1974178841030671    0.1786365481846158 C
   0.3930169941091058    0.2342996688901359    0.2766502153167965 C
  -0.0226394435061258    0.2082773487086475    0.2367006658342389 C
  -0.0341874360056412    0.1411669693607530    0.1490717492040293 C
   0.1526431241142945    0.5603248502995158    0.2573298797662194 C
   0.2637358265048604    0.6040471618093610    0.0716543285419181 C
   0.2840658047524047    0.6490248108192669    0.1762229091115133 C
   0.2007209143287974    0.6539756457295292    0.2427884233220206 C
   0.5410810270395990   -0.0924181367862916    1.0249716188814308 C
   0.3605549743528103    0.0212504992770452    0.9944409434103876 C
   0.3330628552032753    0.0117830391423246    0.3226384218119491 C
   0.3304044725063074    0.7471203088969327    0.1720718146521640 C
   0.5895138395333077    0.7894385115492148    0.3265166579163327 C
   0.0176325179898693    0.0476795831512318    0.3227380256330419 C
   0.3625209984824915    0.0929492856775212    0.3826953173187894 C
   0.4330750785031272    0.1616909422566863    0.3438806902484026 C
   0.4707694781685733    0.2153774160021282    0.4310385930345005 C
  -0.1893799516147058    0.2115490518355572    0.8036554355898783 C
  -0.0261444230650729    0.1459988716342230    0.3269185803775032 C
   0.2697024492471009    0.3913083430413913    0.5728341017375548 C
   0.1947220729205545    0.3894166807473209    0.5030208015240603 C
   1.0684881818857317    0.6362068282953836    0.6246498332020001 C
   0.5618289567905835    0.6205590935079375    0.4827261933017694 C
   0.7234550601478644    0.6166019442967925    0.4094613892137382 C
   0.8245764281624389    0.6487939829798118    0.4021145552550995 C
   1.0903166708541556    0.7355761019505299    0.6637639731710252 C
   1.1971194921416721    0.7491506086433587    0.6606650317513894 C
   0.6302060146943985    0.7759561952434855    0.4244393488823462 C
   0.6541691616613676    0.6775031955120296    0.4690075696351016 C
   0.2446061649417904    0.2318084172082129    0.6318970633395460 C
   0.4451935470419455    0.0951076667251083    0.8594560213333980 C
   0.5274727536747570   -0.0071047303184474    0.9629934919240740 C
   0.3990062384679011   -0.0656702571460284    0.8595254634340190 C
  -0.1910388701620658    0.0431629579267736    0.7661391653704979 C
  -0.0590369390394436    0.1417194079399365    0.7321735609424702 C
  -0.1869806892528214    0.1651815095850305    0.6353221722014928 C
   0.1835757854907717    0.3565061200396565    0.7218203750316905 C
   0.5662359218968928    0.5257577479720552    0.8797604706937869 C
   0.6453686673179758    0.4962231851651031    0.8161718481503087 C
   0.3530535092024958    0.5878300986008201    0.0171170278814143 C
   0.3538932510291554    0.3378245473988855    0.7176615647833834 C
   0.7058060862138431    0.5815759308897325    0.7866407180669931 C
   0.7464132589369700    0.6360287812119015    0.8732301074939659 C
   0.7777647629714790    0.5376093500412444    0.7170702547750644 C
   1.0540514775025074    0.7503476761888250    0.7624341837999871 C
   1.0601222967816069    0.8515107918036385    0.8034772710084869 C
   1.2575123533079615    0.6866898620249742    0.7228051902768622 C
  -0.2854738367258346    0.0199886873375853    0.7254124255092720 C
   0.7911869221273921    0.7313339366571310    0.8401391929596200 C
   0.4329900760651633    0.0110750732688742    0.9194280431617015 N
  -0.1601171768421001    0.1383935165702279    0.7314188164953158 N
   0.2615127385506916    0.3307385549736642    0.6601361494900935 N
   0.7364974503470678    0.1960019523561662    0.0259074158105398 Cl
  -0.3915349431917630    1.3042711539737004    1.1703286656239151 Cl
   0.9595438475643503    0.3996181452617719   -0.3746226961707544 Cl
   1.0382375965235615    0.7804932290269200    0.3703149832181618 Cl
   1.1494886502300119    1.0943972746399422    0.8463742518729614 Cl
   0.5796844043884334    2.2060690756591992    0.6657953299730318 Cl
   0.1287149378274557    0.1076891914622327    0.1050321301384259 O
   0.1409422643271505    0.2424194603890140    0.2648043749603433 O
   0.3012349262140492    0.1688086031354913    0.1483661052320615 O
   0.2777543737335848    0.0138091164282728    0.2584114930910448 O
   0.0140089463198920    0.0930492172421633   -0.0001901881865112 O
   0.0948538053624157    0.0284526093654070    0.2872692452289438 O
   0.4440955074844409    0.1977099376194507    0.1197531540347358 O
  -0.1032827645102512    0.2647794998493929    0.2491735894023612 O
   0.1572922090680945    0.4932998350276148    0.1901323722965242 O
   0.0452569393210740    0.3601085825706633    0.2226544227540651 O
   0.1096675366882217    0.5480290453880583    0.3311503399032304 O
   0.3450907001751676    0.5904149481566685    0.2269836817948058 O
   0.4178082293426910    0.5362564737041459    0.0617535684382151 O
   0.3161226919213077    0.8086246682170875    0.2321104728396493 O
   0.3827865393980309   -0.0674085033760708    0.3368635309088742 O
   0.3858726762989461    0.7599769973085293    0.1030218163972135 O
   0.4837389993423287   -0.0947707510158591    1.1066523636604608 O
   0.5385773624897962    0.7213400764495069    0.2841352320413175 O
   0.5949265754217189    0.8694632862685699    0.2887640039806967 O
   0.2006352263873016    0.3057809985760034    0.4441088589550361 O
   0.5055774006918249    0.1157153850871854    0.2899704727995680 O
   0.5464647661286081    0.1787440526398388    0.4612570596268928 O
   0.4241080068014674    0.2786207252957383    0.4647735655162230 O
   1.0326411456885833    0.5809026595665415    0.6892583427586405 O
   1.2861115606616234    0.6076123259394803    0.7020314806607610 O
   1.0677786857301459    0.6199510591991292    0.5385908691941149 O
   0.5299175334711639    0.6129347373717922    0.5685609575255989 O
   0.5161402149353387    0.5908428241517558    0.4138909535109316 O
   0.7777455688725838    0.5649732162908825    0.6350030191127798 O
   0.8829813290860241    0.5889272345816444    0.4183413504383113 O
   1.0523411461902499    0.8050735789552275    0.6019766366315363 O
  -0.0317545839706905   -0.0143708810573896    0.3723954404953551 O
   0.8415035668772991    0.7359181212492345    0.3734440863582695 O
   0.6957757985341024    0.6996992627571860    0.5556145650896055 O
   0.3643135902185851    0.6240862554937563   -0.0641435571170900 O
   0.4849027101381958    0.5192912186486689    0.8409100704200499 O
   0.5745616364940442    0.5530762931458979    0.9645106966073407 O
   0.6453954019557224    0.6397600287874823    0.7345710670022971 O
   0.8243303323944627    0.4679597940850034    0.7580193496453497 O
   1.1419426273501194    0.8922723140264254    0.8029750432908636 O
   1.2723740698810055    0.7270769927520596    0.8060767904519388 O
  -0.3304771435994657   -0.0414185553915791    0.7939819405427534 O
   0.9889293274691779    0.8870533528758205    0.8340324967171234 O
   0.8664284752996179    0.7536017857304105    0.8850906779929750 O
   0.7577617699086829    0.7813764270102007    0.7758477321856132 O
