Li1 Co1 H90 C51 N3 Cl6 O45
1.0
  13.9809995562000005    0.0000000000000000    0.0000000000000000
   0.0000000000000000   13.6444796079999993    0.0000000000000000
   0.0000000000000000    0.0000000000000000   14.1020420381000005
Li Co H C N Cl O
1 1 90 51 3 6 45
direct
   0.7973796316985252    0.4389350474376846    0.3549954684204368 Li
   0.5718492619044920    0.5782472861313099    0.4753891671069815 Co
   0.1061922841018622   -0.1442940113923911    1.0538694310261998 H
   0.0307649159969580   -0.0348724692820839    1.0300679135514141 H
   0.4469228578245022    0.1413152688409954    0.2157234399657111 H
   0.4906959798777538    0.2187788314220331    0.0909117286373323 H
   0.6314880593058009    1.0213869421468376    0.1109726530932146 H
   0.9865327741022277    0.2525639235064333    0.1331573834432420 H
   0.7580419578942151    1.1500272458027481    0.2551007158594948 H
   0.7701955953589018    1.0650676113348772    0.3455635010755201 H
   0.2665706598386424    0.3326607854900318    0.0354835858273628 H
   1.1480541296335329    0.5362958877310082    0.1015172848820186 H
   1.0675362814299838    0.4067475978157510    0.1444990032999893 H
   1.0267716710236228    0.4668403843166930    0.2583080527740921 H
   0.2204695211175434    0.3868651246255723    0.3339396525891001 H
   0.3239034704705215    0.5011432828842263    0.0383455826850490 H
   0.3762008757497997    0.3576584409374420    0.2738327547575714 H
   0.4133112409933144    0.4370106794328686    0.1781898686878798 H
   0.5963446492781457    0.6345037372421276    1.0659116586370092 H
   0.8156830440526526    0.3480464950246712    0.0639943503615870 H
   0.8465256170937751    0.4637224346973424    0.0333626164018576 H
   0.8613528831391467    0.5457953339337058    0.2082167257101449 H
   0.7113543088905688    0.7115832617249348    1.0742395305638341 H
   0.0551444318269865   -0.2725810586297004    0.9434754897945690 H
   0.1315309588207882    0.7843870643278256    0.2270934245088577 H
  -0.0680119986613064   -0.2700305766032847    1.0496984038911876 H
   0.3992864926760136    0.6679502308506070    0.2157475499491505 H
   0.6010910910281259    0.8162966726462493    1.1115922769658702 H
   0.4792844209717779    0.8572817461753357    0.2769642161360506 H
  -0.0464656135985580   -0.2771176918893307    0.8675659160528481 H
   0.8761644135427914    1.0156322338504535    0.1356229838084984 H
   0.7140315137534645    0.9264657698332646    0.0696835973361202 H
   0.8509344578030694    0.8796211837176282    0.2859522761388186 H
   0.1721374975534384    0.1396420646840106    0.4225488055489333 H
   0.0630816325653121    0.2034598155265901    0.4439469122333931 H
   0.2739034688833674    0.2072305712811616    0.5686263022997192 H
   0.2017977516957186    0.2643606357757400    0.6573268604614740 H
   0.1463689537127918    0.0202633821108057    0.5867824671521747 H
   0.0885805247272754    0.3644663224154235    0.5947345069842095 H
   0.6065806842214797    0.1436136342533057    0.5903039429686437 H
   0.6392049610599501    1.0562171455443610    0.4311603243397510 H
  -0.0324322822039516    0.0820502749949949    0.5889410197871590 H
   0.7195203916903762    0.2527999163835901    0.5835322286493986 H
   0.0192356974062515    0.6422218769605712    0.4551261442605045 H
   0.0387006862223993    0.5780970422188343    0.5605405229713120 H
   0.6218435414401090    0.3356949796249056    0.5993551143986502 H
   0.0336373858685553   -0.0468069662125879    0.3424256576426011 H
   0.2163896983716292    0.7892366446636856    0.3511974369115748 H
   0.2746716543022159    0.6734506238414836    0.3559754683355315 H
   0.1748218549807553    0.8115716848231740    0.5374349330773323 H
   0.4516446232272286    0.8640449209281417    0.4659150782027621 H
   0.3502041651041133    0.9725327520896977    0.3425036605301991 H
   0.5717643609648111    0.6735173174806800    0.7032060315951300 H
   0.3669898032880391    0.7756868424497850    0.5046181964125511 H
  -0.2924043954559095    0.8645740726589095    0.5401505681531982 H
  -0.1499017087208625    0.7270385964873068    0.4336486164541268 H
  -0.1280291667205024    0.7921440475943727    0.5341866801026041 H
   0.1636359594822716    0.0489922168675500    0.8876991704590484 H
   0.1612963556600617   -0.0297048115900559    1.0341439189869890 H
   0.5803251222693864    0.2569854919160212    0.8442295794350104 H
   0.5479142779532478    0.0985624474246347    0.8005947641126965 H
   0.3458067684978932    0.2495737031996010   -0.0063635451346372 H
   0.5408780857550743    0.3392114200739696    0.7533980532957946 H
   0.6375877662442923    1.1368717422469543   -0.0020634586765081 H
   0.4599835835090991    0.0778998785249971    0.7294064924221337 H
   0.5185805383768002    0.2235052850393765    0.6472517238524540 H
   0.0379332160599929    0.0491497897513659    0.8822389683271894 H
   0.7067087182989292    0.1222225656024448    0.8061740979274324 H
   0.7934192567784469    0.2142378007795986    0.7732987172735210 H
   0.7531646242153252    0.1258291523989941    0.6891640935931724 H
   0.6592822093905618    0.3526021836097862    0.7939248081059087 H
   0.5591975913791496    0.5382217215300924    0.8481970899451080 H
   0.4878544090844565    0.5975100215049550    0.9358858088312848 H
   0.4577232301006773    0.6023874519319081    0.8190991764024189 H
   0.6761400884751427    0.6342508877308881    0.7636937253415689 H
   0.8964970084232440    0.4236385314842562   -0.1095911483474930 H
   0.6975155272482221    0.6299070064175070    0.9130345083508745 H
   0.7256494241429950    0.3548199303373535    0.6698640518499505 H
  -0.1579912590813619    0.5203637300932379    0.6723466710270464 H
   0.1089295705058968    0.0109094159892126    0.7861677754928689 H
   0.1569969491864134   -0.2123860183206190    0.8311967151517068 H
   0.2417176442439233   -0.1141836655380049    0.8418207084425526 H
   0.0138483858841223   -0.1475385470047309    0.7942921307947791 H
   0.2119586847126289   -0.1848950468232471    0.9399036666597412 H
   0.5052755526172156    0.8005078696878947    0.9412091513512675 H
   0.4479805790511251    0.7769518229031165    0.8268753551787783 H
   0.5518144282808986    0.8466884510001021    0.8272589875623283 H
   0.6514451445541345    0.7671779067237257    0.7473273012891912 H
   0.6096441275631259    0.0028028407897343    0.6366482949592478 H
  -0.0519044235845206   -0.0888723301172308    0.8928353060487960 H
  -0.0533449500589721    0.6909309533851736    0.6839315180696673 H
   0.6969633492748970    0.7585429126906136    0.9106164188353371 H
   0.3220345053872337    0.2097407439652058    0.1771517211656666 C
   0.3410975200829039    0.3163113162241460    0.0330704601319451 C
   0.3785490626493151    0.2979309889998701    0.1330495976349248 C
   0.6249613442713572    1.0977702143523187    0.2941035778928082 C
   0.7608536309682313    1.0700278591379753    0.0424421525182632 C
   0.7309945355350387    1.0775217323334065    0.2795574575901036 C
   0.9014744780040322    0.3167180741335313    0.2257418472019325 C
   0.2641459404998189    0.4318966698110514    0.2001554818354729 C
   1.0116346989388083    0.5651687367745890    0.1370752557521409 C
   1.0081063389097771    0.4592559396934385    0.1788302014833433 C
   0.3644034359932941    0.3826047935854704    0.2024750040657731 C
   0.9532962377492934    0.3501535742850003   -0.0014904920112429 C
   0.8790197172597777    0.4007574829599174    0.0628434532109367 C
   0.9063975880952185    0.4164842095310199    0.1669021417352911 C
  -0.0086163884503221   -0.2319448441364111    0.9240946086951092 C
   0.2649155564315517    0.7457348023763487    0.2164091562594134 C
   0.2824550749054833    0.7449029641292275    0.3238574248084803 C
   0.6378230856137533    0.6980268634368280    1.0372739621311482 C
   0.7083516623465037    0.9970591546799283    0.1064385579722916 C
   0.7558218018978411    0.9971940077525894    0.2062347432479960 C
   0.7206905512297023    0.8944191097507777    0.2467090233882714 C
   0.1073417012043664    0.1434289441755308    0.4663124674592158 C
   0.1274117969705569    0.1641296237261378    0.5745390630030787 C
   0.2034321126659875    0.2418350423614045    0.5834586222881926 C
   0.0522419211848197    0.0500703085517045    0.4461657398269758 C
   0.1919944468998738    0.3234944410347497    0.5132515538845449 C
   0.0396927469076347    0.1985266849174509    0.6383133020508848 C
   0.6872923669208463    0.2986067201574434    0.6355874556879151 C
   0.0077851570241794    0.6496541867967444    0.5302971724801046 C
  -0.0982172782124904    0.6407831998864753    0.5571092468575924 C
  -0.1360407541288096    0.5365690384928604    0.5387680733380978 C
   0.0644370435231500    0.7367480177189034    0.5722837158757568 C
   0.3752967916069463    0.8301535587593074    0.4495766642782037 C
   0.3829514660506302    0.7851969156609259    0.3484914458290846 C
   0.4561995193020060    0.7030274205822976    0.3446586675793835 C
   0.3075977693592655    0.9152590397568499    0.4633480740836283 C
  -0.1595118942773320    0.7229402357138252    0.5098278816341320 C
  -0.2653176339924159    0.7217646687108450    0.5282773940733286 C
   0.1017963180085263    0.0103436194017433    0.8614660902426855 C
   0.0977365224429918   -0.0737629228021197    1.0179895209654459 C
   0.5395454199520963    0.0834435124467812    0.7269827299693163 C
   0.6005203163873054    0.3020813854698679    0.7850643891919373 C
   0.5748250863319772    0.1667863758369875    0.6616567298403223 C
   0.7295096631611752    0.1731244702520574    0.7502864471977949 C
   0.5173936275315995    0.6024959207077443    0.8642011551287350 C
   0.3889317251632859    0.3925971131108015   -0.0272030802321793 C
   0.1815016348938149   -0.1519491219573084    0.8775290121505909 C
   0.0075405393209707   -0.1388082763441952    0.8749222974704982 C
   0.6561243521985544    0.6927969094884077    0.9296044490281670 C
   0.5151544957818157    0.7868950383204677    0.8623574505127826 C
   0.6226739541694229    0.6907162145249035    0.7574024378982112 C
   0.6464426409978717    0.2355204006546235    0.7086747431329089 N
   0.1009673357920967   -0.0846662334650469    0.9080004856321645 N
   0.5752042437719508    0.6931589606726173    0.8521660186895256 N
   0.0201226153944937    0.8145487129815937    0.3237524754688031 Cl
   0.6171722016165527    0.4449275075643471    0.3878268838104294 Cl
   0.4801114719958137    0.5511931213258184    0.6035077044875030 Cl
   0.7269011229167240    1.0012022221785859    0.5201351690189867 Cl
   0.5165476157745392    0.1247004908125918    0.9756814638494578 Cl
   0.8025187492352351    0.5047561725961283    0.8409633857961347 Cl
   0.2359526773203489    0.2087769842339597    0.1677608826160290 O
   0.3766865348740065    0.1345432993225812    0.2127501117139079 O
   0.4758527636137227    0.2764277870875030    0.1317256758972390 O
   0.5702598190387890    1.1197849784642371    0.2285180408832609 O
   1.0175091000980288    0.2951276574622149    0.0318890709434156 O
   0.9422505325134674    0.2354874202835923    0.1918893031015662 O
   0.8493816360672034    1.0562992300233720    0.0286406052335394 O
   0.8643004549371677    0.3131283439710645    0.3045375277847789 O
   1.0934979445100057    0.5859031295933613    0.0938878933577755 O
   0.2332654588672635    0.4727519106128448    0.1264044607287363 O
   0.2105174429817353    0.4317254650405426    0.2758069369309605 O
   0.3729228554755142    0.4890201382314235   -0.0134887543581333 O
   0.9414580283755863    0.6212918006070136    0.1416745896517822 O
   0.8356887667390512    0.4777334783935719    0.2190811097182245 O
  -0.0713737039393212   -0.2154803100204831    1.0040262949682461 O
   0.1840043171848306    0.7842089703242568    0.1829842098065161 O
   0.3247496188415622    0.7033389018642594    0.1625907094026024 O
   0.4533151761734694    0.6468193406823258    0.2722854611144914 O
   0.5773294137128099    0.7877525279672798    1.0549813267330512 O
   0.6363231928546051    0.8645784700417136    0.2404482279827930 O
   0.4101898618798556    0.8583363851512014    0.2828676164928982 O
   0.8548140087451869    0.9868550278828634    0.1980742229709266 O
   0.7854856323223319    0.8459049839638267    0.2904877894940616 O
   0.1739735608403881    0.0824504368301739    0.6128439410158221 O
   0.0341580925584265    0.2835266287276934    0.6752965984125703 O
   0.5931124054161566    1.0911719414546690    0.3802166384495058 O
   0.3076914679531846    0.9879433801268942    0.3958703997561018 O
  -0.0347661639746244    0.1365485058812805    0.6409696549321762 O
   0.2329285730830199    0.3257319759849356    0.4363609895910568 O
   0.1252824785423335    0.3912441850013867    0.5398187722340427 O
   0.5156532455294265    0.6935605883020642    0.4128445372145838 O
  -0.1078410536413604    0.6518506795074247    0.6605363247275512 O
  -0.3079969858943611    0.6398333652007756    0.5345683978698222 O
  -0.1626947854448141    0.4774495100700216    0.6117639555811700 O
  -0.1320417553608562    0.5069695219408913    0.4549317043352376 O
   0.0644148705734439    0.0195671298334795    0.3598429933260716 O
  -0.0003759189805331    0.0105415016279308    0.5071912847569177 O
   0.1399867204796586    0.7529369825124370    0.5161728634288434 O
   0.2469990978126171    0.9219262049850981    0.5289424750576754 O
  -0.3151423977512479    0.7947231126090155    0.5568090066520562 O
   0.0474718759722494    0.7796774673445648    0.6474488584229290 O
   0.7142932976112844    1.1391591142022541   -0.0025321851192560 O
   0.4362817016323453    0.3768376260378079   -0.0960136820853234 O
   0.9478667260970784    0.3755975640870334   -0.0913278358921644 O
   0.5672453707634286   -0.0105124343412775    0.6925848747729241 O
