Li1 Co1 H110 Cl3 O55
1.0
  12.3626206792000009    0.0000000000000000    0.0000000000000000
   0.0000000000000000   12.3650402024999995    0.0000000000000000
   0.0000000000000000    0.0000000000000000   12.3442951076000007
Li Co H Cl O
1 1 110 3 55
direct
   0.5494968676932339    0.1481083014214324    0.5661267000654769 Li
   0.5286194172967940    0.5118038435589146    0.3997534902468326 Co
   0.1339013290673188    0.1199870827027342    0.2106467020785241 H
   0.0417796803042754    0.0245545583700256    0.1819476150174989 H
   0.1391979406595656    0.0135217596272914    1.0459750792858629 H
   0.0789754345001209    0.3074518998030731    1.0856695288861742 H
   0.4995503380679346    0.1787640852921036    0.1358121334014307 H
   0.6046324265433748    0.1465175261649134    0.0799139234197872 H
   0.3406600792003373    1.2279058420149929    0.2696966513584323 H
   0.4412495927241374    1.1755970755728726    0.3254859851354580 H
  -0.0168695348431167    0.2575636673430379    1.2918376395653433 H
  -0.1398585870396443    0.2397084888410415    1.2582593755667122 H
  -0.1255792522140592    1.0423100038764310    0.1894968512588316 H
   0.2144263266250713    0.4855799094115400    0.2989490304414374 H
   0.2140744594835583    0.4074216515997616    1.0224743449408622 H
   0.3171763852867595    0.5740656710493215    1.0146569686420253 H
   0.4891302173392660    0.3341036530204520    0.2864460889081475 H
   0.5760551524226531    0.4052138140551266    0.2274172019892516 H
  -0.0203345768525406    0.3444077036271165    1.0157424903249725 H
   0.7913387940600528    0.3953747841767278    0.0253235240388527 H
  -0.2344404746783473    0.4739244681319507    0.2498858806446442 H
  -0.1466767206851922    0.4067641527265791    0.3209891710593084 H
   0.7515527314796852    0.6336053076330466    0.0924377652959279 H
   0.9262179627467930    0.5860033596926755    0.3243162140084609 H
   0.2507390156292162    0.6832428332656689    1.0111735781668958 H
   1.1993558424587596    0.9603935698485653    0.2265406837348121 H
   0.0716995500146139   -0.2408641500411652    0.0415754848232708 H
   0.2669313752586596    0.7932360057686598    1.3102510036350385 H
   1.3248227673325212    0.9182990847942616    0.2162509102894415 H
   0.4683724826599385    0.9987031905406375    0.0739536802986792 H
   0.4304711337341118    0.8824965323763169    0.0391350862636598 H
   0.5320749952934462   -0.1524277210371650    1.1627172656511870 H
   0.5318913772678749    0.7017183089825867    0.2894110212660483 H
   0.5965718378877946   -0.1447108031430600    1.2757654379312580 H
   0.9995276616785771    0.6822335361024072    0.2683049153499970 H
  -0.0741775295138589    0.9765924658262348    0.2900566636401595 H
   0.9577646719858925    0.8510045199264689    0.1577850364822236 H
   0.7087325225825003    0.7541766907894533    0.1324502565475268 H
   0.9060361577335744    0.7485697539041221    0.1149846987233897 H
   1.1677282442216113    0.1819488707319470    0.5840442885605727 H
   0.2582374257483560    0.0949344346783979    0.4667658220802400 H
   1.2186559573932447    0.2839695661232121    0.5195416180508746 H
   0.4200057151665357    0.0670734658211881    0.4424517565638370 H
   0.5317789415605869    0.0301504156310486    0.4043467051291543 H
   1.3422543464120751    0.2117595299747268    0.5963852119322286 H
   0.9501611061692891    0.1782885510517207    0.5697875004275954 H
   0.8976803242351155    0.2123782097262454    0.4540060817607603 H
   0.7350732159071679    0.2491253607713452    0.5574384761478577 H
   0.8698059755074394    0.0316522304004211    0.4725279979987506 H
   0.2488518753047336    0.6648870498405482    1.3466888881865082 H
   0.1111569605959087    0.5502396263963947    0.3404086679127506 H
   0.1940681835961058    0.4510600054719071    0.4662870584126118 H
   0.1999577115440515    0.4646984568831611    0.5955824119413325 H
   0.6506695908929672    0.3360413741768423    0.5376244650708369 H
   0.3457067437886127    0.4944614009555623    0.5359046422850928 H
   0.4114905303419204    0.6001133016858059    0.5676043056995783 H
   0.7915677099245315    0.6638963535064172    0.6447581643604613 H
   0.6962570124134073    0.5646310070215884    0.5254722928574844 H
   0.7244654327030255    0.5001467848159227    0.4249367832004016 H
   0.3000651266394798    0.9130423287356070    0.6658432079155003 H
   0.1355797757768350    0.8454323585042950    0.6277940527465812 H
   0.2657867959362666   -0.0031043084350214    0.3710398215512603 H
   0.2780269191210372    0.9345707666250510    0.5408186531274497 H
   0.4327449234692685    0.6935945990427119    0.3499207541822782 H
   0.6012981820437961   -0.0306366896019803    0.6641217649481398 H
   0.5347103588498817    0.8116370781690551    0.5841147664608833 H
   0.3628738158445462    0.7778183446144764    0.5946192139704188 H
   0.6049600269854730    0.8918778201117620    0.4545901572334506 H
   0.6603617106391951    0.7872400689349882    0.6031373188183224 H
   0.9790789229717969   -0.2039568701192017    0.5321109870304345 H
   0.7012106546539263    0.9509961074790934    0.4019107620689883 H
   0.8147941768243134    0.7031699823864765    0.5344764521902897 H
   0.9644541921245425   -0.2871834495032246    0.4286777825525289 H
   0.8759939838581859   -0.1000825616684848    0.4479376915167617 H
   1.0562065826114926    0.0928610083425242    0.7104711105375646 H
   0.1093644603991434    0.3135715725870484    0.8870514645391463 H
   1.0878988920470800    0.2183749552916183    0.7078366952293971 H
   0.2151227808982730    0.0470691636960733    0.9567354758578972 H
   0.2063471334999399    0.2510727867081515    0.8285224036488912 H
   0.3119461026729130    0.0971768050666797   -0.1651301211071186 H
   0.4512054106040050    1.0312627288362428   -0.2481385060386435 H
   0.4784763274062358    0.2472086666391896   -0.0147130269097489 H
   0.3527238643693611    0.2028222359433126   -0.0958333331946728 H
   0.4756039590855167    0.3155392168163879   -0.1263713263902430 H
   1.4350178493746371    0.2741070830254747    0.6841139960029579 H
   0.6562970384872342    0.0538188384753859    0.7477271868052857 H
   0.8256972048713346    0.2863666468859586   -0.0136463803426319 H
  -0.2352259068494028    0.0441730954736053   -0.0718230517313333 H
   0.1215325923756504    0.5499201773743688    0.7699949629402523 H
   0.1692692345742517    0.4274927549634063    0.7716135243749752 H
   0.3126029213370706    0.5443997747810800    0.7489658156509771 H
   0.3465374737985757    0.5820211647953193    0.8627649421102210 H
   0.4909558820252313    0.4524308057056639    0.7906830619992881 H
   0.6009285193227123    0.3986549999573283    0.7609243761611770 H
   0.3336106030203693    0.3797905242920701    0.9807060628716363 H
   0.7920433372330594    0.3911936412808441   -0.1448413968165104 H
  -0.0872265426791192    0.6344787378704845    0.7764011610512576 H
  -0.1838080063495927    0.5514688985824185    0.7741952837806118 H
   0.7780034338416992    0.3646898859648087   -0.2675312698954160 H
   1.0718586037339686    0.6961590872676341    0.8692051640351695 H
   1.0548880919432941    0.7205318345506609    0.7495466507604346 H
   0.1365997860422326   -0.1705408849518862   -0.0341133246110374 H
   0.0355445136676664    0.8922336620603479    0.6885208899994006 H
   1.0551145811378313   -0.0077998046929520    0.8842566512509611 H
   0.4243971788706145    0.7027704689260189    0.6867775745802196 H
   0.4099107682100239    0.9381049241598696   -0.1745312249359271 H
   0.5367309660211450   -0.2096155658334181    0.9042982978450776 H
   0.4310308856006107   -0.2760278044150581    0.9279043439951403 H
  -0.2870094256203942    0.7535135307943615   -0.1362779268833493 H
  -0.2436108603871593   -0.0609131783047270   -0.1352256189235370 H
  -0.2817200940379719    0.7748656651729152   -0.0114681271685446 H
   0.9311279249283657   -0.0000240111275781    0.8352704600809441 H
   0.1538226715068199    0.2935449494669769    0.2655854405069715 Cl
   0.7699234318265873    0.1379174732529544    1.1259958493168580 Cl
   0.6632551100994069    0.4718751420007767    0.1007497830422331 Cl
   0.1208078269531316    0.0520160946399479    0.1665850529313702 O
   0.5256427021685919    0.1502352657959342    0.0688196487928234 O
   0.4180239347143359    1.2194707703701055    0.2623037626430764 O
  -0.0949231308434789    0.2747063532161614    1.3164481983175362 O
   0.3290209612710706    0.6491337650303123    1.0045875398964768 O
   0.0582742412304297    0.3366843158794008    1.0134580342459343 O
   0.5407713714736913    0.3954685970540823    0.2993087107602647 O
  -0.1982361769315880    0.4743716967627870    0.3211106846805338 O
   0.9935742314221728    0.6306865949229412    0.3299860395748401 O
   1.2546758282244521    0.9092736390074021    0.2557306858255881 O
   0.4475192989629134    0.9224478784220921    0.1040679149924959 O
   0.5788514850852061   -0.1917870754775656    1.2078150209419900 O
  -0.0668093506815779    0.9861840238040261    0.2095555097599196 O
   0.9767654976275962    0.7761863240411896    0.1419550519997810 O
   0.7714934872787179    0.7142399019143019    0.1018587973586173 O
   1.2260006784160913    0.2019221175597306    0.5323118895508605 O
   0.2978617103326258    0.0295322211185508    0.4402637012909709 O
   1.0700628679772815    0.1548183483473798    0.6626927647625286 O
   0.4958868753462967    0.0943624996192163    0.4372072286717468 O
   0.6588717352951330    0.2685850629687834    0.5769770563501008 O
   1.4195518729476733    0.2158549473102694    0.6308788785440912 O
   0.8812355909317594    0.1727034499223255    0.5240327614913670 O
   0.1878696596756130    0.5379646966335854    0.3534932546463063 O
   0.2180606693074116    0.4161745548032722    0.5350824001148007 O
   0.4979527803564675    0.6501204177059366    0.3418708818214967 O
   0.4204554579956881    0.5274285400286388    0.5314985583794583 O
   0.6668287860332104    0.5009183148589929    0.4832568406621491 O
   0.0540252230519152    0.8298561859366507    0.6465452246832835 O
   0.2979013459416698    0.7253607715393111    1.3482199598139490 O
   0.2717539773223393    0.8820598172575979    0.6016532324577557 O
   0.4248461128097862    0.7296680765806026    0.6093977005838573 O
   0.6074425103355962    0.8494598423769257    0.5811101396533822 O
   0.6257808550832787    0.9220596872054529    0.3833402403825079 O
   0.7489246479330739    0.6746880693289845    0.5698547379646736 O
   0.8559011567428211   -0.0269398152488538    0.4213270185591978 O
   0.9269136081300143   -0.2302932179730614    0.4762220120840040 O
   0.1508920631075056    0.3126949074228050    0.8170604288040991 O
   0.2860114721184513    0.1475446154256044   -0.1090847986347115 O
   0.5875907324344172    0.0421325036448057    0.7026577846927687 O
   0.4319352245987982    0.2884337651145619   -0.0662040188586264 O
  -0.2295927970252723    0.0126495829239905   -0.1441511994479499 O
   0.1657942432180678    0.4970630908387457    0.7259082009780451 O
   0.2783262084138183    0.4374587557189141    0.9964056227339636 O
   0.3736110214455668    0.5759645730840478    0.7918722753056812 O
   0.5263027563926714    0.3844835943548968    0.7669798049522449 O
   0.8451752756015273    0.3600065206823981   -0.0249389651994356 O
   0.7616784162554555    0.4234499051884502   -0.2130745354978295 O
  -0.1666118142543616    0.6311556593097135    0.7595974474173952 O
   0.1358345761206893   -0.2470986627267296   -0.0155053767292196 O
   1.0053516695381033   -0.0104297193125119    0.8175229906555640 O
   0.1696526484250038   -0.0203735608194033    0.9736744746567240 O
   1.0389772260270611    0.6680022843540772    0.8057993564797331 O
   0.3856416421253906    0.9905754369422560   -0.2309840230848436 O
   0.4571030274517557   -0.2017627810134894    0.9164901645080303 O
  -0.3109218312236316    0.8020843393129277   -0.0831951064964185 O
