Li1 Co1 H90 C51 N3 Cl6 O45
1.0
  14.3213416759999994    0.0000000000000000    0.0000000000000000
   0.0000000000000000   13.9766297588999997    0.0000000000000000
   0.0000000000000000    0.0000000000000000   14.4453307178999992
Li Co H C N Cl O
1 1 90 51 3 6 45
direct
   0.5704357536829430    0.6298262550665725    0.3754753328131831 Li
   0.6860513180245699    0.6857975452484459    0.6068947489057197 Co
   0.1209701836527848    0.2276212816951934    0.1395831911554272 H
   0.2675423448014662    0.1333925568367300    0.1465273035443322 H
   0.3360191692629232    0.0972794159217256    0.0515519771366134 H
   0.4861321997761686    0.1360498498065427    0.0791013637011499 H
   0.7174939028177684    1.0334350003299206    0.2217744558060022 H
   0.8824540059594345    1.0277419254347133    0.3455791671639704 H
   0.0054055921890150    0.3698215141034689    0.2254891509589147 H
   0.6653647087178121    0.3183613257456852    0.2843607695191044 H
   0.1480975302931527    0.3737308971909908    0.9945861150203303 H
   0.2625909930633234    0.3318674429753983    0.1010558627841660 H
   0.3276044548649033    0.5276209291302271    0.2188074070871460 H
   0.3927645509726473    0.6443662409934798    0.0997073301419980 H
   0.6025360980780778    0.3814308936748693    0.1218951226030483 H
   0.6918196323256272    0.6134911296509037    0.1895979685329182 H
   0.7105581001362041    0.3909231677272401    0.0558495596020029 H
   0.8361580642104082    0.3969611040148678    0.2370783629520020 H
   0.8269892305235439    0.5266304185251089    0.2503373186478148 H
   0.7922459773244503    0.5640893774466340    0.0749782320703734 H
   0.1135553755710842    0.7222433843947275    0.1460939455186664 H
   0.2160688155276438    0.8052662604397265    0.0848859318520511 H
   0.3192728332403764    0.8278525352030672    0.2663646429452857 H
   0.2686986610443607    0.7329856021246057    0.3149450467937355 H
   0.6373624440506646    0.9797210497602601    0.0466348173022606 H
   0.4141717631554118    0.7506257631829611    0.1501049301843344 H
   0.6745153876810558    0.9099846385643247    0.2029323811373533 H
   0.8908477725994309    0.9946280769616730    0.1783237372134378 H
   0.9510809560200595    0.7851011702240019    0.2145603599825769 H
   0.0465784105841062    0.1938363129190609    0.4088681300720420 H
   0.2542314410947652    0.2873796078730870    0.3566360272054011 H
   0.2237405827744320    0.1653695074828902    0.3910547615154370 H
   0.2447609596923634    0.3683762443675987    0.5289756605870807 H
   0.4601828852211794    0.3452555059940130    0.6743193042184686 H
   0.5014501081790963    0.2615736728070652    0.5988139370309626 H
   0.3560696649843689    0.0935453254506829    0.4289888185959704 H
   0.6110136557501682    1.0010766988079094    0.5614217159355551 H
   0.4303210880742903    0.9907694929589267    0.5728417383096763 H
   0.0142427530405078    0.3131826810188396    0.4351645165943177 H
   0.7519892742135846    0.1812517340159819    0.4653177203184981 H
   0.6329829661065619    0.1722302458478698    0.6014023166762738 H
   0.7531553660768900    0.1629654944568884    0.6392013820395470 H
   0.6288073796738876    0.3603406877321743    0.5004704634378208 H
   0.5377001336128168    0.4338595558516994    0.5453036356681724 H
   0.6558383666273476    0.4664873000122410    0.5638645122057903 H
   0.7559965803234706    0.3492908135733732    0.6447845010123832 H
   0.0719161204306707    0.0086686405514068    0.5759356100162355 H
   0.2196473908566498    0.9198575480124789    0.3575574322088537 H
   0.2868457038200756    0.9310576729854053    0.6172614205260820 H
   0.4131215822198362    0.7916757165620765    0.6018266752541224 H
   0.5099215491058438    0.8874141043624636    0.5736381894415112 H
  -0.0973948320524659    0.0469003179455753    0.6271580440642921 H
   0.7191739130112491    0.8610865843274076    0.3792820992399192 H
   0.8413042300981690    0.8538559427676534    0.3958230843281952 H
   0.1862971635661156    0.1034475695815951   -0.1294622239962029 H
   0.2497060271030992    0.2733934035182408   -0.1230144657676852 H
   0.1040918767546902    0.3112329978355495    0.6248431091795850 H
   0.3491310692684014    0.2630368295446169   -0.0596514304814247 H
   0.5337226431451841    0.2479609490473301    0.7203985538389139 H
   0.4567857873025165    0.9914298810610099    0.7533926063329429 H
   0.0169687546179594    0.0401075501869857    0.6951890237068866 H
  -0.0540259903579162    0.0857072413138228    0.8119374757108413 H
  -0.0888383711584873    0.3078630867187434    0.8376336682902219 H
  -0.2013033926933872    0.0492907368502992    0.7389824135817269 H
   0.7515849824837321    0.2461779727197120    0.0155680311715766 H
   0.1066921917840011    0.5643133227076872    0.7379308627175313 H
   0.2176056827079642    0.6141729821550048    0.8776909027904314 H
   0.0093186333877954    0.6339001985695648    0.7561789738302356 H
  -0.0080512475652494    0.5880958801434907    0.9961568647970651 H
   0.6063828047097841    0.4168470854563534    0.7957633911874262 H
   0.5485037303358309    0.4784019105351362    0.7013024178357292 H
   0.6737864057018397    0.4776611239378947    0.7108446015829796 H
  -0.0736687030565055    0.4607011483150836    0.9001355256468844 H
  -0.0825833706126850    0.5234581945508875    0.8006763974304787 H
   0.7044266913627403    0.2722092840069214    0.7333245299654851 H
   0.0034853810368654   -0.0075842046565268    0.8639522072994326 H
   0.2950425615346516    0.9913282828914586    0.7374005875615247 H
   0.2368022081606539    0.8832357007696510    0.7247902843737772 H
   0.3298395806460054    0.7717932409729206    0.8401735893703627 H
   0.3346659440946083    0.9083662226521769    0.8543027224435910 H
   0.5252450854730938    0.8941868386791699    0.7482518448335900 H
   0.4321840420211758    0.8304382801661536    0.8707599434406440 H
   0.4660740930359744    0.7425272443016177    0.6947792026985892 H
   0.3412316697177584    0.7318372566166496    0.6838794868613537 H
  -0.0943441402256508    0.0337183131863321    0.9170004908565847 H
  -0.0080512475652494   -0.1317707954113358    0.7235829738358199 H
  -0.2503351116402762   -0.0169362446157141    0.8387032180500523 H
  -0.0628554703648005   -0.1726383013732992    0.8719056423743134 H
  -0.2421794511831463   -0.0691183523613657    0.7219886870417168 H
  -0.1696045469937017   -0.2006815426096505    0.8149204465296822 H
  -0.1707636562709993   -0.1355306431648000    0.9204638937358283 H
  -0.1181652323913175   -0.1409539820746493    0.6754968473521072 H
   0.2413457768759403    0.2176818326007836    0.0171567798439460 C
   0.1444016475192153    0.1683594986839800    0.0199085340804027 C
   0.3084232911014308    0.1596528217454633    0.0830216616234277 C
   0.0807232561623300    0.3051256599813973    0.3130863146868458 C
   0.3850543795028161    0.2260000038627767    0.1141964411279199 C
   0.7011567463352797    0.2816543363748529    0.1509031119792110 C
   0.2057967332515446    0.6257437258027730    0.1640963024794355 C
   0.6685725087298030    0.4686511406892641    0.2887386547496333 C
   0.6774026869952881    0.3869129019502340    0.1250283149739170 C
   0.7122513772430996    0.4694150158282762    0.1841484567469087 C
   0.8828841332575159    0.4840587821389399    0.1226344618545038 C
   0.8207935819588081    0.4655694320983520    0.2047405778834225 C
   0.2749962553648106    0.7180234829580135    0.1659688798906596 C
   0.2632012710804066    0.7787205189841554    0.2522673540720266 C
   0.1694139688578156    0.8265346209191697    0.2639306384433028 C
   0.4130140503953158    0.6280139440561968    0.2499171136612666 C
   0.3789606766937945    0.6842864513463878    0.1626079322634904 C
   0.7669257239429054    0.9774193503838768    0.0951501482203389 C
   0.7335943496345922    0.9555800368107581    0.1972059632646564 C
   0.8094259319380827    0.9023647758479796    0.2554192376037466 C
   0.8147641189410585    0.7967112652754695    0.2266736167447203 C
   0.2420998961647844    0.2362413855455713    0.4179160364545551 C
   0.1616095324768788    0.2750361457526753    0.4702410413132796 C
   0.1434478262705476    0.2043009243828414    0.5515810274268558 C
   0.0717785634863168    0.2704077051975546    0.4087047554808964 C
   0.3306684136051333    0.2285027531380607    0.4769519987771939 C
   0.5219846646929479    0.2940099616564080    0.6604553087232438 C
   0.7013641291397118    0.2079212535231894    0.5977907690406524 C
   0.7696405533827444    0.9956841255409524    0.4075389808559421 C
   0.6097030243565010    0.4029154722306393    0.5593282366936762 C
   0.6989844638282479    0.2967130453505255    0.6610998076400089 C
   0.4910121894853115    0.9534915504944190    0.6105810611847468 C
  -0.0357923635157045    0.0028589424052358    0.6495002116686708 C
   0.7874119330312389    0.9003442601380305    0.3634576086509470 C
   0.2873316918062196    0.2262926352102870   -0.0770923603514350 C
   0.3145121061002470    0.1388123183462430   -0.1263574144992196 C
   0.0749919495671140    0.6122562110548088    0.7866511041397583 C
   0.1305258526044819    0.4894584386585629    0.9112269989491510 C
   0.0506450686750587    0.5492102539678443    0.8661383808538302 C
   0.0024512600491077    0.3989022014373508    0.7818412454139969 C
   0.6087163849535966    0.4382511009565496    0.7229793185668413 C
  -0.0308130814335303    0.4814920689456426    0.8382338622331170 C
   0.1315823178674646    0.6974319666222005    0.8114452751417544 C
   0.2922160107186874    0.9253595897297271    0.6941983921817622 C
   0.3674547714701141    0.8422873455600870    0.8307795503794903 C
   0.4700812594941402    0.9303107117951832    0.7119404574210452 C
   0.4018852048160576    0.7787677406685948    0.6743546097445213 C
  -0.0659724967586899    0.0156517260078882    0.8510580753728305 C
  -0.2134181794169492   -0.0190812538573669    0.7710668295809874 C
  -0.1318022228645835   -0.1485216147460841    0.8546689307432351 C
  -0.0691404960304363   -0.0864408402698566    0.7080063141944329 C
   0.6082771802937049    0.3566967477496067    0.6511602636583621 N
   0.3807963985552495    0.8666608895314493    0.7279179386229122 N
  -0.1190261852460813   -0.0573021990505265    0.7965186525388663 N
   0.5101787317136837    0.0077206294622841    1.0684245075659780 Cl
   0.5957979025805348    0.7359770242858300    0.4986963261404141 Cl
   0.3422252917066708    0.9814052898385960    0.3595629245416877 Cl
   0.8162933052767704    0.6359464715619355    0.5726625108450679 Cl
   0.7879502904124415    0.2589027857159745    0.9049363849248284 Cl
   0.6496196755287861    1.7140289749927118    0.7490659487284511 Cl
   0.0944510202536976    0.1781351028429867    0.0932561105873966 O
   0.1332071656314835    0.2680852568992207    0.2561059646987316 O
   0.2176838876712518    0.3097691256179305    0.0525979898790753 O
   0.4761522688986364    0.2059608381388903    0.0994435770944282 O
   0.6910278070723408    0.2473620922310314    0.2311934163446766 O
   0.7298202618973674    0.2254812808140114    0.0852514478864786 O
   0.0117031865094649    0.3685944657881138    0.2922339018288459 O
   0.8438074871819713    1.0596058302302460    0.3953938798938297 O
   0.2352346176018991    0.5428975733343878    0.1743529039303394 O
   0.1179306639635821    0.6481511305492981    0.1417652111185245 O
   0.3708427222011068    0.3072198701382744    0.1495137356892566 O
   0.6460529705959932    0.3830514560272187    0.3222103702431980 O
   0.3890707629745123    0.5372411310186244    0.2555971497644434 O
   0.6533888754558056    0.5442355210601686    0.3315019539819961 O
   0.9566921621359411    0.4447084516596066    0.1128139874901327 O
   0.6876000556011035    0.5583734071892743    0.1411456337495613 O
   0.8560814768665116    0.5473764785554507    0.0587619193687384 O
   0.2714868076372819    0.7705998202207267    0.0851455313083206 O
   0.1053766725801285    0.8097694919830762    0.2057845138302342 O
   0.4579205971805068    0.6701313936956677    0.3124196632831458 O
   0.7091490142798267    0.9660797067978345    0.0265328199391837 O
   0.8496595925151226    0.9887260818868251    0.0812536162599282 O
   0.8897242745107733    0.9593112653615317    0.2438632543410618 O
   0.7401279553621064    0.7533567505997020    0.2294779831376477 O
   0.8922533671628045    0.7464351964290050    0.2222943469837580 O
   0.1100626860499743    0.2408955833831135    0.6301569369831175 O
   0.1493208793617222    0.1166131182992912    0.5399187122268828 O
   0.3524261516054901    0.2961685650193387    0.5290102046213949 O
   0.1801880990678768    0.3670039535985894    0.5035232145905068 O
   0.3809276711721964    0.1487596377213927    0.4733282672737583 O
   0.7076938433557977    1.0231320873613414    0.4577677374119208 O
   0.7271640861799938    0.2338616988418564    0.5036073248143381 O
   0.1597032864967449    0.8887821022510694    0.3295961478403696 O
   0.0174491565352972   -0.0317445355678449    0.5719467778375025 O
   0.1162785841141327    0.1235883334750328   -0.0493304483653659 O
   0.2493345535274834    0.0783234870196745   -0.1611022057263300 O
   0.3991033425505434    0.1264244964616611   -0.1492900843334592 O
   0.5729134545019566    1.0101217978182411    0.6164694691181558 O
  -0.0375659403616899    0.3127025938937065    0.7911916716962161 O
   0.2117745251328365    0.5192115341596579    0.9092145839641498 O
   0.1089454722887236    0.4049374189007229    0.9414422988632711 O
   0.0267443750289028    0.6109948196962252    0.9425817674099900 O
   0.0638226049890104    0.4031213158459907    0.7195969107179538 O
   0.2119141768529928    0.6835101554734080    0.8537876771223522 O
   0.0996705032945406    0.7807295870130283    0.7917330230956900 O
