Li1 Co1 H110 Cl3 O55
1.0
  12.2738246814000007    0.0000000000000000    0.0000000000000000
   0.0000000000000000   12.4328895112000009    0.0000000000000000
   0.0000000000000000    0.0000000000000000   12.7671620043999994
Li Co H Cl O
1 1 110 3 55
direct
   0.7821242839852121    0.4422181786982951    0.5745037150521144 Li
   0.6300054417770934    0.8696658766137785    0.5398891311807971 Co
   0.1435107952429287    0.1585568466464825    0.1840167768992299 H
   0.0588711635905150    0.1496836076540006    0.2698549607980723 H
   0.1373635671409713    0.3233849823870861    0.2627147678586717 H
   0.2059493602292249    0.1497905819819556    1.0139608158601396 H
   0.2329270960691205    0.0388823334402287    1.0881589814096586 H
   0.5382989012962160    0.1690990460187143    0.2626215599868213 H
   0.5630312082893264    0.0826596065761070    0.1649177790235889 H
   0.4325600600068548    0.0214389225738622    0.2968727114838646 H
   0.6922476539505901    1.0197436198704146    0.0270717252652457 H
   0.8429741021459526    0.2634761414592374    0.0902795783278046 H
   0.9029717002146261    0.1589702662297073    0.2381439196238104 H
   0.8909298140188766    0.0355465843400183    0.2685876470446771 H
   0.1254927767572047    0.4547044152935896    0.2483121935092095 H
   0.1155113729829066    0.6223629469745978    0.2024923002707284 H
   0.3060811473373177    0.3856826485331791    0.2398130454634180 H
   0.4277261959473567    0.3560974101484380    0.2410646940282669 H
   0.4042616274468435    0.3665583733768845    1.0704259879752545 H
   0.3931819515080074    0.5263643459313877    0.1949839754004900 H
   0.4524259132619942    0.6267408512382019    0.1350285992772610 H
   0.4616683460769185    0.5927680567707930    0.3112416056779523 H
   0.5646753575682860    0.3511058110560393    0.3260240608496622 H
  -0.0126835410592033    0.5768859885016171    0.2080926051760284 H
   0.8467463574291949    0.3528141830302988    0.1745573527955506 H
  -0.2067182581762765    0.5413319043442864    0.1694262202872122 H
  -0.2199700361853337    0.4842735673132247    0.2735895417475087 H
   0.2823265306983954    0.6749919033737162    1.1664535937640332 H
   0.1976609902515957    0.6836511937102879    1.0648726786355935 H
   0.2782088248233400    0.8347021620558386    0.1409328088403590 H
   0.3237757132641977    0.9346387052770029    0.2031729527130649 H
   0.6177134297990641    0.6796320153885482    0.0508349468720085 H
   0.5226354870801617    0.7449579397658501    0.0078820964412701 H
   0.4088103318197034    0.8809022026403350    1.0338947682852981 H
   0.7829414701729209    0.7237279594171769    0.0473983961346654 H
   0.7734513558016023    0.7360549409979220    0.1642856886657460 H
  -0.1935422511696689    0.9083777142414213    1.0588964092051825 H
   0.1950847761683102    0.1083311931942040    0.3472300265847796 H
   0.2446781193844990    0.1059246729743430    0.4724450116730125 H
   0.2071071085569759    1.2316493074120480    0.6167903250139790 H
   0.0199831223817044    0.3299602841241728    0.6471917564257709 H
   0.3268057386202189    0.0154945280762337    0.3647844368697561 H
   0.3704783519998373    0.2642362222104969    0.5434983906218631 H
  -0.4310484952027628    0.2264911751257259    0.6495062880334855 H
   0.5822860050730984    1.0572007210197880    0.6302882347248928 H
   0.4813549561004567    0.3023769938768761    0.3979468577628320 H
   0.6076464781187745    0.0080994490869790    0.3551605282863406 H
   0.9301677869002903    1.0487232066089140    0.5491308091636830 H
   0.8736654318478393    0.1231764952322968    0.4120948727984169 H
   0.7701483918883704    0.1216008357701619    0.4793901730150117 H
   0.8621449805076566    0.2654073095902154    0.5576464056574481 H
   0.1014236697210186    0.4199940609860697    0.6414684797903825 H
   0.1395112269523378    0.5497257696566088    0.4725523182145546 H
   0.1662795741080448    0.4436916897420067    0.4234513512350524 H
   0.3024514718973946    0.5104042587914476    0.5206107668963010 H
   0.0637683331004467    0.6645518524199077    0.3698395932136449 H
   0.4502367016105748    0.5472251442008776    0.6380988977340747 H
   0.4074334179042219    0.3873813686883751    0.5222203650194327 H
   0.5707932549596177    0.5776991542577266    0.3774842052242362 H
   0.4262026284787470    0.5561056220576573    0.4808047395407420 H
   0.8955575483620333    0.6477512527031778    0.6215595916668980 H
   0.9302655559357091    0.6305187340833512    0.4947475406063706 H
   0.1841004250390074    0.9449018062146454    0.4763472101398943 H
   0.0867843861509762    0.7506798598340623    0.4552712654697110 H
   0.2087822180304847    0.8433003242050076    0.5452622908521757 H
   1.0254029748178246    0.9541434229680552    0.5268658766828360 H
   0.3312615624094309    0.6960569984800524    0.6200126542979516 H
   0.3835077054533167    0.7947798254539674    0.5701323441882712 H
   0.4564328142302415    0.8769771295544656    0.4116789620425129 H
   0.4896441408200478    0.7531804852897934    0.4231262985727168 H
   0.7402701746643835    0.6931879952633934    0.4964472135636434 H
   0.7168561201655034   -0.0583592610347238    0.3435291257907178 H
   0.8414994191950524    0.9372205668765196    0.6245375440095485 H
   0.7431576201770856    0.7834936316955821    0.3989431637543763 H
   1.1439560776827440    0.3326306207317725   -0.0887862155590523 H
   0.1930438475539426    0.0363487309360301    0.7742951799932595 H
   0.2828186348433367    1.1431501697812658    0.6678533568589045 H
   0.3097865937796904    0.2698157779475208    0.9541119630190256 H
   0.0451381175046087    1.0408650172546221    0.9971990641156057 H
   0.2541446062389248    0.1730233147863285    0.8691283151553835 H
   0.3250662645317259    0.0347404965845555    0.7776749444221221 H
   0.5978671303510085    1.0954621404244622   -0.0129480614206218 H
   0.5075562428507346    0.2504968577734432   -0.0626652969175352 H
   0.6134588472744225    0.2136598859989071   -0.1185688720232654 H
  -0.3182197693616145    0.2053408222843276    0.7029402461648926 H
   0.9735772386262398    0.3139213737952131    0.9233063697427394 H
   0.8026728910043593    0.2912492508147851    0.8434844015051011 H
  -0.0801219411900406    1.0036652979469451    0.9655710484406392 H
   0.9490860952538290    0.1877021229455740    0.9292121458246921 H
   0.8469337480804142    0.2928643218714297    0.6730839633145119 H
   0.1456641582480279    0.5238050052430197    0.9493732434837717 H
   1.0788011629957286    0.4047634905036877   -0.1666445524124127 H
   0.1385180565008750    0.6487783671151972    0.9013281102122896 H
   0.3364311001572002    0.5694838475980809    0.9047039583440158 H
   0.4683003456461608    0.5711302870666822    0.7696872647823672 H
   0.4598091049200376    0.5888687218690932    0.9511590749780492 H
   0.4152247952851388    0.4233528940202072    0.9497962035745215 H
   0.6361176359746923    0.5243318337002418    0.7142818426724090 H
   0.7344830625095520    0.3771600923000085    0.7854511440165023 H
   0.7499607155583107    0.5656496624750604    0.7634752342643345 H
   1.0710366720995519    0.7795693629279680    0.8026632699317422 H
   0.0408681363568886    0.9602723280734496    0.7086885871019549 H
   0.0467944064387995    0.9717660359417027    0.8298086919041868 H
   0.5494543482375017    0.6935885457545333    0.6723829461270653 H
   0.3652159336684200    0.8687006947074171    0.7588814177231340 H
   0.4194321227759947    0.9035759342572737    0.8583350002469872 H
   0.5118067516655672    0.9630070101414735    0.6859474328893008 H
   0.6251145457802677    0.7754190807306142    0.7305415251240344 H
   0.5155350108828710    0.9369873145824823    0.9886223733865100 H
   0.9671652193866898    0.7234311659809709    0.8359651110028802 H
   0.7967203862312778    0.8365601372255843    0.6710247742801015 H
  -0.1921099348007834    0.8630141646424381    0.9494202390494106 H
   0.8276488058440551    0.8665853376959750    0.2556912805739411 Cl
   0.6933108922107697    0.4503755744435590    0.4155780274716853 Cl
   0.7857140370690058    0.7307649398328064    0.8524605545421272 Cl
   0.1281472060688253    0.1892850212720066    0.2563664502002863 O
   0.1795859398285441    0.1018902126057526    1.0777886265920125 O
   0.5383608216853146    0.0936692757183199    0.2385645299362784 O
   0.6141603401035524    1.0357334667858009    0.0362798092512940 O
   0.5153166600371023    0.2891531974414704    0.3278263407919132 O
   0.8623812556765855    0.2760098328315947    0.1646068250309450 O
   0.9370116193796066    0.1022754810500419    0.2817417058669998 O
   0.1660767033595507    0.3973243509604076    0.2821082712789830 O
   0.0582668694774306    0.5842213709899633    0.2404083226281771 O
   0.3744885119359319    0.3945446270700870    0.1992088767514253 O
   0.4096764025251217    0.6065122471173786    0.1945476998994757 O
  -0.1705266054901203    0.4847368546282782    0.2142357088644574 O
   0.2126669077044586    0.7098277313290630    1.1385303951802654 O
   0.3173905805093880    0.9064312640635926    0.1299734429333721 O
   0.5405891409509016    0.6768048367211648    0.0427618136287335 O
   0.7622690223755765    0.6801829733934295    0.1093768530327055 O
   0.2168416455168416    0.0623755849274936    0.4125812769027793 O
   0.2690934917544601    1.1847575531279928    0.5998915028696650 O
   0.4257463729801259    0.3113990317465888    0.5074786393379432 O
  -0.3690148569714928    0.1808356580000683    0.6489666222880658 O
   0.8435444215192291    0.1465314844114755    0.4791732101536456 O
   0.8784642620029789    0.3217337170089529    0.6119074857440994 O
   0.1758430152559275    0.4829150737800212    0.4900009884768436 O
   0.3812907925751953    0.5275724319508500    0.5384816139899126 O
   0.5011572594825738    0.6160176802585273    0.3798817623312464 O
   0.8694858055836853    0.6237479830102263    0.5515393319026756 O
   0.0590979877526866    0.6758436764060801    0.4475036817290314 O
   0.1539313449346497    0.8765910567919210    0.5055964669341061 O
   0.3270835656292007    0.7765145621943342    0.6189278399911208 O
   0.6037626031867624    0.7545663256436773    0.6604930680204286 O
   0.3868921435627309   -0.0315865627251196    0.3346461806255421 O
   0.5522815028450289    0.9826323755708208    0.6221431199402475 O
   0.4748500562772589    0.8235140951246001    0.4614840792471710 O
   0.6613510092743241   -0.0317080147816700    0.3983995817118199 O
   0.7690387133363668    0.9095681052592670    0.6420535745825865 O
   0.9791337788058752    0.9919785536974199    0.5811543708494433 O
   0.7001669458195133    0.7493929506255805    0.4550127898586972 O
   0.2419071819723377    0.2295701054070186    0.9254446679793084 O
   0.2622912111151967    0.0843568789584435    0.7705715646758053 O
   0.5451704350022344    0.1857468252669370   -0.0896203868491424 O
   0.7475287108022679    0.3003203520980711    0.7908712992535198 O
   0.9079008890836575    0.2565268317334357    0.9264629052348174 O
  -0.0095535061273684    1.0444603198558182    0.9434596348075459 O
   0.1868640297735123    0.5913291314120593    0.9429583487740646 O
   1.0802595511073925    0.3817809006767134   -0.0950483746804331 O
   0.0954727944318607    0.3471067406906820    0.6690501772638413 O
   0.4148940100486386    0.5539299411770677    0.8946312421087491 O
   0.5051413476758903    0.5767854487197045    0.6970759828325878 O
   0.4049280863716150    0.3539796401822302    0.9913794465706577 O
   0.7137633596784219    0.5092363886847503    0.7250743743213780 O
   1.0445005264029645    0.7090805196698882    0.8218507761226698 O
   0.0866662485665118    0.9463737086218463    0.7705848800860697 O
   0.4137215963655747    0.9256383840001835    0.7858545226215693 O
   0.4697913234362976    0.8714192904103348    0.9805939642565346 O
  -0.1920080920555555    0.9320648868600393    0.9872203390116167 O
