Li1 Co1 H110 Cl3 O55
1.0
  12.4429846808000004    0.0000000000000000    0.0000000000000000
   0.0000000000000000   11.5141442859000005    0.0000000000000000
   0.0000000000000000    0.0000000000000000   12.6969938733000003
Li Co H Cl O
1 1 110 3 55
direct
   0.4131494550847169    0.7318924388779532    0.5744690837441707 Li
   0.5162702121149749    0.2337928964722528    0.7052433454764436 Co
   0.0766356597683034    0.1194457103237958    0.2175901212734816 H
   0.1107429106319052    0.1006945122634769    1.0172723217470532 H
   0.1521590188422761    0.0843873516671023    0.3139365487985393 H
   0.0889870371863875    0.4076581834003922    0.0473703021913547 H
   0.3522340059827360    0.4815577263340328    0.2449036730842982 H
   0.3880212396266957    0.1102008200951443    0.0151440914769871 H
   0.3615774234169304    0.0738505721212208    0.1882934228807840 H
   0.4762846288515218    0.1279561126226446    0.1594960552795528 H
   0.3848250611357451    0.2685831500988764    0.2496583418352180 H
   0.5997831333840534    0.4022326825165358    0.0506194177230831 H
   0.6365580721739468    0.1575735979982279    0.2099284652176678 H
   0.6494769983097349    0.1967436820966440    0.1002595928928446 H
   0.6405281807344938    0.4267477478996978    0.2245681509460259 H
   0.8792602917354545    0.4112502870750568    0.0206286731578870 H
   0.7219121915629064    0.3847880513730848    0.0559492619897884 H
  -0.0527861824433084    0.4095211095082634    1.1829650850100171 H
   0.7379115683287710    0.4362204448966918    0.3089936465158206 H
  -0.0023789838418492    0.0311922044819093    1.0330319576102145 H
   0.1904745847800578    0.8068107288160380    1.0133265058712690 H
   0.0896998886627449    0.9206758991184024    0.1370198689595677 H
   0.1790986967892595    0.8534715997118386    0.2056053946902868 H
   1.0247559301567986    0.7254429800075325    0.1605081058584715 H
   0.3225674903139032    0.5606821473399128    0.1446035538034648 H
   0.6650584689113314    0.9996570181159848    0.0979594421413022 H
   0.3850886634855142    0.8439702423131852    0.2490952164158197 H
   0.4014416531596056    0.6971047907423894    0.2433025066820090 H
   0.4816868696903877    0.7776604948372074    0.1111830446471733 H
   0.5859898189661042    0.8180299733202251    0.0543307686515177 H
   0.9663776536713455    0.6216402161787330    0.3087857232840427 H
  -0.0362471441595476    0.5323022702178104    1.1235809498734668 H
   0.7584058473576193    0.9380458395181347    0.0472667343694653 H
   0.7604423362427258    0.8506550638760221    0.1965512830519608 H
   0.9011601820745047    0.7293546905855522    0.1880083160250886 H
   0.8484879320627122    0.8914197085031336    0.2830158439515769 H
   0.2638854281936552    0.2912500538235069    0.3438609548265663 H
   0.1324796568337506    0.2659159957504975    0.3577272291397507 H
   0.2151519437800898    0.2286270761973724    0.4995749781401921 H
   0.2064594955633131    0.4543511886859323    0.4022590297881703 H
   0.1886631222910956    0.1591151802087042    0.6140280537659035 H
   0.4264870910504738    0.3356910463362218    0.3483257911937958 H
   0.3691696532897012    0.1604439806492837    0.5753267670752543 H
   0.5466166289664440    0.3893641621713942    0.5699916459689547 H
   0.5573978043388608    0.2780254497001708    0.4317699521166390 H
   0.4742738572688318    0.0812601544472365    0.5427151107940986 H
   0.5723315203858416    0.4044664568519413    0.3858078916617477 H
   0.5947513824331253    0.1050921469241791    0.4104641215634035 H
  -0.0622163957731584    0.1862696080356055    0.6307186186440703 H
   0.9915002434694632    1.0130666121045779    0.3379690090048616 H
   0.8900776320643945    0.3124726470038997    0.3398088145708958 H
   0.9224814331091835    0.4532290905361095    0.3444154167779739 H
  -0.1339507925354803    0.2889676436549821    0.6434003606065205 H
   0.7102646645653338    0.1663480233911526    0.3939885682090070 H
   0.8452411226326292    0.1912452274631088    0.4937704545863940 H
   0.8583328368940284    0.1197062594297918    0.3944272547245382 H
  -0.1255420383109855    0.4896356171169282    0.6341359629724190 H
   0.2608194435461882    0.5624182728828661    0.3477886561783697 H
   1.0755556390863896    0.5876003439773778    0.3689905251157163 H
   0.2344037556359410    0.8339364962412800    0.5678029389192932 H
   0.0407922498918777    0.8477699167756265    0.6202326720232741 H
   0.2992129650569199    0.9025851061920814    0.4816668022153263 H
   0.2343474990369049    0.5631530213617747    0.5384975770586048 H
   0.2857129886196589    0.5123424717044782    0.6489111138366324 H
   0.5733537831568974   -0.0944338398061867    0.4708973239148330 H
   0.4901486658511164    0.7823165073613558    0.3726110671478479 H
   0.5805907927900404    0.7087443878042501    0.4332907845430141 H
   0.6442989802013129   -0.0115351044508488    0.5454905709031331 H
   0.7375732250688539    0.6948571204546642    0.3386195566921665 H
   0.6729858273812174    0.5851051520389563    0.3659661871989477 H
   0.9096147452439287    0.8299205660208617    0.5268554512550440 H
   0.9165825268673991    0.9508735405033369    0.4240287496729102 H
   0.8544109482755122    0.9216659857211872    0.5684416727866107 H
   0.9352597177473816    0.6360390282730910    0.4893008926911695 H
   0.8213851099785242    0.6596760431690466    0.5064592848408365 H
   0.2579953622745764    0.4720138125813999   -0.0028960841965377 H
   0.2558905618049260    0.3216630824693980    0.6722756994196682 H
   1.0115999226393582    0.4588091838895236    0.7640509661976101 H
   0.1592586016406309    0.2581811612904968   -0.0398464052474578 H
   0.2990908078704415    0.1236683428349707   -0.0760919925567308 H
   0.2025793975612238    0.4090078277694513    0.7547511271035465 H
   0.1385593878581511    0.1540205766894627   -0.1348751980499233 H
   0.1103338447903428    0.4181218354971908   -0.0784909856021676 H
   0.3761165396049581    0.3260880747862298    0.8051457328177020 H
   0.4043943209432999    0.2087063600499396    0.8843038398491248 H
   0.5553685484450589    0.4672327364863736    0.6729104953469900 H
   0.8093719150872171    0.2796174047378063    0.9220765602887661 H
   0.8659756977059317    0.2019876671033232    0.8311258981459432 H
   0.8072534523006578    0.4818321713923486   -0.0634000119502917 H
   0.8613787298989826    1.0337628960908589    0.9229507829678321 H
  -0.1603343338177069    0.4728744931282066    0.7418496480893313 H
   0.7064882394386111    0.1754585571308122    0.8049827021018762 H
   0.6714379672420242    0.0698562674766003    0.7357190631038816 H
   0.1107091566724836    0.7334470485437291    0.8768375056171021 H
   0.0758014547711682    0.7457319388914397    0.7549157329953707 H
   1.0652847914338002    0.5620717425718914    0.8121213997262486 H
   0.3004265002646985    0.8081013153877382    0.9496263884993301 H
   0.1315474046211525    0.9065107127224208    0.6878022092350788 H
   0.2722556064645252    0.6115882316694080   -0.0096755629344941 H
   0.5450084938997123    0.5452480867977308    0.8447590464113767 H
   0.4549215872004162    0.8096116317054948    0.7766224458401779 H
   0.4566350024739154    0.8352930885864989    0.9559979754125224 H
   0.5292156592188803    0.6446718886517580    0.7500460763965737 H
   0.4153185488104085    0.9470087287643965    0.8858632640874585 H
   0.5488050106689479    0.7971365405104072    0.6921363059944481 H
   0.4320412247067371    0.5196109232647461   -0.0296381621551648 H
   0.5170304798676627    0.6125175234807936   -0.0092701126325273 H
   0.7063837628975440    0.5766390430881269    0.8052646586055749 H
   0.8816069955809601    0.9064412329608219    0.9429318905064829 H
   0.9445742032163573    0.7647112042692071   -0.1655241850371761 H
   0.8077798533344956    0.6602084318422984    0.8373084639393373 H
   0.8447991064973457    0.8310487436498244   -0.2088911430348402 H
   0.2947494057562562    0.9692161975654542    0.3041074505690413 Cl
   0.0896515079875738    0.1004886784697401    0.7224923102460139 Cl
   0.7483294868045548    0.8998232856685240    0.6720961293558602 Cl
   0.0861873069855013    0.1261209784194129    0.2934458718244328 O
   0.0631262804423463    0.0595920222955906    1.0692452538115222 O
   0.3989591298107130    0.1404112283862725    0.1563315266989340 O
   0.3695738971370606    0.3377936776216093    0.2924928903454510 O
   0.6213077118409628    0.1305416282511447    0.1377948555507397 O
   0.6542740788761127    0.3625745030928873    0.0950500920724107 O
   0.6605081137150122    0.4549530571207830    0.2938774700479717 O
  -0.0292499483714385    0.4459337155682221    1.1146103225630515 O
   0.8893864795619512    0.3881109209715535    0.3076964890812066 O
   0.3163535471175166    0.5316821633455400    0.0099016694781884 O
   0.1194610761510984    0.8412431616704272    0.1559219809393716 O
   0.3471419801042692    0.5644210270109552    0.2194165378435302 O
   0.5205513393016216    0.7712327483922866    0.0414338576476975 O
   0.4403864893408911    0.7803224382034665    0.2361134034256902 O
   0.6926579563984381    0.9169761018132596    0.0789799102611811 O
   0.9604787474295610    0.6710993844729305    0.1733528785367474 O
   0.8006232102714042    0.8254417268887908    0.2598221649643583 O
   0.1955754509812303    0.3008182854926994    0.3972988005694701 O
   0.2450105355513458    0.2059714629340017    0.5737319013769584 O
   0.5642900413864825    0.3886198602252657    0.6431506952107872 O
   0.5226577471026730    0.3559817422141689    0.4327087570116360 O
   0.4484938689276924    0.1490553792261993    0.5829262036791346 O
   0.6254337315474098    0.1665599366640294    0.3638105588452509 O
  -0.1401591100719633    0.2080376173445499    0.6170870455546351 O
   0.8261637062337900    0.1916108647085231    0.4168884768725393 O
   0.1974487957291322    0.5409481580517771    0.3922330345588827 O
   0.1065830565994664    0.8324357333907429    0.6584511672704392 O
   0.3077069078456693    0.8436688738472499    0.5368586064323559 O
   0.2751705019602952    0.5864365579705958    0.6027616074379413 O
   0.5878430720714932   -0.0098411010133649    0.4910950181532526 O
   0.5138471600279204    0.7573628509831004    0.4461670607412563 O
   0.9954783886870153    0.5907720950943689    0.3743697511499688 O
   0.9135205605484346    0.9917015854129074    0.3507098200672485 O
   0.7120600537402857    0.6517292954361691    0.3984912088001960 O
   0.9232368788676680    0.9106360735673573    0.5323906197131298 O
   0.8889283901126571    0.6674186941022272    0.5451196169555295 O
   1.0726383325935180    0.4770293828718226    0.8074061103752868 O
   0.1445121397018702    0.3898765754131863   -0.0106470527314561 O
   0.1749115984895732    0.1760491351044031   -0.0654272634601256 O
   0.2736740764259352    0.3900129294453242    0.7217393761188183 O
   0.3762145868204210    0.1057697482991727   -0.0639363593777186 O
   0.4320331880497319    0.2797450737997443    0.8320867555049165 O
   0.6539992252065363    0.1533405435228132    0.7500854557965317 O
   0.8144607263028819    0.4066533323482677   -0.0257772482656901 O
   0.8081591835451390    0.1985145475203967    0.8841778257692594 O
  -0.1131945184882639    0.4329410001492224    0.6924363770221275 O
   0.0560420476588714    0.7044531440284962    0.8235650533540216 O
   0.2333027336262346    0.7590364447406147    0.9679456853597567 O
   0.3994574025450326    0.8626689831534968    0.8960310251565946 O
   0.5705433642021944    0.5747352976203162    0.7710478979821341 O
   0.4781258269714030    0.7632703677130493    0.7124245728527708 O
   0.5166165920318972    0.5243754979163926   -0.0352969819291186 O
   0.8684750980345352    0.7875005660736558   -0.1484500648034191 O
   0.7855914470089604    0.5727030145935474    0.8348354376219798 O
   0.8817355820930426    0.9780748671693176    0.9764280081106936 O
