Li1 Co1 H90 C51 N3 Cl6 O45
1.0
  14.3210795488000002    0.0000000000000000    0.0000000000000000
   0.0000000000000000   13.9763739411000003    0.0000000000000000
   0.0000000000000000    0.0000000000000000   14.4450663213000006
Li Co H C N Cl O
1 1 90 51 3 6 45
direct
   0.7622961827493484    0.4230616965114366    0.3513748603020060 Li
   0.7349274359544993    0.6558461092433083    0.2765617735385011 Co
   0.1278335384327504    0.0336410912144638    1.0618894243553425 H
   0.0697722730674816    0.0372757964830896    0.3092033682194985 H
   0.2849641508514599    0.1728138128515117    1.0599323547669310 H
   0.2316064415114521    0.2936484447179142    1.0668212120270233 H
   1.0555268701210889    0.3733322028009029    0.2584150932693025 H
   0.3486772247779611    0.2794494828958909    1.0421657350580573 H
   0.5127145651191678    1.1591783776590125    0.0562311825112409 H
   0.5065329920262778    1.1182256954817817    0.1743684040402053 H
   0.6617981724495174    1.0990969857658941    0.2328735006041332 H
   0.6811095657741341    0.9632427214193749    0.1219020474903245 H
   0.9532692159400737    0.2340564501483664    0.0612273520264741 H
   0.9088912765651573    0.1732438242425439    0.2959670150074633 H
   0.8359812702739422    0.2213235338175664    0.0357979083791055 H
   0.4074975111348360    0.4553136956279201    1.0497081026440993 H
   0.5012243838490144    0.5933112912938673    1.0225597330016740 H
   0.3838617231450707    0.6051069115809863    0.9788589990653283 H
   0.6497390256923534    0.4986846731471644    1.0000787008778440 H
   0.9261832690547006    0.4623416987719365    0.2137160946189529 H
   0.8094022684114818    0.4044945058299618   -0.0157525645254027 H
   0.9175191177540121    0.4833329087407297    0.0937824119715141 H
   0.7276102501485743    0.3407987286740499    0.1043375729246469 H
   0.2250929660655444    0.6742993934132153    0.2387807078195253 H
   0.0541728904065062    0.7604612265950499    0.1598727973505189 H
   0.2261159336393281    0.9246840793659279    0.2541741989295050 H
   0.2891349258126956    0.9375214576985427    0.1005674275484574 H
   0.0656489805601826    0.8371227415570396    0.0674509302365262 H
   0.3108686225594664    0.8374082233291226    0.2305453700679369 H
   0.5568035039347410    0.8103225141462295    0.2411884503128024 H
   0.5998210011772321    0.8698658551806855    0.1110706676600158 H
  -0.0766000721776537    0.8175575810116514    0.2057680521907428 H
   0.1556128687998759    0.0692604873538332    0.5331380963854876 H
   0.1859562516795843    0.1809418151845016    0.4854959475235456 H
   0.2886915234854924    0.2149470587478828    0.6037364569133487 H
   0.5956655881863877    0.2952075043203424    0.4190464083764234 H
   0.5644160585350075    0.2410224915844570    0.5504621428407813 H
   0.6637170222056662    0.0597301184211373    0.5189582099492468 H
   0.3683363572505261    0.2838554897943549    0.3233050687911070 H
  -0.0759779123768064    0.2501915364697797    0.5119271103515775 H
   0.8365343012080287    0.0161243875950748    0.4710065021070594 H
   0.7943230979296660    0.0453150776638532    0.6186176623864609 H
   0.0183529650823023    0.0978322758365168    0.6256248991653427 H
   0.0180820357863104    0.2837925263960008    0.5899940485654349 H
   0.1074831172925773    0.4063983615876953    0.5478535013045056 H
   0.0988273452484658    0.5733139728779576    0.5665947790514143 H
  -0.0036439799752647    0.5946127733575741    0.6354753212288390 H
   0.3122903030920423    0.3803826724302411    0.3811919612013557 H
   0.3484712347204416    0.5401746906898949    0.6145685290215450 H
   0.5340295923110654    0.4208577629210925    0.5342432488053460 H
   0.5321688387338511    0.4805071400423221    0.4234361424620675 H
   0.3853371705740162    0.5240773824074940    0.3504928982731288 H
   0.1543713422837069    0.7485754541693784    0.5659104623594636 H
   0.0557593629850978    0.7971402681089932    0.4669063478618229 H
   0.1339392233919074    0.8230175093393844    0.6692321755868545 H
   0.6378439727098236   -0.0365187373742971    0.4339996107498523 H
   0.5941070464630530   -0.0364936951135880    0.5530033565107990 H
   0.6663941946820394   -0.1941676389624715    0.5989299715393339 H
   0.7009055594374578   -0.1987518036585513    0.4800239061883358 H
   0.8743505844117192   -0.1110301953811252    0.4908641471756065 H
   0.7926416604432011   -0.2122460047149060    0.5615173361121700 H
   0.8375789151946367   -0.0747647089154627    0.6496981704307877 H
   0.7891544931643778   -0.0850907062455428    0.4036813006598376 H
   0.1588744944224997    0.2140169176358329    0.8363300584425958 H
   0.1173915881949605    0.2492148883021273    0.9490342831092142 H
   0.1962292202430700    0.0479981770255356    0.9189111953835195 H
   0.2687335308616787    0.3193489591370161    0.8103717144890559 H
   0.0774979476315385    0.0943785903381592    0.9169022049535338 H
   0.3000440196046570    0.1137949283056193    0.8520018452634143 H
   0.3819282096899123    0.1374076336747506    0.9441834919503895 H
   0.2133606103148860    0.3692195480993161    0.9084031093267474 H
   0.3836473538309740    0.2123533960315898    0.8409939345717526 H
   0.3387450126486096    0.3726438983779859    0.9017807790534039 H
   0.0787478534042846    0.5647287704137370    0.8038276116170179 H
   0.5772503563526886    0.5711846652245265    0.7154389554765249 H
   0.4531333864033846    0.5823163078562744    0.8185682846789354 H
   0.5177631440167034    0.4236733716165839    0.7832254216802936 H
   0.5588551649076362    0.3827201885941389    0.9005346788556181 H
   0.6473823597800530    0.4037293574413263    0.8126458473500148 H
   0.6936903212532207    0.5414491271120359    0.7507915103655939 H
   0.6578382754454712    0.6116429416260447    0.9575250714013488 H
   0.5236395934640533    0.6587903636095278    0.8838625504871327 H
   0.7293454545314089    0.5205453504077753    0.9115744343301121 H
   0.2111987621180024    0.7856430084708932   -0.0295808153313861 H
   0.2259588225785081    0.7524784693741725    0.8069040945497733 H
   0.1023871327509569    0.7334678160301987    0.8070037825655960 H
   0.4870816651168241    0.8669516515273168   -0.0220965990879074 H
   0.6064524844866003    0.9568111533761314   -0.0365984362785828 H
   0.6416858618504093    0.6521963786182572    0.7851824912687050 H
   0.6360138034191156   -0.1374605128266047    0.7825151445675558 H
   0.7546214819961353   -0.0033012517835058    0.7801385545792233 H
   0.6565625336316127    0.0312270172821127    0.6988616691786488 H
   0.2818477656761719    0.2434988134219991    1.0316043436039353 C
   0.5512622317331877    1.0160775985564616    0.0728444672592754 C
   0.6326006529067231    1.1784981240494521    0.1329341879080542 C
   0.5458766740496914    1.1197196452063665    0.1120537022604913 C
   0.8645999228415374    0.3427606109273120    0.1321851432336075 C
   0.8562430109486748    0.2878028655752621    0.2267606868561065 C
   0.8906091352567572    0.2726358415035438    0.0494627816036014 C
   1.0363139330612527    0.3990670608918342    0.1231079955706261 C
   0.4012724217694557    0.4166895144007317    0.2690830955181237 C
   0.4497058515005349    0.5625322064029731    0.9743086565097473 C
   0.9374945671623612    0.4233378768723991    0.1421691749294219 C
   0.1967473376080853    0.7856880845401696    0.3147457449880943 C
   0.2359992667719801    0.8485341420155657    0.2383847248677845 C
   0.0843270417418492    0.8252019099663754    0.1425983872197703 C
   0.1894092036607178    0.8331496080222603    0.1407950033224193 C
   0.2244973405771911    0.7348608812187842    0.0963279177644353 C
   0.0286105716753967    0.9052448456172481    0.1974911777658949 C
   0.4545801348785537    0.9688915399421703    0.0714841412100260 C
   0.5820610272078597    0.9508024417922890    0.2336370831142208 C
   0.6095248785648586    0.9449339668684172    0.1358452164256592 C
   0.0378982793196954    0.3334413124777351    0.4472818619858392 C
   0.1648656628751035    0.1644239400208215    0.6401350436906699 C
   0.1394164641077844    0.1429183620170648    0.5356598570468621 C
   0.0379702012719819    0.1529588775750619    0.5070241975905909 C
   0.0186560148618396    0.1077590279815785    0.4106449239317969 C
   0.4599899924061233    0.3459288146535866    0.4253925197725911 C
   0.3789116773221677    0.3525013348499638    0.3546597188789468 C
   0.4257440406027835    0.2787418601575699    0.5114765689795103 C
  -0.0009682040416542    0.2584833867371230    0.5193171006517669 C
   0.0690809843998735    0.5806077101827550    0.6357909999456113 C
   0.4954674854448777    0.4431687000292519    0.4765726932349907 C
   0.4146771374786207    0.5000041140892653    0.5090110351281715 C
   0.0105427996810933    0.7830443373024584    0.5924966331293213 C
   0.1094347858036528    0.7624130919440285    0.6242804955075094 C
   0.6552532747914457   -0.0196703043692578    0.5057458372432402 C
   0.8178143437434769   -0.0613871332446958    0.4708484550653068 C
   0.7259274161193465   -0.1754002532939570    0.5487402400508077 C
   0.7765995737264038   -0.0293616592636546    0.6317224827998410 C
   0.1665722381312997    0.2043176923166418    0.9093591450896041 C
   0.1461834120651484    0.1034095450430006    0.9425227172978961 C
   0.2753706003420981    0.3341124450647373    0.8854222525680278 C
   0.3383344290763332    0.1688299469192856    0.8882079787879665 C
   0.9081985913547864    0.3175008402966892   -0.0438991988818319 C
   0.2199899988101098    0.6524668350339148    0.7020496088513172 C
   0.0860175567562727    0.4918740368261024    0.6899257462047497 C
   0.4997693259444064    0.5822511979784309    0.8799733333142657 C
   0.5765335807796585    0.4220122111397790    0.8364567452960373 C
   0.6293767339386961    0.5765823456470683    0.7724535777483236 C
   0.6588814928893163    0.5387377657704104    0.9368584996210724 C
   0.1145419426873759    0.6695986033315477    0.6849939585330688 C
   0.7137781923539790   -0.0274899291489450    0.7180086909955141 C
   0.7384453271741049   -0.0686594057545998    0.5388833105751675 N
   0.2662644432569692    0.2303144209052733    0.9318104092642648 N
   0.5893427408276084    0.5288275415174166    0.8584497215090678 N
   0.6065600182793394    0.6800297781566058    0.1941024775058054 Cl
   0.8411631421954776    0.6989595807731475    0.1813894863768402 Cl
   0.6866552370853904    1.2661739407644388    0.5261363286019184 Cl
  -0.2564168235073940    0.5566987906440940    0.4134278810401851 Cl
   0.1683758731095137   -0.1409671448190328    0.8603749463146468 Cl
   0.5875684332474141    0.8197992210916918    0.9062916617693882 Cl
   0.1375499847052424    0.1003121751398744    1.0389300282111402 O
   1.0894872987565651    0.3809665148513432    0.1976081727289092 O
   0.3952637965323164    1.0023959382913707    0.1257476511562688 O
   0.5841519310323908    1.0246885587745544    0.2850608691652875 O
   0.6487530665017850    1.2523291480581575    0.0915387393376121 O
   0.6906388753164049    1.1498562172367834    0.1967629014280779 O
   0.8188938712991558    0.3250042170982794    0.2973308024461511 O
   0.8958845755434033    0.2057529716018511    0.2316696293574947 O
   1.0753975788222250    0.3915078756235211    0.0452385019331078 O
   0.4273821852636004    0.3889170748798805    0.1902624120629623 O
   0.3939405722645210    0.5111508536267551    0.2826718181749772 O
   0.4307855599766530    0.4617904112897562    0.9887260357981282 O
   0.7768265119253661    0.3919092672880287    0.1128588214438384 O
   0.2258924867972730    0.9056319274184935    0.0835200845648609 O
   0.0621834596941835    0.9885590160098839    0.2039501304577510 O
   0.2323158852349772    0.7262456280417129    0.0070178397554686 O
   0.2451619838390043    0.6665012334284215    0.1470088896420441 O
   0.5424550046264457    0.8712474724786612    0.2722828039148824 O
   0.4387200176837551    0.8978373448995153    0.0153438659103403 O
  -0.0508387461028388    0.8779502124307252    0.2343376683365315 O
   0.0112522434046184    0.3285781054480404    0.3645032181635664 O
   0.2509702051896754    0.1937784780239533    0.6580338884760868 O
   0.3440595561326151    0.2725406809128495    0.5352372213964465 O
   0.0913104538274541    0.0663040696038407    0.3715609912282473 O
   0.5369488554753777    0.3028053262194639    0.3759209573647221 O
   0.4920987449923437    0.2312638803327274    0.5565858253516442 O
  -0.0144022471488389    0.0867163740543573    0.5634685905663250 O
  -0.0586621786602948    0.1132404211042049    0.3767516908299126 O
   0.2603968688388772    0.5995088930727721    0.6482284644752883 O
   0.0985557176810925    0.3973627561772936    0.4783878458564319 O
   0.0925317304735618    0.4101665778805583    0.6545870368734338 O
   0.3623444905265409    0.5439880546013506    0.4532682657915794 O
   0.4073264346463876    0.5035849427227085    0.6010718793237502 O
   0.1996577327258537    0.6917781758949592    0.3057039034973835 O
   0.1653439787713778    0.8275766317747553    0.3852867849068572 O
  -0.0024352722140226    0.7930369148185269    0.4987212935171670 O
  -0.0531737656023151    0.8036741516745621    0.6447968429861639 O
   0.1071751796133700    0.1563782194015899    0.6999381612939580 O
   0.5892156554361895    1.0229084117847236   -0.0184593710661484 O
   0.9686598154580037    0.2855261663302292   -0.0965670082970213 O
   0.0768520466037229    0.4956053336717487    0.7830952734374138 O
   0.8469944065017357    0.3889313847431428   -0.0687492059372301 O
   0.2621739695045971    0.6906577136015205    0.7756442865325427 O
   0.0690509587304723    0.6832494973906247    0.7702279043395007 O
   0.6723427685803764   -0.1197391781625647    0.7248760876410889 O
