Li1 Co1 H90 C51 N3 Cl6 O45
1.0
  14.1787016787999995    0.0000000000000000    0.0000000000000000
   0.0000000000000000   13.8374230788000006    0.0000000000000000
   0.0000000000000000    0.0000000000000000   14.3014557947000007
Li Co H C N Cl O
1 1 90 51 3 6 45
direct
   0.6300531273153963    0.6981513092709297    0.3408595577456217 Li
   0.7301694872020329    0.6483624146135477    0.6163566859093247 Co
   0.1120769284804145    0.2468476261763774    0.1161027185718635 H
   0.3060735342565785    0.3222388311759769    0.0585861963514586 H
   0.3250075668698327    0.1298757022290780    0.1209455821931786 H
   0.0382055667910665    0.1787742577004829    0.3544938340598037 H
   0.3644850883439549    0.0868900974229855    0.0166876645794650 H
   0.5036814720968456    0.1033122302656352    0.0302114626302674 H
   0.6782183271673053    0.3671380870895917    0.2707205443193286 H
   0.7844805248022805    0.2519685218515673    0.0250385626778432 H
   0.6759614209480393    1.0076749810998198    0.2127656051929802 H
   0.8524712352240537    1.0851699014974545    0.3371613328404620 H
   0.0298352658503640    0.4219936765788614    0.2220289978085135 H
   0.3362815187182596    0.7039573036054592    0.3678155547807533 H
   0.6373182494918520    0.3725805744350412    0.0810601321950468 H
   0.6560174228016638    0.5992528371922198    0.1365335057724422 H
   0.7972666038176156    0.5733751865660272    0.0378484473937679 H
   0.7410809234889902    0.3966927229254040    0.0245672819846918 H
   0.8505514543712905    0.4320414289102194    0.2281969013608701 H
   0.8236724065830269    0.5601003160244574    0.2340725269759310 H
   0.1913042107413579    0.6054194478041863    0.1599472060842729 H
   0.1624376749137531    0.7414295986308540    0.1149028407240181 H
   0.2828379794460423    0.8966926116763665    0.2160785546353411 H
   0.2754628330913974    0.8505640806366582    0.3247549035547277 H
   0.4019490263005758    0.6788543636995324    0.1461122508992682 H
   0.4037206976826996    0.7983086862700718    0.1477414556693613 H
   0.6389396955537558    0.9525613955964317    0.0240512506025765 H
   0.6732996821756927    0.8781096718807365    0.1937213901207682 H
   0.8958962267323107    0.9908430898818056    0.1923865609765160 H
   0.9574935450048195    0.8224497418768625    0.2447182963427406 H
   0.2322973857983559    0.2683559661545036    0.3744029960421467 H
   0.0697796847985968    0.2743310671201359    0.6362350817930050 H
   0.2097113968090521    0.1456105683786560    0.3950966935403885 H
   0.0455715444641957    0.0189872809340151    0.5949805404043830 H
   0.3323396909496729    0.0984399357917246    0.4786018287618376 H
   0.6799758928855586    0.2050710615148789    0.5818853700463131 H
   0.6294211935740018    1.0163702417213107    0.5629222655978483 H
   0.5428016265768109    0.2883951019401854    0.5328622488994560 H
   0.4632750221285374    1.0047488582394128    0.5756994962954195 H
   0.6100978446379244    0.3921824900847520    0.5299665996316838 H
  -0.0335414819193974    0.2726465049103041    0.3978936116006341 H
   0.7431036756880073    0.3136339052933229    0.5875344452984941 H
   0.1835884126042425    0.3609389559716437    0.5181537952273513 H
   0.5176529769981861    0.4912108996518052    0.5949777434863227 H
   0.3751193483358585    0.3561006273595358    0.6389487915409583 H
   0.4420796400118981    0.4288562260188280    0.5153986211691548 H
   0.6868559304383521    0.4517497950161758    0.6626344921341477 H
   0.2435360734871067    0.8785692950319390    0.6862887273991596 H
   0.1731466949241700    0.9692993386860554    0.3471603149058398 H
   0.3267319842779906    0.9185911977262684    0.6004296360152563 H
   0.3296645517966492    0.7247747635009604    0.6586160201110899 H
   0.4517782713192774    0.7181745461425763    0.6762163262347003 H
   0.4150933891782193    0.7869814326978269    0.5759015037023207 H
   0.5195694077557800    0.8929578122338909    0.5547994561672831 H
  -0.1038271838528866   -0.0243293103551760    0.6143079434301949 H
  -0.0452336667015820   -0.1302522117258485    0.5828209391374654 H
   0.6834797397909690    0.9034171296353902    0.3662681598639225 H
   0.7976961212824695    0.9181294065413337    0.4216331528664833 H
   0.2226716807731867    0.0482181570658358   -0.0951065487475803 H
   0.3163615002004636    0.2818433040018180   -0.1133109891722036 H
   0.2102389486378055    0.2424956597981678   -0.1350080810245586 H
   0.6027755945227935    0.2357191090295739    0.7807021926703238 H
   0.5257701659063980    0.2058414361676806    0.6808060687715632 H
  -0.0203971190417539    0.0590330319993974    0.7855464547506692 H
   0.7422509883070408    0.2393751365797836    0.6862174059886234 H
  -0.1065686196261012    0.2827907347427400    0.8088573683237859 H
  -0.1748929289984096    0.0614099196476756    0.7872994231449281 H
  -0.0185866570839865    0.0263846120278966    0.9058957411944906 H
   0.0276502985168371    0.5923519858229863    0.7205999197032221 H
   0.2512356501107711    0.5781188443718339    0.8385851111566209 H
   0.1261423912087958    0.5240626811873758    0.7109169893786519 H
   0.1629835641055380    0.3562458856195856    0.9804489905493663 H
   0.0095301627089058    0.5644848029086483    0.9725414039635369 H
   0.4981107222645038    0.3094691124939835    0.7458658790004503 H
   0.5878052534571251    0.4381057083300315    0.7408803725580626 H
   0.6959209353246724    0.3931089631662639    0.7697606492186432 H
  -0.0467464991516837    0.4155173262143706    0.8914930116432560 H
  -0.0911130437232907    0.4919095846558658    0.7987590956672692 H
   0.0498850564757677   -0.0425451297721724    0.8297950969227841 H
  -0.0191353674085456   -0.1731431457256398    0.7439045402107032 H
   0.3062477392053782    0.9822143156280986    0.7216096071229706 H
   0.3077316550445455    0.7850554960658229    0.8156566761282428 H
   0.4739896844045023    0.9731345903581176    0.7511135965109861 H
   0.3731494923763555    0.8841382510117602    0.8572223746510672 H
   0.4327734282733938    0.7842591050082363    0.8321752741920531 H
   0.5348464553238146    0.8530089000085419    0.7295787259061253 H
  -0.1870929176799290    0.0267278840354770    0.9011074174753502 H
  -0.0176429881710560   -0.1658722832661301    0.8983070032675293 H
  -0.2432137119547504   -0.0443915718340000    0.8093929781323228 H
  -0.1446123003677961   -0.1581302348088468    0.7125231195747479 H
  -0.1303112730527788   -0.2010110513178884    0.8693043614418130 H
  -0.1157443539738043   -0.1082625682591989    0.9555354429277289 H
   0.2522526684758278    0.2055176764636889    0.0032974193660394 C
   0.1615835769663997    0.1473045254013268    0.0309918027690759 C
   0.3423039319077320    0.1569464940858292    0.0489025667973734 C
   0.4345309939916471    0.2188915538790240    0.0559878594734905 C
   0.7558241633663449    0.2979062659228518    0.1452514993662276 C
   0.0697542946036301    0.3118264878386729    0.2938671389564058 C
   0.2411056676022347    0.6511736316861541    0.2681068243920291 C
   0.6555688626905847    0.4990329485538025    0.2367631621498872 C
   0.7137497891736798    0.3865253673998258    0.0963173202136863 C
   0.7206580380542140    0.4849947133351649    0.1505677413692394 C
   0.8950731612454722    0.5179040923002178    0.1112095104254638 C
   0.8210191312090024    0.4944571688266504    0.1877220008815415 C
   0.2701492295114131    0.7388301261860816    0.2097875866883338 C
   0.2499076018573718    0.8354355412541540    0.2557374542705931 C
   0.1427489892834319    0.8672449321713370    0.2533992307722278 C
   0.3808399003185042    0.7382158499619901    0.1955365899418676 C
   0.4417255878487508    0.7432211171714687    0.2827598781096556 C
   0.7646028232760957    0.9582177956034471    0.0907507540442826 C
   0.7201283703758801    0.9458484404839791    0.1902119571846751 C
   0.7933649771910596    0.9201709716390492    0.2682781356232191 C
   0.8146687613345428    0.8067271612517664    0.2688850668422924 C
   0.0370326808402417    0.2558370167075216    0.3764328593243699 C
   0.2070729323820915    0.2158599200436554    0.4298148374222167 C
   0.1069438773979715    0.2541387236173866    0.4594848938200591 C
   0.0720203695044118    0.1824122183029251    0.5264471677135253 C
   0.2742864207246050    0.2248789403691381    0.5116952289578789 C
   0.5618672650339760    0.3518144246711995    0.5741795810985306 C
   0.6998959114033546    0.2628946891833761    0.6276051911181172 C
   0.7364874140495905    1.0498230022074158    0.3817952504753757 C
   0.4794138763892306    0.4259026413978146    0.5824986642539736 C
   0.3120486934720851    0.9163227117645946    0.6755786289169642 C
   0.3958786538539440    0.7641411973302886    0.6503658110628806 C
   0.5108653879663994    0.9494177466849052    0.6074533964940479 C
  -0.0470180331811891   -0.0715613705645165    0.6412114982516970 C
   0.7487410042538174    0.9431492384875305    0.3679735806511572 C
   0.2765461480766450    0.2116264728427998   -0.1024876155085683 C
   0.3063979645255980    0.1308679390004632   -0.1662818203151943 C
   0.5551605155618305    0.2613857377058433    0.7228864002174727 C
   0.0925448157190549    0.5723020098686440    0.7572801016043124 C
   0.1344626170427584    0.4627505427083683    0.8970393001567231 C
   0.0577849335263920    0.5186862466029639    0.8435440468774362 C
   0.1566945538689148    0.6557662498086255    0.7728547398227898 C
   0.6501431190828306    0.4026770019005022    0.7100100886976173 C
   0.0001710547308874    0.3678087321907173    0.7594679907569395 C
  -0.0269118199003037    0.4508510004986435    0.8253969432730480 C
   0.3751905819384041    0.8270351332202268    0.8099523617443719 C
   0.4840071742436722    0.9072783977122374    0.7053511224387632 C
  -0.0156378680518769   -0.0036079666217974    0.8359399259011436 C
  -0.1793905199234905   -0.0045705735988441    0.8301775754675227 C
  -0.0796345597487429   -0.1190535948217075    0.7278110736920501 C
  -0.0869525781647127   -0.1432770357103176    0.8932767461361777 C
   0.6158656505945359    0.3197614912981120    0.6598732347791703 N
   0.3923733963821466    0.8528542469356531    0.7114602907118546 N
  -0.0917195872697184   -0.0672412020143775    0.8207428716207993 N
   0.5024807979881961   -0.0313320593098176    1.0357279783215745 Cl
   0.2876536530914010    0.9876062155197994    0.4184670416222854 Cl
   0.8489927785136100    0.5576208081128604    0.5970418690147838 Cl
   0.6486979938193070    1.7205403711241190    0.5146967695434119 Cl
   0.7975155687849282    0.2601810336287135    0.8886513428940466 Cl
   0.7008431067322528    0.6659393867574892    0.7595190345115390 Cl
   0.1518584270109441    0.0679935154141137   -0.0041290973134276 O
   0.0967525352515988    0.1860299439238679    0.0862973612628566 O
   0.2374544165093785    0.3027735016513876    0.0389133739452064 O
   0.5124679888613723    0.1770405533927238    0.0295639760993205 O
   0.4284493370139190    0.3044407195913625    0.0763969705591024 O
   0.7889216930718798    0.2295149191662511    0.0929680108365423 O
   0.7550264880744731    0.2871260795290037    0.2322181703019881 O
   0.1358837626777024    0.2902625016614231    0.2403446157260316 O
   0.1912901050774874    0.5832650337738982    0.2237239301530224 O
   0.0100802835998519    0.3886970145214665    0.2811789201761017 O
   0.2531201668038582    0.6493149040998447    0.3552497011655851 O
   0.6253721627600001    0.5819692722800207    0.2535922181183847 O
   0.6890148022937188    0.5670821073196888    0.0832361344459178 O
   0.6352023999112902    0.4242548634936373    0.2908744366319431 O
   0.4069889800014740    0.7198171930335877    0.3647536287342995 O
   0.9773261084066189    0.4909107715154933    0.1145658120977585 O
   0.8689882623331127    0.5663189594459941    0.0389574254046553 O
   0.2346297573193285    0.7292134512284535    0.1150867380864793 O
   0.0797622631196875    0.8241704379822291    0.2052467902175251 O
   0.1178680087824121    0.9417992761503510    0.3049429344749782 O
   0.5220713293564750    0.7736805457514722    0.2788525835794926 O
   0.7090342657418011    0.9384525547459190    0.0178371979022259 O
   0.8752398925604793    0.9802652533029522    0.2581602845402808 O
   0.8507806714091848    0.9744831073394757    0.0796036371151739 O
   0.7500958532685705    0.7476294524267125    0.2803006879051847 O
   0.8973667421908013    0.7762966397881906    0.2514274035397547 O
   0.0483277911844742    0.0992204279352760    0.4989646508535524 O
   0.0570239329605832    0.2046179424648727    0.6162545984001258 O
   0.3415633845545353    0.1585580658266806    0.5179456765544883 O
   0.6610164700773378    1.0758740955321755    0.4141304201698747 O
   0.8017980483359853    1.1190620501532627    0.3675484491059998 O
   0.2776597902392141    0.2993682433361893    0.5645668534172726 O
   0.1170336587644772    0.3604757194308877    0.4855448282316397 O
   0.4168058167720873    0.4068727253144194    0.6610360534627174 O
   0.0442350328124741   -0.0315727110540792    0.6431085079260584 O
   0.6036311030365340    0.9937540365060880    0.6228609188584256 O
   0.2619749972985093    0.0463348584305628   -0.1536033907481012 O
   0.3641846377035151    0.1367021177735098   -0.2249877319407186 O
  -0.0586876489011810    0.2905927654666111    0.7491221908520912 O
   0.1072626654014428    0.3831302265753774    0.9411627802456419 O
   0.0188201529339592    0.5911169292736072    0.9102295657288411 O
   0.2172473477318198    0.4871399104452740    0.9030442832320702 O
   0.2445897665782265    0.6373618114569374    0.7929079430852355 O
   0.0723821797826879    0.3707818291153195    0.7114470053510684 O
   0.1301237148362197    0.7385591219695706    0.7515275403839023 O
