Li1 Co1 H110 Cl3 O55
1.0
  12.8140034920999994    0.0000000000000000    0.0000000000000000
   0.0000000000000000   11.8574673901000001    0.0000000000000000
   0.0000000000000000    0.0000000000000000   13.0755866060999999
Li Co H Cl O
1 1 110 3 55
direct
   0.2786000291244606    0.7256816664142165    0.7299218834776772 Li
   0.6660449055879963    0.3534436618901514    0.6496692698388780 Co
   0.2025441734661692    0.2064839492743780    0.1775474304163884 H
   0.0769393224145616    0.2943129911547299    0.0872870057369013 H
   0.0465619621898683    0.2576947162976115    0.2004618899374795 H
   0.2905674052918342    0.2726970767636014    0.3023548328803570 H
   0.3018277424759904    0.1359604578331802    0.2025795769548316 H
   1.0243583712297590    0.1048281774013394    0.0608651701124233 H
   1.0485116345085470    0.3739446670375878    0.3286710518283827 H
   0.5158873064281206    0.2258126973501564    0.0137331355379672 H
   0.3334642251919447    0.1966690371880781    0.0304806365562267 H
   0.6007023293575305    0.2001259305238526    0.0855419979841053 H
   0.5512010161737889    1.1079563841827444    0.2187180498476313 H
   0.6559442371997136    1.1502841413241256    0.2470563578075309 H
   0.9407311113604563    0.4027164096682983    0.2678546598793577 H
   0.2912713226901369    0.5264890460767567    1.0105395039742011 H
   1.0391858995753800   -0.0147083942263770    0.0083693226465991 H
   1.1955694998479593    0.7638964035998592    1.0261334506277970 H
   1.1498694966942977    0.7804302884127060    1.1468546119456076 H
   0.2442103085135931    0.6786437972259214    0.3121195955519174 H
   0.2524871909153645    0.8790533722068363    0.2623550978202105 H
   0.1303583027060848    0.8603158127693545    0.3128361982009816 H
   0.0594475993837239    0.6709128040058568    1.0781770048101031 H
   0.3210005170231072    0.6073671938674641    0.2367906615872650 H
   0.0180592073541004    0.5430111239838459    1.0577802143612847 H
   0.6051427838989297    0.6713066486479174    0.0160615205593931 H
   0.3883268604669713    0.8244624567352534    0.0765323830774179 H
   0.4662861025271033    0.5619333771613945    0.1155785089133188 H
   0.3838871863218009    0.6475224803494271    0.0733380330831687 H
   0.6251794570712360    0.8169827819377458    0.2668765010873052 H
   0.5314679171344535    0.9055775859915260    0.2586749570013236 H
   0.8232151452591222   -0.0175120283335857    0.2483717863629103 H
   0.6672061351763271    0.5603073975684759    0.0257516403082761 H
   0.6891696066373354    0.6937355528355053    1.1533476284776838 H
   0.8980044178382061   -0.0378150148044572    0.1565839349910954 H
   0.8335124734970416    0.6114329862001717    0.2439016236267519 H
   0.9354166130428941    0.5845899859600239    0.1832397180545795 H
   0.7629201718359973    0.8034039969659709    1.1899654884960351 H
   0.9630036197280365    0.8801564745447706    0.3049803365028090 H
   0.2089520069001636    0.3923617533187889    0.3681124945365368 H
   0.2627174050776143    0.2472413879499841    0.4209498945563334 H
   0.1954784660113664    0.2015132419503832    0.5827108972338926 H
   0.1271438506399999    0.1298900215728960    0.5045622044996567 H
   0.2739980325637171    0.0589231808204962    0.4884237316068570 H
   0.0178520121553760    0.4505512449952387    0.6487331741692359 H
   1.0294621625655676    1.0319283446072212    0.5599761619631004 H
   0.5406235256897601    0.2534863977454001    0.3419461732611008 H
   1.4037479978204790    1.3710732789932549    0.6210227539093168 H
   0.5500873907554099    0.1724564468806651    0.6362962560485503 H
   0.4288606405865270    0.2980945743988414    0.3777717170100493 H
   0.5205845113287676    0.1689396756656909   -0.5076394196955875 H
   0.5739261543540251    0.4101615070989442    0.4826649077568531 H
   0.4473661763580908    0.0674082136432727   -0.4804589947780393 H
   0.6184836574288450    0.0213363180160402    0.4933787674268006 H
   0.8104150863157077    0.1276661065383907    0.3501890156854490 H
   0.8819672753380738    0.3457185721229656    0.6417721098023389 H
   0.9253729135793077    0.2757120544838731    0.3908717028967315 H
   0.9355648883263504    0.1638880067022146    0.4594483585384510 H
   0.8307654787719582    0.2721784162606735    0.5604357971734394 H
   0.7164101173969276    0.0459113550297024    0.3791429748006279 H
   1.0131596853476714    0.9758624092663361    0.4505577440289829 H
   0.1227424159100366    0.5173859217375643    0.5106338250235850 H
   0.1326542284109700    0.6693121249252761    0.6095785254775163 H
   0.1999930581944937    0.5201698214451494    0.3529070581772039 H
   0.0271668215413409    0.5911082412886897    0.5094292901545604 H
   0.3211448903254197   -0.0542934914952839    0.5327926779093769 H
   1.0110760274169974    0.8063835539689694    0.3928800257958164 H
   0.5933509968830173    0.5338464350646310    0.5531313447708648 H
   0.4371937115167661    0.8430600200044652    0.6561661102911733 H
   0.4030014311517638    0.7762489570736550    0.5559472796202292 H
   0.4183128051591894    0.6873319931627715    0.3801945528608875 H
   0.5038442318265615    0.7931370490592331    0.3925710530421110 H
   0.5400733463485147    0.6799459302609143    0.5192529411974953 H
   0.6299695291231003   -0.0598697244145668    0.4085068581632971 H
   0.6579186396583673    0.6935955566672354    0.5621137333655919 H
   0.9657115946416842    0.6157306998959773    0.3562323391997559 H
   0.7918299501288146    0.7743488885970754    0.5988715488639633 H
   0.7165544906992402    0.8331894467910217    0.5155521512094251 H
   0.8981058693479392    0.6697903046084633    0.4390301541364053 H
   0.2014102577458435    1.1896939060425304    0.7383658641055514 H
   0.2651257078394346    1.2958211217960951    0.6808686349067278 H
   0.1329835556194885    0.4466423158390264    0.9696235576295519 H
   0.0179720370953527    0.3924730755730759    0.9472765678689792 H
   0.2904082044611760    0.4067138906176935    0.9549626475094224 H
   0.0660504538352747    0.3349936849429109    0.6938080161442065 H
   0.3649298011338100    0.2024974318803292   -0.0873745271487105 H
   1.3492451252068909    1.4605274571161142    0.6812984435393575 H
   0.6548017371208721    0.0223086167051874   -0.1442729304412190 H
   0.6537926847971410    0.1305781955084881   -0.0809434581241843 H
   0.5999547097704198    0.1859196928460967    0.7451602055508946 H
   0.6798969386477213    0.3578265539774946   -0.0156917011129949 H
   0.7186607801205470    0.4249192959456672    0.8335990675947987 H
  -0.0826922089223145    1.0885255907072029    0.9313155248743469 H
  -0.0990571178385078    0.2705448465140536   -0.1262003187015853 H
  -0.1818735460261737    1.1153357002813116    0.8656894060737049 H
  -0.0481908916507404    0.0421151902569802    0.7347346694654692 H
  -0.0722114875706465    0.3820205905758597   -0.1950553557352572 H
   0.8012610385528585    0.3893762928629115   -0.0422071463044370 H
   0.0840573944563113    0.7464390500866775    0.7033280479217429 H
   0.2984806230510236   -0.0978862742535623    0.8468910142764811 H
   0.0616271680109073   -0.0017014008334397    0.7517274061352218 H
   0.3264640710203541    0.5497823844358910    0.8321536257519693 H
   0.3707710669057561    0.7970805555823073   -0.0432373104114696 H
   0.6592343876999840    0.5149410488953077    0.7765500018456568 H
   0.4063540133503317   -0.1489064440838500    0.8302799048445975 H
   0.4228398836819762    0.5913604030616578    0.7708447128787207 H
   0.5568815203226193    0.7133358597437109    0.8248728816547531 H
   0.5694771154541101    0.6665265385168685    0.7139065408159333 H
  -0.1929871687193311    0.7832757527003136   -0.0430009921419276 H
  -0.0827718093376436    0.7151144857610684   -0.0156907833721423 H
  -0.0972122611538210   -0.2315809282505513    0.7946363796980793 H
  -0.0514911873019841   -0.1583924495097566    0.7130446291985423 H
   0.3903028237180825    0.9570050940704546    0.2046330221125023 Cl
   0.1794881472849572    0.0255470822844443    0.8604353396926258 Cl
   0.5562376934339278    0.8788231375445610    0.8569785158145358 Cl
   0.2775238627250600    0.2105868490251814    0.1792077765755330 O
   0.0826260697332216    0.2282213061247287    0.1369465750977953 O
   0.0694709305057409    0.4194670355368401    1.0026086934397336 O
   0.5911377931783762    0.2141441010598963    0.0139560700867423 O
   0.5921008021246128    1.1769424478242065    0.2140268645228074 O
   0.9829115275226046    0.3387086435045325    0.2932409014300919 O
   0.9945628432173479    0.0294969982706442    0.0493644241397841 O
   0.7613609401710209    0.0750964489974862    0.3207035316598116 O
   0.1880053917251734    0.8287567970294138    0.2656276087437386 O
   1.1349951445749538    0.7658757470150979    1.0732364998869923 O
   0.2998595831871664    0.6181207549615018    0.3133271895571174 O
   0.3651490924740795    0.7697568456077384    0.0265345497339400 O
   0.6213321036636617    0.6120368250946373    0.0646165123257904 O
   0.3859965973280227    0.5731693346906757    0.1142561973015449 O
   0.5805571811094324    0.8702597574685781    0.3044610481370517 O
  -0.0013704736315100    0.6134224498203454    1.0915913169387974 O
   0.7109528065695102    0.7454666670624892    1.2111729500313084 O
   0.9008294521861613    0.5722205654780028    0.2542782135333724 O
   0.8651029128355017   -0.0787953509937606    0.2141064020633652 O
   0.3120798077326443    0.2990804510296100    0.3711785137682321 O
   0.1886624853497530    0.1752766106559347    0.5083478855165915 O
   0.1567356952367160    0.4574937055807707    0.3769319841299292 O
   1.0132689408196918    1.0534759476150373    0.4903609295898663 O
   1.3376874570595936    1.3886740020763517    0.6443700811992131 O
   0.5197026635903176    0.1012967318892091   -0.4652589119070131 O
   0.5054541892464044    0.2847063866200124    0.4025813113917393 O
   0.5841774392144502    0.4403736922320949    0.5502519328458628 O
   0.3357640528779734    0.0105480952200995    0.4890064970482518 O
   0.8108294767131563    0.3193647151213513    0.6203895127210296 O
   0.8887489185656237    0.2261728079757664    0.4404320032887370 O
   0.0740321123437225    0.5535538474750673    0.5569697958868235 O
   1.0133001566688407    0.8816028205000900    0.3616837198641421 O
   0.3793850804783331    0.8040980743544419    0.6238616322799961 O
   0.4668994939628747    0.7278440168686996    0.4307444838056029 O
   0.5923989134839827    0.6532741301542532    0.5756542348615175 O
   0.6674605443468888   -0.0329773881753600    0.4696039258564060 O
   0.7527157107492950    0.7610821432774685    0.5382822977759544 O
   0.9715879782439224    0.6618796777507993    0.4233658473507773 O
   0.0015531247601321    0.3811165189349838    0.6887374979336454 O
   0.2685305765853265    0.4858285926984461    0.9440950662466662 O
   0.1951304092933587    1.2529451868873918    0.6908276527254198 O
   0.5681449790916903    0.2292316399174239    0.6902181198424910 O
   0.3700765142621980    0.2387033083863391   -0.0215832149946024 O
   0.6843373931891205    0.0983401140173969   -0.1431769949064175 O
   0.7100662764536878    0.4566554152719735    0.7660976983186976 O
   0.7280497271482400    0.4226768272021140   -0.0220649524638079 O
  -0.1030308954351342    1.1303726381141632    0.8704310671454213 O
  -0.0933297899159545    0.3556060123446343   -0.1248091765258672 O
   0.3319962998857282   -0.1736090209802077    0.8314117852294587 O
   0.1491205888368965    0.7291469932541037    0.6695895998283934 O
   0.0010102031038138   -0.0087454008084879    0.7006581868247490 O
   0.3474403412520357    0.5787523144132488    0.7604688877561439 O
   0.5598361004445415    0.6347043974486132    0.7870764894248671 O
  -0.1235490730805589    0.7579001821757664   -0.0649357633028787 O
  -0.0903705274166600   -0.2307738419069709    0.7171698743309354 O
