Li1 Co1 H90 C51 N3 Cl6 O45
1.0
  15.1091225102000006    0.0000000000000000    0.0000000000000000
   0.0000000000000000   14.7454488611999999    0.0000000000000000
   0.0000000000000000    0.0000000000000000   15.2399318761000000
Li Co H C N Cl O
1 1 90 51 3 6 45
direct
   0.8663147541866569    0.0394961140947326    0.5876552474650467 Li
   0.7606798969060621    0.0108248946574971    0.7733529279407826 Co
   0.1916706778600120    0.0213820503918076    1.0198153157346843 H
   0.1710453900718150    0.2358794203784546    0.1685582297141723 H
   0.2732650920404343    0.3212311795447454    0.1592976896312256 H
   0.5142103022961826    0.2574494656849029    0.0626332155392987 H
   0.6159011383432630    1.0976422679941957    0.3450281786525682 H
   0.0061357470188898    0.2153008674394221    0.3293338827761481 H
   0.6847793938010132    0.2433949596504806    0.1407260843050981 H
  -0.0112762502577487    0.1054378164567772    1.0512242487858006 H
   0.8239152038773968    1.0917095899981948    0.2707922825082923 H
   0.2447028774109171    0.4083827482827769    0.0917901700199713 H
   0.2255243976676773    0.5592849704494420    0.2198983542213578 H
   0.0223444977146811    0.5162208354761832    0.1373612398676751 H
   0.1551430767615750    0.6370052223581882    0.2930594424115583 H
   0.4681036736994714    0.3975164124046190    0.0832120476856441 H
   0.2801311426618364    0.6002684634369060    0.0111749802679290 H
   0.5840865839457133    0.6450911071028522    0.0259132351253700 H
   0.7702747625180215    0.3880233138005926   -0.0162267170227853 H
   0.8026055613231954    0.6221029971313790    0.0756050583012750 H
   0.7247592139124859    0.3845856429316250    0.2670849168547353 H
   0.8304357678567735    0.4883733956413417    0.1607799797217362 H
   0.1020685186951725    0.0298409315811218    1.1090598091522001 H
   0.1336275982961286    0.7504904079060644    0.1411473460306881 H
   0.1756227571527498    0.8245295239937893    0.2680691732229363 H
   0.3487022988822306    0.7992145943830524    0.2405670817826655 H
   0.4351315404955951    0.6840421085546492    1.0232221551104836 H
   0.4305012252702886    0.8148499271674378    0.9873761943515175 H
   0.3615409001887622    0.6860067825549252    0.2899734706117923 H
   0.8461110659980197    0.9435669311641232    0.3062366666690326 H
  -0.0865513034074068   -0.0059518072475183    1.0984370582556635 H
   0.7689364981690264    0.8671338560770974    0.2067605002186116 H
  -0.0229327842411818   -0.1411494549261636    1.1913889173267365 H
   0.1846305602139878    0.2194234954158385    0.5319795392730272 H
   0.1406630829795202    0.2750955883936303    0.4437609034595414 H
   0.1615895133388313    0.0784776334374555    0.4036025874660307 H
   0.0440525750552796    0.0675332395760627    0.3629088360082187 H
   0.7211898471300277    1.1234108969166983    0.4008171419440220 H
  -0.0492533068083614    0.2347834890065367    0.4789354701412122 H
   0.0989836274337154    0.4067895109238371    0.6360747552423240 H
   0.5979199485146285    0.4413361025396684    0.3117878725856859 H
   0.6100669146853046    0.4122990074989986    0.4707295279482473 H
   0.6047032676604499    0.5342114712646967    0.4522287234635390 H
   0.7766159646583392    0.5518474213431155    0.6102701779517438 H
   0.6895970130870346    0.4759168267210619    0.6345629374607674 H
   0.6720228621182577    0.5828617366281087    0.5748845867047306 H
   0.7394576187900740    0.3506287247860182    0.5424920534563256 H
   0.8465002348591519    0.4087137656730203    0.5502316549820369 H
   0.8070955639659169    0.3748992643517344    0.4433540774940184 H
   0.6778193602233513    0.5358500107372777    0.3224152166786076 H
   0.8017775847155827    0.5210498509012319    0.3885736488945144 H
   0.8503177960683526    0.5643312732578831    0.4972606832898335 H
   0.7535861692638616    0.6196100245304074    0.4499825848142132 H
   0.1225005457564127   -0.0100439173330087    0.6014197446888808 H
   0.0799818621223162    0.7159000739799060    0.5984105448858346 H
   0.2344613825858182    0.8053927718571686    0.4901158350788804 H
   0.1904323531335185    0.6995038284484338    0.6060621538922286 H
   0.6185055251945467    0.9293082943481741    0.4027882793640725 H
   0.6723623920940413    0.8099623173918115    0.5123263418417637 H
   0.6980204010047698    0.8522885975800164    0.3540288750543098 H
   0.1416095310601647    0.0475935278204130    0.8772923689355389 H
   0.0544092320943871   -0.0117352866656592    0.8341937510847559 H
   0.0666184123346999    0.1454060809394386    0.9636188703067952 H
   0.3182048295759274    0.3088510884591260   -0.0880282190830442 H
   0.4118734062285146    0.3854164077401642   -0.0777276481043653 H
  -0.0432542820510461    0.0842563656281191    0.9326449785704235 H
   0.1850243620377524    0.3965873121697629   -0.0574486860648651 H
  -0.0097963496225593    0.5055321815407497    0.7416296890227541 H
   0.0647744932069549    0.6461287153943339    0.8262120881095584 H
   0.0087275586858852    0.6626144800725219    0.7300876426783176 H
   0.2467863868919442    0.6271798178307462    0.7487576736412653 H
   0.8993742518287465    0.5378211274034159   -0.1014685678762842 H
   0.7766483953967668    0.5855479892049446   -0.0290430472785859 H
   0.6601240903743241    0.4445231876153665   -0.0300732356106362 H
   0.1376748220815416   -0.0727398724512420    0.8787064172511875 H
   0.0766917968014187    0.8618156049517383    0.7184629187989523 H
   0.0278709602834788   -0.1325244207751415    0.9837941573421781 H
   0.1343516641704118   -0.0775637337436009    1.0645576417203626 H
   0.5584599468105251    0.6335038030059530    0.7196965201137642 H
   0.5401852257065299    0.5942489789956045    0.8256346577068804 H
   0.5784910240485105    0.7587607563469917    0.6621043991557661 H
   0.4451407253372632    0.6324187224396977    0.7682387318516105 H
   0.4586726825943425    0.7575339371317692    0.6783046028054416 H
   0.5215963235508690    0.8614771954501375    0.7030901466694778 H
   0.4559140842725761    0.8581805850547829    0.8339549048727390 H
   0.4018609121278233    0.7568523709010901    0.8373066258919194 H
   0.6715886873344097    0.7206913828552771    0.7786672561581556 H
   0.6340352159387708    0.7226797929929399    0.8845896456493806 H
   0.6490049800562638    0.8299650994553747    0.8317659187098602 H
   0.5511605156274404    0.8173137382281913    0.9647999779486363 H
  -0.0580837335859542   -0.0686721766784923    0.9396279494173532 H
  -0.1194029795828374   -0.1164523430628382    1.0719671236601795 H
   0.1840176854428852    0.2846470100780928    0.0491600582004520 C
   0.2619639724760963    0.3396409277019751    0.0893216550485234 C
   0.1218830380226775    0.1745947481717071    0.3101756606545727 C
   0.3848983122265398    0.2290963104886509    0.0486134678306444 C
   0.3552308050832631    0.3327499879308998    0.0434421848721167 C
   0.6893613938445805    1.0935874575531703    0.3409015197861577 C
   0.7153668749527483    1.1553909339056587    0.2669563073559572 C
   0.0977691293721892    0.6034199443065238    0.1788581445219391 C
   0.1844816435579424    0.6216242053315189    0.2269279132030489 C
   0.2988330891057308    0.6627521496693657    0.1205422670478574 C
   0.6602478566617929    0.3394944418255306    0.0614074882754325 C
   0.6471643701875420    0.5496636967035267    0.0896982971520883 C
   0.7104175471576022    0.4175132265250679    0.0149597740891177 C
   0.8977646282398464    0.5251783790032273    0.0266310861032445 C
   0.8029007472280677    0.5621360196372778    0.0331941075664084 C
   0.7345387361779416    0.5002942263772936    0.0781811853023130 C
   0.1279039038895462   -0.0049840510174893    1.0469223922858504 C
   0.2428437356916653    0.6994522871215367    0.1989888119352969 C
   0.3094644146437665    0.7370286271309590    0.2701643269453801 C
   0.6732492735122676    0.9565288967033970    0.2363065640501797 C
   0.7187396717492266    0.9921642988499302    0.3258843922910599 C
  -0.0577746487931843   -0.0712817954403364    1.0806423592895025 C
   0.1177458023918327    0.2355762759952570    0.5030786882993604 C
   0.1008513732264277    0.1120432444038566    0.3858846604965894 C
   0.0567144619299706    0.1579184162190704    0.4667529353694418 C
   0.0518538222766472    0.0823452674808019    0.5386327186195184 C
   0.0715670782780413    0.3058949220914341    0.5608735004521167 C
   0.6442674448386048    0.4713801862545908    0.4477403831903602 C
   0.6578804127565726    0.4654406247787475    0.3474337012164513 C
   0.7148559253595613    0.5252713568442482    0.5861086526251471 C
   0.7926526338849222    0.5557265843674783    0.4515667126302870 C
   0.7896359133593438    0.3970905182823638    0.5057818434272784 C
   0.1499005486169706    0.8366654719520014    0.5921664224859677 C
   0.1403745155926944    0.7432420697234786    0.6297361442311099 C
   0.2618977872956316    0.7745357932542825    0.3499724264754976 C
   0.6886988801881294    0.9208073662869175    0.3875828308171921 C
   0.7369008852687249    0.9243766031745436    0.4765340158369843 C
   0.3452355191294926    0.3635710232400287   -0.0529683510768144 C
   0.0142493882920505    0.0929173430728984    0.9802160573583116 C
   0.1112245765606513    0.5580879909497914    0.7245836810673379 C
   0.0779499770820516    0.6508515285589602    0.7533252793606298 C
   0.2976966895571528    0.4551536541054346   -0.0606895141998948 C
   0.1000267058778382   -0.0101768397023750    0.8895995105635234 C
   0.1281295953549306    0.7394768401585726    0.7312293800654307 C
   0.2127043282116758    0.7515490396335170    0.7856600695687673 C
   0.5151333281033124    0.6428239668947324    0.7768791904225906 C
   0.6282737959793235    0.7601950972205105    0.8202566809110304 C
   0.5221622068438418    0.7871634183440790    0.7005586392904650 C
   0.4667823527566753    0.7885421488385772    0.8561984426231684 C
   0.4865067278683875    0.7797306164652300    0.9500676286294045 C
  -0.0103920162467411   -0.0716229176433529    0.9939070634399868 C
   0.7363416204937986    0.4853174696790898    0.4978060269349080 N
   0.0579759514696267    0.0031072591300060    0.9796110677773242 N
   0.5353252479050111    0.7438164842482400    0.7927014396268769 N
  -0.1192990688495079    0.8223824208233116    0.2775606854669541 Cl
   0.5974447389188923    0.7146108626321237    0.4893312515192418 Cl
   0.6421819498021637    0.0194994356093546    0.8431701691627485 Cl
   0.8310181974448623    0.1222775886697061    0.7127863842380815 Cl
   0.8339561576056879    0.8867317674543764    0.7877322573092863 Cl
   0.8635303436445094    0.5150767536541379    0.7672295409887484 Cl
   0.1357422148119740    0.2414472400340523    0.1093466789450277 O
   0.1956702483154904    0.1836877233169269    0.2759005730592552 O
   0.0539221091661673    0.2271140039291732    0.2863979953115743 O
   0.3297541435670077    0.1696488153156445    0.0377768052167520 O
   0.4669030745258428    0.2059556110625481    0.0716955920067809 O
   0.5787411378454863    0.3328517142339862    0.0674698513326381 O
   0.6624372624315633    1.2115235079487550    0.2319495891936102 O
   0.7163027334045183    0.2739386212398605    0.0872744018026654 O
   0.7958970314312991    1.1489876022140444    0.2323104831952839 O
   0.0775091837801571    0.5146673391929826    0.1758515694025413 O
   0.0509086978996120    0.6655970952790163    0.1483416039113249 O
   0.2454137062491074    0.6265667473108119    0.0608740213238675 O
   0.6435169048921356    0.6155240180231021    0.0287813581823075 O
   0.4040979712275282    0.3990660430883025    0.0903787463879712 O
   0.5960283760569489    0.5354393755604855    0.1481211304848478 O
   0.9403389074255332    0.4841169636675990    0.0875867391568412 O
   0.7709319813600354    0.4648411855834269    0.1561795654567651 O
   0.7237353291706979    0.3969779411736148    0.3283791540989932 O
   0.1895507665297294    0.7749766072343238    0.1678633447182224 O
   0.3780938138229696    0.6811802085611508    0.1100553435301324 O
   0.6013218667905113    0.9889524603738143    0.2207330036215922 O
   0.8112738344086499    1.0031873610523765    0.3188902665386240 O
   0.0026544065264495   -0.0983376011845593    1.1486912199032673 O
   0.7135606813778682    0.8986941025219877    0.1802748175212363 O
   0.1323164698711240    0.0631793538039631    0.5732109571762418 O
   0.1301449341000790    0.3640938964378930    0.5937950386898843 O
   0.7897530611287662    0.9800954902517551    0.5027267838391830 O
  -0.0259753169871415    0.1886689212913927    0.4386460511994572 O
  -0.0180013264447612    0.0417890249663009    0.5539091648590916 O
  -0.0075672327445101    0.3054310501493599    0.5752581448050086 O
   0.1864645515646631    0.8217239125546654    0.3357000529656718 O
   0.1061633958105200    0.9001155580637821    0.6296593722343904 O
   0.2013052545802502    0.8578720152687541    0.5297958680945366 O
   0.2822881176931791    0.7540108161682090    0.4282149022092635 O
   0.7263377304665677    0.8509532703081685    0.5266748567680627 O
   0.1493955556900253    0.2949396774243787   -0.0259623248461169 O
   0.2095989195442747    0.4573888522543852   -0.0721948149732517 O
   0.0553755357291709    0.4882111760966865    0.7120002914853449 O
   0.2714794158714982    0.6849434035999951    0.7767112106690842 O
   0.1909280801351987    0.5434712775469782    0.7100534323890435 O
   0.3396210302706769    0.5249283357502408   -0.0547826636488648 O
   0.9387034716162519    0.5318184617108914   -0.0503416989155422 O
   0.2270651886688942    0.8184896942918706    0.8320310117583622 O
   0.0664595679015848    0.8069186664034652    0.7560962891225715 O
   0.4906119960570680    0.6965781799716679    0.9866465322972245 O
