Li1 Co1 H110 Cl3 O55
1.0
  12.2959808830000004    0.0000000000000000    0.0000000000000000
   0.0000000000000000   12.4553328500999996    0.0000000000000000
   0.0000000000000000    0.0000000000000000   12.7902087582000004
Li Co H Cl O
1 1 110 3 55
direct
   0.8190883295390042    0.4649559746573537    0.5975106054621988 Li
   0.6517930141368780    0.8611718011946893    0.5313537493860606 Co
   0.0833357217492675    0.1198981547079258    0.1993834054870337 H
   0.1787563320417046    0.0870166568845487    1.0366543369043477 H
   0.1247061504153772    0.2882589705317409    0.2753329086080999 H
   0.1843532828384603    0.1123648353555452    0.3271850724420023 H
   0.5541879502204818    0.1366082661521437    0.2715417273289897 H
   0.5873955490192510    0.3005211879961881    0.3133252517501509 H
   0.5666619448907287    0.0504120148820398    0.1778857110241721 H
   0.5731030739680762    1.1188525905101054    0.0233834009087816 H
   0.6523883306122086    1.0162860822220718    0.0353849485693377 H
   0.4185859176648494    0.3251740819569894    0.2694424652678614 H
   0.5430013680918310    0.3007724859773557    0.0200276151814781 H
  -0.0004999079421552    0.1676014162064918    0.2843444894336361 H
   0.6908724503016128    0.3075125708077122    0.1299592063369829 H
   0.7936515626005956    0.1910459923984204    0.2422255521915348 H
   0.8358905677634990    0.0679081350277371    0.2717356256497196 H
   0.1248688051900576    0.4193313408688285    0.2575568109463447 H
   0.1008780391985585    0.5841563218394107    0.1752297731390128 H
   0.2903432003896358    0.3504797083736668    0.2603253349532182 H
   0.1858277483709390    0.6482846763051516    1.0334018489437169 H
   0.2380822212847938    0.6367370122056855    1.1408121364512789 H
   0.3998968840540609    0.3592068938538306    1.0881233951851950 H
   0.3957540669429487    0.5281602269623155    0.2086881793378671 H
   0.4656655289222443    0.6193573080576538    0.3113893959351217 H
   0.4457573977752256    0.6360907027014048    0.1538595199111470 H
  -0.0163819837080662    0.5328778849090903    0.2111807109769274 H
   0.7680968709505434    0.3711479637385110    0.1978986760069284 H
  -0.1617573723825380    0.5670961595332468    0.1722931517976355 H
  -0.1887312269416774    0.5209472523207523    0.2901379836135097 H
   0.1656268386294953   -0.0269698593399937    1.0896636358780898 H
   0.2423299507255748    0.8175037590358935    0.1105490462142377 H
   0.3032644956902540    0.9143939838515485    0.1845556568876676 H
   0.5954786780469981    0.6914019503646471    0.0075326666609904 H
   0.4891699571374488    0.7685407961556920    0.0167304836961953 H
   0.4496846973098860   -0.0034514994916137    0.2885375406194205 H
   0.3660793298502398    0.9010422732227422    1.0064828199810922 H
   0.8083775126262939    0.6926809206010686    0.0311336747216658 H
   0.8766681197758984    0.7293463397830484    0.1282500864615168 H
  -0.2021762706167669    0.9367619127823086    1.0993272779918870 H
   0.2481912155311863    0.1286678922424087    0.4371559123704937 H
   0.2176479019416836    1.2273924437818022    0.5772122659348198 H
   0.2549844921957171    1.1245288739824844    0.6355099852368570 H
   0.0237638984868614    0.3299294747443868    0.6247259548423905 H
   0.3313492823604612    0.0191046219208899    0.3335219510287602 H
   0.3977661065057465    0.2381719911223555    0.5623376064514062 H
  -0.4383981733374984    0.2364634859979959    0.6286758512791950 H
   0.5186730934428698    0.2606362643270458    0.4085715470241808 H
   0.6051704627963351    1.0513072257956453    0.6444316535346353 H
   0.6451005834326491    0.0190837473282050    0.3839824253025850 H
   0.9322391235454883    1.0360045436197556    0.5407625090298661 H
   0.8511231874123272    0.1548871835235227    0.4174541229185861 H
   0.7941842569876741    0.0927049833911688    0.5078021400499834 H
   0.8612647126136557    0.2633732445756086    0.5784851145886436 H
   0.1295768476431845    0.3821817917103501    0.5840722008787079 H
   0.1625485970186670    0.5509103215129982    0.4747737502882317 H
   0.1802340506696769    0.4420966899295501    0.4348869892787267 H
   0.3239135193359425    0.4736654970206302    0.5289300203769367 H
   0.0772044500176863    0.6135846803113448    0.3523355610760339 H
   0.4568341879309671    0.3469816083610565    0.5345796545123978 H
   0.4635933070928149    0.5407203088069964    0.6327922813543683 H
   0.4385460983397659    0.5256520643643365    0.4761881134422656 H
   0.5718790967886055    0.6077951923170981    0.3690663278715960 H
   0.9244804907932289    0.6372749344017949    0.6598121687176951 H
   0.9512615994443718    0.6176207025200645    0.5508944781360715 H
   0.2992631882331140    0.7271288157447585    0.6119943409118829 H
   0.1728918141405995    0.9546418042858272    0.4466467660613824 H
   0.2006830089425083    0.8699150440538415    0.5318674235663814 H
   0.1058357567308199    0.7239221571607865    0.4188981962991835 H
   1.0418359107252038    0.9567774356912767    0.5344905238327075 H
   0.5769693779622315    0.6777780671619884    0.6612570239463600 H
   0.3714851612867460    0.8210203250343404    0.5485418973010864 H
   0.4495789717063437    0.8864140009643626    0.4057866042078906 H
   0.4801369242255677    0.7544046825633054    0.4270075244548716 H
   0.7416540842307359    0.6921727045560875    0.4419361314549400 H
   0.7503740067013570   -0.0449209653193257    0.3605715486186504 H
   0.7581855022553876    0.7954842752291803    0.3589398317018628 H
   0.8902660589391874    0.8914479892772079    0.6031148924097472 H
   0.0007875940595670    1.0221711116212990    0.8243513126664426 H
   0.0200327606104656    1.0542136113925353    0.9619878464619821 H
   0.1716645838656351    0.0091125565543669    0.7526136250847796 H
   0.2580041780876604    0.1682814462066481    0.8509576024020834 H
   0.3085646015232179    0.2272304930796993    0.9437786049708544 H
  -0.3589860459691152    0.2130775192393748    0.7261660505068330 H
   0.6492124961365719    0.2669251368078299   -0.0583997208349803 H
  -0.1055609610043015    1.0531939678267754    0.9796732497479119 H
   0.8160141542975429    0.3026592280084859    0.8546557437611660 H
   0.8458043762802750    0.3076972306660781    0.6883261677379368 H
   0.9338250075986232    0.2419976616663279    0.9612529092785703 H
   0.1397346383219812    0.5232803894877585    0.8906520287869933 H
   1.1081827933173762    0.3642416850356252   -0.2158310840024550 H
   0.1268857243960957    0.6400962158900466    0.8414425114211034 H
   1.1843052278678465    0.3402391149238518   -0.1262860248363386 H
   0.3384101261293413    0.5807312829011974    0.8913009626829846 H
   0.4844212509906519    0.5866845561611251    0.7459718257517127 H
   0.4534558482608532    0.6086839682441029    0.9464212514388670 H
   0.4210428180363982    0.4032129438403309    0.9706663600107805 H
   0.6500192638189872    0.5280141048135216    0.7349071119010283 H
   0.9894204095844154    0.3527967881616845    0.9135367217215278 H
   0.7314824678960913    0.3642039501950026    0.7947286530865436 H
   0.7563808475303075    0.5854296719931862    0.7704256877576381 H
   1.0060518602954955    0.7947608903057555    0.7972962421400801 H
   0.0190759438984076    0.9889323371154314    0.7031109146935925 H
   0.3039728572339876   -0.0062906046705425    0.7411618964407030 H
   0.3789306835977455    0.8371178474701532    0.7283333333498303 H
   0.4261396054010114    0.8860848246951016    0.8358992086228169 H
   0.6665482420220187    0.7541100296588693    0.7112100788244036 H
   0.5365634921099771    0.9489093199869892    0.6678831863180777 H
   0.4782485022915272    0.9500895373426324    0.9937386964815054 H
   0.9372732888218496    0.6941758625848832    0.8171270365231185 H
  -0.2325569294315891    0.8951973872709856    0.9807209261583075 H
   0.8168192954322113    0.8786101147760286    0.7036136430009688 H
   0.8615168275144105    0.8959761701519203    0.2358769458837651 Cl
   0.7275299568713554    0.5273613723576455    0.4281670051389138 Cl
   0.7382326410453317    0.7339588218974497    0.8917231606394126 Cl
   0.0782316149197936    0.1700092201857937    0.2589492823544898 O
   0.1238034164159004    0.0397434922821854    1.0637062800384403 O
   0.5596840550569356    0.0597399069101574    0.2586021418125379 O
   0.5198450210944427    0.2671210368314876    0.3315673308601119 O
   0.5757575998908618    1.0397378842345451    0.0481894698321360 O
   0.6187391241001818    0.2617956070900040    0.0095087094666871 O
   0.7200592230702804    0.3109689216349528    0.2008908085610953 O
   0.8442103594884062    0.1464209304519195    0.2825438933342773 O
   0.0675294187101413    0.5313797314494780    0.2253970543875403 O
   0.1655796687448380    0.3601912111858159    0.2893960097974908 O
   0.4228312072840102    0.3416336982889892    1.0178508908819508 O
   0.3613021591178738    0.3613931060030933    0.2240921499629507 O
   0.3933671081245125    0.6058819556106373    0.2050697864816654 O
  -0.1376372958451679    0.5173929514816829    0.2302718770881492 O
   0.8567103789226020    0.6642890659428320    0.0865888430781063 O
   0.1790027540253455    0.6715052520601927    1.1056524288576330 O
   0.2688166542345461    0.8935354485456923    0.1161447328330441 O
   0.5172937809535793    0.6963331714519669    0.0417604895430314 O
   0.3832906448330560   -0.0432983671725537    0.3130758422166314 O
  -0.2304334713481353    0.9618917108990637    1.0280540081622951 O
   0.2349299717514859    0.0781327513854587    0.3790849290080198 O
   0.2702431366084940    1.1703405762362236    0.5726251633230360 O
   0.1050525739907333    0.3309475125722477    0.6361933204478164 O
   0.4694261073128573    0.2701615015429302    0.5431580915085614 O
   0.8457881108028069    0.1532324706187741    0.4958500286427326 O
   0.8821414529438969    0.3292767422885108    0.6220582892362192 O
   0.1928934717830595    0.4822947324889652    0.4995294056481963 O
   0.0870312382300082    0.6490570362344908    0.4252804220738540 O
   0.4951361342727293    0.6167455753651999    0.3852928026636468 O
   0.4062599388395617    0.4870131933046895    0.5338767730997518 O
   0.9288803024483362    0.5778048255805721    0.6114697208586176 O
   0.1368052258299856    0.8981680023838290    0.4890917339476143 O
   0.3097414088180312    0.8047951464355704    0.5946255860932740 O
   0.6131503060421601    0.7513714436724076    0.6479937533299800 O
   0.5943222025990198    0.9755886551761193    0.6225750908088099 O
   0.4761949857611860    0.8276761086250082    0.4599334921197862 O
   0.7052478792878748   -0.0181415123722034    0.4204314003594712 O
   0.7204064910142233    0.7660278163440166    0.4218762555881361 O
   0.9774083544742610    0.9786315284944099    0.5763514512125472 O
   0.8154692608023633    0.8660933878546160    0.6321480385467818 O
   0.2429415326783735    0.1919741089039465    0.9234818291396104 O
   0.2426064638425316    0.0437265251402436    0.7420852590083724 O
  -0.4057224556519344    0.1791787864570863    0.6757016669926709 O
   0.9185191933011889    0.3174577084841417    0.9371719888008231 O
  -0.0492475195156824    1.0850919511871167    0.9324965373574163 O
   0.7587141302730993    0.2900124363172678    0.7987715894433758 O
   0.1730666680233810    0.5950416190556076    0.8934432263878230 O
   1.1173809208255583    0.3834615648157210   -0.1409636586067524 O
   0.4151717939443059    0.5698941578219654    0.8942719853393299 O
   0.5235641225175122    0.5714597522733288    0.6834192892665619 O
   0.7264157716647940    0.5174973244451071    0.7484393382526144 O
   1.0068163377364938    0.7164691247033477    0.7852315446111153 O
   0.0293164445301293    0.9654323629659930    0.7765491218219794 O
   0.4154296017621744    0.8990752442966702    0.7619387269853670 O
   0.4371155495964510    0.8826084021441256    0.9702441620543525 O
