Li1 Co1 H90 C51 N3 Cl6 O45
1.0
  14.2475177533000004    0.0000000000000000    0.0000000000000000
   0.0000000000000000   13.9045827637000006    0.0000000000000000
   0.0000000000000000    0.0000000000000000   14.3708676540999996
Li Co H C N Cl O
1 1 90 51 3 6 45
direct
   0.7828874873461007    0.4018551276768506    0.4006211709463104 Li
   0.7815272504026858    0.6491769681406855    0.3524160091791740 Co
   0.0307206758664064    0.0897024314211138    0.2660294367131882 H
   0.0782005254593866    0.0547218780117879    1.0847106940444675 H
   0.1967355593679308    0.2958848137853240    1.0294795125247105 H
   0.2364596720028429    0.1825473604592055    1.0510697190082754 H
   0.3135671386522911    0.2731628087191375    0.9854327635575800 H
   0.4966083564388746    1.1179238633740693    0.0106746391931481 H
   0.4979545558493338    1.1112807298425011    0.1298901271676140 H
   0.3829658940790729    0.2647734883071269    0.3056157730216780 H
   0.6632582277436537    1.1258198212654937    0.1881600952833591 H
   0.9338379923561305    0.2802482424695987    0.0345444575128606 H
   0.8204814043549734    0.2314607303573340    0.0370063826277235 H
   0.8790824894321698    0.1782538119928786    0.2842865111164269 H
   1.0523926788108129    0.3530566119981647    0.2342616958231834 H
   0.2405747747888297    0.7162016330182966    0.3266743484176918 H
   0.4894485829424441    0.4698869209406912    1.0389354481905875 H
   0.4008770842539996    0.5209605354510073    0.2825294842891152 H
   0.7555879951303489    0.4170102749819630    0.0036451401794835 H
   0.9122356328904817    0.4881069067040458    0.0856019174840172 H
   0.9256899063519484    0.4638231863121259    0.2059043266086855 H
   0.7053048502060996    0.3670246686670092    0.1485765423837047 H
   0.2161670143619683    0.9656906007172376    0.2715322359806659 H
   0.0847272764071763    0.7620678061238242    0.2235587929990719 H
   0.2902746602187664    0.9356774743191211    0.1170245156784392 H
   0.0704588260342743    0.8103864080853276    0.1114117717619654 H
   0.3071182960124060    0.8750758716446533    0.2806075404883093 H
   0.4875185625363540    0.8251743383306566   -0.0060327723410121 H
   0.6306827287664720    0.8586532285577897    0.1189395009571567 H
   0.6334032026533021    0.8323115535701588    0.2747046262007507 H
   0.7018775865349459    0.9676532629893659    0.1036836371306291 H
  -0.0542365792119135    0.8209296946039796    0.2828815855067864 H
   0.0139275751914076    0.1054044487854883    0.6119410489867703 H
   0.1649215965536003    0.0571922865514584    0.4811547217281112 H
   0.1772697124181516    0.1900254705015618    0.4518738870472666 H
   0.3023034222085737    0.2029550206401926    0.5558866047187391 H
   0.0452797031714929    0.2627425032369582    0.5827702285401426 H
   0.5972018089136428    0.0116296105066996    0.5762246947377236 H
   0.5559151082977580    0.2868352793880389    0.5365494285169446 H
   0.6023697266713129    0.2982638855318248    0.4065199101206161 H
   0.7951218991937102    0.1173393628221207    0.5765209886082462 H
   0.6572550767751146    0.0909329609731884    0.5021167128375384 H
  -0.0599940733537264    0.2703831496199158    0.5110409965402981 H
   0.1144124473487628    0.3943674524427686    0.5446737118107714 H
   0.0902285855725462    0.5679404420833279    0.5648116051492738 H
   0.3292330254309408    0.3742395561400731    0.3417569450442191 H
   0.3397071306458956    0.5811677357839452    0.5577179485619546 H
   0.5462483717907549    0.4533771339228956    0.4754421926048903 H
   0.5376625955090116    0.4857653046183651    0.3630263636595103 H
   0.0889574869634003    0.7509419778534594    0.5446388496151087 H
   0.1499603939293307    0.8176832829160399    0.6272838943394023 H
   0.6261303568289128   -0.0307902168282018    0.4584908152863121 H
   0.6789318351654291   -0.1545522907605864    0.5595228500212343 H
   0.7813398493377260    0.0351146733488949    0.4252752147053815 H
   0.7745891997392917   -0.1072542156456020    0.4291622451439412 H
   0.7925095143106398   -0.1518179404642757    0.6088737324502197 H
   0.8747561217751986   -0.0332721323654370    0.4851898991019322 H
   0.8588459819231183    0.0173378004861363    0.6371246362767657 H
   0.0970150308800177    0.1733726874634044    0.8254577324505262 H
   0.0719889171264543    0.2431058118928057    0.9324867606916416 H
   0.0206571684904082    0.0697888529480608    0.9269387310305895 H
   0.2732948603554557    0.1347019837725503    0.7857865021725584 H
   0.1398505626945784    0.0311217451939457    0.9354949297904410 H
   0.2761578152017869    0.0687560999166294    0.8852126491799280 H
   0.1974760392313482    0.3063058384548512    0.7789434915508620 H
   0.3457411641869373    0.1730584025924187    0.8694975228955685 H
   0.5130548704251953    0.3164456608713911    0.9744995336523437 H
   0.7525629067783784    0.0665661744425983    0.6798652706479105 H
   0.0673986438499145    0.5653779775631399    0.8039343277790099 H
   0.2943876573748098    0.3287674977011363    0.8550808568328975 H
  -0.0180850187142472    0.6000464036635234    0.6344678725434285 H
   0.1807517224678326    0.3696684013574980    0.8848111424554295 H
   0.6406479734117798    0.6278358027822625    0.8145467698159726 H
   0.4070199086754487    0.4835267620796233    0.9550114966916735 H
   0.6213519806107656    0.4642573525221153    0.9329787282032889 H
   0.4830773678598045    0.3725379588751939    0.7914215133597150 H
   0.4112339760687737    0.5195346746152720    0.8032711806239888 H
   0.4737917503725508    0.6259767034882164    0.7881670125789875 H
   0.4661674047229488    0.5350599157295589    0.6963012998206245 H
   0.5599913973051220    0.5819753831755172    0.9358797360619274 H
   0.5712511832396117    0.3957756212697482    0.7035054577387071 H
   0.6439692537091173    0.5647975933734706    0.7017519101724395 H
   0.6137815390877137    0.3486530278676254    0.8008517024938649 H
   0.7117207046435384    0.5117191937880659    0.7992825557629389 H
   0.2374998531948662    0.7770635815126655    0.0255088165811209 H
   0.2452029494043501    0.7556749497892882    0.7682322385002445 H
   0.1160443105548722    0.7359131198466197    0.8089883023717881 H
   0.0531351066135471    0.8654481106197424    0.7622326007556576 H
   0.6370740175212385   -0.0433191796141116    0.6994124550463318 H
   0.5856086315714533   -0.1854946072120520    0.7725047710624995 H
   0.6078134819515641    0.9079276305045105   -0.0437437869466880 H
   0.7253743110729772   -0.1105085383943674    0.7527766650897808 H
   0.2431036363508133    0.2401715275138083    0.9983143796475580 C
   0.5633324003362623    0.9902688283280788    0.0608963806614923 C
   0.6133828731517696    1.1754156999566783    0.0729450616574932 C
   0.5401763667230678    1.0963705377480473    0.0694818052141149 C
   0.8582185041999950    0.2972944209869992    0.0389123218277262 C
   0.8458689845821481    0.2983358042666041    0.2175626345155293 C
   1.0231202113381261    0.4008922077368900    0.1083068792061377 C
   0.3963317310829182    0.3448204784912340    0.3162950168706891 C
   0.4263523990621479    0.3934706258200702    0.2281597678038977 C
   0.9268852022831330    0.4335089361714883    0.1365501286583865 C
   0.8456654403542894    0.3563814151070139    0.1292923901202236 C
   0.1882912814183817    0.8431130283466688    0.3621113180048905 C
   0.2316869107978780    0.8887814249315532    0.2737297372561711 C
   0.0981366297631845    0.8276159793764154    0.1787319937058358 C
   0.2012991613318546    0.8417106130184715    0.1791251502038283 C
   0.0302623504154002    0.9057082183492199    0.2079619615902145 C
   0.2511997834830590    0.7465700379662230    0.1513599512190500 C
   0.6332663367069833    0.9418351563909286    0.1322789878005491 C
   0.6264728726330339    0.9687564963808810    0.2360695198617402 C
   0.4637947107150983    0.9410332624981389    0.0801116435562986 C
   0.0599390988372133    0.3248874819597907    0.4468473986167373 C
  -0.0036446085626370    0.1292598931117972    0.3930913541944926 C
   0.1793248072428777    0.1523278272922723    0.5958216325690767 C
   0.1432588756962416    0.1365653981906831    0.4974378025853230 C
   0.0371660091230525    0.1498164250737775    0.4852145322701250 C
   0.0192779808775029    0.2549400397007470    0.5123987670291547 C
   0.4304759243679082    0.2878701899815137    0.4806855085836929 C
   0.6442654456544841    0.0165279955325209    0.5175662253752631 C
   0.7909717025753341    0.0496084559689764    0.6191445110526438 C
   0.4933598607499129    0.4602075438398291    0.4213693962571832 C
   0.4135557840196595    0.5275469970195694    0.4488616820056558 C
   0.4713821376530265    0.3492880702957270    0.3964627581463046 C
   0.2159059162489908    0.6609795517053240    0.6665487469274097 C
   0.0903394820828968    0.7684347717138397    0.6182809584614780 C
   0.0012088684568237    0.8154998301281390    0.6386492484663261 C
   0.7240709261380331   -0.1135686805592285    0.6047014026060371 C
   0.7955002107068685   -0.0373283490069921    0.4650902080496949 C
   0.1098074346626194    0.1826214367560282    0.8976663161614719 C
   0.0875790012271428    0.0915744760874201    0.9528369585390599 C
   0.2764975234993168    0.1431668188560793    0.8576165422818971 C
   0.2175075987592453    0.3070796840410769    0.8558859578385212 C
   0.0588806688523475    0.5864472901040969    0.6385281701819886 C
   0.0744377647505900    0.4887128220445618    0.6966457466639986 C
   0.4776460357962192    0.4515109865928411    0.9671687306322529 C
   0.5572429185400452    0.5028550658890419    0.9146715524410139 C
   0.4714081070889947    0.5520722924416132    0.7707609654271557 C
   0.8412885375786773    0.3401925079081832   -0.0589384157788380 C
   0.5563264782010271    0.3950751327929974    0.7761037186866009 C
   0.6444009078475075    0.5537652594583189    0.7791571181789748 C
   0.1058628879020454    0.6746851049922238    0.6760547839523228 C
   0.6764127998765145   -0.1106530950512738    0.6960960234190178 C
   0.7375623990618325   -0.0206022088593597    0.5559710115916709 N
   0.2111780751494844    0.2118564024438322    0.9011873283381836 N
   0.5562233023338022    0.5010264601385422    0.8059550825934705 N
   0.6831395856689239    0.6736732083938783    0.2489149516368588 Cl
   0.9234979455809036    0.6936004514265395    0.3312161757847665 Cl
   0.6999986627488148    1.3043343471727420    0.5299561592529995 Cl
  -0.2519559327707134    0.5425594575548796    0.4568478386360286 Cl
   0.1939119096138758   -0.1757668791457977    0.8573333304329007 Cl
   0.5887694628671062    0.7590788635063946    0.9193149742305787 Cl
   0.0816586717030429    0.1193372652742909    1.0483621580636933 O
   0.6121391477318876    1.2408660637299695    0.0171307559867315 O
   0.6212656497830875    1.0532912156152194    0.2634366913830641 O
   0.6845784327968912    1.1699009713737980    0.1379084321700350 O
   0.8044266779134486    0.3370913720644979    0.2866531044786793 O
   0.8848834999261457    0.2128294629253968    0.2172028789235609 O
   1.0805168760877166    0.3538822390734316    0.1719105545026132 O
   1.0561407001100058    0.4187604893115531    0.0329495642502077 O
   0.2779468987770010    0.6957623285940067    0.2178131413107104 O
   0.4623629525412735    0.3492089596874697    0.1620183195017960 O
   0.4145966670883305    0.4890827000975320    0.2194664861589055 O
   0.7576873081838856    0.4092166574501297    0.1243066090439113 O
   0.2025646449278181    0.7487729088125145    0.3753408601992868 O
   0.0341303926213652    0.9925594400308010    0.1799733940463998 O
   0.2232278934387253    0.9140493532089284    0.1078566628270206 O
   0.2580143038564421    0.7213517336158456    0.0616840853618950 O
   0.4072360866829677    0.9771558854157607    0.1340283602535637 O
   0.6303605673851369    0.9012147358002064    0.3019333231325162 O
   0.4409233582702469    0.8602275296621097    0.0366243597650724 O
  -0.0419495266157199    0.8912568677826583    0.2637115530055544 O
   0.0365855571353310    0.3272636769569002    0.3657861135197551 O
   0.2670467544368383    0.1692330450895053    0.6085320690156810 O
   0.0571245734795795    0.0978666461932651    0.3290785177992213 O
   0.3464563764910343    0.2720674863884481    0.4886546864201700 O
   0.5516383633197856    0.3079304826735166    0.3591755175358100 O
   0.4894958894285051    0.2592278346682916    0.5470838655212968 O
  -0.0915736093676954    0.1418765967541378    0.3796655816772045 O
  -0.0169578048178981    0.0954508958920269    0.5517521988199381 O
   0.2459658893204967    0.6024599964027182    0.6043040709947916 O
   0.1186468691648737    0.3910131626526599    0.4782167641171833 O
   0.3571263052907221    0.5582695298175493    0.3898820838073394 O
   0.4070620212743161    0.5490588974543585    0.5402106549137370 O
   0.1349704143625017    0.8914999531062124    0.4090388951166035 O
  -0.0696736542033841    0.7994597947103016    0.5958599044405627 O
   0.1269535792914561    0.1445541312499729    0.6697928099250047 O
   0.5955481875314520    0.9769624240192043   -0.0318217510526952 O
   0.8801584663332304    0.3116141602689146   -0.1278166508182929 O
   0.0914905597852708    0.4102906199165897    0.6595672617161550 O
   0.0634983153181512    0.4974330405552922    0.7892810719653345 O
   0.4669753349322187    0.3549351293506012    0.9432905620860343 O
   0.7729910266122763    0.4105809558488938   -0.0606766545965111 O
   0.0051611358605234    0.8806121758479672    0.7109990901756654 O
   0.0755951593427940    0.6904468149064652    0.7696510811540617 O
   0.2755998232667947    0.7029556404466367    0.7192992153226652 O
   0.6134249857506370   -0.1900182956296728    0.7058024658800758 O
