Li1 Co1 H90 C51 N3 Cl6 O45
1.0
  14.0838219999999996    0.0000000000000000    0.0000000000000000
   0.0000000000000000   13.9224409999999992    0.0000000000000000
   0.0000000000000000    0.0000000000000000   12.1181169999999998
Li Co H C N Cl O
1 1 90 51 3 6 45
direct
   0.1391318606554386    0.5212417980438919    0.5430573330823593 Li
   0.5533442839592831    0.5110509852403038    0.6166993296070669 Co
   0.6802318930188126    0.5983530933979179    0.1009647975836510 H
   0.7876483947326229    0.5288415781399254    0.0912951170549022 H
   0.7916675721973765    0.6507645548650556    0.1414338225980158 H
   0.6221260209054047    0.6466015435080673    0.2765285596763919 H
   0.7343433572222086    0.6831154780975548    0.3333734498519861 H
   0.6666613402242658    0.5919204872191594    0.4012450317157361 H
   0.6022927647054896    0.4817778312007212    0.2126668904087987 H
   0.6619799362701403    0.4304974127740961    0.3287352886591209 H
   0.7060889501443571    0.4068879681371966    0.1922115886486325 H
   0.8779215336575540    0.5821942617677461    0.2813140680189835 H
   0.8545682123787136    0.4580792197287817    0.2530249179802440 H
   0.8905796863947868    0.4522065498428042    0.4406327443446866 H
   0.7663188919882685    0.4655853452709909    0.4514173513921346 H
   0.8122888928871722    0.5819835192693581    0.5539879784953389 H
   0.4265212951427531    0.1303520460241132    0.2690639700871018 H
   0.3509598694161286    0.1501093536686562    0.3857361568633146 H
   0.4547929411490715    0.0732922452319963    0.3981777663972051 H
   0.5783165947425351    0.2080699411834462    0.2551790174991709 H
   0.6088532324535200    0.1372719015293367    0.3744764141161536 H
   0.6292493401294051    0.2645621331776518    0.3752058616037459 H
   0.4395738550231606    0.3009875617357617    0.2527129602726232 H
   0.4859835639785848    0.3725011547903130    0.3634321041792219 H
   0.3695379904687804    0.3180618305367572    0.3745072175817414 H
   0.5526230869717041    0.1863030168344761    0.5436973524847136 H
   0.4272655142900840    0.1834079900212901    0.5480937483934178 H
   0.4839092570184428    0.3106790382519847    0.6627065747921068 H
   0.4145485699833468    0.3602907054876369    0.5545648800056973 H
   0.6200889907583325    0.3558393926754655    0.5535482014243632 H
   0.3647422851552654    0.8774277800854031    0.3722968865542394 H
   0.2693857008417175    0.8065926197855678    0.4271429340053410 H
   0.3581281281458968    0.7536183999630526    0.3376188998670338 H
   0.5246825591803134    0.8502142519404464    0.4304546193109045 H
   0.5137334361368668    0.7248821374067953    0.4011972924506340 H
   0.5528227905748879    0.7655959547610941    0.5357885899269664 H
   0.4154302326456554    0.9288243598949352    0.5493196657533510 H
   0.4348077474992228    0.8459543409090403    0.6589990639634854 H
   0.3161085080456143    0.8653161640261215    0.6091020090002432 H
   0.3908032400579899    0.6335139391145562    0.4796826536664071 H
   0.2959209872149762    0.6895483615265455    0.5529866900938488 H
   0.3739821583942199    0.5852181991649309    0.6751423987736709 H
   0.3940150351232783    0.7047729467842599    0.7221123182751907 H
   0.5444755550020441    0.6723002762231135    0.7143223637797853 H
   0.0490033926870135    0.4095183150713299    0.2345958427369533 H
   0.1339231204427321    0.4490138984966789    0.1371686533477107 H
   0.1749934023591039    0.2953659821578701    0.0635645001612049 H
   0.3150441378767780    0.4511577093413432    0.3318151681486488 H
   0.2884629001985399    0.5740608417733644    0.3380726964428550 H
   0.4312447636728155    0.6085762654695395    0.1791750847099430 H
   0.1047453304933845    0.6852564187558777    0.4167303509282836 H
   0.1650449529964238    0.3687627715570854    0.4025012631913027 H
   0.8100975651353730    1.0166088762739236    0.1947216733424838 H
   0.9342952396018637    1.0141206387586774    0.2176775253118946 H
   1.0198868169450026    0.8802560966140923    0.1481342216781700 H
   0.9060438814123041    0.7743609687410419    0.2759248058093514 H
   0.8937623664939814    0.7955704692876774    0.4193161231237494 H
   1.0399824025040929    0.8083799335188421    0.5079300092580390 H
   0.7251243043259137    1.0175017405352984    0.4424619171443880 H
   0.7537106461584078    0.8462459478190641    0.2417872636483045 H
   0.6492293143153895    0.8316201562642643    1.0559624428448744 H
   0.6753062705563873    0.7543325613662145    0.9438915187895941 H
   0.8219901153252291    0.7658645692949965    0.8578489669640919 H
   0.7898494606080650    0.9442072636544123    0.8191138284933211 H
   0.6860153742357720    0.9798318225949028    0.7483146622532197 H
   0.6676750025667748    0.9006120183953374    0.5890541228476338 H
   0.5067658885492873    1.0018985298626872    0.9083682539127160 H
   0.7179120582466890    1.0026595695395657    0.9864866917855307 H
   0.3103692293185756    0.2614097728983014    0.7045980774075709 H
   0.3062143010611750    0.1553177470818515    0.7870984807293080 H
   0.1688721754648703    0.0827787950403237    0.7815917514247469 H
   0.3031454792598202    0.1592320994572719    0.9763352491150235 H
   0.3353303300765942    0.2659709622759400    1.0467855088377178 H
   0.4701554194592916    0.3395474543580397    0.9661965914341313 H
   0.3410849640104796    0.4380818500146634    1.0466427449083056 H
   0.1628957168018738    0.3410749702584482    0.8776149792909245 H
   0.7767076046544751    0.3601998478571394    0.8240506870828198 H
   0.8302600082562815    0.2510135866260809    0.8701453501397949 H
   0.9230935274529882    0.3374947108772090    1.0105251508959685 H
   0.9824597257761422    0.2207745997989864    0.6900070605028817 H
   0.9081989462803491    0.1850347033253723    0.5803208460522373 H
   0.9223337585493483    0.0264294350394446    0.5975590399069426 H
   0.7772206642486676    0.3242366988662405    0.5327879290157044 H
   0.8953928621080272    0.4099169039394744    0.6687344758265661 H
   0.1331658977229334    0.5885089683626600    0.9026478635253316 H
   0.0359765822090055    0.6502818040313477    0.8472683421029852 H
   0.0388367475817289    0.4849089013916453    0.7565044742512388 H
   0.1807772762251610    0.7876581355237922    0.6954910899110811 H
   0.1693974725042676    0.8803610947246967    0.7944805063360916 H
   0.0003882738648642    0.8531469819121519    0.8839664982604145 H
   0.2107418362714326    0.8916196348039831    0.9653029872545380 H
   0.2882526277313076    0.6953385315118232    0.9185009510966102 H
   0.7498670900555261    0.5843846664532463    0.1378213694421336 C
   0.6858341059692461    0.6227922222834343    0.3212120397913306 C
   0.6715163483321501    0.4599783507791486    0.2457670090163348 C
   0.8308706571270214    0.5214487768344646    0.3001258157517377 C
   0.8316546999812977    0.5019285799092271    0.4233863355173085 C
   0.4244190696247084    0.1374354576183875    0.3591669275020203 C
   0.5829496687759899    0.2070650218593133    0.3454864736823386 C
   0.4418992401352417    0.3106321298111445    0.3423965612809317 C
   0.4884450051981628    0.2255235385806268    0.5192789358280664 C
   0.4815821756338585    0.3233287244672109    0.5730658426552574 C
   0.3443886687860724    0.8062798362729640    0.4029208481812809 C
   0.5070081594328585    0.7799286885108725    0.4651003617146129 C
   0.3913038655274115    0.8612790451042315    0.5863835255923012 C
   0.3732761447851300    0.6855501725595390    0.5448245952733416 C
   0.4105490050925096    0.6533440184806674    0.6562414259575147 C
   0.1262542632248547    0.4157909406834621    0.2188611737285587 C
   0.1661015049749990    0.3143278351834998    0.2269419960213291 C
   0.1675037706383963    0.4823810048826926    0.3066675383642525 C
   0.2733416028688803    0.5082291338135317    0.2915135668355076 C
   0.3177294572453415    0.5187075592563114    0.1764778257216034 C
   0.1085812792862619    0.5744693663991824    0.3156334874469359 C
   0.8709473728083187    0.9686785621860419    0.2095034154233698 C
   0.8860961293035370    0.9037583703892156    0.1088087761489677 C
   0.8532770607296797    0.9126970421350681    0.3177584281452308 C
   0.9196535549796070    0.8275586824178318    0.3417137489265040 C
   1.0263201629500855    0.8418838988076875    0.3454512206805728 C
   0.8632818875444463    0.9842381447333841    0.4150063702141182 C
   0.6910394649974986    0.8251868476224823    0.9794188593821961 C
   0.7976874288811659    0.8280250697417213    1.0022339601111294 C
   0.6589772719365524    0.9038986697806800    0.8981103697876494 C
   0.7189155919465611    0.9191058830847263    0.7926303583304238 C
   0.7339875383258890    0.8342658065492969    0.7153826077104223 C
   0.5580984096504485    0.8762887757972901    0.8587314019166510 C
   0.2752793105451063    0.2270694837205631    0.7752290731307513 C
   0.1695332410477781    0.2211764424069027    0.7466382219283738 C
   0.2942595788273950    0.2878895640498674    0.8800233311825592 C
   0.3431641041756989    0.2269716912429365    0.9682414866930235 C
   0.4480254358511489    0.2025844440640833    0.9558404725750709 C
   0.3495550618290972    0.3842738633261222    0.8523074896867228 C
   0.8399380217955040    0.3136543541466615    0.8161499249429593 C
   0.9223294386992394    0.3765621007120806    0.8501635691419716 C
   0.8437713654716738    0.2811412948347204    0.6949794691700039 C
   0.9095990740297627    0.1965799330735178    0.6703060640526907 C
   0.8915500181697837    0.1034121157345899    0.7332212686178884 C
   0.7415687886427420    0.2549032069879126    0.6608661320896637 C
   0.1130409181541772    0.6393494560328896    0.8369655467099386 C
   0.1316667201559349    0.5947454889555646    0.7257763619545842 C
   0.1641614577349813    0.7350913708307329    0.8570641849719721 C
   0.1399401980513528    0.8098464967457933    0.7681549600486610 C
   0.0379909658045948    0.8220607162206686    0.7326322546646480 C
   0.1360604671089992    0.7692345552047949    0.9765057912875408 C
   0.7339609212612883    0.5473775827098136    0.2528571625443128 N
   0.4847000338402459    0.2220614495690806    0.3920749436566754 N
   0.4050330535276574    0.7830896794606635    0.5019442616373485 N
   0.6017216725687103    0.0000791032262230    0.5038862886040794 Cl
   0.8564019362073733    0.3180993419185615    0.1297605576840032 Cl
   0.4923937898391502    0.7248124772085586    0.1863045834596249 Cl
   0.7016228286611403    0.5171196272262888   -0.3156886478320023 Cl
   0.2561400364190913    0.6265058332802416    0.1092936798679201 Cl
   0.2469618204490230   -0.0012737809411439    0.8656673425417497 Cl
   0.8449579695057208    0.5891194151945051    0.4825398830527878 O
   0.5583680821867814    0.3894830044530266    0.5432976963335145 O
   0.5125110058903045    0.6358227253396154    0.6553957170078487 O
   0.1869748950249442    0.2786270539771007    0.3179320937403063 O
   0.1720159939539139    0.2608610056239419    0.1367703208344993 O
   0.3003800069327772    0.4391993386791871    0.1156764050058272 O
   0.4120923063355956    0.5369789974329933    0.1824983724781664 O
   0.0486699483989502    0.6034790573003685    0.2522862999259703 O
   0.1298851632745713    0.6179960798541003    0.4145549205375720 O
   0.1575108795041573    0.4398416125448117    0.4163477774641060 O
   0.8292384453595053    0.8142680662105158    0.1159483243147430 O
   0.9774174481898451    0.8912816164923952    0.0817612381527592 O
   1.0728223702344435    0.8747368963531611    0.2688138685242930 O
   1.0735954835271277    0.8041514085065974    0.4339390567032815 O
   0.9390189218523209    0.9883011089793808    0.4665588746172363 O
   0.7927872235249778    1.0446058625782648    0.4350474186707390 O
   0.7583172806358954    0.8761077558166703    0.3155676917461682 O
   0.8350052478652455    0.9263072768633029    1.0094370429003119 O
   0.8470878444785797    0.7682545661353494    0.9382587047146022 O
   0.7780199543845413    0.7616029732142517    0.7442719986941866 O
   0.7022802581571963    0.8392488379013422    0.6123732738345404 O
   0.5442408374658526    0.7989959591137790    0.8115779596780589 O
   0.4891417521465409    0.9383115582964224    0.8756279288275562 O
   0.6540573368507497    0.9929101391056354    0.9551370299527560 O
   0.1229666726830260    0.2944122377677880    0.7278285471249371 O
   0.1296112021296492    0.1345992100092218    0.7416298538791134 O
   0.4766627098808832    0.1203149361523601    0.9401492311057899 O
   0.5082903603865485    0.2757261833610931    0.9699389731919571 O
   0.3408576421940011    0.4215433457394433    0.7596753282708857 O
   0.4005223198645935    0.4173430980960882    0.9338249399638574 O
   0.2059237975316643    0.3151114477698271    0.9340706604829776 O
   0.9457364385889000    0.4445372244709100    0.7869640093423755 O
   0.9664493956257043    0.3630666892393367    0.9430269537750792 O
   0.8686193470778031    0.1026481175247932    0.8305875863387027 O
   0.9035151523499799    0.0212273910875255    0.6773456792008198 O
   0.6817773002243283    0.2159379443590388    0.7163832111870186 O
   0.7217994675025003    0.2842857850861067    0.5539391565537781 O
   0.8740455538276469    0.3558777616655011    0.6208001597938030 O
   0.1791040294317835    0.6301286979776032    0.6497825478991497 O
   0.0934534837205412    0.5092801283912785    0.7063532774935247 O
   0.0091352340295127    0.8091167913730071    0.6373502393152335 O
  -0.0244539585916380    0.8512747987224367    0.8081361180123942 O
   0.0748313170956009    0.7259908862246210    1.0273055013415038 O
   0.1824784422864759    0.8441354723643649    1.0199485819455283 O
   0.2643846031283270    0.7239547016216481    0.8500209653034378 O
