Li1 Co1 H90 C51 N3 Cl6 O45
1.0
  14.0566600000000008    0.0000000000000000    0.0000000000000000
   0.0000000000000000   13.9780029999999993    0.0000000000000000
   0.0000000000000000    0.0000000000000000   14.1408210000000008
Li Co H C N Cl O
1 1 90 51 3 6 45
direct
   0.7134424457872638    0.7017214311658110    0.7409989561426453 Li
   0.3162883928330059    0.7561193405095133    0.8736667418391053 Co
   0.1981077147771946    0.0949708359627623    0.5689036273070707 H
   0.2558319472762378    0.1823971192451454    0.4925989933682068 H
   0.2707057416199866    0.1872971611180796    0.6193818152425520 H
   0.2848947488236893   -0.0258228124575449    0.6430182031156464 H
   0.3579699523215330    0.0618015871079724    0.7003596382416550 H
   0.4130589258045653   -0.0323063594992790    0.6342615920249609 H
   0.2679834797170879   -0.0268089540401444    0.4744405384949006 H
   0.3949944161699863   -0.0363078796019718    0.4603177495846952 H
   0.3322222555002398    0.0584467359178561    0.4023318370270014 H
   0.4362100470524293    0.1820112100419495    0.6076292656557917 H
   0.4161694598859189    0.1893941774086041    0.4823974753658221 H
   0.5810466924575255    0.1509547179235832    0.5150672821613398 H
   0.5259365603208728    0.0572376941112404    0.4478014338771419 H
   0.6156336049957813   -0.0024335035555508    0.5722958999339571 H
   0.6901358430807887    0.0994186716085266    0.2444781890669573 H
   0.7707284475828540    0.1719480422203372    0.3137388805077159 H
   0.7144355501235713    0.0674869328615826    0.3638543221783233 H
   0.7296983664682791   -0.0526740307610465    0.1954829942335031 H
   0.7557503340053754   -0.0885908602251695    0.3150386190448206 H
   0.8425914299698507   -0.1078905720652657    0.2229927399547735 H
   0.8115986493235235    0.0825627673709900    0.1261027489139421 H
   0.9261462459787745    0.0328151625092655    0.1542537537247660 H
   0.8951835243934193    0.1502969766138983    0.1958010380019661 H
   0.8590176891238744    0.0081749503130025    0.4102867697710055 H
   0.9139202655538371    0.1121185222238112    0.3625578472423913 H
   1.0379655764598419    0.0035830418694287    0.3913389696397401 H
   1.0269890571444427    0.0048608746184988    0.2660747123522743 H
   0.9396631589581025   -0.1384713731997339    0.3800791163398504 H
   0.0714421953721581    0.2939419143063570    0.1242059828067974 H
  -0.0430695798290632    0.3461698663249679    0.1002087049966901 H
   0.0493493703340623    0.4178035732285936    0.1524013648146738 H
   0.2072165820330007    0.3450823619082068    0.0414273046805415 H
   0.1836709951012545    0.4711461587180945    0.0567867389029251 H
   0.2010555622743952    0.4214747786218103   -0.0592917730872910 H
   0.0927920210064126    0.2448300719351684   -0.0375577726356907 H
   0.0743112410771833    0.3280243129150852   -0.1323932676893371 H
  -0.0253404343563834    0.2888482167302440   -0.0623708630496065 H
   0.0126159763414638    0.5247855720162602    0.0375952343926848 H
  -0.0632946802440978    0.4504290498435292   -0.0313037955858433 H
  -0.0150545108155138    0.5773149497821685   -0.1319587533142524 H
   0.0547373309164481    0.4790697655451928   -0.1727614839336414 H
   0.1250624664749663    0.6136105894382767   -0.0389116685657785 H
   0.5066839903647097    0.0845174650484765   -0.0757314338396618 H
   0.5460518508664221    0.1964114644988988   -0.0315558460148813 H
   0.6988691979460271    0.1367881992871228   -0.0446532729606011 H
   0.4909197234620458    0.1406327341609528    0.1896399303831086 H
   0.3743910630263519    0.1824354523317816    0.1805901715324732 H
   0.4093029595935308    0.3100357304258698    0.2661796991843684 H
   0.2444290115859671    0.1253901698261189    0.0605351457316375 H
   0.4578194364806434    0.0020946826238340    0.0932900996342433 H
   0.2574602494475928    0.5860667729145573    0.2450476461020191 H
   0.2823500860090519    0.6278507688115392    0.1290330745294067 H
   0.4390144771232996    0.6120734964787173    0.1412729140691336 H
   0.2900449758335195    0.8450339465515926    0.1801314902437418 H
   0.1677500672279190    0.8709357538412319    0.1765108765608446 H
   0.1709762774371721    0.9420337454499045    0.0417647794282949 H
   0.0382225507339581    0.7773989968381035    0.2714992743349201 H
   0.2649223535320624    0.7601775303668199    0.3318073568712877 H
   0.8935687830537269    0.9352546518984151    0.8008857038781552 H
   0.8210705345366538    0.9723700238152762    0.7051194679573413 H
   0.7270937697859947    1.0301939776375781    0.8293878368165468 H
   0.9097046709531283    0.9231828294785743    0.5829660272200602 H
   0.9427896968412126    0.8030456374919938    0.5636480251040585 H
   1.0602393363715135    0.7523883254281746    0.6805706040688868 H
   0.9159143772418199    0.6655826286487420    0.6407292030639521 H
   0.7639965197991557    0.8299312326660683    0.5984371770210513 H
   0.1943471350946811    0.6891349572610622    0.5932606190262927 H
   0.2781447612733039    0.6321167680390396    0.5178710571331041 H
   0.1554032949505786    0.6688555961820870    0.3968475712973100 H
   0.2582104511313498    0.4298647796827630    0.5584908775805874 H
   0.3188347623119575    0.4191559023130844    0.6672355678641289 H
   0.4743521654503986    0.4334895077644496    0.6583855435267866 H
   0.2014919234014339    0.6132632243676011    0.8206985584500361 H
   0.1182121314736218    0.5031251810433865    0.6469994146733064 H
   0.8996492310406597    0.4782638485626309    0.4805553871306340 H
   0.8335950460493460    0.4963922142526368    0.3746025517188853 H
   0.7744933070871745    0.6465419695503000    0.3523265961714669 H
   0.6736691589609480    0.6209479580166065    0.5051009633740501 H
   0.6014744910953241    0.5197360273853140    0.5224221210352638 H
   0.4931631966626496    0.5292237081362767    0.4061087775596622 H
   0.6747906045959710    0.3653041117533027    0.6009761222491961 H
   0.8155440495821908    0.4792123202434568    0.6235505265217627 H
   0.5409530037718775    0.6266600271870023    0.9720309619929421 H
   0.5126128312131047    0.5782825822830343    0.8585390133995755 H
   0.4173175356023408    0.4458292976471676    0.8594085449494056 H
   0.5559588052922957    0.3528432266039719    0.9373744353315836 H
   0.6751360650396325    0.3613461157505833    0.8999000715729304 H
   0.6604365354216435    0.2829511797929933    0.7655849897258440 H
   0.7519268951514798    0.5344285589293407    1.0173170390884658 H
   0.5971926111892868    0.4263560760431945    1.0659403382590020 H
   0.2609718837903172    0.1401975139081026    0.5580721685112907 C
   0.3513771208807782    0.0148097314044073    0.6386580970086531 C
   0.3347098115768610    0.0128782924141596    0.4652953834858669 C
   0.4333246041378251    0.1407399139920059    0.5413379011020646 C
   0.5280350702087124    0.0926202276534066    0.5205389354691640 C
   0.7444078472410942    0.0994550916894209    0.2998115420596866 C
   0.7858573018056921   -0.0611487327624697    0.2486928609024893 C
   0.8681099187146876    0.0786056191288555    0.1792808783874713 C
   0.8974429608456063    0.0366005837886857    0.3484107103823745 C
   0.9909358723907387   -0.0163727264903291    0.3319262389361975 C
   0.0338147212780276    0.3592551697120111    0.1031347734335934 C
   0.1729679717656968    0.4085695732072743    0.0115306339002523 C
   0.0507686918514071    0.3062663393333082   -0.0617219042656717 C
   0.0102517731808267    0.4753723060440036   -0.0227386472115021 C
   0.0415721942481358    0.5264998362069317   -0.1123987058460043 C
   0.5240337882541087    0.1243013061307828   -0.0102661380127787 C
   0.6048901936875474    0.0710780932011533    0.0381301976738126 C
   0.4331954994998812    0.1303160029369002    0.0488246113857180 C
   0.4434295928051187    0.1846730294735235    0.1436122824834569 C
   0.4820494427552491    0.2864601688810626    0.1458490380438307 C
   0.3558196178893137    0.1786476687692798   -0.0144250005003246 C
   0.2780055290517093    0.6498462899170934    0.2032812345195515 C
   0.3748083961623885    0.6847877196764087    0.2405906792823415 C
   0.2012723954339082    0.7261109258597240    0.2149045836871847 C
   0.2208485138005757    0.8167173150556629    0.1555415785264519 C
   0.2270280635655981    0.8119948421816765    0.0487665489860879 C
   0.1032280207389238    0.6873200749778063    0.1849891148470092 C
   0.8355183813224479    0.9121054473947389    0.7534952822046187 C
   0.7453861365359907    0.8913882269162484    0.8104570130687602 C
   0.8690963123530057    0.8269133502117577    0.6937600970976153 C
   0.9411849429380806    0.8601309450284137    0.6177954780701912 C
   1.0436114019973450    0.8841505571289404    0.6408226771274455 C
   0.9117735856170670    0.7476312424600281    0.7569875228602355 C
   0.2163831194608108    0.6192656905281820    0.5641245511841214 C
   0.1333950355205291    0.5780515800433009    0.5059852677577914 C
   0.2466014102923454    0.5526505882134952    0.6466430577121369 C
   0.3054766068184049    0.4683962422958415    0.6078548777330538 C
   0.3971028010921513    0.4865615317152243    0.5532431299427381 C
   0.3064189081901391    0.6106968835247781    0.7176891773115577 C
   0.8391847892742658    0.5175199282758774    0.4493083937629929 C
   0.8605128963779448    0.6238491335278723    0.4583050241566596 C
   0.7473546831181802    0.4883762694857056    0.5000161065612809 C
   0.6586930615096332    0.5485100325132282    0.4773976730205409 C
   0.6278074186897884    0.5581265814580237    0.3740302773085099 C
   0.7270572646702702    0.3817641361215905    0.4743672881510910 C
   0.5242779081232669    0.5600974245033429    0.9333927230957806 C
   0.4337987800800475    0.5183569620066615    0.9754385654128568 C
   0.6117774883934022    0.4944793473001831    0.9409032042764701 C
   0.6048008709038990    0.3951819383641569    0.8931133022615871 C
   0.5670940436775166    0.3845705742086334    0.7947589089770670 C
   0.6947940556291466    0.5525593949293043    0.8983931597748106 C
   0.3467485661600977    0.0758882116422496    0.5508167156631145 N
   0.8260433282159489    0.0371243295626707    0.2680754356483261 N
   0.0675375715141435    0.3880216108123600    0.0060240816286409 N
   0.1374969324149549    0.0431557412028027    0.1189893634888667 Cl
   0.7399377078196385   -0.0579798230119138    0.5183963038638280 Cl
   0.4061503266067473   -0.1381354740015437    0.8101796041403818 Cl
   0.7387810831307010    0.1852974419879578    0.8249426090606760 Cl
   0.5165261776268332    0.0507650549223662    0.3188814461338559 Cl
   0.3169722145943631    0.2678373183923340    0.3488695896794111 Cl
   0.5539193186717186    0.0274552938642237    0.5917243737121062 O
   0.9806596403413045   -0.1183616329170912    0.3282364552949223 O
   0.1288140376163328    0.5786622860218301   -0.0986593253673178 O
   0.5919231062001926    0.0057877580939137    0.0949945091589802 O
   0.6938115683241964    0.0977079229414960    0.0152998365512158 O
   0.5355871373427258    0.3187342862925412    0.0836227769236312 O
   0.4600730415333372    0.3394475941949648    0.2197738879517674 O
   0.3761134536938363    0.2191095480520358   -0.0881881221748016 O
   0.2662212026185453    0.1802961467385577    0.0194938094471318 O
   0.4002595203981600    0.0363363893969689    0.0705704343474824 O
   0.3798320326450238    0.7355884842777614    0.3124611095777253 O
   0.4523127805609583    0.6583202350149733    0.1945320939993512 O
   0.2666913598251647    0.7437674408855114    0.0055554829525103 O
   0.1936244911664649    0.8840523306512383    0.0001125549923869 O
   0.0961542030610401    0.6267589075492400    0.1224226082771290 O
   0.0267414414234961    0.7232826742131906    0.2271458007989776 O
   0.1956494394827790    0.7551193564631514    0.3129528879546668 O
   0.7129536340780811    0.8104767183123369    0.8228608791526317 O
   0.7005718968801977    0.9664663986693951    0.8475918046059701 O
   1.0808187805638039    0.9615328963658113    0.6252172260719515 O
   1.0977443581903525    0.8115868168006546    0.6756596834087638 O
   0.9250666908070623    0.7542194260510604    0.8416832304149807 O
   0.9369294974766410    0.6672357460504194    0.7088533056178279 O
   0.7904503601851365    0.7814262237602897    0.6453603676901079 O
   0.0812898142232935    0.5135887379620681    0.5361813171950907 O
   0.1153409117101787    0.6149316443843946    0.4211396785236161 O
   0.3983438092690583    0.5269544276102960    0.4755033212003744 O
   0.4768865021989577    0.4499319545145326    0.5884493566533371 O
   0.3904887562194718    0.6270865394720548    0.7057489703037751 O
   0.2599644687998429    0.6479953109181620    0.7947948453629389 O
   0.1675523666361710    0.5144613475902102    0.6971525804619122 O
   0.9102840397363242    0.6563635198819173    0.5226601545978129 O
   0.8259514016843262    0.6808230152762166    0.3913929636758714 O
   0.6846002258004391    0.5890468466775977    0.3138816190375368 O
   0.5395881461172142    0.5353898257140165    0.3511467191332101 O
   0.7456538046733719    0.3487111900033217    0.3969262916205501 O
   0.6852121606412903    0.3286900997231150    0.5423975248678984 O
   0.7542495222905015    0.5022228389849395    0.6009563709207548 O
   0.4044188811566901    0.5387409889667358    1.0551096615960274 O
   0.3825365620282485    0.4609885296204330    0.9200244200814082 O
   0.4906563892133693    0.4230258979054448    0.7697022450110923 O
   0.6141973612508235    0.3303004170195127    0.7338076452562408 O
   0.6922557719970464    0.5870997967306203    0.8186329082307172 O
   0.7702919569798231    0.5623702377227993    0.9551894228772146 O
   0.6364588337485576    0.4794751660877452    1.0382257904261709 O
