Li1 Co1 H90 C51 N3 Cl6 O45
1.0
  14.4868503524999994    0.0000000000000000    0.0000000000000000
   0.0000000000000000   14.1381546737000008    0.0000000000000000
   0.0000000000000000    0.0000000000000000   14.6122723091999998
Li Co H C N Cl O
1 1 90 51 3 6 45
direct
   0.7085377031956885    0.5108438833418051    0.3233142699938263 Li
   0.6718416659574589    0.5528183144961005    0.5210879590442612 Co
   0.0087078745365952    0.1757754738263611    1.1008942219391693 H
   0.0636977433221539    0.1144173956314948    1.1979557856705700 H
  -0.0453501146704829    0.0739892058718183    1.1554777927297184 H
   0.3550640442980996    0.1387267915839480    0.0989706545291707 H
   0.4770447341652416    0.1239872442519578    0.0946913748472125 H
   0.5580496435448354    0.3337989253702898    0.1636566924019311 H
   0.5378417313433072    0.1731103452526801    0.2559510304393418 H
   0.6166840588477736    0.9647907489775873    0.0541795374359092 H
   0.7166947557726557    1.0784929991722587    0.1966139210799646 H
   0.8974752523108870    0.3511498460287212    0.2105693138953318 H
  -0.0690495380541690    0.0670809492956127    0.9974948349014170 H
   1.1625473629879550    0.3984254640585160    0.1419379621945706 H
   0.2155989465826851    0.5792411404321416    0.2339455549598334 H
   0.0946368356088808    0.5643891314644784    0.1227157636167932 H
   0.4079858307006005    0.3808722539170504    0.0479710574623405 H
   0.4073342052768333    0.4105262653263259    0.1691917658175201 H
   0.8990912005280893    0.3356174087999431    0.1009019078895555 H
   0.7539292123228964    0.3706566350238245    0.0265335976770629 H
   0.7532955342095295    0.5651629241023785    0.0515351848545744 H
   0.8684882751707846    0.6029995451003862    0.0678960899171963 H
   0.8941329108894031    0.5522934935296272    0.2185974971592134 H
   0.2036557017924093    0.0452053928925323    1.1125186973394159 H
   0.1516982381833436    0.6941210549248965    0.2426259297376933 H
   0.3104849961070929    0.7697525658737128    0.1374786968167296 H
   0.0726534512119376   -0.1079744279527319    1.0649531999757786 H
   0.0873226163395616   -0.0526609858488098    1.1708826520997615 H
   0.4841126611133743    0.6897364657454249    0.1954443562348555 H
   0.5023017770073289    0.8853242255217385    0.2227269028206457 H
   0.6483596811420849    0.8640633179324926    0.2997039790890513 H
   0.7290866833229407    0.9516143476508612    0.2558675389758525 H
   0.8228800177564338    0.8039670734359933    0.1085838068868337 H
  -0.0282242388615162   -0.0694793051760359    1.1300156337904992 H
   0.7339020847595934    0.7552358198954141    0.0368926983560652 H
   0.7092845874208115    0.9128355952143865    0.0045465998165235 H
   0.1096911776289435    0.1556915232293141    0.5798849060091126 H
   0.1698471106851312    0.2637494724638011    0.6093731328147893 H
   0.0931824131852818    0.0666091762704946    0.4339212971419869 H
   0.2341606072236812   -0.0004165439787524    0.6216094227097858 H
   0.2993880360303114    0.2540466503370081    0.3934019318118444 H
   0.3724473949831946    0.1900962960745883    0.5924948544210368 H
   0.6169166836018091    0.2205783504831229    0.5767912735443290 H
   0.7958720767285568    0.2560327652613436    0.6043109495735540 H
   0.2410247631706527    0.6336725720977991    0.6546528802763411 H
   0.1304941812264779    0.6011980370119665    0.6520105807637805 H
   0.2746359338635268    0.5735232796599448    0.3619838203582991 H
  -0.1380445214825380    0.6334801848971513    0.6651796482385801 H
   0.2543043923045867    0.8123804769349147    0.3372183360898354 H
   0.0449172635505072    0.8514577124547476    0.5406944920965927 H
  -0.0121047929973086    0.9151109982455786    0.6816986395968253 H
   0.5478373478145583    0.8413863839620075    0.8653381135416489 H
   0.3633557017030697    0.7903938735079308    0.3647629911224814 H
  -0.0041603470204687    0.8067262736923442    0.4442415948211544 H
  -0.2028170549986359    0.9622967884280121    0.4868095806099474 H
  -0.1420964719460057    0.7420134436861802    0.5297441076105840 H
  -0.1937329548113726    0.8132603654555248    0.6166800045826237 H
   0.1796539352565939    0.1332621463184863    1.0372935730917703 H
   0.0242709537783914    0.1293889392936781    0.9665325047157726 H
   0.2135736616321205    0.2355696987100787    0.7656958423609174 H
  -0.0271066736485086    0.0220467836145427    0.8339186333755872 H
   0.3873222638992536    0.1356705228560086    0.6946179170374149 H
   0.6317936233613758    0.1272132663922335    0.6407522359616225 H
   0.3145155478543141    0.2594582476611146   -0.0137503491002900 H
   0.5472221002084103    0.2024366618455578    0.6777738564565677 H
   0.5954468683947842    0.3577624487451077    0.7517555053832284 H
   0.6115621725719762    0.1888889249293459    0.8283041746340576 H
   0.7977751819121650    0.1532576836799414    0.6751171854625870 H
   0.7089173578387732    0.1255970724456144    0.7956384817219787 H
   0.7259645415944459    0.2382383638131834    0.8425442596527984 H
   0.2213593429400340    0.5128119619660799    0.6693679085382098 H
   0.2764872679594417    0.4675729251354965    0.8266350297205287 H
   0.1094972086203857    0.4709118460264819    0.8012611527386058 H
   0.2872563444808318    0.5667734596019197    0.8961984746448349 H
   0.1026648056071994    0.5483042883397224    0.8972503302135492 H
   0.0495221292305401    0.5792347746791789    0.7904900695922216 H
   0.6613977118667831    0.3796677119953469    0.6474986199540651 H
   0.4148934743612345    0.3912597481402669    0.7209676860434020 H
   0.4453507503918285    0.5424817462965850    0.6706654480035853 H
   0.4314263986458198    0.5615160549606854    0.8398369462957175 H
   0.3915440235303556    0.6471623099314628    0.7669050998689967 H
   0.7184163170087526    0.3774743564467841    0.7551718118237106 H
   0.9206003617617614    0.2683455461028084    0.6827648666469598 H
   0.8821586034465113    0.3332939089685891    0.8467044613458455 H
   0.8521389656772186    0.3621958420306258    0.7079252244763525 H
   0.9003123079164836    0.6177532385500712   -0.0617942114883455 H
   0.1846267207998344    0.0054965332176312    1.0054059932451618 H
   0.1261771627940201   -0.0267000306555007    0.8268499175855751 H
   0.1786785679644508    0.7064755668135607    0.8824408607880614 H
   0.1400214419243964    0.7278072049912800    0.7617580564517556 H
   0.2585475506519352    0.7261231096797263    0.7919552763408338 H
  -0.0412374194641216   -0.0769993813425371    0.9105165762770002 H
   0.0210749519647873    0.1091189672489458    1.1372629665638780 C
   0.4433813782159727    0.2644624367956139    0.1396515279362270 C
   0.4253678008233571    0.2454656153434044    0.2453907290204553 C
   0.4229228249218915    0.1706269942913759    0.0831716059544566 C
   0.4328904850057883    0.1887545368112462   -0.0227961701199803 C
   0.7518252353190379    1.0291867059473900    0.0744973903829197 C
   0.2853415045173464    0.3516237409714936    0.1076907219700009 C
   1.0017643119227493    0.4284327747572165    0.1471452289625252 C
   0.1962268958489954    0.6647459342259721    0.1144460025937990 C
   0.3890452056976889    0.3551998795247131    0.1169411655108659 C
   0.3769804714216261    0.6162502135450095    0.2506513755765424 C
   0.7230329174686627    0.4193516037725168    0.1459003849290241 C
   0.8981917641645631    0.3921382220491076    0.1480027273539363 C
   0.8187065778071790    0.4665661813044591    0.1460639460747123 C
   0.8246195263029310    0.5388812764209304    0.0628722306264150 C
   0.1637712558334374    0.0571963495564428    1.0536483189480692 C
   0.2145849235450643    0.6580258210151059    0.2180253753274340 C
   0.3073987489993988    0.7021574643872542    0.2524012745285282 C
   0.0442138670390466   -0.0570229412399698    1.1106928348427800 C
   0.5922004760558252    0.9831269467334544    0.2322948876652735 C
   0.6364454281609174    0.7885166836898445    0.1235917396271733 C
   0.6695043739183955    0.9096725232978522    0.2422242126141830 C
   0.6899442896209070    0.9423946154433419    0.0718263479075186 C
   0.7024259537231939    0.8665834487998030    0.1514655700199699 C
   0.1747467264244317    0.1910179156423979    0.5795048829789845 C
   0.2051874357069638    0.2019231577732403    0.4750491920568404 C
   0.2455426534233608    0.1326312294693028    0.6334316770686260 C
   0.3384413834615125    0.1850723023753164    0.6553687169223235 C
   0.3373100126251201    0.2861632886451649    0.6943523868092685 C
   0.2653302534209359    0.6903072615944060    0.4350477475428350 C
   0.3020608047176278    0.7493588152991519    0.3495264833919333 C
   0.0312904229884430    0.9426810743266596    0.4253743718344584 C
  -0.0080238507247326    0.8678353802157838    0.4883475344287967 C
  -0.0989476863376745    0.9795670762155838    0.6002458734003840 C
  -0.1013912816768016    0.8897519603601788    0.5341144066748706 C
  -0.1269213307213252    0.7984309902761734    0.5852427311538513 C
  -0.0622578616299681    0.7607110747491468    0.6574033080776829 C
   0.0051991753533232    0.0553997926092161    0.9792143105347982 C
   0.1961047160820391    0.1065627637815139    0.7184834728264647 C
   0.6151592277449116    0.1959252038706885    0.6488652794015097 C
   0.6643251943055508    0.3489904411626256    0.7151123338990177 C
   0.6816478002477523    0.1970950878040400    0.7979707678496157 C
   0.7919588727801072    0.2278756252959326    0.6726459750145538 C
   0.8630391956207653    0.2855104453135546    0.7221755748389651 C
   0.2846477719422553    0.5467531665344989    0.8241460260097848 C
   0.1932207213569337    0.5835677305290647    0.6852066497758942 C
   0.1088614596635111    0.5455988433306115    0.8229641427520298 C
   0.3792390714073955    0.5707810547448275    0.7857378997359098 C
   0.8518131529653350    0.4923510880630577   -0.0257669606364333 C
   0.0059495109842925   -0.0145435644145622    0.8965303874300181 C
   0.1922791778420837    0.6957860529775625    0.8089403143108516 C
   0.0598142214639819    0.0385326691759434    1.0698306070273245 N
   0.6890172420106111    0.2425600027689135    0.7059980772535165 N
   0.1970524721274123    0.5910708313543325    0.7859924802639264 N
   0.6333888631435008    1.4198395264511980    0.4277312947873873 Cl
   0.5656823585456443    0.6172722705484515    0.6082377857825859 Cl
   0.7090305639505293    0.6517350424762739    0.4101994561671401 Cl
  -0.2013122420496819    0.5295309048165008    0.6128647184436637 Cl
   0.6139339786695017   -0.1052682756377362    0.8162697698352034 Cl
   0.8797018927651686    0.7439634860103942    0.9907990932720745 Cl
   0.2449828353951032    0.2944444259436408    0.0529737017091204 O
   0.3499711498314105    0.2671042242750987    0.2751438016980204 O
   0.6101484767373626    1.0687958354925433    0.2403634479483835 O
   0.4853222408062422    0.1960949572830249    0.2949401751763516 O
   0.5416814203472321    0.2726813311762333    0.1350423885378601 O
   0.7644463362175121    1.0839378398729478    0.1485372095915197 O
   0.7894365853876864    1.0523403640841864    0.0008216487036339 O
   1.0662103424457943    0.3625134223728719    0.1485406313728103 O
   0.2352636765321346    0.4114750454401092    0.1533229129044789 O
   0.1359032244686811    0.6043222071048405    0.0790093511926351 O
   1.0146173472940898    0.5176954847166434    0.1475921135990706 O
   0.3614553576441384    0.5408219115768775    0.2881910537588765 O
   0.4606595990789917    0.6252641197400709    0.2068778962390896 O
   0.6988157832080428    0.3695985054202611    0.0736296266476370 O
   0.6688617221498284    0.4442970091765237    0.2106747047590807 O
   0.8331382862125827    0.5247449195474422    0.2286411096032273 O
   0.2405463983203660    0.7234593957178147    0.0660387470326873 O
   0.3400097022780370    0.7784184775734846    0.1987128417235862 O
   0.0457904692296020    0.9235350113327712    0.3443390629554638 O
   0.5084343039430178    0.9526236731483778    0.2169659918398806 O
   0.5629669304820687    0.7727161775307519    0.1634897094749524 O
   0.6713515663272950    0.7331190721856390    0.0594244437980597 O
   0.7953909507535930    0.8326546928149554    0.1649097487105295 O
   0.1618930007719219    0.1608315150936825    0.4136356089391076 O
   0.2783993467982501    0.2550170740108643    0.4598508029698689 O
   0.2637253497024415    0.0504437002748788    0.5877851146527276 O
   0.0440813330545515    1.0272854677292227    0.4656734428851155 O
  -0.1555852562742209    1.0430237309704586    0.5898354460020235 O
   0.2446701380254352    0.5998202051485029    0.4176507271054354 O
   0.4191911649209534    0.3224664704850674    0.6987664846740742 O
   0.2422168787499387    0.7287953113122546    0.5087969617099914 O
  -0.0464718215705059    0.9747552742817324    0.6722730008538842 O
  -0.0007586414184297    0.8066123974449018    0.6948930282531750 O
  -0.1639970226026396    0.9118800249641097    0.4622684283228921 O
   0.1824192016205891    0.0206689517510792    0.7271590571105179 O
   0.1897492973568010    0.1713116663877993    0.7845354857904117 O
   0.2664043309202810    0.3274529769724484    0.7149344012719093 O
   0.3633812421063318    0.2389103044036816   -0.0660194270259131 O
   0.4980788438982393    0.1542097174007946   -0.0695281215612401 O
   0.8824595660363020    0.2732160544250928    0.8185213019243834 O
   0.4008055259781148    0.5110464557471932    0.7104703454002615 O
   0.8255465739132269    0.4140025322886208   -0.0485484961126377 O
   0.8937284061242254    0.5505747402297214   -0.0853032176669203 O
   0.0969044092498504   -0.0507250896422904    0.8854184948670955 O
  -0.0817403573507370    0.6698385365960633    0.6884635012082368 O
