Li1 Co1 H110 Cl3 O55
1.0
  12.5363370973000006    0.0000000000000000    0.0000000000000000
   0.0000000000000000   12.5387906191000003    0.0000000000000000
   0.0000000000000000    0.0000000000000000   12.5177540192999999
Li Co H Cl O
1 1 110 3 55
direct
   0.5893331913028408    0.1422745114654484    0.6323877668146312 Li
   0.5263666330591246    0.5421161032345162    0.3916329161159011 Co
   0.1010042677515996    0.1493405836801832    1.1212278567033913 H
   0.0488783560974897    0.0324737306865745    1.1279383256797337 H
   0.5337786864586788    0.2010537049609772    0.1201033753724514 H
   0.5601117371287265    1.1956001790845789    0.2909255529534401 H
   0.4862281144396489    1.0490708960131085    0.1346642941857604 H
   0.6501141031502183    0.1549535651979376    0.1247855252141590 H
  -0.0436075104679293    0.3291402205419573    1.2734676272773915 H
  -0.1392799537574700    0.2635294272054107    1.2214854586713664 H
  -0.0945212658213544    1.0385355896974600    0.1375809515944064 H
   0.7603265192073434    0.3215150832456730    0.0141218631974592 H
   0.0564892714118641    0.4094230827875871    1.0577500156486082 H
   0.2743735687787790    0.4093233921525033    1.2065067332777446 H
   0.1428742331111821    0.4703428335996337    0.3147149643399288 H
   0.3550598164561690    0.3789504469802730    1.1156198219160194 H
   0.4370933476238567    0.4165489693833721    0.2541649648087521 H
   0.5382552731653403    0.3769175555496456    0.0697026406218511 H
   0.3533862813687535   -0.3362046483078273    1.0113119726016089 H
   0.4783270824850014   -0.3665289444501368    1.0261149476172788 H
   0.5161355744169934    0.3413216186241085    0.3286192158319815 H
  -0.2583641797489303    0.5022246962244914    0.2496090356930282 H
  -0.1793769929562853    0.4089972043945094    0.2956628245045962 H
  -0.0577660321016709    0.3877184377171573    1.0123904408299498 H
   0.2222331393274380    0.6764464426720606    1.1518483657347258 H
   0.1693261382750453    0.6785638717612390    1.0383855194597338 H
   0.0006264627968317   -0.3061586884186716    0.0124332615547516 H
   1.2105002785916112    0.9895675497443316    0.1915195414531770 H
   0.2085194047121629    0.6888192467735724    1.3202012505054912 H
   0.2499477737779450    0.8038510743090680    1.2899961514584064 H
   1.3281502738456199    0.9583444428361073    0.1909355708791644 H
   0.4644841235207458    0.9645093117096852    0.0511866193258070 H
   0.5279500301747203   -0.1090080959018444    1.1906891992620801 H
   0.5153737889029412    0.7382107725445366    0.2869735660455870 H
   0.6026313340303449   -0.1503533911339304    1.2807932225765655 H
   0.9361059341111279    0.6771690003951474    0.2563993912048034 H
   0.6942928768782543    0.6716214159340080    0.0864447015120778 H
  -0.0592509953613147    0.9744943257196715    0.2348731653671216 H
   0.6854920605677418    0.7946021759485398    0.1082266441496794 H
   0.9562154763197762    0.8311631182216875    0.1088920989898334 H
   0.8529955333686017    0.7588275934049328    0.0858356465659392 H
   1.1675212173380618    0.2011358500442862    0.5932433644526329 H
   0.2850281961203465    0.0838889763497383    0.4724493308209866 H
   1.2526497514319517    0.2750744002731873    0.5478566282119274 H
   0.5577569823250800    1.1512179083453022    0.4110557294756411 H
   0.4742477409992804    0.0323414212756914    0.4848333415437560 H
   0.5925055693021980    0.0038468071734547    0.4601755635171143 H
   1.3843309584055212    0.2103097810472314    0.6416657890397790 H
   0.6854338298425838    0.3046035639100689    0.5352928727844347 H
   0.9278100499790395    0.2007785588081461    0.5339076402600326 H
   0.8989579221850366    0.2301904862581692    0.4170472196330898 H
   0.7433789851428870    0.1989641892496222    0.5349309867789248 H
   0.8999709772665512    0.0579865580172028    0.4169170045803346 H
   0.0626906841049500    0.5595539891233624    0.3414122456161660 H
   0.2090522557314163    0.4637847848612855    0.4549421965809214 H
   0.2400788623854262    0.4404348455494339    0.5814241515353724 H
   0.3645538177004107    0.4841671333479648    0.5092898055011073 H
   0.4263222588319734    0.5885878896851480    0.5597788947598961 H
   0.8888513018048867    0.5871619148409103    0.3337631098484898 H
   0.7085426532374488    0.5881396805898115    0.5108380065577920 H
   0.7254199913592492    0.5055894545398374    0.4100795160126541 H
   0.7844276579733928    0.6470464780982476    0.6460148120287326 H
   0.2813532789860648   -0.0002786305638343    0.3879221865450545 H
   0.1173867244776741    0.8495699970835474    0.6077012296352339 H
   0.2991567249422260    0.9071433326571033    0.5503019550615208 H
   0.4013795664352169    0.7127896605981854    0.3404248480382184 H
   0.3706353389141646    0.7520446425938356    0.6253497630430147 H
   0.5366942111224079    0.7894166678740245    0.6175520383194338 H
   0.6561964220451387    0.8831777039829746    0.4780509746855240 H
   0.6709535236262573    0.7962059988857669    0.6260783282461605 H
   0.9809356156710660   -0.1974727679500661    0.5160290336302055 H
   0.8360846926378063    0.7227515463808323    0.5572912280465233 H
   0.9239093890746249   -0.2647160951267439    0.4199127496590590 H
   0.7479608657635327    0.9361094435870321    0.3996231673898746 H
   0.9113459107015105   -0.0700362353098319    0.4137279340858633 H
   1.0199262710918806    0.2432515545042992    0.7074771157945500 H
   1.0369487871859924    0.1226027578256460    0.6736092190978783 H
   1.0410249379470473    0.0096353239614645    0.8165989277341320 H
   0.0911350372866142    0.2269302037283909    0.8628987670748327 H
   0.2195337862598431    0.0589216561742882   -0.1429382209812793 H
   0.1447463908090678    0.0626748092039204   -0.0334605944128803 H
   0.4848840216740173    0.3169380868077087   -0.0264010212766971 H
   0.3879418295035671    1.0763542290228241   -0.2428842654610671 H
   1.4451621241663914    0.2606272334368531    0.7453273562825394 H
   0.7095413500579656    0.3033235361555938   -0.2820502371876321 H
   0.6838560164951540    0.0294870231852183    0.7666195145714034 H
   0.0264890650452851   -0.4266296370043355   -0.0005063600219518 H
   0.3111195493969305    0.5244070588182423    0.7715421228847634 H
   1.0493287988908011    0.6364194563983219    0.8254479592640066 H
   0.1234044311981043    0.5128182218710289    0.7116264224449218 H
   0.1595489602166794    0.3985934897171713    0.7500326732195224 H
   0.0312017414468094    0.3333391900916840    0.8917697609801922 H
   0.3864222468812952    0.5812243406153232    0.8690500303031468 H
   0.4481843065635255    0.4132520006998830    0.8237783306734642 H
   0.5637810704948425    0.3575847500691280    0.8282919199254088 H
   0.4070686285150298    0.6518946330636395    0.6968402236016928 H
   0.7590677783265324    0.4498998732068236   -0.0082149313719899 H
   0.7426905862961570    0.3490695747828161   -0.1661308799480861 H
  -0.1816168816719491    0.5032614788293621    0.7611720517202510 H
  -0.0846523544288356    0.5752397124099768    0.7496452235226742 H
   0.0299081578526436    0.8771404391223039    0.6856089755852165 H
   0.2924928964768929    0.9278789847545194    0.6716128545774165 H
   1.0386957089407303    0.6936969101669493    0.7090420930236757 H
   0.6154811799422496   -0.0371770056986133    0.6796278706773742 H
   0.4564251506951219   -0.2006525004466968   -0.0694010673848168 H
   0.3819711859719632    0.9657773765879503   -0.1738942534614310 H
   0.5332203096420960   -0.1304726859229926   -0.1297817074608762 H
   0.9324206471216808   -0.0068421024727310    0.7675581813627371 H
  -0.1916118266887823   -0.0118295850697160   -0.0833732224319872 H
  -0.2198202257813819    0.7140840438041125   -0.1877929128960033 H
  -0.2594211072946050    0.7816511661635424   -0.0887336089595179 H
  -0.1917641837915928   -0.1081435787143983   -0.1713274990779799 H
   0.8029546007476122    0.1636848697811110    1.0872121699161692 Cl
   0.1137333447348891    0.3367876885405004    0.2330102113608322 Cl
   0.6211710397032290    0.5424430885175909    0.0987314903212256 Cl
   0.1164654027303124    0.0753758746286361    1.1090132054357393 O
   0.5763333813316251    0.1475062759946426    0.1550585278163615 O
   0.4912566965135608    0.3142352743093186    0.0530352736422540 O
  -0.1186726585008963    0.3050709136073415    1.2851390501041016 O
   0.3442544273741240    0.4274327941592735    1.1772203293881354 O
   0.5033854386509071    0.4116465827124946    0.3004799825911850 O
  -0.2144191266026926    0.4785023126999668    0.3148315986816605 O
   0.9425671515601580    0.6454705685388440    0.3248206110721590 O
   0.2401003997769230    0.6789490763752025    1.0748217682705652 O
   1.2635301225436522    0.9546200007093792    0.2380039186907272 O
   0.2643842075301116    0.7372449696718454    1.3329591302140855 O
   0.4759140969561969    0.6871292911276331    0.3308776081886625 O
   0.4460600816170110    0.9855161223345289    0.1193300737094633 O
   0.5699942091010767   -0.1719695109204058    1.2119949382619677 O
  -0.0483334523072533    0.9797260902488659    0.1569422523218634 O
   0.9314634297218245    0.7592494841726070    0.1095319901386489 O
   0.7231713281507532    0.7448852599446625    0.0605140114298523 O
   1.2444735194748455    0.2014468848257474    0.5710061484496006 O
   0.3192247877302140    0.0148368622901012    0.4536680063407707 O
   1.0339335523764450    0.1965429031047085    0.6440096599893731 O
   0.5623045626555641    1.2173167870312187    0.3684865913396452 O
   0.5474964094797866    0.0536438744479393    0.5005262525641456 O
   0.6892706762536748    0.2389225883664233    0.5725503551795137 O
   0.8817918234809463    0.1815821301164230    0.4751327195461693 O
   0.1403902539585549    0.5413361237056211    0.3586909043648938 O
   0.2607451860483245    0.4285142381686618    0.5032136356161000 O
   0.4404850879440144    0.5204130532142478    0.5211481628207297 O
   0.6707046471022945    0.5403200767528478    0.4573004471068933 O
   0.0576205428422610    0.8161130224243669    0.6449667006838562 O
   0.2834894691500775    0.8683198117300954    0.6220081092658670 O
   0.4239196431583340    0.7028596758187651    0.6403300861673452 O
   0.6071135045051721    0.8343611937951735    0.6082141011927114 O
   0.6717169045026427    0.9146241179137866    0.4038707344788287 O
   0.7704610584283225    0.6862225051109115    0.5786768535818436 O
   0.8753306060319160   -0.0061080603884824    0.3789724979805348 O
   0.9148796382693135   -0.2004802350292720    0.4681322624462063 O
   0.1510855630396163    0.0802402193531657   -0.1124407372145110 O
   0.0563129041059405    0.2878746778179383    0.8318229047915320 O
   1.4439177415465780    0.2032126053543505    0.6892533993316541 O
   0.6257018687292156    0.0334601097063469    0.7133991046661723 O
   0.3393702255913571    1.0186213884331341   -0.2195062697320565 O
   0.0479224947556165   -0.3567624523122538   -0.0259622844241010 O
   0.0119828102606106    0.4204169660246208    0.9972119990977462 O
   0.1842643134809699    0.4592022057477567    0.7102459831126456 O
   1.0357522654361722    0.6233017638714643    0.7483350843415786 O
   0.3849561088971819    0.5430244843013992    0.8010777727649225 O
   0.4848584958766878    0.3485559686308646    0.8452118881300440 O
   0.4247324802670452   -0.3376984127839219    0.9726069461844902 O
   0.8031452465464168    0.3839453465605083   -0.0095833877239512 O
   0.7015294404211682    0.3645040776690195   -0.2317824336319917 O
  -0.1640423702105868    0.5764950168869512    0.7412986783006709 O
   1.0075462593870721   -0.0084263860454816    0.7482879512856734 O
   0.4640637455459755   -0.1270600761028063   -0.0955247633366475 O
  -0.1939546162749307   -0.0262363971369683   -0.1606115192150443 O
  -0.2398404276993771    0.7884779808540762   -0.1669848670118611 O
