Li1 Co1 H90 C51 N3 Cl6 O45
1.0
  14.2360247078000004    0.0000000000000000    0.0000000000000000
   0.0000000000000000   13.8933663535999994    0.0000000000000000
   0.0000000000000000    0.0000000000000000   14.3592751059000001
Li Co H C N Cl O
1 1 90 51 3 6 45
direct
   1.0174003730595014    0.7583580831775815    0.3371220007485601 Li
   0.6429910762647574    0.8099604077512965    0.6544123908552296 Co
  -0.0258592661193049    0.0691161992249043    0.9962896767067225 H
   0.2147479307847061    0.1824357475568354    1.0698296007079080 H
   0.0867135927295514    0.2179865267869546    1.0585727650523544 H
   0.1191749019422842    0.1103106790531642    1.1275212316496135 H
   0.0373311271586103    0.2505365933791898    0.2758549804072251 H
   0.5366595665160693    0.1515512240310582    0.1907134958278493 H
   0.4036363357427750    0.2220805669606855    0.2777192806454036 H
   0.3657718327607973    0.3239673209678026    0.2093941045648310 H
   0.8598296996417356    1.1999191738350938    0.0652336239881024 H
  -0.1437770159445241    0.1773419496824518    0.2454871521718827 H
   0.6668671236148134    1.0387847199509264    0.0386898049450790 H
   0.1544256134506061    0.6530128441080915    0.2011945263039742 H
   0.9981934662430090    0.4708960060716152    0.1986909180274514 H
   0.4981796529697085    0.3857090168367616    0.9337447367026840 H
   0.4216547085164227    0.3889810819967091    1.0309634326120902 H
   0.5490767267576603    0.4851171059095824    1.0695566064257391 H
   0.6135123412517403    0.3880331475893947    0.1790499544049828 H
   0.4710024031446209    0.4686863724077016    0.2814924516168086 H
   0.4610400714606717    0.6896166438681277    0.2174655426524250 H
   0.9765469738882185    0.4995759487045792    0.0378645543727064 H
   0.7942664529378571    0.3605092206830181    0.1283377844221960 H
   0.8914284084971319    0.4211101563073663    0.2561206973107499 H
   0.8133335735400908    0.6493974496297773    0.1340922531812804 H
   0.2199579526498242   -0.0074793480971640    1.0299654713714068 H
   0.0512029772047682   -0.0145229973834036    1.0466216046536314 H
   0.2075724726005101    0.7215160402217812    0.1143614521547308 H
   0.1630417828179432    1.0035319246575027    0.3144613860865914 H
   0.3471879931405242    0.8019277972838498    0.3228086041122946 H
   0.5866733881140250    0.8954134196264473    0.0298739003073870 H
   0.3444302007928832    0.8005674358337177    0.1990481784018203 H
   0.6964048638640001    1.0206386498349049    0.2365695710923624 H
   0.7720411473139746    0.9856348942566907    0.0044304153608604 H
   0.6781778654338956    0.8112984563945747    0.0365162968975052 H
   0.6999325340549969    0.7729693728271486    0.2120467454341706 H
   0.9298429245734046    0.8614864369209302    0.1562166290747032 H
   0.1668834451585567    0.1726361067401429    0.5043885223721432 H
   0.3370805366733293    0.0557407511678646    0.5697264306635239 H
   0.4593361547776170    0.0298960429192436    0.5293004345238241 H
   0.5803063719096814    0.0787920399519551    0.6487818837854974 H
   0.4220621256233080    0.2732805412430653    0.6191153444331755 H
   0.4155287006041003    0.1497143761893983    0.5091340544061385 H
   0.5683821161230930    0.1853407310556360    0.5815325976705438 H
  -0.0123730574381126    0.1530677751291685    0.4708175380122202 H
   0.7068881274901323   -0.7519835767155784   -0.6362746294376643 H
  -0.0346250559069292    0.2741874488764867    0.4904684603546760 H
   0.1940104000442426    0.3475613147960198    0.4345189786381583 H
   0.1246630913493447    0.4608602777642082    0.5934162755541081 H
   0.0827068562163205    0.4040091892736685    0.4418849493588210 H
   0.3302092364327218    0.4773556248361305    0.3644861954660603 H
   0.5583789022397977    0.4295717484807807    0.3592526443678490 H
   0.8693716892623052    0.6038325387299820    0.4127539523610598 H
   0.0622854249553370    0.8692887216402064    0.5005691095121259 H
   0.1913081007163325    0.6863143484537330    0.3592059846308457 H
   0.1497424240512880    0.7457290344982068    0.5426068165375995 H
  -0.0290181535842417    0.8377261766932523    0.6457608399180270 H
  -0.1780485215097457    0.6839995746846192    0.5581936757870638 H
  -0.0818025519976753    0.7324867435143282    0.6796720225096834 H
   0.0445676979088391    0.0863582407793566    0.7939236116672665 H
   0.0862548972626615    0.1938411906990541    0.7532356245863631 H
   0.1742064164331767    0.2244082965531338    0.9032543396059596 H
   0.0537303681540327    0.2205640158625753    0.9189020654377238 H
   0.1764401860881687    0.0406364204636200    0.7268951584269960 H
   0.2700372419621968    0.0876710975439285    0.9521063878344787 H
   0.3164638261783560    0.2176273625734012    0.6302802534426927 H
   0.4158321561044011    0.0255896711964179    0.8648784469556696 H
   0.4052020818311325    0.1799093620065900    0.9287974117523590 H
   0.5226254239727135    0.0847992233714274    0.8383534310902446 H
   0.3394611169754576    0.0406983205084408    0.7335403406730548 H
   0.4482376210757591   -0.0151563931908725    0.7129954316978945 H
   0.3788119899542789    0.2398840275263034    0.7376087911741526 H
   0.5640571025561900    0.1905050661903968    0.7002252884526651 H
   0.7556109988138918   -0.0272031495881535   -0.2057027548546900 H
   0.0810469827274066    0.5924645235218409    0.7921324348975262 H
   0.2911442578720080    0.6008296667882089    0.8056379913110472 H
   0.3403637566001949    0.5316228974906544    0.9699812455906712 H
   0.3411216929076592    0.5011146686559509    0.7394521989927774 H
   0.3359179930321307    0.4464517467498274    0.8784250917943129 H
   0.5366909657310310    0.5583172918196357    0.7419794853447944 H
   0.4938301943763925    0.4429702291126374    0.7668700175871320 H
   0.5626171640606655    0.4951968804174873    0.8520553762475707 H
   0.3866077055615435    0.6220210751558224    0.7142336557634460 H
   0.8765899964870529    0.4734692809058123   -0.0208835365844330 H
   0.2122619839894178    0.7624024593618631    0.6520271729561781 H
   0.1978689210237618   -0.0062938902620488    0.9051806206888142 H
   0.0400186751774780   -0.0083646626916944    0.9166707550293847 H
   0.1095605606630781    0.7521068984186410    0.8019943533408753 H
   0.0954871093933407    0.7228008260357950    0.0095539330494220 H
   0.3889306855140776    0.6948083301854837    0.9131002405276509 H
   0.4952497620165728    0.6926893333023151    0.8398709171638310 H
   0.4960289121113267    0.6249274981905492    0.9469097466774791 H
   0.1389093436678645    0.1609506738603044    1.0704696051602374 C
   0.4375973613748184    0.2173207414211492    0.1328616896695653 C
   0.4275805200917411    0.2721915323149965    0.2238467839981215 C
   0.5864198060871534    0.2533976710322454    0.2972599606540142 C
   0.5170245696867335    0.3260129015187420    0.2592141682326733 C
   0.7813211255882195    1.0903834456848263    0.1064195470683701 C
   0.9251182910201102    0.3558825522166428    0.0523847859625539 C
   0.4925166254283312    0.4116285809535381    0.3248999353096237 C
   0.3468662741147424    0.6601788539480467    0.2816366093117294 C
   0.9101681905272817    0.4637934761671597    0.0488518778160169 C
   0.9402643731902164    0.5628215997322955    0.2987871965233925 C
   0.9285988975108289    0.4915144755418148    0.2249039404275406 C
   0.7642334901708185    0.4933468608221039    0.1570885393840792 C
   0.8688582032189721    0.5198248929013976    0.1344307103780510 C
   0.1642352339638021    0.7256460687936638    0.1766633436779609 C
   0.0743674495043503    0.7720437512266882    0.1441993093473934 C
   0.2092428827387399    0.7777910984115057    0.2621829810512594 C
   0.2015974899950504    0.8862126257549982    0.2502673377657778 C
   0.3177647511472381    0.7608686338326401    0.2629093408377443 C
   0.5803265320320393    0.7917250864078590    0.1491974725186326 C
   0.6346769575111457    0.8575471468592514    0.0810519712462221 C
   0.7310170544237723    1.0054896935169522    0.0648700958878674 C
   0.7046522505052771    0.9262633942899988    0.1346744552728446 C
   0.8004697296118303    0.8709787368174077    0.1578162919985344 C
   0.1345008095940501    0.1680684592467364    0.3786526487514644 C
   0.0750242339783810    0.2608825380798242    0.3986557476461978 C
   0.1261677248716695    0.3130700340074850    0.5668142363019284 C
   0.1205797885177509    0.3359111505463699    0.4624665593509973 C
   0.3855168111356936    0.2204618088118246    0.6649059567830868 C
   0.5421388348933757    0.1484734962211297    0.6451194426377274 C
   0.4105483776940709    0.0855758530035399    0.5561388366825551 C
  -0.0207180836963846    0.2213600792296896    0.4359988583565480 C
  -0.1048061647843665    0.2110673973583197    0.3718215239713774 C
   0.4296379764815120    0.3785214139579155    0.4024268293756474 C
   0.1394797276175039    0.8871260113000868    0.6038422893254083 C
   0.1487758620873669    0.7750725348151306    0.6129625268745998 C
  -0.0527818100082604    0.7312969670714349    0.5296993404545034 C
  -0.0307433542989148    0.7581558283799692    0.6302635395070497 C
   0.1106177378111167    0.1752805342363257    0.9009311025515840 C
   0.1012759445275511    0.1355680566439504    0.8050780744670071 C
   0.2074888818492698    0.0394466440207266    0.9693398483103716 C
   0.0365556297689527    0.0274135632147432    0.9847835248444943 C
   0.4462516734126794    0.0890631287844341    0.8299560712576124 C
   0.4159705374320845    0.0595411260126781    0.7251394987704970 C
   0.0858833047634506    0.6168207516229101    0.6596410670555450 C
   0.3833694420050928    0.4881358847233386    0.9195678372075030 C
   0.5157410821700260    0.5103079769405844    0.7982963950798639 C
   0.3547891319570866    0.5739153833465209    0.7661339080048554 C
   0.4549307816985974    0.4358320742928516    0.9810312462926430 C
   0.0659177591962061    0.7289526828158368    0.6675592940664116 C
   0.4551022481051331    0.6541867856557981    0.8907822615463635 C
   0.4378003674849733    0.1285661538995667    0.6475840517310832 N
   0.1218006349518314    0.0994882479610021    0.9827465139380048 N
   0.4273950750637794    0.5589578853067350    0.8425855388778467 N
   0.6460712900814681    0.9223068297972072    0.5454908757741959 Cl
   0.7400146504963486    0.6591819753192462    0.6735582041342747 Cl
   0.8370663224594491   -0.9837488608121605    0.8062438714781056 Cl
   0.1642619268087359    0.6769177776963390   -0.0736626632750695 Cl
   0.5064159410070393    0.7274678015081001    0.6407835691663417 Cl
   0.6575281401043988    0.8869230367345117    0.7973276832265556 Cl
   0.3797652054957331    0.2314605830549298    0.0680283333104073 O
   0.5049509252861428    0.1515987287166184    0.1281281638126735 O
   0.5725670624984218    0.1664331464347257    0.3006243366161511 O
   0.9910742035218316    0.3187720358106314    0.0115206061434138 O
   0.7758596290260928    1.1117706309383850    0.1902482912857861 O
   0.8286060955019888    1.1360239322207402    0.0449359419776614 O
   0.8579478540738981    0.3058925078801213    0.0918853871988201 O
   0.2910114960906264    0.6044148310120755    0.3229618151890220 O
   0.5482294396639963    0.3681114099085712    0.1706031491794068 O
   0.4321836309562576    0.6363279029570267    0.2589369954665937 O
   1.0018208833808637    0.6260085896710245    0.3000295990728547 O
   0.7058105794867493    0.5589751597378478    0.1678516175241796 O
   0.7385929052819764    0.4043659062761476    0.1603052755813696 O
   0.8777834476329118    0.6183531376162069    0.1163100184851094 O
   0.8702363969495049    0.5540181177764405    0.3610187502341249 O
   0.1604020009426413    0.7443024543954756    0.3395295038951358 O
   0.1779862637644698    0.9334812274232923    0.3303876775124054 O
   0.2248764605505330    0.9205721890062980    0.1778347120009404 O
   0.0456375190360570    0.7607592291022590    0.0590647889078689 O
   0.0187655510638183    0.8210074064479249    0.1988148797168035 O
   0.4948979081737472    0.7770900444155118    0.1463247648299937 O
   0.6322212157772300    0.7443031741634387    0.2115961655857950 O
   0.6675583278099431    0.9594144671313665    0.2182573653535116 O
   0.7993345812588531    0.7973320788398849    0.2078668686954528 O
   0.8796217417169099    0.9112490345811334    0.1278475089766683 O
   0.1283214159918599    0.1201786978263448    0.3061336676524716 O
   0.0642368124086602    0.3060350219368018    0.3095252037600283 O
   0.1285609491529770    0.2311057374491546    0.6027809544120785 O
   0.1788046101946791    0.1297947978124638    0.4524556083148314 O
   0.6672696236186846    0.2973862900929989    0.3279021759994958 O
   0.4478927214214820    0.3149874958610046    0.4598988809878430 O
  -0.0850752352752249    0.1891173535576695    0.2849842713382233 O
  -0.1877626097358100    0.2161719917521488    0.3992470031195686 O
   0.1212548365172626    0.3927886545211529    0.6186564076169783 O
   0.0936038589389277    0.5765166247649217    0.5824984542265130 O
   0.3474598386928771    0.4270280884994225    0.4108360282460267 O
   0.0880475325329570    0.9201525642838498    0.5353393187544334 O
   0.0015072219274980    0.7585423437761178    0.4646155536262948 O
  -0.1286000262697577    0.6746397120933399    0.5068690027402201 O
   0.1886556748618514    0.0863107360937964    0.7795210740409052 O
   0.4106003584973631    0.1753143633305882    0.8607006594589073 O
   0.0974595701452959    0.5646980348119222    0.7349470969230064 O
   0.5007836804816648    0.5108108788163555    1.0261324087972812 O
   0.1793742917010309    0.9472748606668543    0.6557878084758507 O
   0.0606311710127250    0.7725022434191402    0.7590660024698260 O
