Li1 Co1 H90 C51 N3 Cl6 O45
1.0
  14.9003215639000004    0.0000000000000000    0.0000000000000000
   0.0000000000000000   14.5141295408000008    0.0000000000000000
   0.0000000000000000    0.0000000000000000   14.5618878726999998
Li Co H C N Cl O
1 1 90 51 3 6 45
direct
   0.9692470206072475    0.6826145683865730    0.4251786576249758 Li
   0.2279878502844100    0.1085925454619531    0.2577654745740075 Co
   0.1924523755814459    0.2992095571279180    0.1965501975582315 H
   0.5723656530045902    0.0963010746232432    0.2418581964775823 H
   0.3685740779719495   -0.0059999277087340    1.0769600806775206 H
   0.5260663837544953   -0.0287363928251815    1.0535002104336042 H
  -0.0271824816909514    0.1736236585815329    0.2041144640161888 H
  -0.0597475507009786    0.1940871661701271    0.3203088760863509 H
   0.0850942898421671    0.3354514825235354    0.1506749644950519 H
   0.1625979863259989    0.5316666252914446    0.0649278408449038 H
   0.2270395486025031    0.5076654064087861    0.1641759611871483 H
   0.0719918880474974    0.4485330142396658    0.2675300051927724 H
   0.3005487004219968    0.6472256049247180    0.2373436719478854 H
   0.4323867947594609    0.6066203451781170    0.0763315819979532 H
   0.5454656966324345    0.5477812671886746    0.3257401773497176 H
   0.6458278259721846    0.6545577704328767    1.0962151389811670 H
   0.0542311975238002    0.6325481832163641    0.1139393430786227 H
   0.0840178030072212    0.7224026933565647    0.1998011496609977 H
   0.2998668359430036   -0.1851136659933592    0.2065111312824867 H
   0.3659123904486354   -0.0981087928144200    0.9929091656656978 H
   0.5059043893497672   -0.1155669531048947    0.9664091676315522 H
   0.6327811276733382    0.7613495691172479    0.3466186515323119 H
   0.5551411925189988   -0.0193283191535121   -0.6347801976369767 H
   0.1458198249334494    0.3492380481895995    0.6741613466619671 H
   0.2358749283918197    0.2297427663592567    0.5915374444236020 H
   0.3180503361337930    0.3236808834311297    0.6134027412026634 H
   0.3816952713073789    0.1452678416623658    0.3803896848144696 H
   0.5004307289559139    0.1336495079878611    0.3643484955097556 H
   0.5440568679766249    0.0439245268004450    0.5830536543353946 H
  -0.0403426003608115    0.1547944205461573    0.5555833150842635 H
  -0.2106724814386071    0.2549499273516915    0.5661719146771136 H
  -0.2547386445199991    0.2132340257333415    0.4648278435716979 H
  -0.1062586274604930    0.2797498989234046    0.4557840986155995 H
  -0.2616445357491725    0.0709182227639995    0.5665317581291308 H
  -0.1747269484712090    0.0556689445087773    0.4964459279866434 H
   0.2052353211832015    0.4964270335155668    0.6649077388071351 H
   0.0408368557209000    0.3491016293989008    0.3644837801663345 H
   0.3182496606911365    0.4940484547724907    0.6888750981942589 H
   0.5246272872955335    0.6250892446905865    0.6050075385291701 H
   0.6846833632515065    0.5514609918218237    0.4094621514960514 H
   0.6827303852654137    0.5783056605912968    0.5252387605963522 H
   0.9382490318712845    0.4298767111359335    0.5468906921835400 H
   1.2215180862939763    0.6944581997608679    0.6215665178392676 H
   0.2853114453717390    0.0046228243871869    0.4116376935876363 H
   1.0411843942674872    0.8314598707470838    0.5659514762265458 H
   0.3060640176349557    0.9516854753963186    0.6326742808857915 H
   0.5165283345660587    0.7330006420359949    0.3528596005627173 H
   0.3369552972644621   -0.1094081269935030    0.4221484186624354 H
   0.5896035360192955    0.7541372867887942    0.6374957711083351 H
  -0.0257529823403062    0.0307621804493961    0.5470279683401397 H
   0.6520263499170481    0.7608934618473362    0.5214626705398502 H
  -0.1334768319979425   -0.0598612356020154    0.5816410627689835 H
  -0.0210524126445695   -0.0257041751591971    0.3538059064346252 H
   0.8159395909518771    0.7911370943549598    0.4646446255697930 H
   0.1170446070187713    0.1552546617188175    0.9758983218681435 H
   0.1764943307177642    0.2639494336350563    0.7530240607577783 H
   0.3042049973526612    0.2984613207304495    0.8495795357271994 H
   0.2943850750528298    0.0031456431384092    0.9833279903936669 H
   0.3923124918365842    0.1543582938061963    0.9582453909949478 H
   0.5067910413554534    0.1402465277905879    0.9222830209658686 H
   0.6175942071072580    0.0478165962381060    0.9201617300817441 H
   0.3773342915982275    0.3552384080289674    0.7720483797486808 H
   0.4801705957295685    0.1263359450420704    1.0411584040983879 H
   0.3463275782183403    0.1579334306998099    0.6474024536251296 H
   0.0156850495405569    0.0875792288078157    0.6478433305262652 H
  -0.1209717327488475    0.1003240509812716    0.7758507713399392 H
  -0.2293834870235783    0.1221999753422512    0.7297042822394565 H
  -0.1380841151163366    0.1995142914950440    0.7072868592477580 H
   0.1532854356266783    0.3452605447618040    0.8760692328991689 H
   0.0954128590985851    0.4203012144029520    0.7975636153587947 H
   0.1811640285965385    0.4673553624371273    0.8816371922674049 H
   0.2432673863013770    0.5378699597557611    0.7766308899687399 H
   1.0355395496485778    0.5614906666701011    0.6514843419434319 H
   0.3457926904331458    0.4176672293684011    0.8674336767749009 H
   0.5537630343422147    0.5535610144180338    0.8565751945930379 H
   0.6679300335378180    0.5301308804203972    0.8729054947628268 H
   0.8300037169575677    0.5029128513343605    0.7157328795079866 H
   0.3495805281491278    0.0424335658758392    0.8532281011099616 H
   1.0835257623577250    0.7137090958765848    0.8050434147469082 H
   1.2287058506345447    0.7412057500078668    0.7367747940371079 H
   0.1800029798281741    0.7716009589496001   -0.0353421250252064 H
   1.0911423765034869    0.9958576042310364    0.8326977960689185 H
   0.4646783797387896    0.0327319851090301    0.7984391886437603 H
   0.3946909639955921   -0.0724737728875211    0.8462200812095119 H
   0.6266087776602470   -0.0274190558160104    0.7926301891006045 H
   0.6102990625337775    0.8051579145101024    0.8412694868476949 H
   0.6718433719010162   -0.0591880984378102    0.9603872836034243 H
   0.9979316364504058    0.7792714154993399    0.7698556695534691 H
   0.7702412483302178    0.6552033482454255    0.8970198131169956 H
  -0.0981393395994104   -0.0538980808873834    0.7010376695276118 H
   0.7680969993042499    0.7501315350255510    0.8274333687728039 H
  -0.2153905004221920   -0.0393005812988327    0.6639126755209271 H
   0.1223552306627411    0.1985710726846071    0.1149776699859701 C
   0.0721026239126882    0.2568446327780621    0.2780204032328774 C
   0.1196425375287937    0.2780412191207139    0.1815500820574451 C
   0.0338363356614727    0.0822430493433646    0.3048685704085740 C
   0.0011518061423305    0.1751449347929607    0.2805866913630077 C
   0.3595816545919987   -0.0217907472240025    1.0040725533679724 C
   0.4329049043832628    0.1139452605373979    0.2472249456713124 C
   0.3002695118164248    0.5577732546235619    0.0553459788487278 C
   0.2176665965221693    0.5570340439137609    0.1077306700830355 C
   0.0663732173603604    0.5902996971272561    0.2555349945508169 C
   0.1914550816682727    0.6457256872108239    0.1580126119851358 C
   0.0931639143455278    0.6523826486034031    0.1773397763240147 C
   0.2151686638540465    0.7244524201360020    0.0928885011356155 C
   0.3138081458073008   -0.0666291233850113    0.2836261324290921 C
   0.5938953897035097    0.6522331391206677    0.2640277120529101 C
   0.5868170189752209    0.7071334345713917    0.3553620233473562 C
   0.2725191039996036    0.2708675198845790    0.6447283498042232 C
   0.1442366376244485    0.2462177467793928    0.3629249163570233 C
   0.4369035429189809    0.0998520970841575    0.3513419402021104 C
   0.4444136492962227    0.0214278280434073    0.4960240046719118 C
   0.4282942656325903    0.0036899403336211    0.3929896994282328 C
  -0.0377788973000300    0.0886747130361536    0.5975229320720411 C
  -0.1961358824081022    0.0986622220763967    0.5520595274786606 C
  -0.1981693955688792    0.1982403604647315    0.5152770028031229 C
   0.5225848481528957    0.5971220146297732    0.4687430639399913 C
   0.6855189156888555    0.6109802346101436    0.4579761220866663 C
   1.0608557818105679    0.6854910757156992    0.6263708399581844 C
   1.2587387595272082    0.8316679438520890    0.6145488838007870 C
   0.5958772261271976    0.6684318370404494    0.4504002499906573 C
   0.3387955260059969   -0.0412448935581847    0.3816649315518664 C
   0.7676225129000687    0.6654940101538880    0.4381637184668802 C
   0.2038380359024300    0.3174559148757629    0.7084906866740676 C
   0.3232414992686479    0.3634848550283238    0.8177217159132095 C
   0.4539059276603804    0.1166426320807583    0.9728018826980183 C
  -0.1545777188916684    0.1281962012788707    0.7176117567689009 C
   0.1597067735548348    0.4089398716826423    0.8355834109265068 C
   0.2533342831369068    0.4858979832152773    0.7213338016351859 C
   0.6147533288202714    0.5830026697924592    0.8838086140141194 C
   0.5966074117110014    0.6059299834191266    0.9865926769793346 C
   0.7980587687926092    0.6246000661986870    0.7564672956211644 C
   1.1051924088536078    0.8633432846782574    0.8248911159877510 C
   1.0718743359602829    0.7790543856050465    0.7716878495725186 C
   1.2040218195938257    0.7569111355330008    0.6653870722603947 C
   1.1029300415714365    0.7729713477107096    0.6707531347299797 C
   0.4107302151604137    0.0030147362180418    0.8503150172865704 C
   0.6076877094946410    0.6728275536296293    0.7338095191786911 C
   0.6413010780284747    0.6717017541144695    0.8324835381356562 C
   0.6093930418185798   -0.0265654048984565    0.9270344653256148 C
   0.5212681651594540   -0.0433745424574253    0.9805034939849898 C
   0.7480296471523050    0.6750887984330288    0.8302091077671809 C
  -0.1438739230496776   -0.0275582305418747    0.6473578165557001 C
  -0.1295373197029718    0.0741633364215288    0.6335271922739696 N
   0.4393753687679768    0.0169859495402031    0.9520586931720029 N
   0.2398479970095754    0.3936389196430645    0.7696771212757507 N
   0.6451365657228115    0.0772871889317704    0.3164151501837982 Cl
  -0.1107330275406581    1.4245247166824158    0.4588627516303675 Cl
   0.9445327888760221    0.8369400478239390    0.4269443627467824 Cl
   1.1527598386543971    1.1159316324461614    0.8795543579354044 Cl
   0.6175834690839668    2.0742708811692596    0.6922215049531900 Cl
   0.9735395454179174    0.4275155636827799   -0.3467268877454855 Cl
   0.0865143934224325    0.2018988643971053    0.0340643975929768 O
   0.1613543890035832    0.1231810882612155    0.1362551308968506 O
   0.1092118901542735    0.0457303533177240    0.3131566441154361 O
   0.3593152173890850    0.1319794112774893    0.2048314040236429 O
   0.5083514036536959    0.1103990609630235    0.1984730251644304 O
  -0.0359843051574829    0.0295130528355743    0.3156707412105412 O
   0.0310048531448660    0.3418624767025822    0.3003485520857165 O
   0.1019845293528189    0.5016697867779031    0.2397334719727326 O
   0.2376071057739865    0.6537551043158869    0.2442212142607717 O
   0.3662237931240812    0.6018415536009144    0.1008270322526365 O
   0.5694595412261094    0.5638619421849883    0.2579543237139020 O
   0.6688635704376994    0.6335961275630948    1.0336621233307925 O
   0.1786842163427197    0.7184996001782412    0.0107535464885409 O
   0.2799028372652367   -0.0135498120949774    0.2239601050845963 O
   0.2585173927542931    0.7935940105551189    0.1185218532986816 O
   0.3249414625809409   -0.1532467876731795    0.2664690163886376 O
   0.6134741617957036    0.6937754168235830    0.1923021219968221 O
   0.2168545335107699    0.2015219902632054    0.3446848363397919 O
   0.1256907291475799    0.2867885573364236    0.4346170629472464 O
   0.3832549691904303    0.0322538303577933    0.5526935798818047 O
   0.5303940084787984    0.0216324562294553    0.5151507829052590 O
  -0.1135047798027072    0.2122446450088804    0.4734523434372304 O
   0.0206708479799669    0.6186396674192208    0.3192142377991077 O
   0.4980378745569604    0.5412366790524739    0.4118464577277379 O
   0.4900360875157421    0.5942275937220701    0.5519339256325272 O
   0.5674785772668138    0.6073692705593768    0.7011255702181809 O
   0.8381344139683973    0.6336271318337082    0.4058094657684186 O
   1.2792349614843466    0.9042434294875809    0.6688962326417076 O
   1.0166755272317065    0.6837093636311194    0.5574051942411369 O
   1.0692448625068427    0.8541949578959487    0.6209779952469419 O
   1.2848724237122435    0.8219711859718197    0.5347647232471194 O
   0.4953633550958133   -0.0547035029395388    0.3580230794095063 O
   0.5888975109878970    0.7396631152989054    0.5145962531581141 O
   0.7605750139887422    0.7576717736387147    0.4598150320023374 O
   0.3235878005197901    0.2008123369580557    0.6913946890825244 O
   0.3068962144400261    0.5243850311935753   -0.0201208843497072 O
   1.0749474240009422    0.6085805040646712    0.6770909118648402 O
   0.5191426405616003    0.6005669335868106    1.0120241322437498 O
   0.7847107347151525    0.5340520938724348    0.7568491142458239 O
   1.0593128620889090    0.9397557210480978    0.8069923378706199 O
   1.1619844717880210    0.8541074569544399    0.8888162064799773 O
   0.6019784367359843   -0.0690116293356984    0.8406033644269760 O
   0.5973047120984757    0.7491779814582430    0.8757725680684983 O
   0.6174002515615602    0.7586232602546484    0.7015053286704052 O
   0.8506314597000237    0.6651316046796076    0.7017374414314391 O
