Li1 Co1 H110 Cl3 O55
1.0
  12.9532464122000004    0.0000000000000000    0.0000000000000000
   0.0000000000000000   12.3788736098999994    0.0000000000000000
   0.0000000000000000    0.0000000000000000   12.5728285384999996
Li Co H Cl O
1 1 110 3 55
direct
   0.3802314145325898    0.4316003598846955    0.3859519164236474 Li
   0.6852561067424668    0.1331281307922905    0.6868619295058241 Co
   1.2599606837347339    1.1180230723037330    1.1623595457894904 H
   1.1171470645745458    0.2370519642961041    0.2104973643119249 H
   0.2141965896276629    0.3126436561970249    1.0792199406641103 H
   1.2158095897308896    0.3170705533224769    0.2390637285870914 H
   1.2469137613940280    1.0103072944373515    1.2387067255080901 H
   0.4253938380196485    1.0636158603695738    0.2379716911065867 H
   0.5378876448716184    0.1504108017962905    0.1639740224713159 H
   0.5180277586458991    0.2272061573316864    0.0588594099596533 H
   0.6205356518601750    0.2864530664699666    0.1590371858788234 H
   0.6574599860988507    1.1210362705296337    1.0340192924360863 H
  -0.0174918153094501    0.1493460845679427    0.2043086216784170 H
  -0.0344601484211391    0.2357650943835412    0.1053865695569312 H
  -0.1271919595653070    0.2751620553162362    0.2509751293941103 H
   0.8064743674034497    1.0044747766917743    0.0682296960205221 H
   0.9370068954041140    1.0018008662017659    1.2057547132595061 H
   0.2172645463958265    0.5068479170820684    0.2789568996793489 H
   0.2583029072116396    0.6659528616890528    1.1663204683334909 H
   1.1058757588837587    0.5808594975272622    1.0114070378324838 H
   0.5391707209029943    0.4478999042825505    0.2856674023909421 H
   0.7112326063235360    0.3416672985187840    0.2265033091463566 H
  -0.0103471971145214    0.6532061445827558    0.1133863605102563 H
   0.7012428326496466    0.4413944658607867    1.0638296090925412 H
  -0.1237472632644650    0.5460057609437536    0.2492332779139172 H
  -0.1633998710861025    0.5498170931769438    0.1210536884869966 H
   0.6865229706218218    0.5603156251189830    1.0111525207212226 H
   0.1020212357618196    0.6783384797050072    0.1438568309240448 H
   0.2259025353940606    0.6834891906670294    1.2799941731504749 H
   1.0339092440553208    0.9719677802815208    1.2773774191003218 H
   0.2755611290416087    0.9689303472173421    0.0539500930298160 H
   0.0183547968234489    0.7956989153780987    0.0030993955879278 H
   0.6634924506651391    0.7143991112347612    0.2622788705979934 H
   0.5545375249971807    0.6990035263046764    0.0231064369016409 H
   0.6680905257811891    0.7401599364963559    0.0666566211997340 H
   0.7953752193269806    0.6985535661406479    0.1699543792199788 H
   0.8923925970568126    0.9102578037462510    0.0435991207246193 H
   0.7868460833494587    0.8312360744010475    0.1669948224355959 H
   0.0942947557107849    1.0945799054094598    0.5576412060206511 H
   0.2544220268207089    0.1798415894011203    0.5196091913044902 H
   0.0107124655614756    1.0123026294555753    0.5035563198776697 H
   0.4911688547905442    1.0429273867595692    0.3438603537828721 H
   0.4689767346955188    0.2191189917983105    0.3500856832511238 H
   0.3688033913722662    0.2151057025794700    0.4682842250867462 H
   0.3483251273480317    1.0452458529548332    0.5730943715040627 H
   0.5091635715266101    0.3027404934486825    0.4437893392257845 H
   0.6464997993254186    1.0015019698630037    0.5108880034139345 H
   0.9917113283663870    0.2165961451335684    0.6481769193260840 H
  -0.1713631257573676    0.2324804659689265    0.3656255436255587 H
   0.7660173280386751    1.0060904325769757    0.5317727231248522 H
   0.1801804066586581    0.4224961389715853    0.3736070411615118 H
   0.0764671013412592    1.3366051570126389    0.5222402619421517 H
   0.0212629480931199    1.4223399365608544    0.4426917341834710 H
   0.2961328059417737    0.4733287122597363    0.6024656461435923 H
   0.1523549497399563    0.6482840489284897    0.5983886001675788 H
   0.5295121383346766    0.5566933246243613    0.3417566107851046 H
   0.5877554524809613    0.6068925608055133    0.6426061760533569 H
   0.4149176997851290    0.4309516740467871    0.5898567093785235 H
   0.8612035045973738    0.4272041602210623    0.3648508571681577 H
   0.7486216889201470    0.5737384942132367    0.5299163389445917 H
   0.8706528732038969    0.5480091742414034    0.4131470697618947 H
   0.8396413424094500    0.6593375586670954    0.5159855039329104 H
   0.6804055852592328    0.6556570945606065    0.3692198024561488 H
   1.1624947697989874    0.9884636268694278    0.3945720928356714 H
   1.2024229842049818    0.8773953630412532    0.3427221850759514 H
   0.2515154195655162   -0.0866143179733670    0.6412977990282803 H
   0.1556684048101521    0.7780034442954298    0.5927613859107906 H
   0.1361096014076797   -0.0473967756267236    0.6134607853500714 H
   0.2181330545398084    0.7189576843148572    0.4349011244809636 H
   0.4643910116952943    0.9661594973742216    0.4945161902320649 H
   0.3377594362737772    0.7520681281982333    0.4113519287615314 H
   0.5286058018359791    0.7268218893360752    0.3923283654267103 H
   0.4901698774231553    0.7066673899961295    0.5160777663857427 H
   0.5030322900337173    0.8660453804477131    0.4504839346179239 H
  -0.0818419383191482    0.7788565106028161    0.6467174227661963 H
  -0.0080838262909426    0.7308828404035291    0.5661691199798430 H
   0.8957353884020941    0.9649639120191725    0.3979484213897443 H
   0.8874980711609503    0.8735258671961958    0.4886121886167804 H
   1.0209009220765697    0.2303227575342400   -0.0843805932333641 H
   1.0979163642486889    0.2334732865103828    0.7115103209995153 H
   0.1801881267310490    0.2312428735608622    0.8930645347558043 H
   0.1466513602575222    0.1170370060036265    0.8399102268008712 H
   0.5429496963383645    1.0290812158233926   -0.1800273282793087 H
   0.3867502436595082    1.0179170336566505    0.6933743860902172 H
   0.4393440088300955    0.1195913579581300   -0.1366146627578938 H
   0.4513394573111539    0.3021063485137410    0.8972720207513392 H
   0.3542634070311506    0.2962067810489278    0.9691333363839624 H
   0.4046399674110570    0.0056851945675992   -0.0959627125276890 H
   0.9060030846820579    0.1856248296421990   -0.0671178110888862 H
   0.6825008129061367    1.0517569461721950    0.9369925974275228 H
   0.2089438523728603    0.4071837603195885    0.9993492896864897 H
   0.1414426274153482    0.5001259807716877   -0.3030505601052741 H
   1.2187818176014054    0.5762540704264953    0.9731499345460514 H
   0.2442083710474818    0.5710613524114579   -0.2758752909163441 H
   0.0946082678505814   -0.5149607222665146    0.8646063402529237 H
   0.0507902949704067   -0.6219591489198665    0.8180456162115982 H
   0.4114961637014600    0.6491670048697521    0.7305489962878173 H
   0.3537145098841540    0.6499077830931170    0.8500193283137726 H
   0.7599601592407356    0.5410917435689133    0.7198091695585722 H
  -0.1859571506052199    0.5077882288072556    0.8909806759073541 H
   0.6951640476490123    0.4433154807082913    0.6804942295284607 H
  -0.0787346091817907    0.4962443675074912    0.8218872338596954 H
   0.0305503187005912    0.9119138510285825   -0.0526375372632701 H
   0.1274005877434488    0.9549549238103494   -0.2034794893500727 H
   0.1860059732848691    0.9428294263919125   -0.0941174634710461 H
   0.2949771111048485    0.8667481907577755   -0.0118580103310458 H
   0.5638965687567297    0.7161585604937456    0.6926140162203248 H
  -0.3696995055532693   -0.2507331274888970    0.8652983086491649 H
   0.6454043210531428    0.9461253643977235   -0.1957898911260970 H
  -0.1363587735223212    0.6867810895331274    0.8042460165854112 H
  -0.2807310752982419   -0.2147185421518713    0.7991580604581073 H
  -0.0953219567209863    0.7905304322013393    0.8529939970516366 H
   0.3574240046680056    0.6849602453505053    1.0383142686886171 Cl
   0.5635823618104180    0.2665368763730881    0.6577141527046206 Cl
   0.8540469974909630    0.1653782379167968    0.6947408248313003 Cl
   1.1905186325781367    0.2547522823464287    0.1948429712374225 O
   1.2868805761619770    1.0444703381299365    1.1774953602497982 O
   0.5712429896439579    0.1911019030930319    0.1064364526408832 O
   0.4776803443090760    1.0950646021750203    0.2826243321794267 O
  -0.0246976536784391    0.2271552641713026    0.1851196222212762 O
   0.7146850226967689    1.0812184312388438    1.0058474296833744 O
   0.9733066757863617    1.0176504504355921    1.2738698551607550 O
  -0.1777260094219888    0.2858641598998107    0.3113601094067764 O
   0.2344293553498651    0.3361377162516819    1.0035965439806591 O
   0.2005706618576358    0.6472791109678943    1.2146230438550096 O
   0.2377574785576038    0.4413064126150433    0.3232818499714404 O
   0.4915888267286119    0.4925695581966005    0.3255160329887291 O
   0.6459879585258986    0.3610430517220625    0.1830119023936453 O
  -0.1169813918210362    0.5820680081293929    0.1761924345437935 O
   0.7336231322790089    0.4987623672045777    1.0191857170454008 O
   0.0541957733035026    0.6796043460910625    0.0820324771106000 O
   1.1718669376816009    0.9461253643977235    0.3265937538817252 O
   0.6283707533297503    0.6965380354238591    0.0067732148767663 O
   0.6262253452123052    0.6817539762463232    0.3215161375120665 O
   0.7493543237900482    0.7587375556923449    0.1771556227367222 O
   0.8472378936421450    0.9427890349947824    0.1012800950399281 O
   0.0884891840720664    1.0313431340626746    0.5119569752812310 O
   0.3233661333080897    0.1552303033018465    0.4943030321513838 O
   1.0689506526378438    0.2247964065789084    0.6401683793470593 O
   0.4512931368768082    0.2825318696365826    0.3974544991207032 O
   0.7014350624521812    1.0507956309205002    0.5394320974418656 O
   0.2037212234003825    0.5307636633227630   -0.3351722102783690 O
   0.0863027823702254    1.3853898864662970    0.4624852117798569 O
   0.3520855746096636    0.4428404778780420    0.5504399625039077 O
   0.5319485931812605    0.6620252022321280    0.6446017492788384 O
   0.9067596517763710    0.4913158092296842    0.3654529492094847 O
   0.7876497428853567    0.6160032443421644    0.4763866182505485 O
   0.1754009098414208   -0.1016646372407842    0.6583011327924664 O
   0.1273141229326702    0.7114141869868514    0.5564950836540036 O
   0.2619375172932989    0.7553834540746667    0.3777373766576957 O
   0.3615133270134919    0.9877527382799391    0.6252329971118695 O
   0.5194938003929405    0.9455598848379029    0.4449513689118859 O
   0.4660608633534569    0.7296630202102020    0.4458970590534154 O
   0.8738875835357051    0.9481287776953733    0.4712215116238938 O
  -0.0818149180657799    0.7439583434824645    0.5795082027078421 O
   0.1402892486001402    0.1982414864497372    0.8350505407077298 O
   0.4245399980132094    0.2646061675902724    0.9604479399621776 O
   0.4426288996324448    0.0441323921881785   -0.1566674296613768 O
   0.6314170938952193    1.0239918997850079   -0.1896409167912236 O
   0.9612402026393065    0.2331873154187022   -0.0380657168141974 O
   1.1565117136960010    0.5348932797653380    0.9680198240221950 O
   0.0494901575790467   -0.5421538264703404    0.8052084094123672 O
   0.3413446378921345    0.6453572882924471    0.7719827912691773 O
   0.7037063077495987    0.5237816064148649    0.6679616478967703 O
  -0.1471560667683042    0.5380720827194718    0.8298886155449658 O
   0.1250807059899683    0.9844325654358501   -0.1302541210742846 O
   0.2854042213400702    0.9445177867919481   -0.0234599342380907 O
  -0.3554760441801827   -0.2091574545950078    0.8000608008371115 O
  -0.0148653694813250    0.8522638357469445   -0.0401471895647295 O
  -0.1379552844927697    0.7646500484042397    0.7942371311850688 O
