Li1 Co1 H90 C51 N3 Cl6 O45
1.0
  14.2314825564999996    0.0000000000000000    0.0000000000000000
   0.0000000000000000   13.8889335309999993    0.0000000000000000
   0.0000000000000000    0.0000000000000000   14.3546936303999999
Li Co H C N Cl O
1 1 90 51 3 6 45
direct
   0.9509673868109202    0.4557235623147429    0.3957198224816250 Li
   0.4954214537528812    0.4826755236848862    0.7450919602038183 Co
   0.2589938021261559    0.1606574227257709    1.0271146981483266 H
   0.1457736935673277    0.1191416361671405    1.0234963694443266 H
   0.0681310449105071    0.2613310991372186    1.0595284864171768 H
   0.1465171157623096    0.2243707379363943    1.1429249023089620 H
   0.2473428726223798    0.3513970496443584    1.0872720252382770 H
   0.5392890548634106    0.1138532531652304    0.0557564540078378 H
   0.4762455176607306    0.2320329533082564    0.1318451555937012 H
   0.5877241351344518    0.2947670716662458    0.1576276633593990 H
   0.6087177314666584    0.2532505651099297    0.3323119906298603 H
   0.7691367173970650    1.1020536768598064    0.2660124216871632 H
   0.8139950093891682    0.3310009552021378    0.1064039995925318 H
   1.1770112994692481    0.4135204659652857    0.1866836648832976 H
   0.4025986579018156    0.5590199022963415    0.1891051725026860 H
   0.5183728924876190    0.4385537775024147    0.2508947183360850 H
   0.4225909530734842    0.4141187120423840    0.3360647701309091 H
   0.3512568530617937    0.7006218471548390    0.0425726128982504 H
   1.0517292009302124    0.4963374077724212    0.0930404263293764 H
   1.0376175299076966    0.3749978537858985    0.1404479166960682 H
   0.9378710702985641    0.5716479417068931    0.2507379751789036 H
   0.7949681793365027    0.5189255351689394    0.0446353528467571 H
   0.1564507259423278    0.9167327525242515    0.0017476384969214 H
   0.1811747839315844    0.7537425564125555    0.1448416015509252 H
   0.1893496174064611    0.8837870984192271    0.1541507518149894 H
   0.2871152573864310    0.9358537310649904    0.2867457098828589 H
   0.4375472304082573    0.9112478101541288    0.1712482954003318 H
   0.6641307916920539    0.8145031611138756    0.0946851845253995 H
   0.7447653984833101    0.9876993244212252    0.1742925958309208 H
   0.8693385055339368    1.0107824502267035    0.1409258091664078 H
   0.9593087524788128    0.8977435335600068    0.0231719898567233 H
   0.7937708339487435    0.7204246635039930    0.2178671935273378 H
   0.9485530213459318    0.8662076349237013    0.2341134476101218 H
   0.3041317557757287    0.2320408732827998    0.4019373010498188 H
   0.0539273244479699    0.0135575755388069    0.4270768135529459 H
   0.0878710824564682    0.2344982253843000    0.5651232289639575 H
   0.0204135989378922    0.1378162161427080    0.4024068338851087 H
  -0.0212784733844676    0.2191097148465430    0.6343219193418810 H
   0.0831069969347504   -0.0105249070545069    0.6126816107432957 H
   0.4336003471670348    1.0157914741265386    0.7496625906672267 H
   0.4813426675684799    0.1323240737957276    0.5828969276975674 H
   0.6102825719470220    0.0638530138775995    0.4657149770889060 H
   0.5108231168705365    0.2201306715649513    0.4988235903576350 H
   0.4623679754429104    0.3412882821362824    0.5732447537419649 H
   0.7022807172422928    0.0115603019585075    0.5928135447752413 H
  -0.1391228366362788   -0.0673363244494312    0.5471764161211938 H
   0.6915467688013254    0.1567910351532375    0.5086779281541887 H
  -0.1453203638193983    0.1986596205778904    0.5209715377946114 H
   0.2782468911077290    0.6954270638520779    0.3157647896852881 H
   0.6413200972537763    0.3347615031148644    0.5654029284199944 H
   0.6508918336810386    0.3445311517129472    0.6894446562231661 H
   0.7059064814446622    0.2540677624832677    0.6418037927113377 H
  -0.1869351427188393    0.6078789452520421    0.6317666575616978 H
   0.1180415160915705    0.7775809597903965    0.4749192835967223 H
   0.1857927146172376   -0.0287480484811026    0.4242505602699025 H
   0.3618748613683831    0.8500235269431791    0.3302569136801492 H
   0.4444143997008455    0.9011044827571363    0.6097592216571812 H
   0.5745899448448655    0.8863135702985604    0.6204254193443089 H
   0.4934338885159003    0.7833301413111934    0.6283503533713983 H
  -0.1285540150533648    0.6911315576588313    0.5507459802874040 H
   0.8116874493813038    0.8131279655340732    0.2975588978196100 H
   0.2285753268702325    0.1303224802293138    0.7745875392040789 H
   0.0715586568832120    0.2162837239299335    0.7956956177045015 H
   0.0260054267523214    0.1878337353747971    0.9100435823676987 H
   0.0598269206191118    0.2969256247281554    0.8964863442258926 H
   0.2891108330326962    0.1055509598507272    0.8838779246622243 H
   0.2116951459722643    0.3444634719304857    0.9342698047416491 H
   0.2379348577182089    0.3174700386936427    0.8113448545174882 H
   0.3188491261669348    0.2797702398695424    0.8978371219226687 H
   0.4845863914613864    0.1661855649570392    0.7407860515169830 H
   0.5663902369411586    1.0076288603630730    0.7409845928494126 H
   0.4041157169934658    0.2716529859602797    0.6542798513867194 H
   0.6141535671002879    0.1409878059484825    0.7274029724387117 H
   0.0701729966105236    0.6187537902977671    0.6549869371846709 H
   0.5755095257773540    0.2448136322281893    0.7835400117060238 H
   0.4795808693931697    0.3562959138982721    0.7026640257817146 H
   0.9285677528490741    0.4783712335198734   -0.1285135881195811 H
  -0.0438867995881944    0.4936009125681516    0.6759577783430281 H
   0.9140063746386674    0.5589457425347082    0.0203157812147520 H
   0.1674615253708406    0.0563499179942904    0.8608561863716808 H
   0.0736800100085904    0.7190487479265050    0.7372464427097009 H
   0.3452729367929223    0.9246080872110988    0.7565920314871509 H
   0.3708992198278847    0.8402416383844383    0.8457503258369228 H
   0.5053029260058033    0.9904108357057988    0.8546825958874977 H
   0.3589341979600662    0.8016317624855369    0.7242653227500679 H
   0.5226619888454768    0.7875867676294088    0.8788294017284762 H
   0.5417313864941461    0.7444207463750157    0.7649649026256519 H
   0.6669112469146847    0.8960306590655829    0.8602424498317840 H
   0.6729014871908859    0.8435802676533092    0.7355306276157556 H
   0.7085421871661907    0.7603110952997476    0.9098443443990148 H
  -0.1417859463895693    0.8050503114975273    0.6651146350473490 H
  -0.1693248903080297    0.6947761859441504    0.8367351560721054 H
   0.1876287847452979    0.1814790358002758    1.0041904889333626 C
   0.1447632577295356    0.2541073623559845    1.0708530053644665 C
   0.4888686578913280    0.2926502784701102    0.2697617180069412 C
   0.5827914094172750    0.1509907337967517    0.1839535474033255 C
   0.5313861537037116    0.2473437040959513    0.1838797039603867 C
   0.4075341942889167    0.2265040910793023    0.3139632883320837 C
   1.0707946776943371    0.4831928420221051    0.2379198681027393 C
   0.3886408710576562    0.4169575189178001    0.1888704060850410 C
   0.4536847620454729    0.3966805840925729    0.2649695572147165 C
   0.3687898120496846    0.7220554582622404    0.1787169326809599 C
   1.0165283707980632    0.4521055739437969    0.1489831040817837 C
   0.8683238536912583    0.4999624521206877    0.0454232484501887 C
   0.9081735318782281    0.4813135760625018    0.1469705219435751 C
   0.8620237370559012    0.4077067006520762    0.2077966198374992 C
   0.2397379024746585    0.8104567741199021    0.0320965969085027 C
   0.2300930886293638    0.8163542751639655    0.1355024959279329 C
   0.3008306239496180    0.8614736501398267    0.2866091691770475 C
   0.3261357879457272    0.8210824999663541    0.1897871793954884 C
   0.6746876679277894    0.8091744582415629    0.2277970466938403 C
   0.8566813561972552    0.9998903252365202    0.2753529205826638 C
   0.8247732258814438    0.8378022862250821    0.0538964352092857 C
   0.8185110532900648    0.9661706736193035    0.1786235834229052 C
   0.7827768985397765    0.7985098525200798    0.2269722293689393 C
   0.8383536802882636    0.8518696010094687    0.1596799537640936 C
   0.0613531143880161    0.0879930962857741    0.4487800284052798 C
   0.1665234642835997    0.1099335857639508    0.4393501510783731 C
   0.0144430333511613    0.2143836500372118    0.5649650925342677 C
   0.0159636057802169    0.1042729639585025    0.5462445258040316 C
   0.5391487321674391    0.1746260978272083    0.5538739467321150 C
   0.6248861102062934    0.1153270884279819    0.5279783749023705 C
   0.4690793633549433    0.3044776804540963    0.6408368615905923 C
  -0.0388289990593855    0.2739029787282809    0.4955973285374647 C
  -0.0806609022104801    0.0531423283042278    0.5438310295015658 C
   0.6435707411956734    0.2979264215113623    0.6282994989248462 C
  -0.1201887586911156    0.6389749253023480    0.6122510895382377 C
  -0.0754091654568933    0.5548273557721587    0.5587558342738729 C
   0.2266415859623023    0.8114453309424511    0.3466090564735624 C
   0.0743974335067724    0.7552351116151368    0.5978808768878510 C
   0.5009940284783287    0.8619085287420259    0.6457885520850148 C
   0.2201679104591186    0.1190005166207315    0.8471707671591130 C
   0.0821401264807853    0.2264572912297279    0.8721995144978320 C
   0.2439307193342587    0.2924141192291808    0.8817629369946571 C
   0.5596500396624015    0.1956406702814971    0.7295618481902895 C
  -0.0707905321037590    0.6127259696725811    0.7743430198788760 C
   0.8695977898344550    0.4130902673480439   -0.0239268906493847 C
   0.0474515409423430    0.6910919577861145    0.6716351503860934 C
   0.3834931290912692    0.8575921426158924    0.7717194877457870 C
   0.5010534038804800    0.9841396558628258    0.7780672372935049 C
   0.5501871464279583    0.8079360622220549    0.8070138669255037 C
  -0.0650427121085303    0.6869994909402524    0.6904861274231046 C
   0.6532029070263085    0.8339243786895766    0.8124594725241111 C
   0.5549061206973908    0.2460030684050655    0.6335361136472117 N
   0.1840522072666042    0.2058840773568103    0.9001576172852069 N
   0.4867993021595494    0.8786794348364430    0.7502205963067923 N
   0.0309824205208061    0.9997261657641670    0.0444047662466369 Cl
   0.5207966385634799    0.5783619201266088    0.6186037155397345 Cl
   0.7411213649264329    0.8704678612303456    0.5701793452328755 Cl
   0.4539502298198246    0.1222297062413669    0.9654254679355236 Cl
   0.3410260145372789    0.5033295212981461    0.7859984410468817 Cl
   0.5892067635195292    0.4334134980244655    0.8634072683343391 Cl
   0.1801432680693600    0.3516389688667739    1.0710020855228521 O
   0.5849873155623960    0.0931533196996189    0.1099909796650953 O
   0.3597310228836101    0.2702439504892465    0.3802698236373223 O
   0.5595716219715131    0.2958837880768601    0.3414093634726663 O
   0.3434474066770782    0.3486531384639255    0.1507839087987339 O
   0.6378404878874715    0.1251809767552987    0.2482537702966426 O
   0.8163784574849892    1.0791822303739416    0.3097583919020985 O
   1.1607965446758619    0.4554315312533985    0.2435626217612681 O
   1.0387263391928396    0.5248702680611886    0.3075605045202888 O
   0.3812832398632747    0.5057911933857610    0.1465790123687487 O
   0.3650438917080508    0.6679461921819748    0.2491308353406041 O
   0.3968894846180462    0.6886079657702411    0.1002868366449341 O
   0.8114478397702557    0.3357126200577539    0.1771244222039973 O
   0.8958796616292645    0.5706327449699710    0.1972056588658185 O
   0.8765605219044700    0.4046773823890079    0.2933421585733045 O
   0.2027045155518545    0.8733118520890992   -0.0256308629270096 O
   0.2861427655926173    0.7481676143317127   -0.0111094802094746 O
   0.3814617174034689    0.8898969987805899    0.1376975967647260 O
   0.6240457198989225    0.8089764588779786    0.1484271883509805 O
   0.8881728046967866    0.8661471551180975   -0.0023262903172855 O
   0.7497065562102599    0.7951597032882367    0.0227191762915328 O
   0.9390585783415882    0.8273486398255269    0.1772163781895437 O
   0.2193408708338883    0.0343215887984510    0.4209777631479558 O
   0.1991497207650743    0.1912515643891017    0.4486617395693269 O
   0.0746700684894312    0.0614583015747604    0.6168586417231154 O
   0.3898375137779343    0.1450946727480598    0.2838205342517277 O
  -0.0736243900549519   -0.0411910484864138    0.5454848439688926 O
   0.6497795110584901    0.0594178281333155    0.6104649141826244 O
  -0.1322999353949987    0.2677779584155172    0.4947223534022657 O
  -0.1537102135434852    0.1015002528706392    0.5522917464717138 O
   0.0020838150264573    0.3318987923162810    0.4446638137704465 O
  -0.0494477100334561    0.5533888003960094    0.4795968477251410 O
  -0.0626402919907201    0.4722351828425638    0.6113454624078566 O
   0.0787132171755615    0.7216508195628430    0.5091740446289366 O
   0.1647815515980041    0.8582473405099343    0.3934780470158045 O
   0.2188728942914894    0.7174460330780023    0.3522615630396492 O
   0.6343939038927774    0.8154708380035376    0.3011563274359857 O
   0.9180565499996087    0.9535699941208108    0.3198603142233734 O
   0.8278143707395550    0.3378121333094312   -0.0053287925726262 O
  -0.0189168079805600    0.5409203124726223    0.7771511606193117 O
   0.9078636555190721    0.4145975105034146   -0.1071289450262652 O
  -0.1244138982548455    0.6350098980468655    0.8469986980043406 O
   0.0923407503036137    0.8421042723975004    0.6170718124168820 O
   0.7020959156947690    0.7506422463776712    0.8424552363548437 O
  -0.0997495670014807    0.7779315986633618    0.7131525812240369 O
