Li1 Co1 H90 C51 N3 Cl6 O45
1.0
  13.9847981295999997    0.0000000000000000    0.0000000000000000
   0.0000000000000000   13.6481867504000007    0.0000000000000000
   0.0000000000000000    0.0000000000000000   14.1058734980999994
Li Co H C N Cl O
1 1 90 51 3 6 45
direct
   0.8717868822428769    0.5907170690614791    0.3286855471676038 Li
   0.6106333091877283    0.8132572537428606    0.7400680823067165 Co
   0.1508798010987344    1.0138458044468406    0.1798879558463209 H
   0.4834708729823752    0.2505502699909774    0.0103415608412800 H
   0.4128120768494157    0.1724717662682196    0.2295268527281278 H
   0.5845392607346716    0.1693131049171990    0.2713817580680576 H
   0.3854087495758627    0.2567606187757722    0.1488859764184673 H
  -0.0609838219970354    0.1638200675364053    0.2945876942367104 H
   0.8424614678751166    1.1128443032738295    0.0910292261711376 H
   0.8056986919497479    0.3019343851723912    0.1681552545696298 H
   0.7683416993669065    1.0167319021183021    0.3208505130582389 H
   1.1302775638029259    0.4004334037296073    0.2827507810513987 H
   1.0552224939854808    0.4163481185538043    0.1262330013975982 H
   0.6140827690621541    0.3431427896502620    0.2335521263141733 H
   0.4938723102181489    0.5576980308374606    1.0499631058647259 H
   0.6117488061620450    0.5980792192018305    1.0663541503492198 H
   0.3905400356577200    0.4148159003637662    0.1927811666088091 H
   0.5226830514434514    0.6865210043323441    1.0727862227772209 H
   0.9856297840313732    0.3427522615825065    0.1961152387601249 H
   0.7919702134818579    0.6224033295082981    1.0267706392624936 H
   0.7894582001031560    0.4185704650496940    0.0262115457826700 H
   0.9110516606766652    0.5911830650297577    0.1492390208435908 H
   0.1921503288998037    0.6902973301507530    0.0849416910736786 H
   0.2349768319676124    0.7672899753436538    0.0009972263682851 H
   0.0872428439004501    0.8343333135345812    0.1949242455187448 H
   0.2182293610474370    0.7245048046334944    0.2843338095680664 H
   0.3549914352851654    0.8482780230758997    0.2290561268279633 H
   0.3733277743315792    0.8012190245623296    0.1123955031365872 H
   0.5647721538062637    0.9879280758526278    0.2837581628347327 H
   0.6089543432289488    0.8133971990729568    0.3405557798066924 H
   0.6650152168099981    0.7442847215511824    0.2459214418353639 H
   0.7347573747561776    0.8986583419105499    0.1265293318588463 H
   0.8467389697343237    0.8685781556185527    0.1531281809163356 H
   0.1606754376699945    0.0526294729355860    0.4731610381944094 H
   0.1397806062042822    0.2499450613906659    0.3998566093591955 H
   0.0079903591860568    0.0763080762482589    0.5434856444751630 H
   0.5810157204201565    0.1195335984944804    0.5991728729269001 H
   0.4810736270808387    0.1882313689124094    0.5544673110852362 H
   0.6145489895924454    0.3107274946304284    0.4974129925342862 H
   0.3618031174501281    0.3240362222527755    0.4130957753013227 H
   0.6876219070939888    0.2347957962332309    0.5613888250214806 H
   0.6930628150924353    0.3561130107673501    0.5965144058702482 H
   0.0455318378069582    0.3038958178879287    0.4609690955952385 H
  -0.0559269023801326    0.0246931611768957    0.4492502183472421 H
  -0.1422506368246662    0.2228176482938932    0.4080248380063275 H
   0.1146726284740350    0.3491897467669340    0.5870389203557919 H
   0.0330640139324790    0.6114187201428375    0.4540292914056444 H
   0.4198225462956989    0.4625244357104793    0.3017074234766989 H
   0.4604199145764979    0.3549861211459468    0.5806771732429961 H
  -0.1135787892739094    0.6560686074241746    0.5706277424141224 H
  -0.1708674245888701    0.4379168445233088    0.6507265750140452 H
   0.1415203524469186    0.6464570742293967    0.5203913639228896 H
   0.0383647697469728    0.7681010720997615    0.6373661829741346 H
   0.9572432462836629    0.8508820319929787    0.3801435444407093 H
   0.1703995680249522    0.2497677484593397    0.9331528990936288 H
   0.1223466756076041    0.1935368355889903    0.7563627130526225 H
   0.2024043203175620    0.1248727692819745    0.9406143299659655 H
   0.0356704155166999    0.1930349374156084    0.8487518869790396 H
   0.0877390970415885   -0.0054588295253079    0.9566594192708204 H
   0.3199612549808028    0.2330563710308827    0.8753564074329164 H
   0.3230946573791722    0.1807014309155551    0.7303189519165620 H
  -0.0164454601109482    0.0745964935723173    0.9396643710710553 H
   0.2121849405833986    0.0175947823393435    0.8526367935044938 H
   0.1935361193717434   -0.0312732476925912    0.7301403029303550 H
   0.0109592972869308    0.0724518863409470    0.6752021950489551 H
   0.5607324101162620    0.2510140678650660    0.7889753690545329 H
   0.4712769894225503    0.1054035163431390    0.7452212548493308 H
   0.4429412210884145    0.3172631613553423    0.7002839455727815 H
   0.4207321053670650    0.0547183951141431    0.6410384121350566 H
   0.6699956247754574    0.2021987920936912    0.7331440162420976 H
   0.6486438685875732    0.3313632028860871    0.7480385210048335 H
  -0.0571067549491215    0.1067575423641750    0.7709006287674927 H
   0.1306034984040375    0.5436300082120834    0.7519659630031942 H
   0.5111526383115880    0.4805067511995905    0.8985921184326037 H
   0.5846008275869078    0.5403349917514769    0.8039797571222769 H
   0.6379072102097739    0.5064960643945908    0.9008110522692226 H
   0.4039989356901500    0.6039078322956298    0.9166718211914829 H
   0.5238196141490908    0.4134171064910607    0.6671381783104438 H
   0.4585096975141967    0.6685347322736909    0.8143584125114465 H
   0.8745884957976033    0.3124339484199267   -0.1169649827940279 H
   0.7513911507924325    0.6137670174358139    0.8878590007692140 H
  -0.1171290729133215    0.5886054332429587    0.6643471423632333 H
   0.9047297960933736    0.4421284662611426   -0.0207944053262288 H
   0.1054519018818458    0.6749985945883985    0.7287621536081866 H
   0.1370233265036633   -0.0869451119406189    0.8329123857932325 H
   0.1028712425354937    0.6958577757533730   -0.0890383180573095 H
  -0.0116259411321692   -0.0498009836200461    0.8875647970816111 H
  -0.0424179479962910   -0.0242342173981688    0.7474820152343077 H
   0.4397806463278503    0.7306536067809696    0.9254405089311440 H
   0.5996220669393280    0.7791772687231385    0.9380714176107093 H
   0.6079868641223779    0.7259819239291702    0.8272303555374816 H
   0.7686062723672253    0.7445331061946516    0.8958017914099418 H
   0.0832056029280190    0.0754574137967314    0.3588708455156538 C
   0.5298690400482704    0.1995456924063690    0.1379125333331561 C
   0.4442447794116066    0.2300120105777418    0.1965320863946080 C
   0.4734400524656966    0.3134318831821837    0.2640039802924369 C
   0.8622486680503052    0.2864312268503673    0.0140747575133679 C
   0.8182423124135075    1.0177342330689392    0.1764468360881905 C
   0.2995669670292070    0.3505957943504665    0.2955234746406520 C
   1.0244047448834903    0.4871798720811853    0.2510292432068780 C
   0.5418218046467238    0.6212815687733382    1.0380574269982155 C
   0.3921603665191314    0.3926021070193049    0.2662385104691215 C
   0.9913038022949654    0.4187397915721299    0.1715694351949195 C
   0.8623566424369218    0.3983356891742902    0.0320020414943324 C
   0.8173971089368137    0.4406125872379168    0.2059855952480626 C
   0.8978158600390985    0.4486285238601787    0.1270631520438220 C
   0.0779034169891991    0.7745217052287324    0.0330555033733151 C
   0.1865785645255239    0.7692572696436981    0.0606468467986211 C
   0.2194299504191536    0.8396351167208453    0.1407064049785604 C
   0.2355517419466834    0.9441867341698211    0.0912014948364086 C
   0.3292463371676641    0.6958541122630564    0.2113946895526641 C
   0.3225898234920775    0.8034141879600699    0.1759193962241507 C
   0.5701408405262448    0.8620967085503254    0.2088241291400186 C
   0.6448719156776236    0.8182637796096023    0.2710216243974499 C
   0.8269703611753736    0.8174688022108880    0.3282523942685067 C
   0.7432823458637449    0.8762648910009598    0.2807253836165041 C
   0.7840180071668726    0.9116703268172478    0.1794916670237426 C
   0.1330647423691647    0.2135453543024374    0.5456287233850988 C
   0.0815352177151959    0.2316429964667170    0.4559445928581662 C
   0.0212726388642200    0.1538780875150649    0.4074087825737326 C
   0.5023714675816310    0.2651851811079539    0.3562350640445519 C
   0.5214190575097395    0.1709184463739575    0.6153072867248587 C
   0.6431121476944226    0.2980239756083929    0.5689568781459028 C
  -0.0356820624206088    0.0942181477083256    0.4834353398900485 C
  -0.1240809072622368    0.1445083446811861    0.5196128513407742 C
   0.0813693232933744    0.5103172313344755    0.6210275989062254 C
   0.0275945034475115    0.6054098633254587    0.6091757983053964 C
  -0.0860917997272826    0.5876067657826384    0.5973920544612176 C
  -0.1187622748936673    0.5034266456676840    0.5352868611799932 C
   0.0455053805069264    0.7593167550184843    0.5021818570791909 C
   0.0639482638156307    0.6536287228732820    0.5159227005672675 C
   0.1896247293400044    0.1854229372356611    0.8889408196301342 C
   0.1032266284305164    0.1592912608069554    0.8245357333288590 C
   0.0301058017640504    0.0174724217627672    0.9097626425423814 C
  -0.0076923841733765    0.0491161857219131    0.7473848925711714 C
   0.6172676559362611    0.2627980508176210    0.7368325506676338 C
   0.4931149163750743    0.3439194495973930    0.6492392513114169 C
   0.4409411922184376    0.1290073844533522    0.6764180006495305 C
   0.5679779204955310    0.5347176887791423    0.8818423581265989 C
   0.4535921435128672    0.6609498419220868    0.8922451169504155 C
   0.7265913648544483    0.6809781434832439    0.9220596477596311 C
   0.1621613368447575   -0.0155385567825546    0.8020153271985483 C
   0.6254651285731635    0.7091950786001900    0.9031668085436906 C
   0.0753699517456065    0.0530712898677747    0.8156089554148956 N
   0.5689263789485656    0.2681342908128618    0.6422294053764367 N
   0.5504121324359914    0.6334333661536853    0.9307453913271246 N
   0.6603043872799987    0.6918030246708984    0.6444362874957322 Cl
   0.3957228062153150    0.3301491221951473    0.9627341937264075 Cl
   0.8293450826187748    0.4044106353569815    0.7980999369175111 Cl
   0.1981489853854086    0.6517603428117875   -0.1868869199312673 Cl
   0.4685972224604031    0.8778445880255018    0.7327335489285506 Cl
   0.7402526274790140    0.9078698219627492    0.7844765338701291 Cl
   0.0657831133259493    0.0602700483400033    0.2756530284724120 O
   0.1847279836476189    1.0201308884340954    0.1200759916943920 O
   0.5349740833487447    0.2071357116444165    0.0461188560274290 O
   0.6021583924315727    0.1595953305032379    0.1816538868964862 O
   0.8447260697454123    0.2312993610750146    0.0817522395302446 O
   0.8307194320961062    1.0740450100281915    0.2445191890785485 O
   0.8426252171104489    1.0434534004879894    0.0876554542451090 O
  -0.0433603999271561    0.2089909031407710    0.3453863916797662 O
   0.2291097469200039    0.3430746487303722    0.2454166875568742 O
   1.0872680048213830    0.4560903942069494    0.3112254444640616 O
   0.5516268085323196    0.3710930226721555    0.2258404450762370 O
   0.3864026859824655    0.6328999619635802    0.1858407952795761 O
   0.7760050205680303    0.3560067695481671    0.2094054472697399 O
   0.7394524729185905    0.6682988034972983    1.0219839807114228 O
   0.9871292693872337    0.5709049134290046    0.2594058956712516 O
   0.8967997567054420    0.5479377599358263    0.0935225138080030 O
   0.7855067665902878    0.5054869926217712    0.2594739524279018 O
   0.2960367051303596    0.9525101841692630    0.0283893619954794 O
   0.1573768559119667    0.8391801112235168    0.2193984477045578 O
   0.0185110687906229    0.8122439323212736    0.0867203827657159 O
   0.2643923441679138    0.6650829916973379    0.2733582397091099 O
   0.5447274597461702    0.9567415154850005    0.2250407781855961 O
   0.5335541844116288    0.8233135346620807    0.1385470208040104 O
   0.8984787226642214    0.8816758661986605    0.3419615771862499 O
   0.7212305438182606    0.9600364586758008    0.3353451843756544 O
   0.1519895775757470    0.0253899570351237    0.4057165796766051 O
   0.1628084681022939    0.1253863906243696    0.5652260209248247 O
   0.1546195762113477    0.2881662558643355    0.6037000650932415 O
   0.2950921080130054    0.3310635293781846    0.3892532248881703 O
   0.3655064243924272    0.2010865564335545    0.6759330962583971 O
   0.5648552440296071    0.1929162403293488    0.3490416066515257 O
   0.4668876518410463    0.2945971467661930    0.4343500421881187 O
  -0.1519039760254846    0.1206993211132402    0.5986589026292809 O
  -0.1796333716453763    0.1998592871774748    0.4644438183769650 O
   0.0708807914861444    0.4429800812201524    0.5609772943211109 O
  -0.1588129066446185    0.4254050725844470    0.5802635866614358 O
  -0.1028049476636329    0.4994829716116104    0.4511160368662828 O
   0.0417341426591400    0.8193892038348789    0.5811971693992772 O
   0.0364698550149603    0.7933527781544064    0.4251822299276856 O
   0.8231655154059251    0.7292761344219070    0.3462796366108013 O
   0.2775759452675797    0.1898308487846613    0.8356920789476679 O
   0.8807716383212683    0.2530956630629898   -0.0717866391710088 O
   0.1228779667947306    0.4883474264451035    0.7009964147439642 O
   0.0349839558401973    0.6683119920624383    0.6936881115740906 O
   0.0591566322612097    0.7419869804245758   -0.0545938010222287 O
