Li1 Co1 H110 Cl3 O55
1.0
  12.4245179443999998    0.0000000000000000    0.0000000000000000
   0.0000000000000000   11.4970560491999994    0.0000000000000000
   0.0000000000000000    0.0000000000000000   12.6781501596999995
Li Co H Cl O
1 1 110 3 55
direct
   0.4143829962047377    0.7228251292363023    0.5525355427771460 Li
   0.5210173144075740    0.2379096886102706    0.7038927972526213 Co
   0.0784537457760557    0.0617245859777625    0.2117452898162805 H
   0.1360695827206713    0.0397832299540565    0.3189998958014945 H
   0.0999877804321520    0.1118338485172008    1.0321283795403193 H
   0.0567592219960414    0.4401075373510148    0.0433562130891347 H
   0.1517643566243856    0.2362988414576825    0.3288783085369817 H
   0.3657122950390191    0.0408080140335270    0.2013707479199325 H
   0.4799436886714535    0.0933140640533497    0.1586720897418052 H
   0.3933922421837699    0.2033234433751116    0.2550686448074473 H
   0.5684372628221965    0.4289603358890443    0.0480225089804747 H
   0.5842334491111350    0.2283359334220754    0.1446597931715456 H
   0.6158644549786209    0.1455060336699328    0.2373547041164882 H
   0.3577763734651410    0.1202917528349558    0.0310661709270463 H
   0.6382492268663186    0.4231597205215441    0.2050968435573041 H
   0.3604863377591823    0.4218106795206455    0.2491718854964841 H
   0.6737170013081123    1.0271630384390211    0.1143217710504146 H
   0.8619641438102635    0.4072460814806411    0.0323252662839338 H
   0.6805220943007229    0.3783630353704930    0.0382454517253859 H
  -0.0041657976616572    0.0222754958751219    1.0475091722856085 H
  -0.0747249134296160    0.4378652241980062    1.1915286054836771 H
   0.7325909152316457    0.4362465489545037    0.2849799485247219 H
   0.2369716865777510    0.5064149465466973    0.0096526368877536 H
   0.1979939168029264    0.7990394223779775    1.0004912720011629 H
   0.1117789018789226    0.9066278341163087    0.1176866152479224 H
   0.2000495297542129    0.8316686448845603    0.1717686375747683 H
   0.3207962667071892    0.5081571316690698    0.1546233918360837 H
   1.0129881117740052    0.7326050241519075    0.1434182871314900 H
   1.0115393634136625    0.6359341898753940    0.3080337849534045 H
   0.4428999979576866    0.5521336068498777    0.0019625560185500 H
   0.5466488923428401    0.6169623766506357    0.0012413940284465 H
   0.3819938120286724    0.7508218614973752    0.2422623601401389 H
   0.4262080022659362    0.6160195265894016    0.2364689282060799 H
   0.4984506441146334    0.7636938523241310    0.1135811267228337 H
   0.5901958534741460    0.8539569592933458    0.0946049356405778 H
  -0.0643076078585506    0.5476194077559617    1.1238846677484979 H
   0.7656771083410759    0.9440548065654812    0.0721952783624120 H
   0.7556437210855014    0.8813222255539981    0.2105337566031132 H
   0.9088794448793666    0.7436687259774589    0.1998484438174500 H
   0.8345667025957796    0.9033922232050625    0.2991649832288900 H
   0.7221832679829826    0.7207080655379224    0.3233909149406239 H
   0.6746852481289416    0.5834442309313397    0.3256712160599383 H
   0.2653583009782691    0.2975510434984825    0.3402025157905261 H
   0.2282783915554936    0.2467867437070927    0.5122268231640560 H
   0.1764904668344374    0.4391098906533807    0.4131966031252590 H
   0.2081512525293303    0.1940828169447140    0.6308592719877723 H
   0.2422242042441941    0.3599913757824981    0.6639989646643529 H
   0.4423494735807563    0.2863777484001309    0.3578344255868437 H
   0.3790021466645644    0.1610961116197113    0.5883672685634534 H
   0.5396353405583802    0.4110975022104792    0.5690592467372005 H
   0.5798453512996965    0.2941136417992231    0.4181192455623539 H
   0.4832862730828446    0.0608747162408328    0.5721866745954093 H
   0.5657272985281553    0.4092961715123096    0.3647889101835214 H
   0.5993583819931145    0.0919990317585343    0.4108437362145310 H
   0.9811317450504660    1.0284590223792784    0.3350180054974602 H
  -0.0468557436518004    0.2214924423872139    0.6660923299949169 H
  -0.1129847479058706    0.3383832354953777    0.6394031051681298 H
   0.9102879502296999    0.4621958005475460    0.3595539193399068 H
   0.8609822143660312    0.3298175644593691    0.3517286452462651 H
   0.7026992122567715    0.1730713511428395    0.4047837038728870 H
   0.8519758287258997    0.2307991726964434    0.5239777488214570 H
   0.8716868550285645    0.1517885115226024    0.4236389782614068 H
   0.1350546540082311    0.9698962044614818    0.6488816172922395 H
   0.2347711987904302    0.5422101969341768    0.3649001251464488 H
   1.0852162661390989    0.5870042727215897    0.4035295776951942 H
   0.2276473811585443    0.8372631205246505    0.5576309233481495 H
   0.0565313660733675    0.8762896328839792    0.5926525940498717 H
   0.2921118540326006    0.8442153350444327    0.4516470074712772 H
   0.2967792383335053    0.5591597533394063    0.5378827742218006 H
   0.3543364009695269    0.5197496645252765    0.6435149037620371 H
   0.4696648190548208    0.7245507883889668    0.3590948618333551 H
   0.5732760823457418    0.7095634734395898    0.4174243492337077 H
   0.5127031085396063   -0.1066776547101675    0.4627519398333759 H
   0.6169469919478771   -0.0589763129359695    0.5332070132272327 H
  -0.0978815462492963    0.5341411747772868    0.6172721163041646 H
   0.8981506584108274    0.7903719861600830    0.5220247825221064 H
   0.9205579663841306    0.9635989402148630    0.4361423796254235 H
   0.8706324881663150    0.8986170877473363    0.5901096363159839 H
   0.9159702632430448    0.6400517656963186    0.4641440987664752 H
   0.7937200474361127    0.6426446033647123    0.4825560908204898 H
   1.0103240245113747    0.4705014050076238    0.7589221186608565 H
   0.1047194730630518    0.4443834145659842   -0.0726211165274435 H
   0.1335479557134745    0.2736797151492485   -0.0254254300540346 H
   0.2719814955656366    0.1487190300963154   -0.0658291162028443 H
   0.1940782719289998    0.4405346031997842    0.7557576191483385 H
   0.1328992383921209    0.1792390169954326   -0.1325336424426574 H
   0.5667848848312055    0.4620705510929171    0.6893425673155777 H
   0.3507917966478880    0.3094436531730708    0.7869766846282640 H
   0.6584174137626916    0.0676258358029054    0.7494333526749166 H
   0.4059689876719464    0.2155987597166215    0.8833763947283153 H
   0.8369812831963509    0.2566362216530473    0.9058165769643910 H
   0.8579076484013034    0.1605968533769545    0.8122145936267776 H
   0.8044327367006480    0.4454758681424695   -0.0691860728143289 H
   0.6970321915872303    0.1634367108030886    0.8236594809464773 H
   0.8584710505414369    1.0477074281496754    0.9404351920203264 H
   0.1610194440663760    0.7548107087121533    0.8496096389628882 H
   0.1168543503013237    0.7890455596440479    0.7364306671156299 H
   1.0948826371433866    0.5571540224895853    0.7711313130662067 H
   0.2944483631937536    0.8174684879660108    0.9248966475545727 H
   0.2740169870119183    0.6279669329003901   -0.0102424579662080 H
   0.5419589719563301    0.5500687304242599    0.8370447144278905 H
   0.4612258598558236    0.8232395305456124    0.7500525281777398 H
   0.4569198577848046    0.8578188174777366    0.9595152626105081 H
   0.5409013856532799    0.6489288207931406    0.7477201689906722 H
   0.3892794065607966    0.9650514859734063    0.9366570383152015 H
   0.5779998068606597    0.8323531679456223    0.6994718052866036 H
  -0.1520816369903234    0.5217258225871989    0.7301805439508263 H
   0.7110729777795531    0.5938738573928323    0.8126641860301014 H
   0.8988911297950026    0.9147168613944240    0.9277125157648641 H
   0.9796910452921251    0.7566920598952246   -0.1802125224358491 H
   0.8225863585159443    0.6430333985467894    0.8507533389362559 H
   0.8824639331091151    0.8113982383559066   -0.2398639692536943 H
   0.2940282261692542    0.9003653613848646    0.2905801346012117 Cl
   0.0842332859015835    0.1332463735102515    0.7180604792675385 Cl
   0.7333354109168219    0.9140819162424859    0.6778669184103875 Cl
   0.0825398600403828    0.0896786986327463    0.2856677460259471 O
   0.0644816946448291    0.0471418963498672    1.0821198997555206 O
   0.3981554048484972    0.0958307952822988    0.1548332016243015 O
   0.6195040328038822    0.3747864676105349    0.0849569981686892 O
   0.3900086099021692    0.2762212353327596    0.2986909393088942 O
   0.6077844634289086    0.1467385230949962    0.1616725274650400 O
   0.6575940417778967    0.4591393659394495    0.2749280088967236 O
  -0.0602744533953961    0.4605962606373896    1.1152004355369272 O
   0.8723307431887170    0.4071408371472376    0.3182702940943462 O
   0.3015810342878417    0.5559023977311759    0.0147151104498682 O
   0.1398419624789640    0.8287713814583880    0.1173206312564448 O
   0.3296891670590938    0.5039195251207926    0.2303907544165826 O
   0.5333590407172949    0.8109128967192197    0.0549955294043069 O
   0.4481291746783241    0.7011587131612642    0.2269825284959470 O
   0.7003103871826061    0.9488821292959693    0.1187230440513742 O
   0.9610987746677251    0.6871803521519533    0.1806476931611129 O
   0.7952782567836815    0.8348694642806317    0.2636093229533955 O
   0.1955044842037373    0.2917486885552236    0.3730472127498382 O
   0.2630040848927119    0.2228867123578396    0.5802154484084502 O
   0.5673370189285363    0.3956996473820409    0.6416479121503397 O
   0.5360005918943200    0.3645247102097602    0.4276198429273286 O
   0.4533092549267501    0.1265664025967111    0.6159304379216139 O
   0.6270809867284753    0.1630426968937352    0.3772426197555916 O
  -0.1190533938153069    0.2510469647402335    0.6377514446548664 O
   0.8276851478841509    0.2217177174479700    0.4499732617171489 O
   0.9059578023526752    1.0095498338818345    0.3693936829038802 O
   0.1272249739807781    0.8843273426772119    0.6331995187608632 O
   0.2006121270341461    0.5209882424654955    0.4315912424900225 O
   0.2961755931833624    0.8205771098468692    0.5267518128258253 O
   1.0048912181600889    0.5969311617888081    0.3776354215395482 O
   0.3667006633648530    0.5706600886804000    0.5822386142234075 O
   0.5538121481245354   -0.0374274052034340    0.4922341588709871 O
   0.4971073324405154    0.7478445775863010    0.4342162311185518 O
   0.6914947534099197    0.6587756893754573    0.3730243387503708 O
   0.9275763473297914    0.8721903226085215    0.5385697829644235 O
   0.8608856311420082    0.6465395134885189    0.5244099885355297 O
   1.0821577973783751    0.4751765148592227    0.7893839758825523 O
   0.1196786047437921    0.4254455230685212   -0.0007032903055796 O
   0.1453826200970753    0.1946664446117694   -0.0518224986945214 O
   0.2644399554898517    0.4162588234866444    0.7233435843858946 O
   0.4154333387659863    0.2640642101428436    0.8146912956380703 O
   0.6316397149023543    0.1373587306038999    0.7845717596497825 O
   0.3459038806521312    0.1201812897742762   -0.0458187048412231 O
   0.8169555565554116    0.1760895150842438    0.8783046769153815 O
   0.8078018814986453    0.3783299834310770   -0.0236024511723468 O
  -0.0938121730771332    0.4860314675937259    0.6818351629386721 O
   0.1103969569151955    0.7279716641185183    0.7896016732567933 O
   0.2355527180448152    0.7553003992882370    0.9437479781500809 O
   0.4089405315310497    0.8903897641964016    0.9082696162176140 O
   0.5719963546274389    0.5726292884392874    0.7699387100594951 O
   0.5022359016361292    0.7892473504320612    0.6962513039133207 O
   0.5173423227335043    0.5431234742075124   -0.0224618273575282 O
   0.8825041761191245    0.9765587796174350    0.9783429304479466 O
   0.9030361598259837    0.7881731624010426   -0.1707813358278787 O
   0.7820262335875452    0.5706600886804000    0.8391901378262078 O
