Li1 Co1 H110 Cl3 O55
1.0
  12.6775957294000001    0.0000000000000000    0.0000000000000000
   0.0000000000000000   11.7312421554000004    0.0000000000000000
   0.0000000000000000    0.0000000000000000   12.9363942359999999
Li Co H Cl O
1 1 110 3 55
direct
   0.4726225691835950    0.8313794863752386    0.6902302492569151 Li
   0.6390366152717998    0.5158937133451102    0.5786582011522426 Co
   0.1971215929298507    0.2487071734647453    0.1530705219611707 H
   0.1879337309340720    0.3692459860873362    0.0948304137629097 H
   1.2886298169939494    0.1293080526005285    0.2696006749929108 H
   1.2735954205619835    0.0804979613574263    0.1489642772819404 H
   1.1347047320131594    1.0348472835940759    0.2236852530318944 H
   0.0390004126376571    0.3662045349326026    0.1797185966650685 H
   0.4214251644189994    0.3816479123345946    0.2915202296096753 H
   0.6202246886975102    0.4704177106394266    0.0704005769602769 H
   0.3867861043500929    0.0155366392821499    0.0196082164297455 H
   0.5473047108300859    0.2294082793663240    0.0028345315805201 H
   0.6610305332000532    0.2506600783401641    0.1418742026964924 H
   0.7144223603609621    0.3325013690817466    0.0645899160737358 H
   0.7285307136968564    0.1069520227337954    0.2934836824495181 H
   0.8765643030349208    0.3882746615713935    0.0601419223785629 H
   0.7724451917953269    0.0679111442033681    0.1883794335223907 H
  -0.0611008705304930    0.3571492278651323    0.2432618054606418 H
   0.2045275713191334    0.5365522247618610    1.0120053841253391 H
   0.1092018466474259    0.6798516279905450    0.0424190549537300 H
   0.0920668153183995    0.6137580302513580    0.2858841923438116 H
   0.3166671307707017    0.5035642431931858    1.0543974131556453 H
   1.0085136123286926    0.5395996428891515    0.1739867057959999 H
   1.1316442147961587    0.9287886085178577    0.2862382322653266 H
   0.3395594840366262    0.8410229664518923    0.2760360076274349 H
   0.3485146520687412   -0.0743626216852443    0.0994674091192408 H
   0.6182148438859336    0.9908621716029743    0.2048415168599072 H
   0.4211837937312669    0.5567205920042925    0.2106916787071238 H
   0.5681635554915189    0.8733571383132579    1.0454613836955735 H
   0.4867806164846107    0.5929699502876566    0.1100222049540822 H
   0.3979151861579947    0.7595652668032556    0.2000194622083563 H
   0.5224695601658440    0.8919127181160157    0.2296405446374648 H
   0.6536103565350214    0.8313138496771124    0.3062955987359568 H
   0.6504993565598025    0.6069258466736706    0.0599398567989035 H
  -0.0466493921973319    0.9648717439942789    1.1825784170543581 H
  -0.0564114955678467    0.9585126560978909    1.0648562780859891 H
   0.9686480091979702    0.6626224209447282    0.1976988773952822 H
   0.8167879845455580    0.7209436107161854    0.1344022597240828 H
   0.8727544323756136    0.8241262050199619    0.1729748318718446 H
   0.7671610668374181    0.7577922235291956    0.3030234350071952 H
   0.2162687565704354    0.3962550611539650    0.4712287293344668 H
   0.2458303554728904    0.2069775771001642    0.4885782315145579 H
   0.1980657782671572    0.2333618248976172    0.6115777297497013 H
   0.0594823246296788    0.2334777546501519    0.5285244476372806 H
   0.4137352205147372    1.0356059415334571    0.6616913849285074 H
   0.3372364883654750    0.0535926263708230    0.4129628798056676 H
   0.3611471735198396    0.4611569692310675    0.3646820382816911 H
   0.4181848023758453    0.1412385880157892    0.4105286620920200 H
   0.5497641677070466    0.3365989743790572    0.4941176421642876 H
   0.5306035945838100    0.4555872265614966    0.4275527258289719 H
  -0.0069854834615547    0.1271650570279387    0.5038259115405023 H
  -0.0537327542098741    0.2750095884957032    0.6312841483505328 H
   0.6920190588152799    0.1602749353217055    0.4775643433011406 H
   0.8265019715371458    0.2557567253284354    0.3625825351663317 H
   0.9331680956874856    0.2640158677718808    0.4029067546113706 H
   0.7946221097221225    0.4462233417703678    0.4306934773597912 H
   0.7684255021721736    0.0618573095744998    0.4556641140076029 H
   0.1992000627408806    0.5006625896812148    0.4021924906649081 H
   0.2646903984261071    0.5260597297328210    0.5780444288865596 H
   0.1277480288272805    0.9426234606034309    0.4793306778440701 H
   0.1811453775398695    0.6787801302042501    0.3572464269169479 H
   0.0539260660532481    0.5979813548108288    0.4629806813812690 H
   0.0353479850805440    0.8986553971053491    0.5517820876342687 H
   0.0176557818594041    0.5728228936615000    0.5788205338673478 H
   0.3754937423710779    0.6875771526024703    0.5987835927606312 H
   0.3949753542848605    0.7895927775590412    0.5205747826747046 H
   0.5194429610520216    0.6882377817069880    0.5079391133360942 H
   0.6272189170900728    0.6907515820027584    0.4339687331402692 H
   0.9694762419499935   -0.2468362585940726    0.5262340103284403 H
   0.7271716231904408   -0.0937510203720195    0.5364408730439065 H
   0.7579416531177529   -0.1221435806472058    0.4206450822947848 H
   0.8799797771456456   -0.1303976085427452    0.5222684540023013 H
   0.8809578805861302    0.5274943604204376    0.4940341567679478 H
   0.0437173559190494    0.0002488293789636    0.9042319215541260 H
   0.0215766357074825    0.4392735235908435    0.6915072666157420 H
   0.2013290153101291    0.2613102719296374    0.7989351924076598 H
   0.1538215846540717    1.0800172658500538    0.7616605089678097 H
   0.0808545158387467    0.2549256112937198    0.7368993588237768 H
   0.3003951179692836    0.3668481155441004   -0.0897915880429419 H
   0.6181793481965612    0.3203048771753769    0.6692220768835264 H
   0.6024500250459927    0.4200982310668159    0.7451342655571803 H
   0.4546089012236365    0.4326655276963665   -0.1576752644352544 H
   0.3850933543635766    0.2769420351794983   -0.1271721742540748 H
   0.5672824736019855    0.1387844574455881   -0.0747325231716910 H
   0.9235369319711002    0.1382099232308206    0.9075326867612633 H
  -0.0914165556338378    0.2789750679721102    0.7479890023042430 H
   0.8137692733627073    0.1216251492211525    0.8726929940479901 H
   0.8445471912209909    0.3235756305612268   -0.0366311797054915 H
   0.0475393661041220    0.6282705599344686    0.8794104764016254 H
   0.1991243386035527    0.8799301847970444    0.8542179850431701 H
   0.0389930374221987    0.5517219738508852    0.7413859258641105 H
   0.1447733390364913    0.9828238071441353    0.6827784046206615 H
   0.2582696226151835    0.8904550719628221    0.9583814772356170 H
   0.1769797611937408    0.7230823441655200   -0.0426438288703990 H
   0.2352439633158382    0.5785111233575585    0.6813777051931830 H
   0.3128832902836009    0.9717422866812608    0.6927131667850944 H
   0.3762636044339109    0.7405059040317625    0.8782200364908546 H
   0.4450116556104291    0.6525356800495595    0.8241709724901429 H
   0.5479554651352472    0.8455868480332946    0.9343407751414790 H
   0.5281259954656146    0.5175261065517567   -0.0951191931501059 H
   0.7705173814658555    0.5021517755464949    0.9099444870999679 H
   0.6914243088200174   -0.0193812316963674    0.9350828675533881 H
   0.6911395545119409   -0.0075934774101475    0.8061288507256034 H
  -0.0382446439884187    0.7035473284387744    0.8027762936522184 H
   0.8294812430651383    0.8216200765460503    0.7611742838354235 H
   0.9239471043816261    0.8304673919986790    0.6782477758433706 H
   0.8644563289934372    0.5639670539623614    0.8389741700818711 H
   0.7175712224048448    0.6018863121370156    0.7555142831687587 H
   0.7721951443835255    0.6523004108458862   -0.0375044524114641 H
  -0.0464103878888908   -0.0797951239860057    0.8499664139332743 H
   0.7138607396757805    0.7625837024924124   -0.0137275796300183 H
   0.6965348992965499    0.7107383827945289    0.6786041348036729 H
   0.5627469132932863    0.1895386735902038    0.5993880888711655 Cl
   0.2846145232673994    0.8802583682876758    0.4186955436876653 Cl
   0.6536916022240294    0.8769057821353308    0.6872209099240379 Cl
   0.2515727692202521    0.4663422683830417    1.0196427518645699 O
   0.1496299381357366    0.3193501615662677    0.1420489036184627 O
   1.2526608517632227    0.1308074675616205    0.2024915575555284 O
   0.6416080807685578    0.3151732807764150    0.0970906262662232 O
   0.4269837893747216    0.4526821633509216    0.3312252656985275 O
   0.8130088768170401    0.3791068344499924    0.0143777017464730 O
   0.7122823646883530    0.1074706378914579    0.2192288334957946 O
  -0.0360515625403707    0.3961399838260814    0.1834939918106559 O
   0.3293958849796544   -0.0322412509510681    0.0397097992399186 O
   1.0294639569893966    0.6194266541804437    0.1760390551226859 O
   1.0850028789607886    0.9846906171298042    0.2575826429846290 O
   0.5941464001121360    0.5470063606816066    0.0544066302526063 O
   0.5931438440856392    0.9072137406012922    0.2079814953777975 O
   0.4165220265270214    0.6047666550327120    0.1513606173620635 O
   0.3792586518238467    0.8357080987529677    0.2100353907303417 O
   0.7587825065593308    0.7060560141866390    0.0202464932052802 O
  -0.0991719693651647    0.9585126560978909    1.1267668835753624 O
   0.8485700360165327    0.7465010066021776    0.1997002078686496 O
   0.1889386533398603    0.2456350350225761    0.5326786191181133 O
   0.2510079933626819    0.4645300135750363    0.4497838046561525 O
   0.3416213891926157    0.1341941507000051    0.3969298186437861 O
   0.5788477579926197    0.4103950812645928    0.4750914749410394 O
  -0.0155679467552591    0.2065036289942136    0.5245063264319646 O
   0.8940597339300419    0.2896994225062197    0.3432912245084118 O
   0.7417982135911726    0.1349050728589310    0.4235214634038617 O
   0.8079400923746576    0.4944288082085224    0.4898459727182359 O
   0.1360374554853882    0.6171174358009109    0.3547990679835061 O
   0.0987150790585455    0.9562963520053160    0.5485965013535632 O
   0.2783333638346740    0.5920749044041168    0.6222283018864547 O
   0.4309892807221258    0.7413455423129880    0.5743200525942909 O
   0.5838731588146582    0.6402087671715883    0.4762695466449451 O
   0.7116473862451353    0.7884147266913726    0.3487695671367448 O
   0.7801264589755202   -0.0716016182406866    0.4836085313935543 O
   0.9380507249589375   -0.1743690817394309    0.5513646606525698 O
  -0.0027123546162824    0.6112689502704662    0.5108139484193129 O
   0.1503903346814037    0.2178519583728480    0.7532238458599183 O
   0.3276289884420046    0.3307931100811620   -0.1515622781921533 O
   0.5078161507998086    0.4948661020544805   -0.1677476229010620 O
   0.6485186970928210    0.3966906501506211    0.6910117653282069 O
   0.5110423145672137    0.1865296145722080   -0.0506508513923122 O
   0.8684555099960639    0.1846934918739747    0.8772692305880961 O
   0.7049710414707302    0.0318032628393288    0.8772460402002239 O
  -0.0455371939303291    0.3186324200101338    0.6997537685430818 O
   0.2346910193547254    0.8324492793122316    0.9056851858607814 O
   0.0657103982869650    0.5064982888418947    0.6802923950407660 O
   0.1423407011248342    0.6541834168999239   -0.0222987469875682 O
   0.1696163776317049    0.9984487509967882    0.7516646787819802 O
   0.4411347375378628    0.7332074441699833    0.8343979335417651 O
   0.6065485939788623    0.8650315067470353    0.9773589446443336 O
   0.3879708715820347    0.9669942813752447    0.6958871578718638 O
  -0.0176967415658882    0.6312352928706130    0.8358975786241647 O
  -0.0286921229438206   -0.0328386301464821    0.9126809528688826 O
   0.9085419751939925    0.8249206647946850    0.7562447803867316 O
   0.7862806227196021    0.5545221888293884    0.8534063214676446 O
   0.6984398346262034    0.6285825473567310    0.6857228108674965 O
