Li1 Co1 H90 C51 N3 Cl6 O45
1.0
  13.6375974249999992    0.0000000000000000    0.0000000000000000
   0.0000000000000000   12.8501810324000001    0.0000000000000000
   0.0000000000000000    0.0000000000000000   14.6620253351999992
Li Co H C N Cl O
1 1 90 51 3 6 45
direct
  -0.0313997967644217    0.2702159609615618    0.4701741069189038 Li
   0.1735468601061158    0.2687296005786347    0.5056878908672860 Co
   1.0311106695906886    0.0983428959493793    0.0881813145211267 H
   0.3544423597399159    0.1130586419395104    0.2715591179644957 H
   0.3549563798991522    0.0669589022933242    0.1580454687959650 H
   0.3968303245686988    0.1938442742494791    0.1820073698272326 H
   0.5767117159568157    0.1393929012893803    0.1125722149475119 H
   0.6017447176917236    0.0061473076527737    0.1375060144494355 H
   0.4883392583719710    0.0349694696959513    0.0825449854253366 H
   0.6243608714311348    0.1298965370208678    0.2953771098187047 H
   0.4300031764942644   -0.0123325876421837    0.3302154072791307 H
   0.4149305802301171   -0.0746391028563483    0.2289040286639376 H
   0.5426016021660062    0.2283480683113742    0.2471573049938785 H
   0.8290288868458809    0.9946508912188327    0.2393739328204568 H
   0.8946064201994143    0.1934178211134351   -0.0076328699372332 H
   0.6280932004047628    0.2669234003436747    0.3661626920471263 H
   1.0461323771258044    0.4392511671211683    0.0637692710402922 H
   0.4274107843816192    0.5802520600604640    0.0392208207565586 H
   0.4011553532494746    0.4471547911824888    0.0522278914470007 H
   0.5672115088483044    0.5096367124858219    0.3038131885439985 H
   0.6586968314545332    0.4120546475453871    0.0790679760194390 H
   1.0242912865936868    0.2498979592663563    0.2089395289916277 H
   0.9095328030259701    0.2916047646917974    0.2096297474142971 H
   0.7347256192012136    0.3293170738630161    0.3120637540173496 H
   0.8209600168997510    0.5711541337584743    0.0898454775164956 H
   0.9509139922789590    0.6526915064505936   -0.0068430745484475 H
   1.0010804533262574    0.5972953997183097    0.1360314569100964 H
   0.9542202931320215    0.6478090849623819    0.2389715327519045 H
   0.2619810587714280    0.9457107246628644    1.0640846889102162 H
   1.0344924969436102    0.7314577119575801    0.1721424298415709 H
   0.6003229130001980   -0.1252679615751185    0.2303594892508709 H
   0.6103950683600708   -0.0505118163054215    0.3363932713824302 H
   0.5565600725671810   -0.2381107298088029    0.3406778090614905 H
   1.0032721883561539    0.7700174800068134    0.0243777144990948 H
   0.8705669952344997    0.7713738811311286   -0.0110198508532175 H
   0.7973642184631360    0.6251152412519533    0.1950969666334287 H
   0.7492325733101042    0.6805557053359790    0.0874119801527759 H
   0.9256236138309385    0.8825629761639123    0.1205526949511228 H
   0.8018532789693343    0.8376095238706327    0.1154319835702912 H
   0.4953517105671566    0.1644929367820133    0.3454199915642771 H
   0.6050576179476864    1.0743454883157837    0.5469133004666588 H
   0.4376753489993858    0.3558635481220086    0.5180651918097636 H
   0.7453587238076138    0.2017570032408939    0.5652972545137770 H
   0.7531555517008525    0.9578996580020196    0.3924898870406640 H
   0.1622750799523619    0.5774015165616883    0.4988022800671447 H
   0.4807029426226079    0.6660010465705943    0.5896400033387388 H
   0.3381315688382699    0.5950884269193667    0.5694886263464571 H
   0.6236393367140327    0.4337306223271974    0.6466498625423820 H
   0.2881058950528451    0.5817796649985194    0.4190435173270141 H
   0.8967556257439533    0.5300815606430257    0.6840457875571658 H
   0.7752701508198392    0.4947111640039434    0.3697358682490678 H
   0.7389074408390524    0.4935633202527301    0.4851235422792274 H
   0.0920420344861441    0.6985756849312976    0.4782283147994817 H
   0.2843215041230036    0.7002169069457443    0.6436038986336454 H
   0.1333586962441077    0.6780802538291251    0.5886571923238509 H
   0.1898055890515481    0.8452677817388972    0.4263187741596367 H
   0.2037075978945757    0.8569407690393713    0.5537324811537884 H
   0.2277528889954016    0.6927897742260293    0.3591595667862873 H
   0.4384821626672999    0.7428505475628431    0.4905337088958109 H
   0.3578263868938044    0.6946200986347437    0.3856490858752749 H
   0.3068401333528879    0.8638737452966998    0.4679827998337315 H
   0.5830060797897472    0.9560638861992317    0.6045015245145940 H
   0.9385078480933383    0.8379713864769474    0.2875234881417900 H
   0.8323593855095779    0.7672284142411534    0.2779716017687816 H
   0.7560592889769951    0.6657325678626833    0.5117234349327808 H
   0.7587093158749699    0.8218159720530911    0.6397872362885290 H
   0.3114787803248270    0.1857922476096120   -0.1383474169513383 H
   1.1923949436056915    0.3071944283311574   -0.0281668680116468 H
   0.6745053344687655    1.2696742540095391    0.7197870980527837 H
   0.4580221880614723    1.0888643499201136    0.8468050207083236 H
   0.7505099244048113    0.2515492978697967   -0.1025808711971840 H
   0.7956432408401292    1.1644383824999973    0.6862269323355221 H
   0.9059544601200165    0.3176728799312164   -0.0546823043931852 H
   0.1729653793838983    0.5286092078448593   -0.1544652447818941 H
   0.4087432733775686    0.4119129686075254   -0.2181385763071574 H
   0.4917690413859684    0.3704268448979957   -0.1420481335139905 H
   0.5177112941871431    0.5789322342963570   -0.1256227083428973 H
   0.6890856152765487    0.6277541145810138    0.8081077747938825 H
   0.9341999045334044    0.4289660201908052    0.7588390016547625 H
   0.7308488366307675    0.4853216464791880    0.8999334243354733 H
   1.0342725168469329    0.7203154564797010    0.7401117116847472 H
   0.2256850760866334    0.7731045960482122    0.9404898949734289 H
   0.0948343151799702    0.9238627834321436    0.8118207679687957 H
   0.2501006670168665    0.8534762264085906    0.8370171505662999 H
   0.3932954643951884    0.7539904684432623    0.9747041313105916 H
   0.4839593813204235    0.8530707846496874    0.9836872013155108 H
   0.5958859144502134    0.8032216814825891    0.8718493097205954 H
   0.4284102272875239    0.8005898119459088    0.6797687522522650 H
   0.6571577040447798    0.9483316994113976    0.7707091216430407 H
   0.7188151920755207    0.9584218296339275    0.9250997974363399 H
   0.7885972783435496    0.9665127662314629    0.7428180226542651 H
   0.8081234449916315    0.6713527221482851    0.8297521242438947 H
   1.0724815931058327    0.2604666819682057    0.0327408155848376 C
   0.3912290446936991    0.1177465136393809    0.2073613022820853 C
   0.5427761197093703    0.0623231699367292    0.1289110217987642 C
   0.5442037905368071    0.1484145640743401    0.2842667757225743 C
   0.4697913432138140   -0.0292693140160185    0.2672227457003338 C
   0.9792569612018740    0.3052691636257325    0.0788354024204960 C
   0.9570565698451831    0.2458840080332999    0.1674016114068132 C
   0.9138026167024799    0.1353867320478575    0.1577937982446162 C
   0.7898819621081462    0.3070333411064108    0.0223343405916665 C
   0.8958999031678779    0.2765209305021246    0.0081016547771761 C
   0.4396272250645352    0.5026936196394998    0.0070335895104763 C
   0.9809383424074788    0.6702974840963223    0.1703745976759987 C
   0.5595254042703934   -0.0951065187889999    0.2927124029240710 C
   0.8118895042467498    0.6480464357041582    0.1239464962072521 C
   0.9338574688495763    0.7299098738415373    0.0209654983245742 C
   0.8723107041341632    0.8282438970598855    0.1521656535570000 C
   0.8661615271650388    0.8437168308262409    0.2549290825890538 C
   0.6377202627023580    1.0142124833369675    0.5830808822213365 C
   0.7552578281581003    0.2820515918850893    0.4465228041778374 C
   0.5641801831160889    0.4212551794057478    0.4766110075409086 C
   0.6358636306864001    0.4178159080142734    0.3972879963326392 C
   0.6760231971358401    0.6166126373022879    0.4095611984234843 C
   0.6900762589785863    0.3200432745523661    0.3752078271473645 C
   0.7110410954589387    0.5064842277155404    0.4174509679031673 C
   0.1542157424770881    0.6679426534582399    0.5167551135933602 C
   0.2367816054300342    0.8297084678665183    0.4883526323208560 C
   0.3261895826566387    0.6786732415839890    0.5799343182954617 C
   0.2802298743248025    0.6665403385838763    0.4104826263770676 C
   0.4240415692209070    0.7269939616138789    0.5613225648875020 C
   0.7139404331331478    0.9664294989220528    0.5219670197422700 C
   0.3514616294299361    0.3197397768825538   -0.1143091281104473 C
   0.5947009549961106    1.1436526831136193    0.7047407456590004 C
   0.7342863922748475    1.0786528206296586    0.8343428951954633 C
   0.7169233632440944    1.0051456850011125    0.7545803812682530 C
   0.6788675397858799    1.0736023081243202    0.6702693824983728 C
   0.2923097147003517    0.5325780235270205   -0.0918176924144318 C
   0.5497010931527773    0.4853792332165370    0.0103851046577068 C
   0.4016444423310876    0.5056819043884212   -0.0895738005067419 C
   0.4174817627379847    0.4047192022499215   -0.1433767357742275 C
   0.9787854705279951    0.5868815386479800    0.7806136196015432 C
   0.7628823383089416    0.6234172106993110    0.7774864936450817 C
   0.7410676453884252    0.4365823331247033    0.7364921571698200 C
   0.8034664663449692    0.5158288431491468    0.7894234529667805 C
   0.9054169754171344    0.5055348247484351    0.7544862605742527 C
   0.3585794520914303    1.0105759586932930    0.9105977081861236 C
   0.1440115990592089    0.9205025194879136    0.9406951872117920 C
   0.2432930162916875    0.8579228563709179    0.9123941857803047 C
   0.3341139990059503    0.9061120607438889    0.9528592638603178 C
   0.4184147716546928    0.8284913643906556    0.9405028536197043 C
   0.4547546037054251    0.8091624538193771    0.8466549732251347 C
   0.7729970231541720    0.6784880301854883    0.6882457530184285 C
   0.4936646832057371    0.0754653972387565    0.2221580302265634 N
   0.9007350656928489    0.7147357685500743    0.1186655068330140 N
   0.2494238615860887    0.7139272196297279    0.4986956099472776 N
   0.2783402452943430    0.1473414274418499    0.4626896020506339 Cl
   0.0551491724723646    0.2152361907763281    0.6082527115943188 Cl
   0.1043990497835069    0.3439665172852807    0.3833022068313962 Cl
   0.2599572418819952    0.3920768900840158    0.5671559336100800 Cl
   1.1302982286485848    0.8169444453530266    0.7081209062348396 Cl
   0.7046213429709010   -0.1742096845293935    0.9479731721804726 Cl
   1.1003171412724115    0.1698236009825632    0.0495277187836134 O
   0.9639272815314096    0.0683689991592215    0.1130209933290499 O
   0.8323828500532234    0.1180951468600884    0.1914480846558782 O
   0.2531532574917609    0.5858418645790844   -0.0315217933289498 O
   0.5760407766619494    0.4321272986115196    0.3152379403208113 O
   0.5826137819506724    0.4192210602027502    0.0738395032643171 O
   0.7634784843709376    0.3601799853659780    0.0879671558405752 O
   0.9902515664338142    0.4138255097567928    0.0962436386064771 O
   0.3313319840499691    0.9314004204316364    1.0483078780869082 O
   0.1307489990305239    0.9424586304009522    1.0197838515326809 O
   0.5117307686254715   -0.1757310638742220    0.3417097265254220 O
   0.8075822939538048    0.9308393388420603    0.2771265616248217 O
   0.7069238013161252    0.2559009875354136    0.5176792424016409 O
   0.7656870845415795    1.1284754650255429    0.6322507604283546 O
   0.8438254814153968    0.2693544944987867    0.4284876423257322 O
   0.7107331233235903    0.9980757456927919    0.4357062903351517 O
   0.4844600560204614    0.3573792466130176    0.4648185030234800 O
   0.5773107950867673    0.4664009791837647    0.5510469040183112 O
   0.5995984452151403    0.6391057056311482    0.3646785860315842 O
   0.7858805241495829    0.6335719314515702    0.6140527288535879 O
   0.4385139644566096    0.8202657993395881    0.6113457358500556 O
   0.7325214186325052    0.6908909682918187    0.4480018631416722 O
   0.7819289483462664    0.9099906053242600    0.5457824198672239 O
   0.3355841993187448    0.2464762175890106   -0.1757910843471368 O
   1.1208508167632762    0.3292657127188940   -0.0144320670277381 O
   0.2994436692356022    0.3211016254009423   -0.0426703213298919 O
   0.2887592359399772    1.0599534731734523    0.8790788702742468 O
   0.6090157931539031    1.2429275491083860    0.6942046842030750 O
   0.4528535503752781    1.0404759265638810    0.8995794486819502 O
   0.5223934972182243    1.0998813153343012    0.7368509070614446 O
   0.7356700670829488    1.0412595731113194    0.9174187303650925 O
   0.7245662050696589    0.2790119459920458   -0.0419084893357005 O
   0.7588860332193008    1.1671153875875726    0.8171508637920772 O
   0.2384255900192039    0.4980259811176168   -0.1604814668237582 O
   0.9774274600645063    0.6689589815525344    0.7265276402180421 O
   1.0406680715243359    0.5605893020523918    0.8409006522448368 O
   0.6106898416896187    0.5292317671675513   -0.0391585281892550 O
   0.4486046348079527    0.5871951529067860   -0.1344564128986419 O
   0.6477440224409616    0.4614112440323039    0.7086337958137401 O
   0.7715766849966244    0.3462213493321556    0.7322239883071078 O
   0.8034048719178994    0.4968275544214348    0.8862975182836664 O
   0.0810320306474364    0.9480320927373521    0.8752035530038839 O
   0.3918639805794092    0.8234424082836238    0.7839344432181214 O
   0.5438906855325362    0.7761598059243229    0.8282352805956569 O
   0.7501682219879724    0.7788414802068185    0.6985383283311790 O
