Li1 Co1 H90 C51 N3 Cl6 O45
1.0
  14.7233831998000007    0.0000000000000000    0.0000000000000000
   0.0000000000000000   14.3689942211999995    0.0000000000000000
   0.0000000000000000    0.0000000000000000   14.8508529731000003
Li Co H C N Cl O
1 1 90 51 3 6 45
direct
   0.8634677184162872    0.3058600026518049    0.4808145700071175 Li
   0.4246772643250184    0.6710170845760686    0.5033945524907769 Co
  -0.0333438242038466   -0.0059836748540929    1.0736572852334731 H
   0.2961252885790017    0.3096382768416504    0.1991472470878986 H
   0.4400602776533054    0.2686326232148517    0.0357175771291254 H
   0.4614712533592343    1.0329804843752262    0.2431554936972901 H
   0.6017921274385060    0.1473631750422657    0.2374541376773116 H
   0.8086718886092522    1.1324098513863214    0.1080615698914302 H
   0.7711125863418553    0.3160646138961787    0.3378739588620808 H
   0.1282589791540338    0.5849915784779272    0.1337018479744281 H
   0.9929291318790497    0.3647590450601692    0.2052176054816753 H
   0.2490321720995353    0.6608632771658923    0.2955349766407284 H
   0.4027909902515176    0.3858593388825909    0.0533913094376617 H
   0.5856769454331077    0.3580035269977578    0.1305936090009757 H
   0.3930439098385083    0.3925835395129625    0.2570368512444565 H
   0.5678035398150583    0.3796884128849190    0.2508304737274916 H
   0.5760634620319611    0.4860022561841352    0.0652195862590793 H
   0.4115763351851302    0.6217429329478782    0.2084551299583561 H
   0.7184086670408525    0.3356094752606331    0.0420909484210938 H
   0.9413927431494330    0.4662110518992573    0.2262675748380647 H
   0.7830378346096845    0.4640979394898165    0.0634277699877715 H
   0.2127280161357578    0.7741307734808904    0.3065053902792650 H
   0.0270349615640926   -0.1157067338051412    1.0602526679794619 H
   0.3061236699294239    0.8550529300424436    0.1350539588623597 H
  -0.0614039510370334   -0.0806444328365265    0.9843398566384531 H
   0.6203428909616417    0.9559723108756901    0.1464452237483851 H
   0.3472276737977889    0.6821737457544466    1.0486607412186337 H
   0.4254950111591946    0.8321710223084352    0.1508052426723678 H
   0.5305547640032973    0.7648956107438761    0.2779265604458023 H
   0.8358191817670795    0.9803678944916133    0.2552692760050041 H
   0.7761474345825102    0.9058887776150094    0.3402468865359209 H
   0.6787228154895639    0.8891088975281856    0.0720333362964199 H
   0.7836307689836345    0.7157070600965941    0.2534788064576883 H
   0.8531711718995831    0.8135976972801430    0.1963130664468109 H
   0.3336146340989565    0.0486909939435950    0.3687469330158538 H
   0.1997004397019253    0.0153699421963826    0.4047159107552177 H
   0.2163528623600091    0.1380020466341588    0.6085473004729036 H
   0.1611590262034497    0.1358898598288205    0.4127652800551851 H
   0.0077309744204407    0.0279505026181616    0.4659596656861605 H
   0.0120859517466351    0.2580187975251603    0.3927570017065796 H
   0.7381812964731935    0.1487849864568641    0.6199621330287884 H
   0.6677396061411719    0.2601163695288800    0.6204900488336382 H
   0.5217168835899308    0.2819550588045023    0.5641107956340676 H
   0.4465214285117095    0.1329084402986495    0.5709610418915904 H
  -0.0041548807274697    0.0588789025575477    0.5830908502148088 H
   0.7746144988642911    0.2309132121234095    0.7553132811171133 H
   0.7141718690744145    1.1398842784997751    0.3819724359789339 H
   0.0807794025843297    0.5781546350922129    0.6294875118239479 H
  -0.0006305548781836    0.5520832208907034    0.4703639244932792 H
  -0.0978989598749002    0.6124138179147450    0.4797909924370255 H
  -0.1709399169298391    0.6374322704567894    0.6627280267555933 H
   0.0980125341653542   -0.1554248930036448    0.5527557576234260 H
   0.4125265244052403    0.6294094403111751    0.6952547779714978 H
  -0.0464420365768439    0.7222029914445437    0.3894804222341318 H
  -0.0701098305390857    0.7079709584398759    0.6369827042012223 H
   0.2006526664972036    0.0385406662480898    1.0069883873733034 H
   0.1617431310850042    0.1217476034626662    0.8655790014071296 H
   0.1089291827249179    0.1130330060404437    0.7220054299858698 H
   0.0766682550865981    0.2091629076004322    0.8522194994068490 H
   0.0341807376790163    0.1321742205030542    0.9858151927716494 H
   0.1208999368381705    0.0403863069096242    1.0979198646726920 H
   0.5238933195058578    0.0801002904505226    0.7273492307859820 H
   0.4559072468473945    0.2480508068784190    0.6549022136382919 H
   0.6063236946126122    0.3049455336362482    0.7166602824617657 H
   0.7475921769834476    0.1320538223754352    0.8276781481012937 H
   0.5418355951645928    0.1439328723195270    0.8282653197617899 H
  -0.0371941620800469    0.0687327585630778    0.9123231178061953 H
   0.6050420598318061    0.0450588677699342    0.8054464284419560 H
   0.6930883996171897    0.2434603672843462    0.8495058505630422 H
   0.2259675003870845    0.6050472619560943    0.8994895115247767 H
   0.2986559569379225    0.5806781241716713    0.6799586868707735 H
   0.3076783397827705    0.5178505534939648    0.9023418729397560 H
   0.2309867272181164    0.5213449525609446    0.8140210200987893 H
   0.3903339348647848    0.5201031119891338    0.7352720080307047 H
   0.4503962852091005    0.5577029600844782    0.8660173600665136 H
   0.4347143596036367    0.7665171577805939    0.9290346158224736 H
   0.4771983452142602    0.6651036574640558    0.9930888490522456 H
  -0.1050270770050327    0.4741221971227889    0.7440216738064933 H
   0.9718422664632113    0.5620978397140369   -0.0779136064168082 H
   0.9290022485515287    0.4087247527690586   -0.0333686902966192 H
   1.0170798311561582    0.3610364463050607    0.0349331104038065 H
   0.2949903592103069    0.7574128323152117    0.8546853510361347 H
   0.2272504935513361    0.7215216633119487    0.7579939352231172 H
   0.1553105062789551   -0.0511858643741995    0.8604122948119606 H
   0.3452335668998309    0.7586648336538619    0.7475682714393298 H
   0.1025094625616008   -0.1452912679385608    0.9280919090280990 H
   0.1654066912374516   -0.0687862611804611    1.0464568274057853 H
   0.4767606740681281    0.6619719142600946    0.8124170718243604 H
   0.6391585392566453    0.0806187679365117    0.6096374735443982 H
   0.7271770321813967    0.0390932449378554    0.6808791727192808 H
   0.0421150553840386   -0.0750734096481467    0.8494492881553797 H
  -0.0808172880480462    0.7741231181086141    0.7789058653703305 H
   0.3051429170817906    0.2749420418564320    0.0794672527320598 C
   0.4975311719795153    0.2093842174535122    0.1914823674876369 C
   0.4583566838762759    0.3101490989553632    0.1715158375827823 C
   0.4037425378550732    0.3148668961063971    0.0807742483662607 C
   0.7393508646197479    1.0223743140578110    0.0811594114279623 C
   0.7120487157491364    1.0357364183947120    0.3045425400609779 C
   0.8420745375334940    0.2928409981814713    0.0880768592126841 C
   0.8745446562224169    0.3589291311002619    0.2830447849772605 C
   0.5377586789296873    0.3776158948268309    0.1803766080879078 C
   0.4993505228472129    0.4804510673693805    0.1735318833987521 C
   1.0083454256017508    0.5015169816108521    0.0400890432070397 C
   0.9584085333791816    0.4123796362766680    0.0327884524466042 C
   0.9270095000370161    0.3983285484348957    0.2035772956594634 C
   0.8894257468676007    0.4006620450933139    0.1100601082955044 C
  -0.0038784496963154   -0.0571591425785548    1.0263435045858065 C
   0.1881806688925706    0.6960515438055997    0.1772582686845158 C
   0.2451988140164035    0.7234382901527728    0.2579418497670562 C
   0.3489344825970288    0.7467106218728751    0.2323318729738774 C
   0.3589647859584197    0.8421327494687685    0.1846120550426339 C
   0.3673242776818758    0.9326575266366007    0.2511119390418120 C
   0.3992754938946271    0.7380503079995212    0.3231690795938286 C
   0.6827612894729624    0.8042852848774309    0.2338354903109050 C
   0.6896503311166914    0.9410213688199797    0.1250814677018681 C
   0.7679407609966701    0.9547300527381188    0.2780592127590107 C
   0.7366863954914478    0.8903233179483883    0.1971554423037842 C
   0.1941772526126221    0.0774543154146425    0.4477942444481582 C
   0.1351846971507905    0.0674974598548487    0.5379626679337002 C
   0.2927789109610728    0.1116877483486088    0.4747854213674950 C
   0.0308493022789877    0.0790403693617153    0.5176733080871120 C
   0.6101088300834296    0.2477738215906020    0.6718749761090111 C
   0.0002639406206620    0.1706410743058418    0.4904838462608185 C
  -0.0965011833095059    0.6377496204347908    0.6657615225474917 C
  -0.0346207046425936    0.6007790439405623    0.5128631015535617 C
  -0.0466614155032882    0.5582242213422042    0.6106374161084313 C
  -0.0917454828668963    0.4639540880853146    0.6146681610163788 C
   0.1562973718520930   -0.0333411915980290    0.5792582757422787 C
   0.0134137715645873    0.6885165696568691    0.5126166052744167 C
   0.0329038572402694    0.0859545624131273    0.9296096669670421 C
   0.0899865255777624    0.1330511086001633    0.8560199545121708 C
   0.1459987877602207    0.0043580371483210    1.0377960454134663 C
   0.6938117388019054    0.1005143845398097    0.6571498959808795 C
   0.5205868715693087    0.2290425175162434    0.6200038814725393 C
   0.5744137053374311    0.1045647724169328    0.7741499095927104 C
   0.7201677736027432    0.1978691456640142    0.7952086326550475 C
   0.3598389057055832    0.5866896792374083    0.7201422373429880 C
   0.2697896295298460    0.5647967064129172    0.8615199752953507 C
   0.4284882090812999    0.6305027666608247    0.8581201705776383 C
   0.4272547969128082    0.6913170440241447    0.9421732550880720 C
  -0.0724836056100541    0.6369277118294845    0.7649504380036061 C
   0.2932523075918211    0.7216573721841202    0.7870178573359240 C
   0.0954906952988290   -0.0728296896282421    0.8966162758879221 C
   0.0719845489665987   -0.0038499138177940    0.9678249803250016 N
   0.6459042714468766    0.1595178183883060    0.7290959318035590 N
   0.3355319923322451    0.6259533876998705    0.8085789084472637 N
   0.6488886398765861    0.4264246694149127    0.9814336262637953 Cl
  -0.0893234851836135    0.7040834212093587    0.2688105857441996 Cl
   0.7219262009729113    1.2660475973857512    0.4404707593798594 Cl
   0.4193904359552278    0.5276847839087501    0.5369455546387696 Cl
   0.4904065866463410    0.7710282598801663    0.5937367033712821 Cl
   0.8563029249331269    0.8790859273896415    0.7561347827522112 Cl
   0.2532859498590417    0.3110517369410382    0.1474707540682655 O
   0.2699838783625489    0.2323280641086657    0.0185791676073946 O
   0.5816411882166002    0.2095916084479078    0.2102018309759331 O
   0.6386871802010653    1.0591214928701569    0.2713437735730835 O
   0.4436260341976785    0.1436301371431440    0.1989337913351724 O
   0.3977717634204858    0.3235933245585013    0.2477511893198664 O
   0.4531615463890549    0.9642150589885159    0.2457755452236556 O
   0.7589176989600993    0.2795276098499654    0.0598953129568506 O
   0.8968268990702738    0.2280020828295940    0.1007865668868420 O
   0.7715540609616349    1.0848421518328226    0.1387931380260471 O
   0.7866368715484717    0.3574599955661370    0.2851113329429289 O
   0.9177066110106773    0.3218082309322434    0.3462209541642721 O
   0.1706758606224509    0.6062818647213891    0.1835892181707374 O
   1.0607369167102945    0.5130855018176977    0.1045802883722039 O
   0.4423097606390128    0.5087673846937827    0.2307918940890669 O
   0.5304045267942277    0.5267915411526870    0.1032382779142120 O
   0.8205787987005674    0.4708570416583390    0.1168354766990741 O
   0.1568801183502020    0.7500873369896794    0.1174893111971725 O
   0.3829816844661488    0.6741349089213454    0.1772798162683872 O
   0.4860661440230132    0.7390044457623280    0.3293417890109944 O
   0.5982372379616968    0.8142177824345272    0.2369989449680278 O
   0.7194607350193734    0.7310672165976222    0.2641260063381537 O
   0.8175754129026210    0.8539714347226758    0.1519432244455771 O
   0.1479120708431729    0.1367375183226927    0.6063433866600548 O
   0.0526710531388285    0.2112020203976780    0.4284256599957356 O
   0.3126303266332514    0.1513711104004018    0.5452958494147412 O
   0.3616754401238660    0.0938493390588462    0.4157267261135134 O
   0.7464531724644163    1.0786225098297557    0.3756657275245676 O
  -0.0644847646913718    0.2150178755059712    0.5248550706561166 O
   0.0380174917207618    0.5345977938571740    0.6511071454289381 O
  -0.1052247217963494    0.4214619699453290    0.5425650971762364 O
  -0.1125402958419576    0.4296933045940337    0.6915081918258547 O
   0.1110665990763735   -0.0936460387335047    0.5319269203465170 O
   0.0677470718084380    0.7157731746753443    0.5707642181801649 O
   0.3062927886683856    0.9640633434288574    0.2994606770773027 O
   0.3531087949249750    0.7172437020953377    0.3940357161369492 O
  -0.0057788281365356    0.7510540017253021    0.4462292838332968 O
   0.0609694176072381    0.1026704157500034    0.7652103557340549 O
   0.5122486249629399    0.1423036699105329    0.5765522358890264 O
   0.9898340551985340    0.5738209984408649   -0.0135287524470092 O
  -0.0709133143470845    0.5589695762247469    0.8056565173847023 O
  -0.0668551438037265    0.7107004466278616    0.8106003411592013 O
   0.2074928063368953   -0.0407940444805223    0.6417325997208784 O
   0.3410178238767978    0.6844306886901013    0.9876931993784428 O
   0.7518561426187951    1.0278499930642035   -0.0030209384997120 O
