Li1 Co1 H90 C51 N3 Cl6 O45
1.0
  15.0215394842999999    0.0000000000000000    0.0000000000000000
   0.0000000000000000   14.6599739418000006    0.0000000000000000
   0.0000000000000000    0.0000000000000000   15.1515905877999995
Li Co H C N Cl O
1 1 90 51 3 6 45
direct
   0.9141642409656067    0.3564276779511404    0.4517514022198677 Li
   0.4122183513395433    0.7031615821299549    0.5044496318461961 Co
   0.3391273075655328    1.0987380015030417    0.2227736602530588 H
   0.3817574255151139    0.2667283370641442    0.1705435002963075 H
   0.5858230609450797    0.1806470107937201    0.2736712868442201 H
   0.6453096402623287    1.0443334027522972    0.1323699503545795 H
   0.8416177485678747    1.1971863347490415    0.1545788397810763 H
   0.8279380587987422    1.0046900853557423    0.3020194657044546 H
   1.0120057439311392    0.4139354200076372    0.1571059671990274 H
   0.3260886972283761    0.3690382051412932    0.1931318878333612 H
   0.5222174630635438    0.3596616536859007    0.1419273627701843 H
   0.5785390538621600    0.4078418893946468    0.2335956263727101 H
   0.5694280702547180    0.5031486072337679    0.0529089859744158 H
   0.4045886406750814    0.4855869116248882    0.2950532003880602 H
   0.9789558690818346    0.5129606983446432    0.1861808024413889 H
   0.7442169461049053    0.3961187444093769    0.0049589047080310 H
   0.7910070903996765    0.5077558459824956    0.1491827066473159 H
   0.8062119234488268    0.3844290919802295    0.3154061790547558 H
   0.1264946407647476   -0.0170989068667623    1.0019578608548125 H
   0.1145950614848193    0.6414247738932499    0.1118130327032542 H
   0.2501457486915564    0.6841601840984251    0.2817080668307417 H
   0.2241018135536906    0.7914686968042016    0.3122454547913533 H
   0.3094805459626055    0.8765943597115378    0.1412528461284642 H
   0.0293508026431517   -0.1561475851313099    1.0416896630383223 H
   0.3934632829729186    0.6662044905177256    0.1785123006212859 H
   0.4137974171886057    0.8961557860236496    0.1617470640919584 H
   0.5159355237124789    0.8412696038793720    0.2672600787643096 H
   0.7111617455697693    0.9708175831281546    0.0603577088887528 H
  -0.0736865725618123   -0.1511475762437770    0.9832080142064515 H
  -0.0387960075469693   -0.0513636335295931    1.0473082150647048 H
   0.7352684624863993    0.7907763354098161    0.2626638616479315 H
   0.8442100261463945    0.8675540980762755    0.2180520437610184 H
   0.1373889968439658    0.0758514629913092    0.4506494057064823 H
   0.1826273694295615    0.1815474216711476    0.4796814071621043 H
   0.2700871135771649    0.0011780696861102    0.3889377329562376 H
  -0.0134856856324031    0.0954388102226197    0.5621897083702034 H
   0.4865172606601554    0.2808838874644281    0.5492544327722862 H
   0.4295754271753793    0.0582750333862534    0.6042339410405964 H
   0.4037185567523476    0.2570414167078203    0.6344954503747511 H
   0.0178466555362180    0.1317287792302098    0.6770170586683887 H
   0.7454771365148021    1.1842872668004405    0.3874514203562830 H
   0.0118020021173789    0.3490313482966357    0.6308179486842773 H
  -0.0026186236930717    0.6464800352664430    0.4466407176649174 H
   0.5639756331003501    0.4188421817990002    0.5737871706288186 H
   0.3415478317759841    0.3541507298383730    0.7199340049937196 H
   0.3511793346023898    0.4555291501480014    0.6472650667974512 H
   0.3321799503982415    0.3699870472098550    0.3647013336242966 H
   0.4705476591255909    0.4881435328132201    0.5848762374186305 H
   0.3849242114527149    0.3439140131432563    0.5536041411159809 H
  -0.1186713093596791    0.6650284993414489    0.4669454505718188 H
  -0.1821341788609288    0.5934915372592890    0.6317267641594716 H
   0.0755664385788416   -0.1069012493011006    0.5581234026155053 H
   0.0733236591330191    0.6782863673821159    0.6046734988521282 H
   0.6148986427425703   -0.1503897304219423    0.5884811394705629 H
   0.5695740606175760   -0.0009965590087677    0.5260093485047909 H
   0.4771539726864425   -0.0813739187965792    0.5594439900405714 H
  -0.1514116287200232    0.7067809610054324    0.6340657925139294 H
  -0.0932724479181629    0.8072804575153900    0.4021620871148919 H
   0.7366025467872092    0.9423891560617399    0.3353862595780348 H
   0.1131498034922753    0.1320766652510340    0.7818449967515957 H
   0.1954656008373050    0.0840383806813732    0.9024494962865406 H
   0.1582437168496895   -0.0082387274069854    0.8297198383925831 H
   0.2475295055267946    0.1392335674676772    0.6475422654173362 H
   0.0285992152301705    0.0528016266586185    0.9745547972890428 H
   0.4817487747087079    0.2591887602245943    0.7444436429652614 H
   0.4893079200359014    0.3816378182602044    0.8530520422263280 H
   0.5838765227736386    0.2879984976550103    0.6869401092635561 H
  -0.0818621660240108    0.0081753536108458    0.8626932742246123 H
   0.9654179756979677    0.4241589716043188   -0.0358783919714486 H
   0.5964471384683454    0.3283703293069383    0.8481891864374892 H
   0.4076202873347062    0.4574617593130980    0.7531661595376413 H
   0.5480293980123716    0.4854910042238531    0.6711430879136838 H
   0.6078660746019739    0.4773552121362612    0.8463946553720910 H
   0.9679656506576481    0.5871893432467493   -0.1133903860551355 H
  -0.0190896385486792    0.4964128517411578    0.7001869033104867 H
   0.8770708391486780    0.5066799914098603   -0.0374340042263744 H
   0.1205325354762979   -0.1181720742463537    0.8278810875473462 H
   0.1298857712180038   -0.1761762701184504    0.9352321930682204 H
   0.0373899254059161   -0.2104150758620826    0.8753434312420763 H
   0.6556195023215315   -0.0578315849991138    0.6558668039711669 H
   0.5529140504860205    0.0122149242291227    0.7596255473776748 H
   0.5993795942293570   -0.2662678354406896    0.6835477261535354 H
   0.4160841335425388   -0.0855458225286598    0.6981679733623246 H
   0.4543444596962388   -0.1849307195130747    0.6393352062785994 H
   0.6319268574783066   -0.0558022498776390    0.8139023571445765 H
   0.5138330228314600   -0.0578404526819976    0.8466527140872697 H
   0.6692932006941035   -0.2053025156148713    0.7543779135045670 H
   0.4368935852186941   -0.1907786153101851    0.7539119558244747 H
   0.5626329611311369   -0.2473728496037647    0.7990002913389043 H
   0.0027330248569335   -0.0320505023382265    0.7881770052258249 H
  -0.0639245904325330   -0.1160492873898732    0.8316919085740504 H
  -0.1513850002908653    0.7561077881110481    0.7836547077414161 H
   0.3146444640870477    0.2610823515850024    0.2972641893799997 C
   0.5028009445166373    0.2877754413240112    0.3089124713855938 C
   0.7893787619566720    1.0904323932882261    0.1042837901898077 C
   0.7153470689226593    1.0156566805651375    0.1200854315166780 C
   0.7098176756080253    1.0781520167531300    0.3193925592073870 C
   0.7585350524630982    0.9938783335320868    0.2900999250494016 C
   0.3603095572498984    0.3126124568225049    0.2229947591522527 C
   0.4470303624883706    0.3595893479639255    0.2639534952271105 C
   0.5131093087266998    0.4050171231184992    0.1991048580951679 C
   0.4829023848309002    0.5012835288844784    0.1615523650613249 C
   0.8576520571852930    0.3501057021844754    0.0631633549200170 C
   0.9503582675877279    0.4483552629079885    0.1695706651398542 C
   0.9074445568676154    0.4051381328833898    0.2506083616697921 C
   0.8930279253215383    0.4531208921156092    0.0859787813266906 C
   0.1818697906200197    0.7431862098905112    0.1781928622117042 C
   0.2473171438042605    0.7528437986803735    0.2548019807906230 C
   0.3247859013318268    0.9710208577050282    0.2400734941207358 C
  -0.0177602142229720   -0.1112041218880798    1.0038329115193201 C
   0.3473009038955444    0.7852047020410073    0.2314222571934693 C
   0.3511693489414556    0.8848829146900388    0.1960523732928633 C
   0.4050533067638865    0.7846528593138568    0.3210544309332687 C
   0.6575214378741332    0.8891578199694615    0.2113174372912421 C
   0.7403019013079678    0.9534526136534036    0.2003898716973488 C
   0.1760754444352647    0.1131223341517331    0.5013824291171691 C
   0.1311386388098821    0.1008856139016033    0.5910650266059191 C
   0.2739056303184050    0.0766113552015018    0.5039766122012639 C
   0.0346838112927464    0.1331742115402619    0.6070725869075612 C
   0.0163761005359740    0.2341041317348080    0.5807855777851854 C
   0.5168475806966727    0.4472631054414362    0.6183552307335927 C
   0.4334558550144116    0.3088150421598999    0.5938535127226189 C
  -0.1257810999448334    0.6405816618898406    0.6510290280574605 C
  -0.0527679443261096    0.6728763986935725    0.4982215068547524 C
  -0.0446116564750506    0.6193599324901087    0.5934905145299124 C
  -0.0356305530308261    0.5135313678446856    0.5746922241227429 C
  -0.0193645770797343    0.7729836707682872    0.5020680997033560 C
   0.1353332821129773   -0.0002482629992692    0.6061373715638064 C
   0.5323921858447703   -0.0329659200636111    0.5784947291908504 C
   0.1345923460716593    0.0490724249412731    0.8749480932103831 C
   0.0846993240692660    0.0057196875814982    0.9492228034118424 C
   0.5261826358783710    0.3215285708973947    0.7275094472771469 C
   0.5484332847116238    0.3722728630055060    0.8112874501636619 C
   0.3831560837566316    0.4137335096896687    0.6995110666753387 C
   0.9987634261109247    0.5687097742464556    0.0017143608619491 C
  -0.1004681151873514    0.6301744128315747    0.7486234021550981 C
   0.9358351223250195    0.4823253096472977   -0.0012246045055455 C
   0.0811670629414730   -0.1506653107207913    0.8841378874562834 C
   0.5975136070561186   -0.0918650697775144    0.6336004948305510 C
   0.5625599992352444   -0.0540621376440652    0.7909852912439451 C
   0.4568190396178807   -0.1458269665135238    0.7006350410793007 C
   0.5978950593038053   -0.2203605232809405    0.7431467494222282 C
  -0.0355606534042867   -0.0494843668876896    0.8478591880804832 C
   0.4660730178899005    0.3771378102614248    0.6598696840416484 N
   0.0267492051144267   -0.0765253426475228    0.9230585536782728 N
   0.5518904536691915   -0.1286618609683838    0.7167673407598910 N
   0.6511033207363548    0.4997413024051028    0.9789371754700813 Cl
  -0.1372492986724040    0.7527339758385054    0.2989861208068564 Cl
   0.5409634111931819    0.6398210875501954    0.5163601437462014 Cl
   0.7545288052962950    1.3247581849736518    0.4254309312640916 Cl
   0.3078728545521985    0.6993375644186985    0.6124858799558859 Cl
   0.8042613910130120    0.8657839721467875    0.7065571915941286 Cl
   0.2986514295348242    0.1814280490169432    0.2962735343122679 O
   0.3744585730829386    1.0395039262279135    0.2082220527025267 O
   0.5577880515880063    0.2452910547573918    0.2544119227326421 O
   0.6337861875442556    1.0984515071329513    0.2957448769443445 O
   0.8395533795974099    1.0787748009433504    0.0394490129888593 O
   0.7994742651611538    1.1512251343625373    0.1713909360770987 O
   0.8947174991516059    0.2858511541382364    0.0948280172681607 O
   1.0448831997016461    0.5846095296570292    0.0672639145041722 O
   0.4172870728297461    0.5441217359981597    0.1964595912654086 O
   0.5163573313445543    0.5315854244924495    0.0909089567803587 O
   0.7865974225311314    0.3431909559235040    0.0106665562908050 O
   0.9535237221038712    0.3774584111041452    0.3123266343871768 O
   0.8210233214571694    0.5135754334073233    0.0916956728634608 O
   0.8183265272942050    0.4084895030969420    0.2561582740379172 O
   0.1661070919800119    0.6556001060476592    0.1564037306953189 O
   0.1410657171999402    0.8053425277405633    0.1435047549166724 O
   0.2636450308531444    0.9752316428159069    0.2938473863915607 O
   0.3852364297845911    0.7338342150954122    0.1622889213941621 O
   0.5815510620552808    0.9136612741656354    0.1998664943031375 O
   0.6725924630667650    0.8061358442939330    0.2387634006434224 O
   0.8203536164638486    0.9076598992416908    0.1685324903087136 O
   0.3267584022216969    0.1075991319740587    0.5585500244914424 O
   0.2939528432099160    0.0088042769661398    0.4510925275002697 O
   0.4936337749236722    0.2677801806800481    0.3861868666522364 O
   0.0211246151655532    0.2861874439583665    0.6505478904529458 O
  -0.0103615051814546    0.2628388349254385    0.5085909198275730 O
   0.7567502819987911    1.1211466361502915    0.3815187098940311 O
   0.3003316834146865    0.3067754750966361    0.3752381811634948 O
   0.0337697904619021    0.6400891644250658    0.6387781690519736 O
  -0.0228009758625589    0.4591923217343356    0.6452712167244216 O
   0.4101260225184628    0.4229515342602777    0.3261535655457239 O
  -0.0340288530169796    0.4842495968330726    0.4987768940895934 O
  -0.0666020789843579    0.8360526778259134    0.4587677612868556 O
   0.0974989442547306   -0.0427742594624971    0.5389191482295472 O
   0.0388045607049285    0.7956590180315023    0.5546647558353980 O
   0.4887186328986375    0.8094216618670906    0.3194592188755022 O
   0.3726611541147817    0.7485538865529936    0.3894162305738962 O
   0.0795793428529343    0.1114108713551683    0.8301277163618423 O
   0.1845386249323684    0.1465343989988183    0.6620047734114766 O
   0.5923323804527239    0.4516131813865351    0.7890739407601669 O
   1.0056155866439764    0.6185134098394363   -0.0674895945857574 O
  -0.0636556432980384    0.5614873876023632    0.7801633251242936 O
   0.1611395585206091   -0.0416480637362602    0.6724446014337151 O
   0.4873370834228537    0.0380996905668047    0.6270942472238228 O
  -0.1226975278483508    0.6983853117028738    0.8083874246022940 O
