Li1 Co1 H90 C51 N3 Cl6 O45
1.0
  14.0915872672999996    0.0000000000000000    0.0000000000000000
   0.0000000000000000   13.7524054942999996    0.0000000000000000
   0.0000000000000000    0.0000000000000000   14.2135871778999991
Li Co H C N Cl O
1 1 90 51 3 6 45
direct
   0.7810006012550992    0.7371304061243426    0.3283972955298421 Li
   0.6711165995008607    0.6964800631547649    0.6227522636061097 Co
   0.1768536135161377    0.1774603176303610    1.0005316329372329 H
   0.1024759028921435    1.0429496318403941    0.3193784603550513 H
   0.0685755344710117    0.2219143587981689    1.0458403922208375 H
   0.0935067216634758    0.0938422189292557    1.0542583938486065 H
   0.0318436894217934    0.2810763723337081    0.3042422391248111 H
   0.3785831948668885    0.2470721393874192    0.2674457574587893 H
   0.5280088032145172    0.1825517905387930    0.2278090357115887 H
   0.6002196890925967    1.0572373140994318    0.1131096301642785 H
   0.7746209083010900    1.2497040066425698    0.1243418404432032 H
  -0.1761030765752394    0.1787211879564423    0.2924929180062366 H
   0.6780299441902886    1.0136638461524337    0.2819480781903567 H
   0.6955531653374911    1.0285310633883378    0.0430083962161562 H
   0.3461929473140695    0.3455203709030734    0.1949362644574405 H
   0.5723059422208884    0.4625792374895215    0.2263027305310577 H
   0.5341041421121668    0.5466888138454123    1.0199278625131598 H
   0.4494788279172751    0.4484110252388895    1.0147187622998708 H
   0.4042346699735149    0.5649685249915238    1.0145900122540803 H
   0.4173538450169820    0.4916894902497334    0.2870115431059483 H
   0.9937005578423382    0.4830648899898617    0.2178762862773351 H
   0.7395844010123978    0.4157842967595720    0.1812789098733826 H
   0.8874839924825735    0.4471670974033490    0.2799443616307339 H
   0.9491874743903713    0.5027291589144572    0.0417933616310197 H
   0.8267108528954326    0.5044223172502590    0.0238084576936473 H
   0.1479704229798607    0.7085012328380265    0.1641987740173566 H
   0.2237901287187099    0.7878844360494562    0.0956235447103234 H
   0.3353999828938774    0.8442433036178424    0.2242455440070630 H
   0.3642647227052595    0.6980179759227360    0.1373814762283325 H
   0.5361572110426723    0.9333171751312821    0.2391770315579316 H
   0.6506093284235570    0.8361734426727155    0.0461750845008690 H
   0.6433212920901116    0.7842683413945530    0.1644879339562629 H
   0.9016271827577018    0.6894420216979363    0.1814294700362194 H
   0.9081253861369969    0.9141299863802401    0.1085639796404995 H
   0.0809524226590956    0.1317003231144320    0.5492699690292727 H
   0.1777612472523087    0.3155176197355765    0.4800125755451994 H
   0.3517970001792319    0.0736501150740360    0.6124607025688337 H
   0.3907003536199150    0.1570377086463248    0.5148053265805551 H
   0.5784758646257091    0.1794745107118172    0.4982845287649897 H
   0.6397922361323488    0.0761035040476221    0.5357009102416448 H
   0.4705618325756228    0.2685076620763178    0.6266098401146811 H
   0.3462376548397761    0.2606763048606918    0.6371596047957006 H
   0.4943666030132594    0.0442581661406269    0.4294527139841873 H
   0.6183886856111172    0.1582447702041650    0.6204460196164876 H
   0.6941807152626241   -0.6756682499400785   -0.6135246719813909 H
  -0.0644953513298674    0.2140248299412013    0.5326960389543733 H
   1.0640340114980456    0.6291827455775895    0.3977415073508036 H
   0.0829812927542583    0.4009634714076378    0.5078422426833470 H
   0.2870846308270515    0.5119609256808328    0.3518459855634331 H
   0.1142169507146221    0.4321609226591899    0.6518455526417559 H
   0.4834204975764406    0.4630918750788452    0.3874267290921556 H
  -0.0842220148154680    0.3431026120598091    0.5205821371050418 H
  -0.1011321041815509    0.6491232570840062    0.5983587030178933 H
   0.0905283488794961    0.8422356548460371    0.3452325952332175 H
   0.3165142466775205    0.8157093863942233    0.3441540497676621 H
   0.2249496858140214    0.6904774769138186    0.6023204052465575 H
   0.1474126433734256    0.7950584537179211    0.4934946752855066 H
   0.0391849490001277    0.8424356198631492    0.6295330993510690 H
   0.4330539926159253   -0.0421863471841680    0.5058128886829122 H
   0.5592370099205964   -0.0445852002439963    0.5075976316673886 H
   0.5980254721166460   -0.0052582621149422    0.6639776061368876 H
   0.1033466351785249    0.2644407372010164    0.8352397913637735 H
   0.0189331494982907    0.2910106343838363    0.9245951373509393 H
   0.0699643063409778    0.0723863361658876    0.7933749199170205 H
   0.3102119048394165    0.2036331933610239    0.8297710804024154 H
   0.2593716420350640    0.0620586883911861    0.9127522437947140 H
   0.1114798566408052    0.0047378073041117    0.8979839803456123 H
   0.2532417435103997    0.0540819020722060    0.7898036891387040 H
   0.4631694786821952    0.2290207519335739    0.7817184676839342 H
   0.4768350790398544    0.2763230220905747    0.9390939403216929 H
   0.5142598339660641    0.0704179532519880    0.7261786528490535 H
  -0.0194926140249231    0.2304895858774518    0.8215191170850644 H
  -0.0808313392944161    0.0829924806735125    0.8825761879805357 H
  -0.0230564425026800    0.0317316303232093    0.9903913356149565 H
  -0.0811151966004899    0.1491372726066056    0.9914396283375120 H
   0.1411294619034815    0.6268886014721762    0.8658956697529738 H
   0.3283581927734509    0.5434886464261023    0.8659871315341364 H
   0.5801391974749752    0.3801179545910475    0.9751411389343444 H
   0.6344202366149015    0.3468641358180665    0.8654158471779517 H
   0.3620790214484911    0.4219059167216138    0.8569964384458572 H
   0.6291937139668173    0.5077818022522937    0.8595721429138272 H
   0.3897302712764076    0.5064634147158358    0.7580284592585066 H
   0.5495124844004663    0.4631531007313573    0.7730704044989331 H
   0.5081172895984143    0.6507636973698421    0.7871731076020364 H
   0.2745927804300077    0.7381251411912856    0.6990616418386811 H
   0.1159271909837169    0.7612352800053082   -0.0229397693150234 H
   0.1580899359413926    0.7744140653512697    0.8296359983871600 H
   0.5422113196666150    0.6741385171519695    0.9088214978612125 H
   0.4200817137283514    0.6711695820069926    0.8760999903220639 H
   0.4743720491950518   -0.0457159115225755    0.6809240670819835 H
  -0.0314486837567527    0.7582852506437674    0.6911698972286782 H
   0.7638570392547706   -0.1123020807843487   -0.2727451108913356 H
   0.1005797360875703    0.1593856615199790    1.0124582492008301 C
   0.4470080629608819    0.2474800680223279    0.1346516938367116 C
   0.4056333768491937    0.3000483260117858    0.2186748179821005 C
   0.5584867750606433    0.3096008366656091    0.3268325955197996 C
   0.6781569703347566    1.0325507238050491    0.1160525888612245 C
   0.7349695908589025    1.1171984605579024    0.1568776102113754 C
   0.4806088199954529    0.3653321776530217    0.2711161890920589 C
   0.8686699302360003    0.3725316454145735    0.0890073401714567 C
   0.9269756401900944    0.5114681391641169    0.2470715903765858 C
   0.7598589090987208    0.5619472353693394    0.1899143091194534 C
   0.8664899061253533    0.5487946272619818    0.1618109179768512 C
   0.8814435090093224    0.4797864089983954    0.0756468846000956 C
   0.9471962153882634    0.5908258195679081    0.3193369507774468 C
   0.1645136267778433    0.7860134906348040    0.1494488029244875 C
   0.0786127288137821    0.8357487896909213    0.0991272344810121 C
   0.1875011010669668    0.8268296227822054    0.2485441250533029 C
   0.1775802882196866    0.9368474666152063    0.2453049708958228 C
   0.2950319257538535    0.7995224000453794    0.2713821318095931 C
   0.3146514331064111    0.6902658775684382    0.2676997397895560 C
   0.5227379278623587    0.8431133194847800    0.1377191812664711 C
   0.6257668466392410    0.8525494868559200    0.1234989849521821 C
   0.6869331285952942    0.9397502315181570    0.1699080998183885 C
   0.7874313885242018    0.9022324314348296    0.1732527868002869 C
   0.0659015986477962    0.1603484021841841    0.4173839801837066 C
   0.1033650859034197    0.2935978181325083    0.6141548561768294 C
   0.0359617492896595    0.2711515631752979    0.4412252523241338 C
   0.1043947782812025    0.3216278235130049    0.5109980821937096 C
   0.4066502956482032    0.1279133492630875    0.5877392866727578 C
   0.5883211004652472    0.1289335344231175    0.5560578402958599 C
   0.4113609076424983    0.2179143313104105    0.6495407157564596 C
   0.4978051794547113    0.0030690083431217    0.5000790792666153 C
  -0.1449192225732341    0.2566297400598600    0.4150144164994337 C
  -0.0655505908651969    0.2738929017735253    0.4841492511967492 C
   0.4301543902343811    0.4348270744109831    0.3371417453611452 C
   0.3498696090709906    0.3960111741511159    0.3926703033614213 C
   0.0164572041460617    0.7108142827268756    0.5497979145722295 C
   0.2360946332937451    0.8435343367389905    0.5943414201683687 C
   0.0327768703155111    0.7678624842451610    0.6473751821993954 C
   0.2199992143960939    0.7516536835308140    0.6490179764995073 C
   0.1120057023003070    0.0737722755208536    0.8606457635142432 C
   0.0387009722932719    0.2383558460778828    0.8714199613351922 C
   0.2231386762012705    0.0930001844208347    0.8489217702735290 C
   0.5222973387447363    0.0155977255970897    0.6696918568030590 C
  -0.0386018878698131    0.0991227496720482    0.9457319549776061 C
   0.1123732975116726    0.6316514046070276    0.7289393915358371 C
   0.4657604572077106    0.5224662878198332    0.9892909800323547 C
   0.5697452654627965    0.3690151696954679    0.8979530240504497 C
   0.3822981773601297    0.4962700707180819    0.8356211166360050 C
   0.5582172525485263    0.4691075790249141    0.8484630542633906 C
   0.4887938454160916    0.6394754903674860    0.8634121306183291 C
   0.1250723637421504    0.7442578864797339    0.7039801750087383 C
   0.5045196111369080    0.0716664621042841    0.5790386681411963 N
   0.0558126003466673    0.1432226709731886    0.9219532989796672 N
   0.4763037691272107    0.5346487383787147    0.8841493306165316 N
   0.5707195347015683    0.5676633262766779    0.6157807652250346 Cl
   0.6972286330865919    0.7727205434427095    0.4834174865922325 Cl
   0.8098731471423984    0.6422284632939816    0.7034117048612049 Cl
   0.2234573060273383    0.6867472204127821   -0.0517446019639262 Cl
   0.6244000737104956    0.8064855455139807    0.7380124002271625 Cl
   0.8407334038154796   -1.0657163765913231    0.7455622184860501 Cl
   0.4268375176129085    0.2649962763758296    0.0525513777522247 O
   0.5116055410684289    0.1791981954154442    0.1598466003383446 O
   0.7552795811084848    1.1841780155442490    0.0941784485679550 O
   0.7515078271540288    1.1174326014143028    0.2458621842087516 O
   0.9177623416782034    0.3112296426231766    0.0462285544652409 O
   0.5252782378587399    0.4222787242280624    0.1944395566305116 O
   0.3516905536894542    0.6525917411990050    0.1893254359591991 O
   0.8032720454896516    0.3453603988893837    0.1531677796569896 O
   0.7303058153201096    0.6410061316802892    0.2176004938295219 O
   0.7029902267566253    0.4853074794781359    0.1823954471557286 O
   0.9124783379256390    0.6365850869383203    0.1322047394145318 O
   0.8973941606808760    0.6619042938322938    0.3288644541659339 O
   0.2003066137872223    0.9896396854238297    0.1773488674920438 O
   0.1247083167471107    0.7867020974391862    0.3165902831339190 O
   0.0130722057711313    0.8732651354832149    0.1450396415202896 O
   0.0732889850383675    0.8227816036903401    0.0060402478224139 O
   0.1263532698358085    0.9689698469640913    0.3190499014950289 O
   0.4830983904983733    0.8896208195919498    0.2124244605678840 O
   0.4735645461235983    0.7856884565888071    0.0920987483747511 O
   0.6606259431116371    0.9471554814609550    0.2668287422120234 O
   0.8205149575471061    0.8477510535907467    0.2352617637720114 O
   0.8399080886980699    0.9337272852027411    0.1041794425619991 O
   0.0763099364182582    0.1372775292280672    0.3354131176971729 O
   0.0776859347094511    0.0979084166590403    0.4857734013645474 O
   0.0939537969205420    0.2069962413760908    0.6401074883577860 O
   0.0466958133188412    0.3260946784225305    0.3561594638734917 O
   0.3565381268339300    0.3245967586579818    0.4398892067669977 O
   0.5511743979632020    0.2187069199236911    0.3356312188676375 O
  -0.1246837448664962    0.2026726341333692    0.3419054970553889 O
  -0.2225733561525854    0.2984965974789959    0.4266736829411711 O
   1.0323945665197918    0.5728987739974307    0.3589849293592520 O
   0.2739945511574571    0.4552280871731713    0.3940830361043014 O
   0.3005834650173923    0.6383469605254570    0.3381851132185612 O
   0.1033842462715797    0.5776506699495305    0.6591069145139000 O
   0.6327468977955965    0.3602348875804555    0.3518544281893865 O
  -0.0577189677906200    0.6532221763620456    0.5438292594439936 O
   0.0733230479150964    0.7157210606740478    0.4820573795511290 O
   0.1922287444996264    0.8509366780997214    0.5104249686019017 O
   0.2865374958695942    0.9105604290384103    0.6271804209187030 O
   0.2431562934255967    0.1946093174978932    0.8417652376736404 O
   0.4190527309938338    0.1869030293111519    0.7451330516667489 O
   0.4969875994488921    0.2972088227687941    0.8744438285308588 O
   0.1113457340636853    0.3647315554561687    0.6753188670010444 O
   0.1020543747926238    0.5940485284982381    0.8152469495538015 O
   0.1207265083861601    0.8055235319952923    0.7797632962235438 O
