Li1 Co1 H90 C51 N3 Cl6 O45
1.0
  13.6144600649999994    0.0000000000000000    0.0000000000000000
   0.0000000000000000   13.2615954739999999    0.0000000000000000
   0.0000000000000000    0.0000000000000000   13.3052323778999995
Li Co H C N Cl O
1 1 90 51 3 6 45
direct
   0.8604837412992185    0.7263062167658454    0.3610507545121287 Li
   0.2532999117141265    0.1784279456901793    0.2993141401735187 Co
   0.1030640602565828    0.0580955163736131    0.0562255635792265 H
   0.0523224225638801    0.3292853597865671    0.1152549722879801 H
  -0.0602688952468568    0.1609722782741548    0.2557192608414262 H
   0.1345048958061636    0.3222560396581736    0.0144946126097227 H
   0.6099266142656242    0.0683627576167160    1.0413613077524362 H
   0.5045451306702261    0.0346473573184185    1.1216492703869230 H
   0.7267075951057924    0.0313792739203862    1.1803547463842750 H
  -0.1709556204497193    0.2302482565530260    0.2670869691011652 H
  -0.1579062597588221    0.1066175815551045    0.3182262487976384 H
   0.8365643204448300    0.2392735657803099    0.9529359449640191 H
   0.0441149725830130    0.5060686891074144    0.2062988537922273 H
   0.1381194350361481    0.4916131132020985    0.0985720618587949 H
   0.3388574728982467    0.3778111952534740    0.0745228764772989 H
   0.3610889825251399    0.3624849850400436    0.2021734091219656 H
   0.5288334974817821    0.5542364228655705    1.0874341595891475 H
   0.6206438956931194    0.4420821950491656    0.3484436842080718 H
   0.8516424064665984    0.5416174283917838    0.2619408733355829 H
   0.2139461659583633    0.6774033527574029    0.1722287987097660 H
   0.1868551173057482   -0.1505754542818744    0.2915292329236426 H
   0.2557553891873713    0.8004496335159439    0.1343639959245991 H
   0.0312125145228813    0.8367145008121064    0.2563648715121777 H
   0.0214449586032849    0.6884276673119097    0.0246906013866892 H
   0.6194613295154574   -0.0135941986281703    1.2476200127532087 H
   0.5111148366720043   -0.1607190301633536    1.1851949474548682 H
   0.6242775322651035   -0.2265436891730060    1.1474233410878307 H
   0.7456756627902305   -0.0253567350670042    1.0224259000237841 H
   0.7092056156763937   -0.1005151126509169    1.2262810393376375 H
  -0.0493701890703662    0.7689383420714646    0.0844836194568904 H
   0.7656030046535672   -0.1481059173348149    1.0738192151180617 H
  -0.0039860903216803    0.3096617782567117    0.3371120519811571 H
   0.0300740191344489    0.1071778459678267    0.3703335687082303 H
   0.0484104055065955    0.3253635088975117    0.5075995666349992 H
   0.0366897791109720    0.1766204708620567    0.4958440410223991 H
   0.3570858858367807    0.2618982945007903    0.7701552214916916 H
   0.5220689985916088    0.0494668411720247   -0.6290251514059578 H
   0.4464632826773803    0.1969144091387627    0.3746003111737204 H
   0.3902131635875491    0.0743552492558860    0.6009879393224152 H
   0.4839327818396300    0.1241117058823657    0.5317257142198537 H
  -0.1303098660563738    0.3507548730557818    0.3721433830215825 H
  -0.0438965970480446    0.0654988488152101    0.4767900333358371 H
  -0.2382260076429994    0.2236027514799159    0.4297313287438003 H
  -0.1685111606737817    0.2169678032059689    0.5443464633530232 H
  -0.1951130235659478    0.1005451598651289    0.4758636308762699 H
  -0.0034080284696182    0.5507295295893294    0.5231744919060682 H
   0.2813406858746403    0.3926442521345754    0.5931286252548390 H
   0.1822923215941726    0.4482563390396475    0.6511719557330619 H
   0.0489458655957356    0.4719123162269366    0.4124742832838968 H
   0.2031899553337153    0.3128295720626955    0.6613378811493414 H
   0.4053676389773155    0.4709333239159847    0.3799831559047122 H
   0.6147957019623459    0.4253703295398829    0.6017259948272790 H
   0.6861308849489067    0.4397296123556905    0.4611298784372207 H
   0.6561186774835202    0.6586936884122303    0.5058519083198673 H
  -0.0656940094010258    0.3712674878865785    0.5529357158180777 H
   0.8299581091393066    0.6256946423428508    0.6686981434295149 H
   0.3052175049661068   -0.0742957938154342    0.5321938759041507 H
   0.4386838335112484    0.6485915856703200    0.4182452460013566 H
   0.5485095623951944    0.6827300119922206    0.3461881805725362 H
   0.3726002726719225   -0.1685778130831259    0.4585335314498972 H
   0.9798171553489368    0.8946373956482515    0.4775216252181531 H
   0.7332410896090868    0.9419559857251607    0.5766922343832867 H
   0.2093341578654813    0.2594332818962292    0.8032737712084120 H
   0.1416737441875188    0.3760738477340769    0.8305126791587895 H
   0.2506402395841175    0.3419949919217389    0.9086578757603166 H
   0.4910854709316010   -0.0985673832053430    0.9366934627688973 H
   0.3664685568637716    0.0174269557123124    0.9180361411265990 H
   0.3709946269176559    0.1445300635777785    1.0115234222706750 H
   0.4191236013221947    0.3673810776804275    0.8282301184986356 H
   0.5380091827020245    0.0233523362710890    0.8999041767123048 H
   0.9243055892352791    0.3199712466964666    0.7548183980372629 H
   0.2256961728801399    0.5387250916382461    0.8119402865104317 H
   0.3343578453179002    0.4905739471359176    0.8711545848874098 H
   0.3273902535406938    0.7335059537950132   -0.0881770252242052 H
   0.3230191657622671    0.6037674164242117    0.6689213638826152 H
   0.5834437425043782    0.5381226000288719    0.8308396182062597 H
   0.6625956144739701    0.4437814626858674    0.8697070340703350 H
   0.4151462125942194    0.3560340266943661    0.6908232737270484 H
   0.4326174159224727    0.5518655919906851    0.7148040649629818 H
   0.4225677335004912    0.7091024044155669    0.7756943956982553 H
   0.8229119244546406    0.5482278698105311    0.9513403320955612 H
   0.8987136819296258    0.5806211064193708    0.8427341868620367 H
   1.0810051564465037    0.7825128776809196    0.6559881061151054 H
   1.2133343117268895    0.9915284524233708    0.7085576501962584 H
   0.0549314132862749    0.9166634030447730   -0.0711205775384851 H
   0.6792609834211593   -0.1395549100127830    0.9658015601699836 H
   0.5297885114843884   -0.1998327251193607    1.0522983583703351 H
   0.5053618138105722   -0.1549256095941145    0.6736503305186666 H
   0.6973586530183120    0.7077134312685489    0.8062725914369315 H
   0.9333503842115093    0.9298420586856154    0.7839738452314310 H
   0.9584751411513285    1.0302440052395161    0.6954830946335200 H
   0.9636086535834281    0.7373878396586657    0.7128334116699547 H
   0.1242679859812715    0.1956770014654422    0.1100622783133331 C
   0.1249209681750240    0.3065633577023705    0.0925706634816699 C
   0.3420863927224719    0.2342281698374779    0.1212398358167273 C
   0.5567679141376218    0.0081807077596884    1.0604297458521279 C
  -0.1213135489482961    0.1750889809263383    0.3033899802986469 C
   0.1704828191069361    0.3808530615265847    0.2632839539742707 C
   0.2041396808416140    0.3750264624456904    0.1556789186516204 C
   0.3114270791685634    0.3403285257681507    0.1434686847086307 C
   0.4736181605230629    0.5642369541183909    0.2871505044395937 C
  -0.0215159812509245    0.6326975704733369    0.1650308785773019 C
   0.2020749643662053    0.7375665511873537    0.1166236067832518 C
   0.0985379902026985    0.7778927699329399    0.1353508257391471 C
   0.0937548405449746    0.8774086994142316    0.0666259832088641 C
   0.2267854558872659    0.7004601561864832    0.0142510993881587 C
   0.0078454475601710    0.7181654164970044    0.1001751905674246 C
   0.5670566071398587   -0.1727688623508378    1.1219491524097751 C
   0.6758770813214765   -0.0359029774308436    1.1936164463672896 C
   0.7115435710450263   -0.0969740605888127    1.0366857035816042 C
  -0.0092672398976992    0.1327735595956092    0.4432972699369663 C
   0.3420055962755509    0.1547626181950602    0.4788388213032895 C
   0.4137139119442560    0.0836105458935069    0.5241912347644996 C
  -0.0614499923982112    0.3138905303785773    0.3960978688169147 C
  -0.1788486988007482    0.1841595335786066    0.4679333672774725 C
   0.2349708704735181    0.3886341765668005    0.6589283027902854 C
   0.5070372236241893    0.6182015771083684    0.3816088321338570 C
   0.5705489233810463    0.5541720263906761    0.4581283525062393 C
   0.6526400231869938    0.4931464128748163    0.4074204820356233 C
   0.5025757275597107    0.4699826087456481    0.5118032512014485 C
   0.7325682755601810    0.5565074919883655    0.3578850826317968 C
  -0.0194020523942093    0.3676480138878349    0.4891053537561079 C
   0.2842846145951805   -0.0691870570776241    0.3732271671743457 C
   0.3522410370741354   -0.0859218459222322    0.4654355529548004 C
   0.5145624210621239   -0.0673313225961849    0.5534275523989155 C
   0.4409975499458046   -0.0179383214837458    0.4770284357860843 C
   0.9874744549775872    0.6978888215332091    0.5529037734973479 C
   0.9995733556474317    0.7741488765154894    0.6446076209270744 C
   0.8461100533919705    0.8738427634683860    0.6108013718346408 C
   0.9598347249990630    0.8759541233009863    0.6269544155317192 C
   0.2181865103954088    0.3376810313494863    0.8338775208036722 C
   0.3783324133243914    0.3422189468754112    0.7617510090116650 C
   0.4996151371427891   -0.0178342616062819    0.9624885778222857 C
   0.2977122495602986    0.5017873038011504    0.7970160826814311 C
   0.6378160787164497    0.5430557168720346    0.9861717417874186 C
   0.3600173278337058    0.5721064446487428    0.7359386075258815 C
   0.6508184305655018    0.5229508207060546    0.8720534793719485 C
   0.8697797397740576    0.4223382660088520    0.8617161927997535 C
   0.7464983175225172    0.5210221839858240    0.7027719564320621 C
   0.7436682383408203    0.5629259504737627    0.8164001860683353 C
   0.8402383552402745    0.5307887162446258    0.8741436345237062 C
   1.0809331741574286    0.9540126044263925    0.7463307597313302 C
   0.9763744921969478    0.9507837319966800    0.7137315545704761 C
   0.6242951605807954   -0.0747120333252898    1.1046694842709546 N
  -0.0907673504200771    0.2037755745376312    0.4075166847898214 N
   0.2818812875558572    0.3977318752740595    0.7617119266427721 N
   0.8040988390456599    0.1465041850212600   -0.0196355691941124 Cl
   0.9076571140906278    0.9060726713130324    0.3142203059861073 Cl
   0.5838785742914441    0.2072661047751697    0.3443002015213981 Cl
   1.3278882486846533    1.0446532820399312    0.7646949636069310 Cl
  -0.0003362944603121    1.2308103703661499    0.7084186071530815 Cl
   0.5615636239702760    1.7630434650822466    0.7791050839681856 Cl
   0.1493427960266304    0.1531504441514531    0.1933686023607860 O
   0.0887395847306413    0.1391981259433792    0.0412607742132985 O
   0.2565721678144274    0.0137939086860734    0.3418913747463592 O
   0.3627475132264821    0.1683394159757644    0.1845006625421638 O
   0.2107466266602913    0.3283654101452197    0.3281058207033752 O
   0.2039024330929278    0.4662341155799908    0.1146101132012458 O
   0.0917966284768709    0.4418940578069392    0.2772979895584752 O
   0.0189615696301945    0.5445565166844720    0.1376897552005889 O
   0.4091863728640641    0.4882166892885274    0.3028090058533723 O
   0.4967559271694114    0.5896465664580713    0.2022350390113738 O
   0.5441497126680213    0.5336598639941292    1.0207416002412997 O
   0.7938692743523061    0.5057639746401451    0.3015606248008482 O
   0.7073722708444407    0.5587011948544375    1.0432598089798149 O
  -0.0843910417317016    0.6411324530045758    0.2304299618315951 O
   0.0997506714196675    0.8042040837325574    0.2358421183392566 O
   0.1424405759201145    0.9573636341035626    0.0813104317363867 O
   0.3017777798667332    0.7609453369909056   -0.0199685209137200 O
   0.0332383018011372    0.8654146674508947   -0.0136785142740006 O
   0.2515620535921709    0.1549141836687576    0.5015903517840956 O
   0.3737204052315093    0.2046548050964927    0.4010680939224786 O
  -0.0056321342994075    0.4715977236118792    0.4631330753181914 O
   0.9977980373546309    0.6049030263913175    0.5801810873910028 O
   0.4120583192955292    0.4634183156203849    0.4951252260683750 O
   0.5453809036164667    0.4145194481144825    0.5819240107268266 O
   0.5998145716768828    0.6192391596546749    0.5335507856887545 O
   0.7338382488031486    0.6486330588098889    0.3772984977953708 O
   0.7943577255996014    0.5727714475903036    0.6362327202237177 O
   0.2480562223089528   -0.1506289923347725    0.3351729652168513 O
   0.4636945205582783   -0.1239406499936193    0.6158865892948321 O
   0.6036817834317839   -0.0509094674410516    0.5446559656512949 O
   0.4861731938614343   -0.0150133340585110    0.3832487884593281 O
   1.0136980435955321    0.9114015927190994    0.5424493149768755 O
   0.7984945036819571    0.8014170887535247    0.6362334718077348 O
   0.9600962116818256    0.7293865399501930    0.4690109884412950 O
   0.8031814321165296    0.9494286914184003    0.5702676942044933 O
   0.3575633193867685    0.2184623443446168    0.0257668696992807 O
   0.4053808602140845    0.0206724173978525    0.9804717286011798 O
   0.8837847020780842    0.3643361951789844    0.9354961894295409 O
   0.3695682023729231    0.6576266976396840    0.7958969740798607 O
   0.7593978375300335    0.6667522964590166    0.8085491394249481 O
   0.6998060508468648    0.4452419204443606    0.6752880320920862 O
   0.8894426569020165    0.3955835666443885    0.7685370611027185 O
   0.1903198158523520    0.6276710259575815   -0.0326041514104295 O
   1.1467352695562076    0.9669492077435689    0.6765033434478547 O
   1.1032550289022425    0.9472524826766556    0.8346118183884500 O
