Li1 Co1 H90 C51 N3 Cl6 O45
1.0
  12.9972856734000004    0.0000000000000000    0.0000000000000000
   0.0000000000000000   13.2406633534000004    0.0000000000000000
   0.0000000000000000    0.0000000000000000   13.2084112835000003
Li Co H C N Cl O
1 1 90 51 3 6 45
direct
   0.3507371424504124    0.3397487011513554    0.7683081957386567 Li
   0.4926015321647658    0.2810854771671473    0.9614775289185900 Co
   0.0482532162837303    1.1551995370966304    0.2331499660104448 H
   0.3148973516121346    0.0203198411982065    1.0594196638380291 H
   0.5660020885557401    0.1231115189014620    1.1198750799256183 H
   0.4011715190173255    0.1486902977708026    0.2966080142200018 H
   0.5086072694569569    0.0124546763480437    0.3027177573426142 H
   0.8553863565108271    0.2327774745446236    0.1445670187591263 H
   0.7026267688637382    0.1090563318588723    1.1146231235388075 H
  -0.0647126780494913    1.0089523326842655    0.1844007268945821 H
   0.1539306657538932    0.3786553621131506    1.0248689529156574 H
   0.1322068991848585    0.4788487560989090    0.1401872338812685 H
   0.2841463155848218    0.5691273145136619    0.2405793227963426 H
   1.0481065954085809    0.5087537532604238    0.2941345903313308 H
   0.1980060222856346    0.6136496306745531    0.0653818709354395 H
   0.3688655429426948    0.4862669644906191    0.1716285625230244 H
   0.5048676624942914    0.5647877283111893    0.2705458336434455 H
   0.4324604365820355    0.6871678505717486    0.3043386941487496 H
   0.5353778482334238    0.6917174715682322    0.2307302957477596 H
   0.9821628267220077    0.3706686021467139    0.0935775404983058 H
   0.8193688362559585    0.3426420607193383    0.2813881671327804 H
   0.9177570714716486    0.4807538721287281    0.0587663894725663 H
   0.9557234601777079    0.6538998799087162    0.2013505322265581 H
   0.1391960507879437    0.8532599821593466    0.1042449854298558 H
   0.1905444643544677    0.8691700611619901    0.2841841127773662 H
   0.0020443373614830    0.8429644254820451    0.0965779013403024 H
   0.3526513882879813    0.7335779120315626    0.0438539222747848 H
   0.3063163291738685    0.7515921152201628    0.1756176872458304 H
   0.4385338585243994    0.7889928093381684    0.1373814460234740 H
   0.7196426293716459   -0.0749125475684945    1.0440105434198719 H
   0.7879984401405254    0.8967902785362269    0.3176158397672444 H
   0.1394268682120879    0.0913736830556401    0.5809858942979970 H
   0.3521812901341410    0.3593685640741063    0.4063941170960889 H
   0.6357520365664504    0.2217296896945967    0.4620230632448113 H
   0.5777653908206818    0.2124665586318689    0.3420631402842552 H
   0.4329383825282967    0.3383439376962658    0.3002806739334830 H
   0.3544571499362024    0.0530024937549516    0.3787215990199296 H
   0.3565291210136032    0.2066753080008868    0.4965156521127191 H
   0.4740840504345177    0.1361237068411062    0.5176482239269151 H
   0.5149492905582317    0.2591198103242306    0.6007248314346449 H
   0.4217981334302615    0.3587273575292832    0.5729313298453514 H
   0.6891354904225120    1.0634375182633362    0.5193944596781301 H
   0.8812909960225264    1.1177837379952369    0.4073745529503370 H
   0.7198819101013419    1.0703019779640399    0.3810057495776646 H
   0.8905144602913271    1.0863993587606955    0.5347178014227073 H
   0.8406248128453943    1.2407133795514536    0.5620673434869575 H
   1.0666266161304947    0.3674232964657893    0.3762080491851002 H
   0.2364148110546369    0.6358894529659629    0.6158015878836789 H
   0.4765872653993611    0.4234964689484467    0.3927278255091897 H
   0.4959500774759665    0.7106054980458317    0.7214456331855635 H
   0.6333346087442473    0.3321191740420463    0.3832656731490398 H
   0.5588682913668579    0.3790926513822349    0.5465511700728228 H
   0.8980814248461865    0.4060527809824135    0.3830203749121468 H
   0.7463766728274365    0.5289684504289965    0.4199619865509013 H
   0.0687698077244910    0.6578445463205080    0.3918859377331866 H
   0.0829419975669425    0.9160634820902219    0.3654913931875068 H
   0.1406409678630862    0.8871789776064045    0.6286002505215676 H
   0.4680427121141097    0.8254033717950866    0.6547025570442823 H
   0.6535203618770680    0.8053092123939506    0.4516146199393141 H
   0.6244912238338706    0.9095630524891704    0.3697545856935081 H
   0.6022419629292011    0.9340202863419474    0.5065023868659579 H
   0.4073958955550797    0.7989356646533589    0.4829869016699445 H
   0.7230248740267717    0.9264708156445952    0.6289825826500582 H
   0.8238697760267695    0.7968496664474677    0.4104642508045355 H
   0.7923901263305750    0.8139266054168388    0.5795072910367253 H
   0.8562080665407804    0.9275326959767758    0.5920932104506420 H
   0.8994155495577397    0.9086975369410346    0.3932752039822564 H
   0.1300849176655599    0.0777671140196757    0.7533169908352060 H
   0.2364378927970513    0.1262125719910307    0.8155939734597227 H
   0.0255561695762211    0.1239422929878053    0.9243716280285831 H
   0.5210877876263761    0.0303231164469491    0.8503612130726851 H
   0.6596954973643381    0.0777656035213369    0.7761509254793187 H
  -0.0730213359272673    0.1883605156428642    0.7725040069388448 H
   0.6702746293042788    0.2259764557741497    0.9497675664802446 H
   0.2862536786672580    0.5340583766812711    0.0053996381751902 H
   0.1129867322763742    0.3510917884266190    0.7164556310887683 H
   0.5142370803142925    0.5204217487283646    0.0995714483423853 H
   0.4551399411653098    0.5841964235661752    0.0007442713274897 H
   0.4479535176037227    0.5015252483550844    0.8079904852093639 H
   0.7126957942963204    0.6126965062227665    0.6935596147921086 H
   0.5499051122133505    0.6496803027992617    0.0661669767121618 H
   0.0156148631183321    0.3635700152034952    0.8062514418447243 H
   0.7970803363891844    0.4434999229243374    0.9080873077281779 H
   0.7609350971596226    0.4802914330623026    0.6647908255831683 H
   0.9531975481661570    0.4731241939695852    0.6220710776976012 H
   0.9881987023633776    0.6976552405380786    0.7464849806817420 H
   0.2048205220377841    0.6606638914698894    0.7529293590534492 H
   0.1033785723006666    0.8533558988038608   -0.0782788585249160 H
   0.2811795422931555    0.7722882082093130    0.8326520431369940 H
   0.5401803894384500   -0.0579496512237033    0.9514377143524235 H
   0.8433730789755374    0.8918675644500583    0.8501779964883390 H
   0.9215524793159924    0.7207960750885863    0.6384318644237045 H
   0.1457051021488091    1.0346360911881531    0.2018479425402577 C
   0.9724884990847122    0.2896771917182757    0.2956760323384732 C
   0.6271210036862863    0.0720272203322130    1.0910737357037570 C
   0.2490851488573237    0.5504984140260847    0.0755352495001675 C
   0.3259442735316742    0.5594595964708851    0.1689045407441942 C
   0.4743389498099141    0.6424117847929273    0.2482804760854644 C
   0.8198581691951440    0.3529134494232190    0.0690015341162586 C
   0.9209185007910099    0.4536137666514807    0.2195586266625962 C
   0.9119620153428026    0.4142781996863815    0.1087406055862464 C
   0.8482294775795305    0.5431449304881923    0.2393467748652877 C
   0.8961602544858933    0.3717961891566326    0.3029274721932912 C
   0.0616136981846082    0.9448467831853394    0.2077472137188694 C
   0.0671379285357918    0.8968952581707740    0.0996411009281698 C
   0.0685205249064153    0.7668640086746605    0.2920419843845030 C
   0.1040879511842030    0.8771099956799238    0.2951604517850037 C
   0.3717992324035670    0.7378352515994873    0.1236409592908479 C
   0.6116777792282144   -0.0359394246797919    1.1322573412354480 C
   0.2236029052318083    0.1850759370051306    0.6674883490956675 C
   0.4200593088350421    0.1089309604967514    0.3686711851472307 C
   0.4317832951987379    0.1755688604606857    0.4621781159575141 C
   0.5949842937226948    0.2589544107561314    0.4042969685893185 C
   0.4317817564159103    0.3561308108848757    0.3802304860141509 C
   0.4948061463219081    0.3240787913845821    0.5517380921431240 C
   0.8358076532035056    1.1156947187926680    0.4755097722953184 C
   0.7458465621433187    1.0437149414535465    0.4582204863169758 C
   0.2684799676167438    0.6423725118361183    0.6973647658372449 C
   0.4593944448662763    0.6836997463858501    0.5649183298161795 C
   0.7765275835519745    0.5892475300111424    0.5432011078245889 C
   0.2712551624463704    0.8095793911977551    0.6236882290371180 C
   0.3328587941676195    0.7417746312670933    0.6930932453046824 C
   0.4466213163707040    0.7419589120644277    0.6605352040104044 C
   0.6470390086071000    0.8899341265763866    0.4473814083289330 C
   0.8229488145044344    0.8787035714273641    0.3905420970835414 C
   0.7790719609574570    0.8967298586026747    0.5760428319872737 C
   0.1704548851483737    0.1485369821894138    0.7676290830272586 C
   0.1011011737157775    0.2297685618537221    0.8232459156828011 C
   0.1733377947759343    0.2943733310536236    0.8999636963644070 C
   0.4274831665869322    0.0604749290370248    0.9712917296742806 C
   0.6245681629752520    0.0808470201325011    0.9745979562190697 C
   0.5303475671699087    0.0246821604006782    0.9343024211561303 C
  -0.0285666694285156    0.2835453237118928    0.6844071136013699 C
   0.0538713123873992    0.3110492327140417    0.7586703977273983 C
   0.7192210028768758    0.0424954673102172    0.9159595641084658 C
   0.3349007589798815    0.5536896438664800    0.7237138847835001 C
   0.4890180916549277    0.5941203976521305    0.0767571981246900 C
   0.7739224242248006    0.5657042231782597    0.6561031796932083 C
   0.8834068224105145    0.5398859547973015    0.8198109832729756 C
   0.8782218936728229    0.5822992376526348    0.7104314395117389 C
   0.0530072858296863    0.9658638570714858    0.0135126502324287 C
   0.8364470174683849    0.7688858107011525    0.7694324793244164 C
   0.9108294711816686    0.6958811602391509    0.7139004411211329 C
   0.4115498397982607    0.6340541974843138    0.1575163429684401 N
   0.4873338938500891    0.2782215723167711    0.4466661822659923 N
   0.7567780753507861    0.9306866165082027    0.4677002032422365 N
   0.4668012221287797    0.3368810200551322    0.1099875382904524 Cl
   1.1111243685484198    0.5220433442199897    0.4162166458783408 Cl
   1.0630050907456725   -0.0182250554114447    0.5592489121706565 Cl
  -0.4275138134935256    0.0799558261126056    0.6648059674496430 Cl
   0.5127213484534227    0.3673583450372206    0.8140669162257315 Cl
   0.1517286675275579    0.7322826597060363   -0.0683609359838723 Cl
   0.1257540133972016    1.1239156060016195    0.2300065145302606 O
  -0.0351680477590386    0.9684800401942979    0.2388175666319908 O
   0.2318684771904107    1.0114907251426288    0.1685555207219483 O
   0.9510986483892728    0.2157156405586406    0.2379915778157863 O
   0.7977220088283052    0.2580722797262687    0.0999151687113650 O
   0.1900235863673157    0.4596759251595277    0.0970919677071244 O
   1.0250202366456820    0.4844158487764124    0.2206488410487873 O
   0.8759514196106581    0.6318888981156354    0.2020054179515965 O
   0.7655437517283676    0.5332914211497424    0.2857550814241346 O
   0.7645273856707195    0.3841346948371693   -0.0003292870055790 O
   0.0607735227607235    0.7108260308032973    0.2131695161035224 O
   0.5455244283205184   -0.0578711053100854    1.1986816810874332 O
   0.3661726729943462   -0.0138295052455193    1.0094272774845792 O
   0.6772991729123995   -0.1027835076669732    1.0980147672958400 O
   1.0593543284871259    0.2954223721499243    0.3478087215181468 O
   0.1970212012759529    0.1456693010931906    0.5832518746159621 O
   0.5121168453135032    0.0417772253501149    0.3705813316030364 O
   0.7965817707530330    1.2122457726091467    0.5064515859039347 O
  -0.0481761483923898    0.3323381963011732    0.6082298975529171 O
   0.4728704893575090    0.5919739795126872    0.5594523431467465 O
   0.7365176912508256    0.5079188253036487    0.4893166561124369 O
   0.1849202131194883    0.8358484678079301    0.6704099722319947 O
   0.0552808374575062    0.7327735716661484    0.3847404909436927 O
   0.3030625728848496    0.8430165376747339    0.5439167881435240 O
   0.4543666258552854    0.7409891721309141    0.4788099420935176 O
   0.8050173782140883    0.6648744055893111    0.5007224260242351 O
   0.0314812528540018    1.0574650078316974    0.0314050367524657 O
   0.3054638434873627    0.2349888441126356    0.6748813654020256 O
   0.2570006477226408    0.3262184122815008    0.8761356981862186 O
   0.4019916902644510    0.1488541868405631    0.9713613822600651 O
   0.6073984241845817    0.1842919883672903    0.9591373534548978 O
  -0.0946043038675740    0.2078738884327293    0.7034366542936701 O
   0.7294431372008069    0.0653742303989420    0.8199911714840267 O
   0.0167120152744307    0.1794040157429141    0.8669059734764580 O
   0.3308668397972553    0.4761353724079949    0.6688306755586650 O
   0.1221340267952073    0.3151071865012439    0.9879500540766153 O
   0.4056309116517906    0.5660328320918671    0.8037689328361683 O
   0.9582886111513633    0.5516352906007870    0.8730482716119914 O
   0.8085804298514603    0.4704594483251806    0.8328375310013112 O
   0.9547801863043721    0.5438798634549384    0.6482422797127765 O
   0.0753727248378417    0.9321857861094677   -0.0749014652076949 O
   0.3384876617510817    0.7900524239228408    0.7859227290088798 O
   0.8885494346204466    0.8426804517943496    0.8173186320512109 O
   0.7747856813910998   -0.0172613574712865    0.9589866918834729 O
   0.7425074034073664    0.7566628581435344    0.7723223045411464 O
