Li1 Co1 H110 Cl3 O55
1.0
  12.6960977781000004    0.0000000000000000    0.0000000000000000
   0.0000000000000000   11.7483630683999998    0.0000000000000000
   0.0000000000000000    0.0000000000000000   12.9552739826999996
Li Co H Cl O
1 1 110 3 55
direct
   0.3736674820891280    0.7789437967587693    0.2164200074150548 Li
   0.5427052476695040    0.3066516171848818    0.5867109025675643 Co
   0.1781979730025816    0.1923974021776496    0.2535979166312688 H
   0.1737666901798355    0.1946257977292322    0.1401846455601938 H
   1.0832366865370937    0.3623546965151603    0.2201188871194895 H
   1.2898986110006792    0.0442255258179351    0.2619589902870361 H
   0.3278990885121403    0.1169466355611288    0.0617249386209695 H
   0.3185993806756377    0.3228274877205105    0.0430615741623809 H
   1.0592214335570846    0.4959928885644823    0.1865217589860953 H
   0.0094614023300297    0.1469178747839863    1.1833821895139010 H
   0.2953442037574756    0.4806690516221057    0.2879190742226679 H
   1.1839447956228246    0.0068999003289264    0.3127236441938719 H
   0.3394553952265612    0.4282191914660627    0.1207825086130589 H
   0.5010948245904325    0.3790336158555963    0.0301408053524330 H
   0.5931168001942501    0.4556434375609597    0.1671142188340498 H
   0.6087160814428259    0.3198755871197128    0.0521554767812931 H
   0.5937823590256082    0.1151800915856687    0.0271946847183987 H
   0.5008884619705323    0.4686180110494141    0.2427776128548152 H
   0.6716007578177333    0.3972965856626079    0.3137556563317745 H
   0.6790589549468807    1.1520672671927654    0.1882762568091713 H
   0.6961602725166397    0.1773697767142458    0.0309123830136502 H
   0.8815684224176620    0.1964311556226266    1.0539368375870020 H
  -0.1120100944207457    0.1167987851763657    1.2103750574738512 H
   0.7304763283327442    0.2781182804086586    0.3059217810979873 H
   0.6947165218209246    1.0935059173268817    0.3006528844238490 H
   0.0644464861094074    0.8009374990724983    0.0748253948696476 H
   1.0497697105082129    0.8848317398498420    0.2500734832568012 H
   0.2227140132755938    0.7112807533737591    0.1086905991552435 H
   0.3166129435481998    0.5755946164439529    0.2142587254508609 H
   0.3158355393274301    0.6677325588702948    0.0566251622605292 H
   1.0217217223606851    0.6406538928341995    1.0619027053978880 H
   0.2288686602675843    0.8300598540770239    0.3248746801511363 H
   0.5797016546135512   -0.0599960574674335    0.0025419370863152 H
   0.6213105024054478    0.7598815666679776    0.0307950871539077 H
   0.4782862415863297   -0.0264149536401980    0.0172980125082075 H
   0.5305558453337665    0.6227101164312533    0.2426093416161744 H
   0.5809516449867644    0.7661496739414131    0.1417376810287503 H
   0.5555233594109492    0.7285495421249081    0.3169219344093185 H
   0.9412245477277923    0.5289804628966381    1.0550560728898881 H
  -0.0614323490990569    0.9688417414350599    0.1275596713436383 H
  -0.1013012922063737    0.8481270519295421    0.1500007251097131 H
   0.7436370650347112    0.7607574333687332    0.1573591183113775 H
   0.8499130266398149    0.6869811979090608    0.1470536627742515 H
   0.8315136724380108    0.7026727456529207    0.3190477095983864 H
   0.1270988076260301    0.4649068557381459    0.3474253417882523 H
   0.2873322931863818    0.0889904855776971    0.4275046979937153 H
   0.2537038502220827    0.2547499185014206    0.5204043156789270 H
   0.1900685495083774    0.4279757532965622    0.4462785193984025 H
   0.2372499756811715    0.3421016622316017    0.6129874599336674 H
   0.3100810152778419    0.0689566307649301    0.5610533981069196 H
   0.3523475454652225    0.3795162362825433    0.5086901674329961 H
   0.4310339274906690    0.1586335494868064    0.4746978334547207 H
   0.5600838157820300    0.1202975704761290    0.4672684267028041 H
   0.4312883363694012    0.4816666374076118    0.5038203360358178 H
   0.9621364849734215    0.4398735810353022    0.3531373012650505 H
   0.9324423217282153    0.4291674086717400    0.6581814095777935 H
   0.8449508720391572    0.4150045845377510    0.3786628131485962 H
   0.6980718835032742    0.3672192039931186    0.4622063955880957 H
   0.7416167592330147    0.3977885690960742    0.5656824009423734 H
   0.9053316294497009    0.3922524786959622    0.5377779351253829 H
   0.8214184445782282    1.0396430943688422    0.6052701395486637 H
   0.0776152567759658    0.6726711192179962    0.6568599400339721 H
   1.0570475372558441    0.8694270405784356    0.3678046869377692 H
   1.1200353949407018    0.5891522498838337    0.4781010806619103 H
   0.2435550625983565   -0.2782715725387634    0.5683276556892636 H
   1.0619309274977613    0.7131822948795786    0.5158540452578830 H
   0.2876741305033160   -0.0934773175978774    0.6301665640033458 H
   0.2977102850940432    0.7706234886927952    0.4152973143280987 H
   0.3694843069964148   -0.2660043316337181    0.5667167287395234 H
   0.6222871804538312    0.9345646257504794    0.4107161684504234 H
   0.5995258560649727    0.7373584288947049    0.4927275563545925 H
   0.7080127332199252    0.9963519569534518    0.4700680587328510 H
   0.6909248055911521    0.7017892183104673    0.4205106351803007 H
   0.8579706205389783    0.6057809494620300    0.4002710014720405 H
   0.7787391891510467    0.9156173052851513    0.6117640199646506 H
  -0.0800175871874888    0.8945505406168283    0.4908387502951702 H
  -0.1012595470962412    0.7885127894214474    0.4338874267658293 H
   0.2505438241494099    0.0034017108568507    0.7241367881472492 H
   0.2571915360271165    0.1447967282161697   -0.0374565994704550 H
   0.2988224378394606    0.4274710021269332    0.8001560218056908 H
   0.1997935848820792    0.2813212798206545   -0.2226313015418679 H
   0.1247469038740358    0.3854387634971773   -0.2484138516018696 H
   0.3571080633075044    0.4177743321026287    0.9081660879662811 H
  -0.3520318753853249    0.4447329814187955    0.9258731623443553 H
  -0.3618419762664666    0.4527102629732004    0.8047255893871293 H
  -0.4849160126601783    0.4998878992764922    0.6704752445219778 H
  -0.5308442978854093    0.4276480480683882    0.7619082780172008 H
  -0.4268572285453073    1.1328050092354260    0.7167629572172691 H
  -0.1251527153202021    0.3470946982535969    0.9577983845011625 H
  -0.1704634879729069    0.4736553085567731    0.9203541744715030 H
   0.8711715270639029    1.1540760576823510    0.7544850463566106 H
  -0.0364409694211758    0.4372000170828497    0.8415600091483197 H
   0.8484165038237436    0.1479273771232441    0.9513454140652121 H
  -0.3222085385917842    1.1916046901763453    0.6890506911178087 H
   0.9885225451515224    0.0828343087912872    0.8660133708003422 H
   0.8467703287260649    1.2537495179918712    0.6731212711552839 H
   0.1983561353350633    0.8697785789141130    0.8601701906328607 H
   0.2568638762947556    0.7570352126861242    0.8661214348985519 H
   0.1022821272958356    0.7198223688665519    0.7673523929077222 H
   0.1293333524835009    0.7662237268111564   -0.0300511211974277 H
   0.0195512742134180    0.5322745388265940    0.7615871732682349 H
   0.5196288658456831    0.9991182997886862    0.8286000362273142 H
   0.4640543096054907    0.9855759876322004    0.7174947055394320 H
   0.3468001716791220    0.5970452643795654    0.8884135145863805 H
   0.4360772093808297    0.6814076554828716    0.8999223410457129 H
   0.6138735716531604   -0.1039970810134654    0.7215270401754852 H
   0.6172186939688736    0.6340878717169695    0.8665922856121798 H
   0.5865982618648781    0.7542450367433862    0.8281677798344754 H
   0.6240388997922222   -0.2250828860501102    0.6778367252693055 H
   0.9124991860950955   -0.0319627903575796    0.8384338691643964 H
   0.8453761995763563   -0.1760190295243940   -0.2351474397737980 H
   0.9617584160514666   -0.2238759093915371   -0.2292085456907595 H
   0.3821346506537425    0.9826819674353401    0.1505657459660666 Cl
   0.5138617394986964   -0.3659288907544365    0.5885780958073447 Cl
   1.1591812812347799    1.0751714481973593    0.8418456071221596 Cl
   0.1279880572362115    0.2173779035710210    0.2018923331835929 O
   1.0607100799372822    0.4369582812781708    0.2449813485718772 O
   0.2779845390910474    0.1773587113429049    0.0339500570954606 O
   1.2393240162533401    0.0656931122835233    0.3182364569753979 O
   0.3510345436050167    0.4047648601353298    0.0489388717094399 O
   0.5743149601192815    0.3937650298400273    0.0548421046400692 O
   0.5741645201940870    0.4862485523251706    0.2405306514984693 O
   0.6296028140936581    0.1748817705273566    0.0667908291677568 O
   0.3397105917488807    0.4973343520439682    0.2286636697422132 O
  -0.0589040131834837    0.1192753004007086    1.1554707767191683 O
   0.7251148384332716    1.1506457925666604    0.2548352505557698 O
   0.1091055624578925    0.7392786964135630    0.0395957038102788 O
   0.2939343217360189    0.6876544831960362    0.1240329223099233 O
   1.0983436905435406    0.8807707485677180    0.3054115641771544 O
   0.5179968683325779    0.7082896983820627    0.2523443730920363 O
   0.6351108057003884    0.8047703734685170    0.0950559203182015 O
  -0.0292590776624904    0.8927119866094111    0.1441776139890421 O
   0.9710683632546055    0.5884730063199822    1.1009138448515878 O
   0.8116587528866804    0.7423727444769713    0.1912264066902959 O
   0.2516677915486382    0.3363706510594069    0.5361199231042798 O
   0.3176888646885964    0.1171354278198534    0.4971682189045952 O
   0.1782263281717282    0.4949059286258379    0.4035299059194787 O
   0.5102732353144747    0.1886649673061103    0.4808536276205944 O
   0.4329770442207997    0.3991759964257456    0.5019076014975061 O
   0.6516788885614735    1.0100389701197805    0.4176098860297862 O
   0.7358409688065665    0.3571156687764319    0.3335638055336116 O
   0.6721576218340294    0.3804942448726000    0.5383684282334572 O
   0.8817889626221357    0.3882280882575043    0.6092623360910960 O
   0.9073795027769566    0.4491472134014186    0.4092024991890719 O
   0.2961759553857763    0.7859303019869549    0.3368427790278601 O
   0.3024534747774022   -0.0172684879262613    0.6651847350281974 O
   1.1133089187042546    0.6527968611072619    0.5307360153541897 O
   0.2997227144598656   -0.2238324990885843    0.5526112763774951 O
   0.6264561779619712    0.7532551115995778    0.4201617425203665 O
   0.8067769379319381    0.9702291687647313    0.5643184776456839 O
   0.8155079670983335    0.6753021240499067    0.3936296907506390 O
  -0.0398311449500887    0.8319409672049832    0.4628717616785011 O
   0.0070609009686924    0.4459067619633457    0.7741349588432120 O
   0.1964051421690587    0.3569948008740925   -0.2611028923909352 O
  -0.4757226367079754    0.4213450423161081    0.7031962815734578 O
   0.5291538397481839    1.0065916813558731    0.7533889676461980 O
   0.3650593253223678    0.4483266735573675    0.8378472354884009 O
  -0.3990494716919386    1.2028743452958846    0.6882363509491570 O
  -0.3241445665296282    0.4831953610174828    0.8664379083290231 O
  -0.1149724219529796    0.4321754873116533    0.9540084221996652 O
   0.9113255971498606    0.0523317615075826    0.8605021017916478 O
   0.8261986535101952    1.1802669404639388    0.6983272220626952 O
   0.8399335823873809    0.2146992325241033    0.9922322375092660 O
   0.1832255020209941    0.7885766281022605    0.8582636311858755 O
   0.0542041264274973    0.6703567542429186    0.7292350979234996 O
   0.5343633144352872   -0.0120103085832890   -0.0347938229019265 O
   0.3596781443332101    0.6801410960555397    0.9001384692421324 O
   0.5791172230716959    0.7026438054509520    0.8870781510870749 O
   0.6651735861445004   -0.1672050356601320    0.7066705423308994 O
   0.9119950941991557   -0.1647485232224439   -0.1999718039201265 O
