Li1 Co1 H90 C51 N3 Cl6 O45
1.0
  13.4621814892000007    0.0000000000000000    0.0000000000000000
   0.0000000000000000   13.1132637104000001    0.0000000000000000
   0.0000000000000000    0.0000000000000000   13.1564125328999992
Li Co H C N Cl O
1 1 90 51 3 6 45
direct
   0.7400845288405086    0.7363264839127885    0.6185496423169856 Li
   0.1911140662205477    0.3668021528984625    0.6620850664736608 Co
   0.0902648835610232    0.1876926610228997    0.2823174065963467 H
   0.3185079808974412    0.2598402225219997    0.1776194126291131 H
   0.1178317381824471    0.3108099898324760    0.1669379293867338 H
   0.4087377851066981    0.1635766204258367    0.0927056873102742 H
   0.5548635078640505    0.0332444592076843    1.0196004596887751 H
   0.6721044618109425    0.0834501146829007    1.1539486336746505 H
  -0.0364842619150566    0.2008945613143353    0.2687103537958718 H
   0.7769819663322325    0.0166597244839009    1.1048569836230209 H
  -0.0356129321079663    1.0085310303041704    0.0930378447269767 H
   0.0333840577740352    0.6337090097493751    0.0962279240814395 H
   0.0906868062638598    0.4428652156132727    0.1917798077622182 H
   0.5690202773410400    0.3467468862762084    0.3198420736562643 H
   0.3591202695104428    0.5190167841360671    0.0472434461024759 H
   0.6083465930963821    0.5652121793769611    1.0861832000679954 H
   0.6050165235949446    0.6367128386107408    0.2794822872272387 H
  -0.0003452453381147    0.3572743951442345    0.1515378346045630 H
  -0.1140600991475155    0.3473767828589675    0.2974028259311152 H
   0.8729976084506343   -0.4334921317102531    1.0734114813658180 H
  -0.0539383424582809    0.4719257918676623    0.3248958829552453 H
   0.2048228399544373    0.8042737180779452    0.2417706391043719 H
   0.1655884855205938    0.7973532441208764    1.0261121132102626 H
   0.5239159233039824   -0.0317103848960356    1.1949324503991285 H
   0.5099614613060731   -0.1525407163064658    1.1278602148795047 H
   0.5873559386302616   -0.1399290580913688    1.2352998376843716 H
   0.6543777657185262   -0.2272078641366022    1.0381260265475605 H
   0.7363473930694331   -0.0194327396388665    1.2244222523515822 H
   0.7408570633668292   -0.2030498812731327    1.1385044539264184 H
   0.7641935486349882   -0.1567135905205794    1.0251164010457769 H
  -0.0845804787517884    0.7995456807739422    0.2288894680726632 H
  -0.0928079714571019    0.9031057120515086    0.3217666104505220 H
   0.2557707491436156    0.0940142277106997    0.3788878050102634 H
   0.0791455861336272    0.1981683139979142    0.4803774167612625 H
   0.3521800867417769    0.0958894283124002   -0.3734783871600683 H
   0.5437574326622011    0.1526449406269846    0.3757661333617576 H
   0.4033010733777175    0.2579390939737933    0.4278564732082947 H
   0.4911474600089437    0.2121823690843114    0.5195095737008958 H
   0.6069404316941467    0.0711320523326490    0.5938240570416281 H
  -0.0425070599337170    0.2315101280310785    0.4694628760655439 H
   0.7648747160971382    0.1784043554805197    0.4988002048422756 H
   0.9127831365561411    0.0675311181149874    0.4409879404352439 H
   0.7002061480275114    0.2323916782122765    0.6509969374236482 H
   0.9141217011873233    0.0374966424346393    0.6388287267051360 H
   0.1976182126748385    0.3602988138454725    0.3487017646282916 H
   0.1113134781166177    0.4650622068755739    0.3821234895020309 H
   0.1131705322664266    0.3592799980651261    0.4555524730934306 H
   0.3638505578408363    0.6100352694162349    0.3522696065367615 H
   0.4328401195062385    0.5286031390493983    0.5144925525460072 H
   0.5286219213660962    0.6040787049998529    0.5501213380396068 H
   0.6436707343123877    0.4154178151835423    0.4252414746352439 H
   0.7040405934360369    0.5645492627917402    0.3345763334337867 H
  -0.0684969041711231    0.3755596981241351    0.4257793872297527 H
  -0.0744075361191350    0.5839161424342646    0.4725802152260057 H
   0.1543094814363142    0.7601313891517817    0.3463873039100787 H
   0.0371538776981473   -0.0292457048046586    0.3822169800335055 H
   0.3462419703923478   -0.0032971684589634    0.3351289156807952 H
   0.4311340809998920   -0.1568234029998982    0.4872240932222464 H
   0.7012045003384486    0.8335341682964283    0.4226928315369715 H
  -0.0592896296963704    0.7636064965702238    0.5380125660167152 H
   0.4392159063776945    0.3157866303882701   -0.1297979771711815 H
   0.5103372547838284    0.0051736441818213    0.8630676666610351 H
   0.6690321514254987    0.0145992153233499    0.9667669081212960 H
   0.8413028938650151    0.2331504519409028    0.9902505134907225 H
   0.8409597102581304    0.1125671986089398    0.7179049944489752 H
   0.8860816691685283    0.0070389311569167    0.8683236587354002 H
   0.1620177418013411    0.4960756913125153   -0.1191088930725848 H
   0.3068323100467624    0.6084132475862970    0.6898137500405319 H
   0.3594597390090279    0.6115596801534449   -0.0496180651045690 H
   0.5231576509535324    0.3644106811266312   -0.0499905070592240 H
   0.4295570706158742    0.5576438880505776   -0.2245434100072890 H
   0.5856184787677003    0.5076132080849425    0.8001325771805681 H
   0.8289742827752634    0.4619887538519733    0.6801348197332340 H
   0.9521326283472727    0.4893651574634774    0.7177172533004043 H
   0.7777374159603748    0.5383634857355167    0.9458577127527191 H
   0.8142708708387363    0.4177749705555864    0.8865816754553313 H
   0.1831331903063287    0.6856617512670867    0.7856012602640515 H
   0.1844695264725313    0.8079448102685051    0.7150812763641933 H
   0.2064436768163905    0.9536918982710311    0.7882706809676191 H
   0.0563632458237711    0.8664108044658118    0.7848198922448978 H
   0.0333550877292982    0.7469127119537836    0.8431420220869958 H
   0.1905636353705443    0.9679255783160657    0.9236191276317105 H
   0.0366064181347837    0.8598014658668127    0.9208478554548291 H
   0.1791954926870739    0.6826632605123545    0.9508537555444475 H
   0.2848143332249676    0.7683375842208747    0.9694819339621684 H
   0.3045904742771130    0.9125785635660772    0.8769939554226428 H
   0.5309429419246935   -0.1751697129127537    0.9661527589389263 H
   0.3384861694410857    0.7794370330853527    0.6794431418174463 H
   0.6362120620250952   -0.0285677652621975    0.6769090163545490 H
   0.3761591127457699    0.7818818859235194    0.8101299833633769 H
   0.6185975320033275   -0.1387783148185074    0.8846533382329649 H
   0.8424438679346578    0.7174272986700295    0.7922862133072968 H
   0.0280327705359457    0.2249000268454176    0.3163890046766779 C
   0.3425182054111510    0.1391479192973799    0.2528374857569757 C
   0.4059529467036446    0.3019136538343309    0.0265744377903704 C
   0.7091616059595500    0.0079921644843367    1.1475221097427983 C
   0.0678814384825460    0.3659343292771793    0.2045340444950955 C
   0.4948643167487033    0.5909548173239336    0.0043464938680663 C
   0.4859075960198428    0.4848283006356217    0.3210414887673776 C
   0.1100142830334113    0.6799942071955786    0.2092085710688258 C
   0.0547171530253804    0.8598861129862877    0.2725525866137916 C
   0.1346611057096756    0.7746396003951136    0.2671810615249213 C
   0.0554079771691093    0.9191901899250620    0.1684390984896798 C
   0.5594727162638763   -0.1012514251846384    1.1682777678157830 C
   0.6998681641722462   -0.1692123859097099    1.0707952666557725 C
  -0.0533685982451195    0.8312769117770978    0.2987177740567336 C
   0.3320956747007632    0.0794091679613020    0.3522612455949223 C
   0.0136123736518493    0.1910602437220090    0.4310543054360993 C
   0.3371661753514016    0.2241504041567345    0.5640545435803724 C
   0.4150473122860890    0.1996698471352661    0.4891651466770647 C
   0.4145362509840616    0.0962623331900869    0.4312161276649688 C
   0.6570853506689477    0.0473492621068520    0.6580444513084657 C
   0.7577718553849490    0.0565857117562204    0.6041498202130309 C
   0.1227365896029224    0.3809595742773036    0.3775394131172882 C
   0.5563610363304564    0.5355802731954491    0.4042685840915649 C
   0.4871721013315307    0.5884038886810916    0.4838944469459189 C
   0.6351342277965460    0.6035182038033301    0.3465575630893495 C
  -0.0556869446457410    0.3865035793095782    0.3451331626341999 C
   0.9028129842366468    0.5947659966842910    0.6190817022522069 C
   0.4183855528257855   -0.0015386436165390    0.4994030287488813 C
   0.4217356785120409    0.6810526774823458    0.4713594417089215 C
   0.6739266033427350    0.6911325479798154    0.4045140917473883 C
   0.7635101527078585   -0.0151203120656186    0.5107704892648852 C
  -0.0568301471803634    0.7548359873712983    0.3862347926300484 C
   0.6398660017702593    0.1318850439291017    0.7376695008712044 C
   0.8417092173129933    0.0369727453978893    0.6797920211178271 C
   0.2945579249381852    0.4345396757315867   -0.1374398780122034 C
   0.3992333819679760    0.5499010406372770   -0.0251319068000612 C
   0.4439109106792415    0.3626803719906985   -0.0604371238444841 C
   0.4010168967734525    0.4644554166686714   -0.1042895037054270 C
   0.9389089171573132    0.5235368183021605    0.9415769105310525 C
   0.7156679808788207    0.5781922432084394    0.7746826303076878 C
   0.8352503829799578    0.4993533650441823    0.9002852591297679 C
   0.8261025342379990    0.5641888643353092    0.8025671314270165 C
   0.8788087022962164    0.5245691318664232    0.7086722344016413 C
   0.2174129242684820    0.7611524926921140    0.7779107139432379 C
   0.0716668576615166    0.8224377697785981    0.8550920882320672 C
   0.2049996315094991    0.7601024108586282    0.9589076227924551 C
   0.2251241559201486    0.9240082124551735    0.8640101728319987 C
   0.3260624771788639    0.7503458771058193    0.7550344169855855 C
   0.6066834153998132   -0.0284983698759613    0.9996527726317053 C
   0.5583651691689302   -0.1068663507764730    0.9284912764670945 C
   0.8152855652261919   -0.0558012601332548    0.7411370114776040 C
   0.0442344537605389    0.3421423880114391    0.3114826519883153 N
   0.6439804909445759   -0.0741475700461103    1.0957511578745185 N
   0.1804597751522638    0.8168472469599455    0.8676479426176692 N
   0.7908972444875809    0.2951853517160699    0.0527548269457473 Cl
   1.7539313567821422    1.6030031748563682    1.1454721588209529 Cl
   0.6715651732858380    1.2580265084897608    0.3898626813026361 Cl
   0.2035132453679920    0.5277306636494774    0.5973432534703065 Cl
   0.0539973588369145    1.2710179348625021    0.6848853548691388 Cl
   0.9529222477717716    1.0762876178038430   -0.0425918336171604 Cl
   0.3036597187372287    0.2311417986733635    0.2523799142126854 O
   0.3420465136570994    0.3238303944983706    0.0932438279304695 O
   0.3754928017168184    0.0986355028820316    0.1755063746006627 O
   0.4399099989367271    0.2071927645552644    0.0265729176191269 O
   0.1466272198293845    0.5971582310427841    0.2300554394164197 O
   0.4106223236579243    0.5258954988475284    0.2883707284879220 O
   0.5097888146958736    0.3903920086987896    0.2891308141096668 O
   0.5442037199154832    0.5312231580438117    0.0739543750218307 O
   0.9435961218314310    0.5574226616599500    1.0399327500704476 O
   0.0566039200415863    0.6966940925053143    0.1273815534598924 O
   0.1229646358525190    0.9315212162485667    0.1078868774333825 O
  -0.0306144851583405    0.9762728519176169    0.1656997499089116 O
   0.3212898480138550    0.1630740758156209    0.6415764362277434 O
   0.2842505315850856    0.3049510365088219    0.5554662601317161 O
   0.5012257003081734    0.0951146402638733    0.3696854483877994 O
  -0.0105932129584203    0.0839747743063127    0.4417894507233737 O
   0.7746027085554974    0.1614939962520896    0.5745034406224978 O
   0.8173104970711436    0.0089011677853644    0.4364883095630770 O
   0.6046421414783432    0.4650084445159074    0.4646784411109092 O
   0.9349311071684225    0.5459663222376859    0.5409635984431393 O
  -0.0678357928937911    0.6584610476224927    0.3782728957422719 O
   0.0892799020399645    0.9238465440828431    0.3519959757129333 O
   0.4003877268274972   -0.0012236953251595    0.5940216793032818 O
   0.3541901621535301    0.6725628001750126    0.4009363687258357 O
   0.4325301400275523    0.7577322915133312    0.5273639944817575 O
   0.4321758140957688   -0.0830317046576643    0.4451560979677678 O
   0.7052788771431294    0.6790005567750761    0.4958670344279625 O
   0.6763199747310089    0.7846638020662617    0.3676005335273536 O
   0.8846079109952398    0.6895806841227756    0.6188696383637402 O
   0.7028684208566776   -0.0916169052977394    0.5153497011016488 O
  -0.0417954367835102    0.8048723486075650    0.4739699557768038 O
   0.5992574272655572    0.1092438459362229    0.8199054445446365 O
   0.6578140587173327    0.2301107815064260    0.7112170010632429 O
   0.2718149541763050    0.3622533234600144   -0.1970419920413197 O
   0.2282677771849452    0.4951527326755742   -0.0873791187928493 O
   1.0177423514600228    0.5182158469909024    0.8939309433319815 O
   0.3497339750156485    0.6463145672711766    0.7374536365546288 O
   0.4595773166156937    0.4932535105940227   -0.1940563757191062 O
   0.6595738032296917    0.4980683302601540    0.7976949825916325 O
   0.6884740227306785    0.6576222022943631    0.7362139369055632 O
   0.8579257569707849    0.6613794667777216    0.8398440105742454 O
   0.5318706518957720    0.6698159630187193   -0.0308705532442342 O
   0.4839769282435354   -0.0650011056228503    0.8698088660402894 O
   0.7749793191370786   -0.1410111685646559    0.7154902024286920 O
   0.8339081042404759   -0.0439224477002782    0.8406056163672336 O
