Li1 Co1 H110 Cl3 O55
1.0
  12.6148506458000007    0.0000000000000000    0.0000000000000000
   0.0000000000000000   11.6731808489999995    0.0000000000000000
   0.0000000000000000    0.0000000000000000   12.8723682838000002
Li Co H Cl O
1 1 110 3 55
direct
   0.2094686173537669    0.7594385402895081    0.7032993030034301 Li
   0.7322112312106752    0.3719948727490155    0.6525129996918059 Co
   0.2098879643717010    0.2199412017779148    0.1710359425289892 H
   0.0392110169821698    0.2387604082000289    0.2412910797392983 H
   0.0319540384756126    0.1796025823312420    0.1331338262094915 H
   0.3081689535654002    0.1317861381914413    0.1848088548704672 H
   1.0254862055942804    0.4072620381707923    0.3168024369790755 H
   0.6550165003856838    0.3783496102416978    0.0020589561621971 H
   0.3398046828503022    0.2713590636070167    0.2954660368742362 H
   0.3401471363696738    0.2314273598126793    0.0521745204295644 H
   0.5074261679848893    0.2325573003293749    0.0147702922887375 H
   0.5905765777243206    0.2041657244352696    0.1034227434026611 H
   0.5614989445204644    1.0837074819742647    0.2142828406697610 H
   0.6710729726886228    1.1162179009345357    0.2628185868685610 H
   0.7608211616913156    0.4334202896319747    0.0291519395441988 H
   0.9178035989474654    0.3915636606359580    0.2499188627199771 H
   0.9146010243681579    0.3862814671363788    0.0755472202596833 H
   1.1455906794831121    0.8285028347974668    1.0848732210043235 H
   0.2281442249067138    0.7137971673945065    0.2339303518677035 H
   0.2084808926196538    0.9185168604167147    0.2252427508346644 H
   0.0965480572935282    0.8534000760686750    0.2691150195228382 H
   0.1820017840373249    0.5449151783718759    0.3148921435926637 H
   0.3061831987829336    0.6149046705735656    0.1837919479803440 H
   1.0003808746718377   -0.1247043624467366    0.0147724674906415 H
   0.6129938070629931    0.7070509342110511    0.0586799278381908 H
   0.3885646735367391    0.8806454348199912    0.0718617290622550 H
   0.3730321868270977    0.6769134760022940    0.0492433581781328 H
   0.4453168317748043    0.5619773658404322    0.0806448059217235 H
   0.6458947118500176    0.5736314301233183    0.0570042455142826 H
   0.5607878778378806    0.7985050129073008    0.3246960893171520 H
   0.6609388852079626    0.6705715884775804    1.2065213874859102 H
   0.8263423496314352   -0.0365289102444197    0.2410945347101148 H
   0.8940379588762677    0.5185427607778854    0.0746643990297856 H
   0.8664276438769408   -0.1194144589663763    0.1542659127069187 H
   0.7286130911078345    0.7775287251955433    1.2566753285297270 H
   0.1862895874777888    0.4267040397071124    0.3666603951923826 H
   0.2970336651704665    0.2446362702197522    0.4107167791845741 H
   0.2096065500212916    0.2042282609460495    0.5439478958049978 H
   0.1567466297001571    0.1152328094544370    0.4582519325075310 H
   0.3279940000143858    0.0987071509817915    0.5423040646518268 H
   1.0358232284938274    1.0345777711080846    0.5823767217283942 H
   0.2685006281883886    1.3111690483071006    0.6396093912541077 H
   1.4020740965957224    1.4054535466145419    0.6122461281595235 H
   0.5789886482192915    0.2338808470301290    0.3469654956672457 H
   0.4790334418197761    0.2934507285384387    0.3907787231608821 H
   0.5630288873269158    0.1686252830280296   -0.4985362612780654 H
   0.4868385282821182    0.0972348016519623   -0.4256514603373766 H
   0.6227600740969209    0.3792927978905846    0.4739452373871180 H
   0.6167544540442393    0.1821237460466591    0.6414171394079020 H
   0.9457389277036033    0.3865410364893422    0.6529115277549328 H
   0.8150849828985773    0.1453651276760066    0.3746387250331508 H
   0.9563930371951609    0.1580523293835589    0.4658744614654295 H
   0.9376373652777313    0.2735289948646284    0.4099476899399431 H
   0.8882986915608750    0.2919121590403452    0.5639045964164383 H
   0.7517596196081314    0.0229380001872359    0.3947772103751406 H
   0.0674199280498944    0.6733780214818978    0.5964720300663590 H
   0.0519785244638080    0.5869928268169505    0.4330172598475822 H
   1.0126838344418507    0.7800901521439283    0.4184302005077473 H
   0.3010749337856421    0.9055983592857296    0.5832569016416941 H
   0.3009932839881994    0.7769684665921174    0.5420360487029402 H
   0.3321081985457239    0.6748677611017110    0.3652954559976183 H
   1.0167187613251860    0.9654706433735644    0.4682011506448941 H
   0.4730500178285353    0.8978883785046377    0.3412206320671989 H
   0.6325104868012483   -0.0031161665334017    0.5129046572035276 H
   0.5040174871207749    0.5985629379757758    0.6088295074545869 H
   0.4255829477210218    0.7503570395939130    0.4235939744562951 H
   0.4075121828423351    0.5976642968825129    0.5274746256712596 H
   0.6193355389032060   -0.1013148507504975    0.4323926661580030 H
   0.9443278923691558    0.8417417284631328    0.3356225945956725 H
   0.6738205280083951    0.5066950903109408    0.4912015802062986 H
   0.7337554429137670    0.8530248570039952    0.5827123243078696 H
   0.8155661618019534    0.7959230260101661    0.6613528648581254 H
  -0.0706298236988359    0.6022491654536689    0.4691092974398169 H
   0.7327217406238125    0.6475958457499265    0.4071059440239226 H
   0.7523700112977519    0.6627553812946156    0.5254151755828588 H
   0.1826581532827869    0.4293742630509639    0.9178332519330494 H
   0.3329809793902332    0.0706277436428673    0.6683414778325704 H
   0.0313387636524752    0.2888744266125950   -0.0396160478598006 H
   0.1085964758018047    0.3991537083826774    0.6685217088474738 H
   0.2006425120651506    1.2420019540553937    0.7199683413085288 H
   0.0843354672022383    0.0619108393717648    0.7467784816332369 H
   0.0896319230918881    0.4139431648498740    0.8259387400669859 H
   0.3565642946710249    0.1791536901168762   -0.0595774096181783 H
   1.4382298952497361    1.3134477759601786    0.6864438188208450 H
   0.6312397622837657    0.1599404180103952   -0.0637771030085574 H
   0.6420246699945277    0.0439415298310864   -0.1226761325643047 H
   0.3424840645527922    0.3794538508224563    0.9504845862278389 H
   0.6587549513054893    0.1891629584997960    0.7612668800295688 H
   0.7113619950694953    0.4690198408918697    0.8468595212365951 H
  -0.1848911844133916    1.0854379443273543    0.8828824184825954 H
  -0.0925064203981303    1.0270819564598010    0.9507487178876112 H
  -0.0309883714104971    0.0647442573088161    0.7883963089194721 H
  -0.0669825351742334    0.2070475439183355   -0.0398073879415709 H
   0.2309504412460081   -0.0919814906827201    0.8339714499553541 H
   0.2888821616063528   -0.2099116433812393    0.8595533780621212 H
   0.3238132132987255    0.5631527095772831    0.8200423891914813 H
   1.1581473085267338    0.8203336818276343    0.9595116741294676 H
   0.0670208745738490    0.5282650465428422    0.6810718469757708 H
   0.0338223998745521    0.5213072172201725    0.9235353883528390 H
   0.0377701992895679    0.6434829993354796    0.9910132588464249 H
   0.3238861432148879    0.5050254511395689    0.9909044987512247 H
   0.0194490866193240    0.7227407451005731    0.6965833671248088 H
   0.3471492010377488    0.6024530516121022    0.7068184689409842 H
   0.5761435887724761    0.7128077198609331    0.7701704475373627 H
   0.4617617351529563    0.8404113284461289   -0.0141382963870790 H
   0.6686631145893419    0.5457504262898275    0.7629487772160598 H
  -0.0358781637458933   -0.1084157430498831    0.7227782360538121 H
  -0.0983867912469677   -0.2049781123458717    0.8032785742319937 H
  -0.2308631912395749    0.7282516680299913   -0.0978003682185170 H
  -0.1037304930388271    0.6627493846428970   -0.0773216191501148 H
   0.8897335083897232   -0.1673679694311742   -0.0068597600731427 H
   0.6667716930679984    0.7210419793351391    0.6822604394447460 H
   0.3842364415557938    0.9832464323966373    0.2100955770045477 Cl
   0.2468000145476601    0.0905669532731147    0.8179992531173604 Cl
   0.6301172757480480    0.8437531767824665    0.9307523975272047 Cl
   0.2888948450700333    0.2146710015817729    0.1736757054110661 O
   0.0790474933789247    0.1908582976071050    0.1928454490479500 O
   0.5812011199150459    0.2332186453474863    0.0295291381989414 O
   0.6104079659051463    1.1475118562604565    0.2247781898565943 O
  -0.0216694342862483    0.2565276305777895    0.0100517355584705 O
   0.9623780466193618    0.3625321563370220    0.3091892303150513 O
   0.8616713449967811    0.4469821458259153    0.1037020237899791 O
   1.1065493928418015    0.8142993368696331    1.0174341934018805 O
   0.1639238847103180    0.8481058892656586    0.2241225218541008 O
   0.2725220788915636    0.6429578639778341    0.2487885345877164 O
   0.3934303672911425    0.8184575865042353    0.0209738127474006 O
   0.3738542338168853    0.5940414625799310    0.0707685347339270 O
   0.6130794204428360    0.6351613600790877    0.0983702931801290 O
   0.9248112126309007   -0.1032611925654575    0.0287828963428807 O
   0.6759061650673451    0.7186433186476884    1.2753199162783575 O
   0.8455871276170411   -0.1170731948025180    0.2295224605807980 O
   0.1376366135161556    0.4915561147150013    0.3570763002317635 O
   0.2214473560834490    0.1596465820761825    0.4740104934442382 O
   1.0292991718632083    1.0408399888313937    0.5036460656706867 O
   0.1941208335839717    1.2926393944965429    0.6567212385182363 O
   1.3956530931075068    1.3228967857396723    0.6229628818258718 O
   0.3438308898523574    0.2993411538551929    0.3677759630260090 O
   0.3666230740860825    0.0578482791653012    0.5977600603366603 O
   0.5637050744843786    0.1138078336731849   -0.4388238615817842 O
   0.5582702102973160    0.2879458022607391    0.4027034907417772 O
   0.6510933465260321    0.4351910152180321    0.5302270329376513 O
   0.7677780415200292    0.0836750014528966    0.3470695946155089 O
   0.8785879146805490    0.3455153720886210    0.6258838672398239 O
   0.9014815666237175    0.2181687628627949    0.4585813202244234 O
   1.0095526043457455    0.8552281981783250    0.3787102368827581 O
   0.2863296145406671    0.8259448345072068    0.6000005182977873 O
   0.5209974741229448    0.8450801501413455    0.3800681843571166 O
   0.4361038808439350    0.5633728723618098    0.5954046274177499 O
   0.3683297926675798    0.6940955965052230    0.4335657214705210 O
  -0.0042034328101740    0.6439558781567200    0.4630909798861235 O
   0.6702097044418738   -0.0639368639237639    0.4786561032249387 O
   0.7518579164516547    0.7831595811593342    0.6183001811730684 O
   0.7696647067424925    0.6075493489084040    0.4649903972630153 O
   0.0116088828169168    0.0443454471575625    0.7211157603128925 O
   0.3130822103086052    0.4529530976086054    0.9311097521257202 O
   0.0495867403002717    0.4422636375878871    0.6950925769627412 O
   0.1021375011941959    0.4232037084324967    0.9022339468500283 O
   0.3821016560750821    0.2475163763737556   -0.0137584905974829 O
   0.6366754191873082    0.2388143780654966    0.7021293551222035 O
   0.6717420253977653    0.1233240059519273   -0.1242422779351897 O
   0.7296333172176287    0.4939976086290137    0.7741829181924327 O
  -0.1068125747131705    1.0777536634821994    0.8930670245402849 O
   0.6994783823174163    0.4390751322026400   -0.0229416492357241 O
   0.2188987726001635   -0.1774860342095604    0.8362165690634185 O
   0.3120833875437716    0.6254767675535051    0.7690424499785706 O
   0.0771582914637253    0.6729000026734701    0.6715770906647808 O
   0.6038506151823663    0.6744017355967206    0.7066514445090694 O
  -0.1515130643053911    0.7308199482946262   -0.0974872945159046 O
  -0.0726377745427433   -0.1829781105192916    0.7293613292447244 O
  -0.0086693596436999    0.5835413254206150    0.9702167749284730 O
