Li1 Co1 H90 C51 N3 Cl6 O45
1.0
  13.5113438004000006    0.0000000000000000    0.0000000000000000
   0.0000000000000000   13.1611518147000002    0.0000000000000000
   0.0000000000000000    0.0000000000000000   13.2044582117000004
Li Co H C N Cl O
1 1 90 51 3 6 45
direct
   0.7459786050223670    0.7516650176658949    0.5731319668302903 Li
   0.1726307489955919    0.3223895196285840    0.7027079003952102 Co
   0.2387729487058490    0.2375299255957453    0.2057431711505441 H
   0.0884222485823084    1.0635594519672416    0.0364261144295806 H
   0.0518426154013832    0.0334193706973834    0.3137173096681473 H
   0.0734940517293774    0.2340735411819442    0.3337802305205352 H
   0.3879031928744821    0.1656995863283194    0.1644881653588398 H
   0.6676666313481664    0.1041631789224406    1.1339304396853642 H
   0.6089937108962028    0.0456029547983510    0.9961936260394639 H
  -0.0811582190490584    0.2185718584362042    0.2242846361674930 H
   0.7936740829496567    0.0476878787006308    1.1244866595619580 H
   0.7158461469919566    0.0218352781995130    1.2392191215616204 H
  -0.1504866303335280    0.2411891797915832    0.3345913202167796 H
   0.0923589406527466    0.3997315345472990    0.2103431326958182 H
  -0.0036529749023586    0.4930463915819448    0.2321236552579002 H
  -0.0379693246932857    0.3651198222584697    0.1892131479946830 H
   0.5371685827419425    0.3382756672047006    0.3751564075086905 H
   0.2706239626654863    0.4646832205422292    0.1111728389203639 H
   0.5426074199949642    0.5111643726946363    1.0810838943131584 H
   0.5429426938261184    0.6313624771062188    0.2965897610497869 H
   0.8088220950958609   -0.4556859971785612    1.0532607156480567 H
  -0.1413328406123058    0.4057348085093661    0.3683670339075408 H
   0.2697950295730083    0.9758490436190409    0.2063974956113799 H
   0.0937037365715258    0.7661470328180273    0.1989363791899045 H
   0.2490139729921160    0.8740312073941537    0.2999409019516371 H
   0.5088562175433992   -0.0217490530259129    1.1383441005160948 H
   0.3672338942373080    0.7375385944912649    0.1034284848271841 H
   0.5745886208572506   -0.0845680229489375    1.2409935222696511 H
   0.5409875219061190   -0.1511624982912142    1.1345378103075752 H
   0.7125089511758997   -0.1998018582053672    1.0546837198863790 H
   0.7217611767018536   -0.1785787917190418    1.1927052858439393 H
   0.8081648695725391   -0.1288749353081345    1.1012960072011766 H
  -0.0174362079213043    0.8198254653706346    0.2476449282033059 H
   0.2248594547723711    0.1664821926035920    0.4726290928218652 H
   0.2303659388866897    0.0149787354538235   -0.3898617278851030 H
   0.0007559129832591    0.2546978758770901    0.4448713466028470 H
   0.3214605049182018    0.2667120219204016    0.4601529277752729 H
   0.4190510939431783    0.0683479245559105    0.6585190370094341 H
   0.4104790376243559    0.2040837647887299    0.6272311194458092 H
   0.4742978562954101    0.1403560598120877    0.3912403691976160 H
   0.6093963355411208    0.0952217122744713    0.5611193573421213 H
   0.8727320964070877    0.0644455305463957    0.3489993327947911 H
   0.7507175859073110    0.1715919277503963    0.4875434040978479 H
   0.1730333736405099    0.4054764724573343    0.3347692904115672 H
   0.1142168701350278    0.5060895509054522    0.3976276058905436 H
   0.1318146756170377    0.3936310046597612    0.4637117258150412 H
   0.0323619476093159    0.6308116134658570    0.4975635501635732 H
   0.3523678673663128    0.5936925218484843    0.3878952868555883 H
   0.6632732859580326    0.5018797369940197    0.6351791926130225 H
   0.4400842349984438    0.5612216556190806    0.5534465699868454 H
   0.5449444192206864    0.6370451104389995    0.5534483118227944 H
   0.6160551846777503    0.4188324463473754    0.4802085026238759 H
  -0.0785552211149107    0.5195711748923300    0.3843676903989062 H
   0.6444409622632964    0.5488433317235960    0.3103585955665189 H
  -0.0751551151980855    0.4173568916031235    0.4736600325076706 H
   0.1921232586889803    0.6367624604055999    0.6807047257596494 H
   0.2824495813722851    0.7436467224979801    0.6605539557898346 H
   0.1038352232705725    0.9000144955451229    0.4172005407172824 H
   0.3817809298914656    0.6433310344344659    0.7474973185233970 H
   0.4040407438998320   -0.1326557594108108    0.4311736244320322 H
   0.6815838258758071    0.8156039503556689    0.4076507357969815 H
   0.9176543490687387    0.0286849826379429    0.5826030104728980 H
   0.3197671130292823    0.2691419004333355   -0.0846928269430316 H
   0.5822702402086084   -0.0210272317040595    0.8317968772143923 H
   0.7133408447437082   -0.0282188515054726    0.9660530482422353 H
   0.8717647610929190    0.0962877283950612    0.6835855709552739 H
   0.9328327060870781    0.1971975893782484    0.9829276519880040 H
   0.7444857853370740    0.2157795496385081    0.6334911263824633 H
   0.0501817887410967    0.4328365398032490   -0.0231620933851722 H
   0.3161553331263421    0.4377213706224022   -0.1857390023035442 H
   0.0942610460524508    0.6369767273664029    0.8368027622677776 H
   0.2396988373653937    0.5648048526419526    0.0218113534976245 H
   0.4272027627651010    0.3221167471501152   -0.0296318779556822 H
   0.9979431801447330    0.5778297764794341    0.7564912505799786 H
   0.7431580121514439    0.5520962385058263    0.8891335727350885 H
   0.7975419439686661    0.4511808308956395    0.8335909682418462 H
   0.9249223160045731    0.4829804792769115    0.6894850935824859 H
   0.2553382884164242    0.6203452042989829    0.8633672751297439 H
   0.1144470470919570    0.7325944983425280    0.9283104925076567 H
   0.0431847052979827    0.7637232328004353    0.8226688995217368 H
   0.1934539923499407    0.8779381602751750    0.8815406826374727 H
   0.1388258213179706    0.8891507047452704    0.7584549812824638 H
   0.2740951199902383    0.8872534543866726    0.7792608330330923 H
   0.1491948861622722    0.7651304044720905    0.6470304929459160 H
   0.2705669735153785    0.7413756446758540    0.9339063298237633 H
   0.4417802173032772    0.6813147920142272    0.8533297561437273 H
   0.4619631838555699    0.8297189763515326    0.7779097741926628 H
   0.4995109960861329   -0.1122449318645500    0.9841688994316498 H
   0.6293662218815166   -0.0254333810150362    0.6253060120621926 H
   0.6124848514294341   -0.1912752488644842    0.9632994328028843 H
   0.9539216521023195    0.0209774505443841    0.8087690486488420 H
   0.8476605709537889    0.7513641321464696    0.7671936965065203 H
   0.2973452129965830    0.1740233258871657    0.3315491658658797 C
   0.3282851406733271    0.2588031396686416    0.0739747962498374 C
   0.7144021751496130    0.0377161070922055    1.1577261907084233 C
   0.6366364091738488   -0.0323932581815384    0.9992706171093436 C
  -0.0762934179625777    0.2117814193273580    0.3048748416071296 C
   0.0119117241465823    0.4154125329056257    0.2327726784788913 C
   0.2934625496009224    0.5056378427203555    0.0450224534978071 C
   0.3997391732449369    0.5484116825731277    0.0574712792932001 C
   0.2653062088534730    0.8245613730539106    0.1373692942731099 C
   0.0724793488099243    0.9575922828595741    0.1330169763605826 C
   0.1179256056050346    0.9193912190713390    0.2293420189793700 C
   0.2297272163341820    0.8988588216182397    0.2139737246694838 C
   0.0666257489631305    0.8146496265869868    0.2583382862901139 C
   0.5628352377485106   -0.0790852201505226    1.1596974946106866 C
   0.7259591307201890   -0.1457564364964911    1.1180199042713594 C
   0.0043521503907153    0.2688387354781570    0.3624962894394859 C
   0.2884238205887878    0.1386913119003184    0.6770324811872038 C
   0.3043038102604034    0.1790023733841186    0.4456882676629206 C
   0.3778175935430547    0.1281739953349556    0.6122952548432578 C
   0.3770752543539874    0.1082935165072775    0.5019529767550137 C
   0.6588370136756097    0.0536706377409188    0.6158167927401174 C
   0.7670927150779157    0.0463946788166366    0.5701102601187915 C
   0.1133775753788938    0.4230174903902896    0.3867100810903011 C
   0.4542356771365929    0.4621109532759108    0.3702482167324438 C
   0.5932772874865850    0.5942646602225429    0.3544012961965758 C
   0.5333841331153638    0.5296599043492530    0.4298745934740789 C
   0.4873285364853989    0.6046953582292834    0.5052596629741659 C
   0.4288177020577681    0.6909317314570677    0.4585503629702096 C
  -0.0730642794960761    0.4362412570066438    0.3950103080472002 C
   0.9399903953168598    0.6294188782206389    0.6097870110767204 C
   0.0853329925751624    0.7680746756533346    0.3584309957985521 C
   0.6508925781268066    0.6731240195409856    0.4109021376577530 C
   0.3438268960384584   -0.0016884987737304    0.4804704823238029 C
   0.7696594471892674   -0.0367325440437540    0.4824750780122914 C
   0.6632769865521955    0.1246651838988303    0.7122092368369307 C
   0.8572769349453671    0.0268333209944095    0.6401017724688476 C
   0.1832085273506782    0.4068752861978944   -0.0658241996956647 C
   0.3487324036607304    0.3144988728628498   -0.0205296491422725 C
   0.2971379797234635    0.4218299043628613   -0.0423404645034672 C
   0.8141761147306702    0.5313357455150213    0.8596912439574093 C
   0.8390574296439985    0.6017898374558440    0.7742973578984650 C
   0.8979871713308638    0.5254095164814131    0.9363842807911879 C
   0.7405631555244544    0.6069618771799030    0.7117109202915256 C
   0.9270397959845551    0.5670369521126986    0.7069178421519074 C
   0.1059601044388802    0.7197627946757279    0.8481390850157542 C
   0.2028934679405347    0.8635108515811200    0.8018138219725500 C
   0.2058791073111209    0.7215415143751582    0.6876001241576938 C
   0.2813926916793756    0.6996657694514937    0.8593216718082334 C
   0.3789655178523703    0.7027946749287489    0.8046568011692835 C
   0.5752255671245601   -0.1133747721862300    0.9551688455210168 C
   0.8686148153415023   -0.0612015270426664    0.7061514343343543 C
   0.0125778310958951    0.3846287530583727    0.3466152895046160 N
   0.6626737897036511   -0.0554231574082505    1.1115879856997404 N
   0.1994015872884708    0.7502206152102703    0.7973145839843258 N
   1.6709162118672187    1.5553006073858275    1.1218776922383706 Cl
   0.0296020444826635    1.3120164294445231    0.6142415671862533 Cl
   0.6660709351451460    1.2948218857460572    0.4005258694456579 Cl
   0.2947525767260913    0.4387782689999791    0.6550308211915986 Cl
   1.0223219543707467    1.1143346431821628   -0.0898721382713375 Cl
   0.8559350995019182    0.2436327349190364    0.0351636620265559 Cl
   0.2218530920744729    0.2169215469508720    0.2925123502892080 O
   0.2484692455313447    0.2652752175839544    0.1237254175527181 O
   0.1272000346959656    1.0274007626138928    0.0909311905532107 O
   0.3767273985026796    0.1444066171455619    0.2845574612421945 O
   0.3979887922059095    0.1893479724560722    0.0937211573514968 O
  -0.0675304109849523    0.0986818957478612    0.3144981065652790 O
   0.4709648791566989    0.4851666861078260    0.0726623607282766 O
   0.3930677420881536    0.5146697870116773    0.3244174836347557 O
   0.4674297755648130    0.3639641483315865    0.3517514335941863 O
   0.8815587536043140    0.5524811592233535    1.0300041764492049 O
   0.2150062527543705    0.7924365251718458    0.0665000480687613 O
   0.1102527936677845    0.9872523008804890    0.3166155732232616 O
   0.4066385610021517    0.6413752785582021    0.0495375952055655 O
   0.3611974850388693    0.7964179396208054    0.1532548381278467 O
  -0.0006059056686691    0.9215338886793670    0.0913515031409003 O
   0.2161867422923192    0.0695803394864854    0.6697917448792738 O
   0.4758521798556897    0.1237693656478144    0.4634051626880200 O
   0.7969017411784931    0.1458396224224203    0.5380342753862478 O
   0.5882844458420698    0.4820127828184773    0.5062056313584600 O
   0.3484859440894847    0.6753160769236666    0.4053310647049211 O
   0.6918988620453310    0.6576664058864744    0.4904279298685646 O
   1.0259929437802924    0.6013453474839660    0.5696195167731647 O
   0.0727642945604637    0.6727410743344443    0.3728852048952105 O
   0.2734956237358568   -0.0378205947099582    0.5280421955989005 O
   0.1130608045185539    0.8283178831752193    0.4350352747309305 O
   0.4492042753009007    0.7786740519058135    0.4879527279726595 O
   0.3910982858746856   -0.0505497237678635    0.4114904995485207 O
   0.7321916714092586   -0.1216954724974053    0.5044168415708509 O
   0.6471061301793798    0.7621511819426304    0.3639677621563888 O
   0.7922034668293407   -0.0046859567892163    0.3946929909764940 O
   0.8836140636023602    0.6913617850025088    0.5699383484838265 O
   0.2699312114382011    0.2104608662143252    0.7377566689686855 O
   0.6212552595953851    0.1090274948198148    0.7930811653083162 O
   0.7074672616884349    0.2177649381795638    0.7019687560968586 O
   0.1535475250166146    0.3804163557864198   -0.1513195666316366 O
   0.1233292132016260    0.4247969699016376    0.0072836843631177 O
   0.3422963302927042    0.4688033766473684   -0.1214713143458461 O
   0.6849565473958272    0.6746292069500293    0.6940767246080041 O
   0.9755716081926485    0.4837901348564557    0.9100250016432107 O
   0.7223924980660356    0.5108729240392293    0.6749922611669588 O
   0.8688338905159431    0.6977745975882379    0.8186058778407365 O
   0.5779168612354334   -0.0953596316166047    0.8466274743400268 O
   0.3988192055360528    0.7949704979175100    0.7529833444427196 O
   0.8261578985111412   -0.1383535889819462    0.6874077648833278 O
   0.9317691553246755   -0.0480856537186313    0.7878677745810082 O
