Li1 Co1 H90 C51 N3 Cl6 O45
1.0
  15.2985349080000006    0.0000000000000000    0.0000000000000000
   0.0000000000000000   14.9020218449000001    0.0000000000000000
   0.0000000000000000    0.0000000000000000   14.9510565253000003
Li Co H C N Cl O
1 1 90 51 3 6 45
direct
   0.9486835857994826    0.7582831739216142    0.4160767002635071 Li
   0.2161637682227132    0.1042182355229544    0.3054082670862203 Co
   0.0657304088298126    0.1244423368654943    0.1535715058407171 H
   0.2865103737291809    0.1981994425414708    1.0380066611505634 H
   0.1886284517670363    0.3030711180943318    0.2454713657385733 H
   0.1293247337668526    0.3144467556933342    0.1403925040981598 H
   0.2716945759182758    0.0333674468857509    1.0710651944497733 H
   0.4968179240500641    0.0795014552206859    0.2243992763202184 H
   0.4150324846256840   -0.0033899814485434    1.0925646784130680 H
  -0.0387005062615765    0.1596167585282426    0.1956982946020459 H
   0.2140779475744031    0.5819668305860141    0.1028861245957422 H
   0.2339523997247855    0.6385893485759991    0.2078780358592509 H
  -0.0038912906600533    0.3392413777819103    0.2838833668589073 H
   0.5091550596735089    0.6013648695238600    0.2910253370480580 H
   0.4307810514949213    0.6139987256515392    0.0740975236516117 H
   0.6456231929003223    0.6454615704171615    1.0741880506787624 H
   0.0407293219741039    0.6589147784507151    0.1349106172588379 H
   0.2425192331364911   -0.1715349503715047    0.2671975895308736 H
   0.2502219315130774    0.8201781308341666    0.1291605219492173 H
   0.0292426011177096    0.7681965938278236    0.1716912955386270 H
   0.5147230111480947   -0.0862787339182449   -0.7090812423563675 H
   0.3737030368189294   -0.0978972915745172    1.0422558591849964 H
   0.5393694235181333   -0.0676664943921753    1.0764855471762089 H
   0.6624352603006787    0.7547594909914371    0.3210078335519969 H
   0.5113873976199447   -0.1640594546864594    1.0084361756633429 H
   0.3282568549341248   -0.0110674631480589    0.4770291151284969 H
   0.2542242755524390    0.2341932161100935    0.5002983068014258 H
   0.2490061288161620    0.1772962387183865    0.6026996319124135 H
   0.1049374311758769    0.2859083463132979    0.5702136334026692 H
   0.1443810774876849    0.2502957290776290    0.6806740545244375 H
   0.1238595045470089    0.3619980213789708    0.6618660191508733 H
   0.3503570104086989    0.2369753889207037    0.5657477282750273 H
   0.5335771041533776    0.0564763916708409    0.3767323235631322 H
   0.4520871440037897    0.0812401454648468    0.4543494470109827 H
  -0.0439029652211191   -0.0188456023298686    0.3330176871497110 H
  -0.0621713812283181    0.0823232199743318    0.5431476531948336 H
  -0.2387275035134364    0.1656991546583369    0.5041906738660225 H
  -0.3023610478923123    0.0765877566332113    0.5595749203638387 H
  -0.2419369611703474   -0.0187966156884854    0.6767144681300029 H
  -0.2006519620643402    0.0574219009545240    0.4885143101519673 H
  -0.2724039309032637    0.1429881424532497    0.7284693390109069 H
   0.1453707147366794    0.6748904629905600    0.3773155599374476 H
   0.2235559793514313    0.4564774158298550    0.5825050724517442 H
   0.2929273280709110    0.5983337372070423    0.5167778779663844 H
   0.1960886432616035    0.3855746879317877    0.4859886157345795 H
   0.3418581573628423    0.3791044249699199    0.4377200536581266 H
   0.4025182143931870    0.5337118348891651    0.4615516136149136 H
   0.5701394941707054    0.5709969768506336    0.5797260046360557 H
   0.3930512947913456    0.4040842568259172    0.5484120303220830 H
   0.7217076027473937    0.5756764760975002    0.3223288104318969 H
   0.7064028692282668    0.5280275726540383    0.4365402708133388 H
   0.8743686264365779    0.6403072362738192    0.5411738796390944 H
  -0.2719006147330353    0.2736764490649133    0.6207465170635341 H
  -0.1188853087525994    0.3519242205509727    0.6820264673098339 H
   1.0337851989820095    0.8719778133224980    0.5464075565948057 H
   1.2169674459653166    0.7904922261559769    0.6407986116758901 H
   0.3392932058667692   -0.1284025481585811    0.4694965370923276 H
   0.6217999966144209    0.7721128409389478    0.4789637610146291 H
   0.5312872116760476   -0.0472853673772566    0.6063629181763187 H
   0.5501257476360690    0.7407291800593970    0.3427052968350133 H
   0.6603703566880144    0.7065452280224230    0.5958853977592886 H
  -0.1678645086894617   -0.0343260520568263    0.5956566513831236 H
   0.2962459465075987    0.1286370696776323    0.9179255152488042 H
   0.2957700839466555    0.2767612653722878    0.7242288360141645 H
   1.1813431196309689    1.0227499718513715    0.7340241303970183 H
   0.4974065686525804    0.0961629527398949    1.0152316820429805 H
   0.4703725551024510    0.0858328108569877    0.8926670996070091 H
   0.5725338410947919    0.0455013708513692    0.9299420573370494 H
   0.3675553893111396    0.3593977030863720    0.6737755453906202 H
  -0.0386318722383635    0.1223164508394419    0.6500648464577309 H
  -0.0771362129181998    0.1961634771996012    0.5660587430847253 H
  -0.1303785661826330   -0.0029041413340037    0.7022464430345217 H
  -0.1550920437982112    0.1605548862632241    0.7478659615512114 H
   0.2655815722507746    0.3894567114989319    0.7275824451664780 H
   0.5247926682052186    0.5870245335463540    0.8463633485089838 H
   0.6263095787681945    0.5316887537050291    0.8596787954583761 H
   0.7500469177607082    0.6944898168929940    0.9020256355581795 H
  -0.2535720622483544    0.3027443168018168    0.7295201008733490 H
   1.0472047846635537    0.3749982707422007    0.8793121905634829 H
   0.9351306540156962    0.6383625337158964    0.6832919297183254 H
   0.8423413765759535    0.4909834718101702    0.8268704117050308 H
   1.1678647047866708    0.6884094339125457    0.6986727825437338 H
   0.2647749590636813   -0.0046079369843026    0.9621277426219456 H
   1.0619290704435080    0.7737005449596674    0.7771521861908587 H
   0.1803812568062939    0.8189219254551355   -0.0673473298556602 H
   0.4070421770089672   -0.0307392904377449    0.8352116282464148 H
   0.4119014658524450   -0.1445305610216311    0.8849164767795247 H
   0.6027491527425941    0.8015611939589232    0.7923216827154830 H
   0.5896139080143608   -0.0988186430624496    0.9669173706912946 H
   0.5088035815723485   -0.0840649403576556    0.8423649688694685 H
   1.0029711371888448    0.8637574522684760    0.7267557477368290 H
   0.7669857946896675    0.7457036728343738    0.7934339786908114 H
   0.1516092206180558    0.2692441645945611    0.1931285765399821 C
   0.0694150753903029    0.2389476045237870    0.2497379538483872 C
   0.2142374399712028    0.2081014545996869    0.1414325643757521 C
   0.0312427926513445    0.1463131946183663    0.2107895357874559 C
   0.0301851750365009    0.0688398146960899    0.2720514271093216 C
   0.0952351949230196    0.2397253513369798    0.3489102095007514 C
   0.4089430126232843    0.1015870489357854    0.3205750882146322 C
   0.2279452885502413    0.6457306614198278    0.1382849607317978 C
   0.6043525742563216    0.6582470838181639    0.2381340916259133 C
   0.0741031060044302    0.6894737190253358    0.2735663702146247 C
   0.0724630796783223    0.7094622818593075    0.1780587385242718 C
   0.1621324505200129    0.7270115783723508    0.1277372111641909 C
   0.1514196599825152    0.7422430685931010    0.0267496991816754 C
   0.3227746306228188    0.6696348003150416    0.1096575524094678 C
   0.3907007429106426   -0.0286194438606302    1.0314746812978526 C
   0.6144358927523519    0.7051984309093273    0.3285885687199904 C
   0.5322407670385531   -0.0978080419402164    1.0080368727786337 C
   0.2786370707806081    0.2329584843272853    0.5661316476315148 C
   0.1479042906792836    0.3025698438325070    0.6296107735644532 C
   0.4637510713715463    0.0518602395328314    0.3908309927537212 C
  -0.2369560920571780    0.1005073296757102    0.5361694841387905 C
  -0.1804800958133683    0.0103799621292958    0.6533749804215917 C
  -0.2236672378484205    0.2647179331407343    0.6734411208640633 C
   1.1944816326460219    0.6781121734738547    0.5533810437074771 C
   0.2443586249585985    0.4020140679400676    0.5419096804824250 C
   0.3385460754997938    0.4170583352437507    0.5014381593577426 C
   0.6341966085214099    0.6501515380421867    0.4161843849610584 C
   0.5581732502721298    0.5915608307484101    0.4466586861737519 C
   0.7990666444541343    0.6411312855288673    0.4279872966617390 C
   0.7150213415717233    0.5903489146615887    0.3969395911558108 C
   1.0789385423677720    0.7837891088850688    0.6339596301078001 C
   1.1676686075774909    0.7343085747887945    0.6377941417293024 C
   0.2899309627146421   -0.0767820359887332    0.3474574693573879 C
   1.0032332537917819    0.7188475855084135    0.6158986991265641 C
   0.3473482255625154   -0.0653238592542496    0.4333012355038240 C
   0.5055627222156742   -0.0817216341698479    0.4793219965674769 C
   0.4446170169172907   -0.0511204174526636    0.4002069187802725 C
   0.3089824602438329    0.0264388568545038    1.0104962307469336 C
   0.2956929523777114    0.3381213955289173    0.6880949347687367 C
   0.5043339574932321    0.0571011391109466    0.9530909230653231 C
  -0.0839930786658568    0.1281035850214733    0.5916402128191744 C
  -0.2095482387874681    0.1680203162000399    0.6963846499330310 C
   0.5957053409888522    0.5989309716019876    0.8617241358627986 C
   0.5855180909719566    0.6222519681497772    0.9615398243042584 C
   0.6337985311867746    0.6575612708387998    0.7095669959208537 C
   0.6422535891892479    0.6732685354258603    0.8079078722001973 C
   0.8005243003757050    0.6078351324857277    0.7959414937909357 C
   1.0668563396528350    0.8278489020348624    0.7278432962971924 C
   1.1363008979970748    0.8893204264718975    0.7518877509075855 C
   0.4434954062465182   -0.0794246304238955    0.8734216369527084 C
   0.7423154584601088    0.6847723435523173    0.8286702845069605 C
   0.2407184070988558    0.3174550723141653    0.6064170949496209 N
  -0.1790289764654371    0.1048087594190801    0.6202763161791950 N
   0.4678142709114900   -0.0357983354978487    0.9686884829839403 N
   0.5993501344501425    0.0062187818112558    0.2220094786534423 Cl
   0.9262847089095911    0.9134654722747352    0.4424324296618409 Cl
   1.2465650514042019    1.1102716527061316    0.7978684479129570 Cl
   0.1231228326978564    1.3325965180487398    0.8999823017009164 Cl
   0.9473841149599839    0.4141305446087549   -0.2134908479610576 Cl
   0.5997050703987582    1.9605113135972625    0.7099529218245004 Cl
   0.2292519496207434    0.1268440243930326    0.1642195827662911 O
   0.2480269500849904    0.2444065953135395    0.0704763748780528 O
   0.2796953420528156   -0.0140227668282151    0.2929777074340976 O
   0.4328113112672972    0.1010502090302167    0.2363241860881870 O
  -0.0000366731862504    0.3005419310892209    0.2312937723597170 O
   0.1525236872701980    0.6656205799211511    0.3119422534860904 O
   0.3706053545712509    0.5953240784864473    0.0885821187458473 O
   0.5419952305147886    0.5966930202456477    0.2335471248196579 O
   0.6573190841131753    0.6307118940116593    1.0067072008610431 O
   0.5108030933023250    0.6261547942632624    0.9937810240605630 O
   0.1963121940800686    0.8083233636194439    0.1659672853420778 O
   0.1991033110240624    0.8074718013192356   -0.0042333955057220 O
   0.1088985948013107    0.6928947313235729   -0.0224882927123609 O
   0.3504485224396495    0.7474718892733409    0.1077406310232432 O
   0.4552937909340357   -0.1035549131293302    0.3205677308750479 O
   0.6496314198559594    0.6810258720613291    0.1761056992891790 O
   0.0919917470831842    0.0443035468120689    0.3202935027632712 O
   0.1748179789818603    0.2054313471193642    0.3668942228408792 O
   0.3447786984648948    0.1450751075861483    0.3522143238231343 O
  -0.1449825790076237    0.3069021418704470    0.6376991651637602 O
  -0.0483622157578699    0.0287996103392425    0.2814293596830322 O
   0.0505877823369411    0.2772672369832865    0.4051490444337314 O
   1.2777118247956085    0.6504749840852919    0.5575008194501323 O
   1.1453573207743664    0.6595173812447159    0.4902287508643427 O
   0.5652606609720460    0.5413720035017259    0.5180722346539706 O
   0.3435668177121631    0.5149550713500176    0.4806307000672523 O
   0.4904058459922690    0.5966923491957657    0.4029699342186862 O
   0.8216766526725762    0.6143483426400409    0.5101257728237344 O
   1.0881446526814043    0.8493198140580858    0.5706831654379552 O
   0.0093674953099633    0.6974565284211437    0.3237521212169234 O
   0.2649632123844940   -0.1583689516874303    0.3339119383337242 O
   0.5693544516766218   -0.1315611799529714    0.4695407480147385 O
   0.4819485001890221   -0.0412761156842961    0.5552314146129167 O
   0.6499464827053751    0.7132530426425049    0.4876488629524263 O
   0.6730415046878553    0.7184073767858471    0.6599805336701451 O
   0.8369859617932507    0.6975954357467096    0.3804504554493927 O
   0.9545259753183157    0.7233516723161356    0.5519262970169542 O
   0.3294988039255974    0.1144202068784071    0.9761568515110106 O
   0.9969816747631268    0.6602347335685322    0.6810900786354744 O
   0.5907702278911582    0.5974150699186377    0.6748664381962490 O
   0.8484386924667204    0.6148892088449015    0.7294124161757977 O
   0.7887695800000981    0.5273167966190652    0.8416078317413435 O
   1.1326397631016865    0.9728238606334751    0.7133774289764439 O
   1.1931350984763200    0.8726770472995014    0.8131349275502828 O
   0.5872515903011070    0.7520256337723280    0.8337354783861923 O
