Li1 Co1 H110 Cl3 O55
1.0
  12.5166310148999997    0.0000000000000000    0.0000000000000000
   0.0000000000000000   12.5190806800000001    0.0000000000000000
   0.0000000000000000    0.0000000000000000   12.4980771481000001
Li Co H Cl O
1 1 110 3 55
direct
   0.6418841058696967    0.1464153308819478    0.6213384652758799 Li
   0.4727267665281793    0.5457857102091941    0.4519868142243604 Co
   0.1665932713857076    0.1245135629320028    0.1191204100005359 H
   0.2789373996360389    1.2523623531835886    0.2333707849245757 H
   0.0719320164050704    0.0675137705159354    0.1807154850571041 H
   0.6253405168037970    0.1623430179938740    0.1070937599631859 H
   0.5198448767687017    0.2134458119092496    0.0622061349827875 H
   0.5974424346773591    0.2629558371134325    0.2674200226558929 H
   0.4842402480575501    1.0765746850430873    0.1499947593446397 H
   0.4045255070212240    1.0021043605975068    0.0860198782068998 H
  -0.1250778656522142    1.0372586991028163    0.1735583840934892 H
  -0.1648233849862740    0.2996254626022588    1.1294550279077100 H
   0.1915512652442887    0.4636686581446330    0.0916487440849357 H
   0.1731621316406854    0.5775715905123474    0.2760173451661269 H
   0.1741943582825526    0.5864364586953041    0.0738070395284953 H
   0.3305990647622411    0.5712724059303690    1.0565478127255312 H
   0.4546348374994790    0.5440180085252075    1.0567798484191531 H
   0.3895965696915577    0.3795945933707330    0.3290014956200765 H
   0.6811718342859624    0.3579180815775364    0.3187551194389638 H
   0.7170401122167860    0.6606192220897167    0.1370159628403582 H
  -0.2101782412031117    0.4208947505640646    1.1260705072731554 H
  -0.1770654970863745    0.4313276252565855    0.2709685685221458 H
   1.2403326812957132    0.9959217979973910    0.2615007120992889 H
   0.1174570462091509   -0.0598466196561008    1.0544114840980463 H
   0.0165984766390159   -0.2942392300246762    0.0471635010022010 H
   1.3585114466710875    0.9637628871084166    0.2704596902423405 H
   0.5143937294177270   -0.1285321742890150    1.1859437174584326 H
   0.5623195649948808   -0.1602126155400734    1.2886875223480683 H
   0.4535458863285309    0.7066928927324400    0.3005387172434780 H
   0.6527816069494703    0.7591887601845858    0.1637168701915928 H
  -0.0795696135257493    0.9966886274671728    0.2896970494897628 H
  -0.3091321848422256    0.7675096587124159    0.0000800182370575 H
   0.9242332456496422    0.6930497184159052    0.2757557049184911 H
   0.8643928621544046    0.7659911766061085    0.1420415359149770 H
   0.9607446678890594    0.8527483457435471    0.1626247021854067 H
   0.2331047790756745    1.3025177931915044    0.3401432095293372 H
   0.3182762600221804    0.3266338355525319    0.6386939350357201 H
   0.3341095940690245    0.1768392900955408    0.5865595152942757 H
   0.3518619748602685    0.2445399481282039    0.4712561783950411 H
   0.6028288681289599    0.1971930210533638    0.4340064483379039 H
   0.5039380405151613    0.1659590982123138    0.5053134173571728 H
   0.8565073536751256    0.1231013186584879    0.6326506054014905 H
   0.8094923063113840    0.0701523029165429    0.5329344662520806 H
   0.8864914603850891    0.2779209934846430    0.5169344049922251 H
   0.0722986486078203    0.6260575788620927    0.3345759531285734 H
   1.1934590457861594    0.3755168179090288    0.5261254188288986 H
   1.1524096612202674    0.4457248485517389    0.4335327754736825 H
   0.5151055823108412    0.3570394228100781    0.3604199286595696 H
   0.3610401634529693    0.5171174709691223    0.6151527137331513 H
   0.4072858344574863    0.6490856275957797    0.6366976279474899 H
   0.6660839084874637    0.5702244056550005    0.5348979682939712 H
   0.8831758717134571    0.5888631544548846    0.3361874010146237 H
  -0.0821445875712119    0.4780994302290894    0.6288556216261495 H
   0.9887314320257505    0.3392577656988149    0.4854015543520839 H
   0.6835183123410427    0.5212463683954787    0.4127223742481196 H
  -0.1514220152566463    0.4344436687582718    0.3942435316819166 H
   0.7701750172250339    0.6044058292705243    0.6612181999017596 H
   0.1109568945386935    0.8332980357548108    0.6432594373385023 H
   0.2684657319928870    0.8430112090387135    1.3676676717184904 H
   0.2028674093274201    0.7311659357482470    1.4049774110067368 H
   0.2268698744989478    0.9584430076618055    0.5915386812301701 H
   0.2277359222387186    0.8483310884853249    0.5277200641302384 H
   0.3536228320728653    0.7050002764340361    0.3863031102215572 H
   0.6025372561132620    0.9835007581483213    0.4033321297641638 H
   0.5997745318659119    0.8803382310417381    0.4701984156813576 H
   0.5235862988769553    0.7911327990658816    0.6554325098997585 H
   0.6405586693380733    0.7576263451399053    0.6250134305890026 H
   0.9472905683154974   -0.2037765172306566    0.5835126466000951 H
   0.7554857610041602   -0.0630249680522069    0.4183616417262144 H
   0.8010723089594974    0.6793682026258816    0.5637528069804826 H
   0.8651039161104895   -0.0912027559438973    0.4673899836654505 H
   0.9342439266268827   -0.2525955971313382    0.4665602560299817 H
   1.0371390266315776    0.1923316417272262    0.7721984717918929 H
   1.1810675324615783    0.1237515261464071    0.6854483271774611 H
   0.0467524773082620    0.2714197173861492    0.9585567389397381 H
   1.2909772995836053    0.0845948170772552    0.7277068277245066 H
   1.0322415426419140    0.0717655204135964    0.7499382475427336 H
   0.5823385301382742    0.3152296435316208    0.7266082587336690 H
   0.3623863723473548    0.2811384821349358    0.9464668791789532 H
   0.4732284989825853    0.3086413003370788    0.8896501391648342 H
   0.4031593247011058    0.1530827533655610   -0.1605954181683965 H
   0.4742599266874231    0.0729228737664785   -0.2166192362087936 H
   0.6533296777515761    0.0065915654838643    0.7958837152491236 H
  -0.0517324104009447    0.1897443910474104    0.9760234258079007 H
   0.7104552732212220    0.2973153888245411    0.7415777614646103 H
   0.8742357663554904    0.3271706161813793   -0.1310268696932272 H
   0.1472973442538387    0.5104436582399275    0.8161116268713873 H
   0.2168599924587364    0.4208220615205749    0.8749118720044333 H
   1.0428753945020155    0.6425324307519360    0.8604216429992833 H
   0.2564329413944655    0.4184912194447173    0.7082358325372994 H
   0.5670069285458361    0.4523451429741885    0.8409546484274834 H
   0.4517578652569376    0.4723146604164229    0.7987473557576511 H
   0.6544897343181327    0.5074162793956848   -0.0333398426783872 H
   0.7340726507446228    0.4667495552956210   -0.1271534738559036 H
  -0.0432433848897258    0.5523716570616429    0.7265330471640121 H
   0.8451624478589391    0.3965590978282601   -0.2352877079453015 H
   1.0601803705568467    0.6906813336472564    0.7437668982154712 H
   0.1921792297493255   -0.0757391604173287    0.9689023303829513 H
   1.0168699941980104   -0.0581893094645349    0.8964911915112743 H
   0.0173429261629260    0.8410941353642591    0.7343782539776783 H
   0.1076349143708271   -0.2368516295798807   -0.0015887984739331 H
   0.4273535347596676   -0.3181714985081476    0.9407860053006228 H
   0.4070405607894885    0.7543976735598448    0.7867127044894865 H
   0.3576574640708753    0.8576688348413136   -0.0514712718026225 H
   0.5237197213608500   -0.2345743058107682    0.9169263350116350 H
   0.5915614592046162   -0.0459123696533283    0.6991296317472599 H
   0.3721302083568063    0.9811203916692069   -0.0854998663584382 H
   0.3365791084266183    0.8090270842555191    0.6883887795018083 H
  -0.3177247525924429    0.7000765922134787   -0.1105061130231511 H
   0.9045394478771774   -0.0370855234315816    0.8313611726808379 H
  -0.2673693495091608   -0.1225045751442509   -0.1200355789232800 H
  -0.2229444559944388   -0.0126248615165886   -0.0691005436809366 H
   0.2022594182481160    0.3090151297035974    0.0488477600886638 Cl
   0.7939170289250069    0.1102321628380144    1.0589321795082669 Cl
   0.6514369959291433    0.5150925619004798    0.1341971292243923 Cl
   0.1501016132267130    0.0693694978328073    0.1685600152036399 O
   0.3001004426054027    1.2804634581283008    0.3102994187141475 O
   0.5556260705633307    0.1878904210480733    0.1299716792312285 O
   0.6272467805557281    0.2965837057054576    0.3331085273971849 O
   0.4465463990147556    1.0064736910138676    0.1516678167079620 O
   0.2128541221937815    0.5373633665327573    0.1243516147070886 O
   0.4018219041140427    0.5888823251916291    1.0210463516013730 O
  -0.1488182794781286    0.3780042210016334    1.1523865554222101 O
   1.2901144475919517    0.9569972145989876    0.3101313928670419 O
   0.5338382588370474   -0.1918515201948519    1.2249657201409925 O
  -0.0643155088251542    0.9983261278974360    0.2105576756261310 O
   0.7249032504592444    0.7406546516560991    0.1279937749738717 O
   0.9439110646815206    0.7742984958620780    0.1561165010408518 O
   1.2563114218818914    0.1049082894879147    0.6603252625428558 O
   0.3818404890110268    0.2185995449707414    0.5376983990790637 O
   0.5759142774856012    0.1406944635250965    0.4836220806189280 O
   0.8181511858350340    0.1431563056353752    0.5711907511456882 O
   0.1490214503630874    0.6054793905282189    0.3473939248934824 O
   0.2826908057997322    0.3965702807580276    0.6309351415148510 O
   1.1541673226847471    0.3690011637579765    0.4524732890578851 O
   0.4598487005527490    0.4170757800484117    0.3559128353417337 O
   0.4187018456692814    0.5702124239445352    0.5966522678437489 O
   0.6304976553279861    0.5380535130555609    0.4684749505639035 O
  -0.2044746297508753    0.4625264017469373    0.3385389627510200 O
   0.9361613754972242    0.6455414376401319    0.3385757684127669 O
   0.9117139024003714    0.3460330235766162    0.4845694263473707 O
   0.7344473522113687    0.6517934941609467    0.6079340032922643 O
   0.2638822302557418    0.7812870281861624    1.4271968289787418 O
   0.2307782744463270    0.8839167685673865    0.5979028602200631 O
   0.4244485997211004    0.6668920469086712    0.3604503333366649 O
   0.6208712630618430    0.9068976892399099    0.4010229745510847 O
   0.5943385643184940    0.8204696177499193    0.6351877956927843 O
   0.8257243099358532   -0.0308089443433477    0.4360859682266054 O
   0.8927551266948710   -0.2225614428982177    0.5253348972244211 O
   1.0515119037888450    0.1393812680580951    0.7127117210549585 O
   0.5945918273567850    0.0199716533898079    0.7393894248368309 O
   0.4332680655876415    0.2514142548125187    0.9296482920067692 O
   0.4008631796788720    0.0776334432968923   -0.1895422710092752 O
   0.6454913065570264    0.2712783332026582    0.7016132137920964 O
  -0.0265637368477349    0.2479507417073376    0.9310565086301300 O
   1.0403827109705717    0.6192048392566154    0.7825280607734768 O
   0.2128868786119832    0.4689829461263605    0.8138592803970915 O
   0.4996669231564758    0.4136330352413705    0.8119221824168890 O
   0.6731553001338768    0.5120619879334463   -0.1090802936919983 O
   0.8151967167006497    0.3549889527591095   -0.1724228375584642 O
  -0.1011968389091416    0.5064825047600859    0.6944241079052232 O
   0.1198362806824328   -0.0975067332100619    0.9887773877262933 O
   0.0735555363423291   -0.3089679473093707   -0.0076662133514327 O
   0.0415377354242598    0.7970573555006436    0.6746658685317736 O
   0.3340584620991487    0.9308451345566375   -0.0381906688720162 O
   0.4467413396499070   -0.2472110164482142    0.9013719423081498 O
   0.3928786030079587    0.7543377650075180    0.7046880867941279 O
  -0.3400901957909166    0.7684993479968532   -0.0764808789842775 O
   0.9871655154483052   -0.0461489684959838    0.8226958397086803 O
  -0.2368467592414431   -0.0532212929152558   -0.1375270696069676 O
