Li1 Co1 H110 Cl3 O55
1.0
  12.7220042255999992    0.0000000000000000    0.0000000000000000
   0.0000000000000000   11.7723356587999994    0.0000000000000000
   0.0000000000000000    0.0000000000000000   12.9817092806000005
Li Co H Cl O
1 1 110 3 55
direct
   0.3578203585045035    0.7893931245880966    0.2478208432157485 Li
   0.5260564290202763    0.2838010167423787    0.6001280703414368 Co
   0.2216837899821551    0.0225041008919894    0.0228920655883202 H
   0.2028707165264503    0.2465025559503800    0.2413216990602032 H
   0.2755503025101904    0.3480754327911926    0.2323752654673973 H
   1.1175544246629481    0.4378375692632439    0.2185920265939621 H
   0.0899826861082504    0.1839448765446375    1.1491751831628212 H
   0.0720759949957299    0.0815047121666768    1.0616058211144161 H
   1.2766802954063625    0.0973322425226192    0.3200301324347622 H
   0.3180318164616222    0.2951878820072844    0.0626302070648760 H
   0.3843759227072081    0.1855163573905962    0.0601067335151366 H
   0.5172496405604401    0.3157173679992455    0.0511955803303340 H
   0.4608418617801155    0.4512359300109766    0.2580498505929544 H
   0.5410831493868137    0.4436044792433591    0.1647478074013032 H
   0.4663087676832001    1.1203376468068194    0.2527616409653832 H
   0.6274877740439917    0.2693663280854192    0.0957421795107828 H
   0.5072299928901857    0.0291182683993349    0.0392507126208306 H
   0.4378431270830123    0.2906518237816524    0.3205354588026700 H
   0.6511774376108017    0.4372573955238980    0.3021103042386675 H
   0.5799048626359073    1.1605420729901827    0.2977595674613154 H
   0.6849087579586192    0.0876647471930135    0.0668497592683642 H
   0.9542468228764838    0.1799847448128218    1.0344753414227832 H
   0.7246532817799948    1.1182564964973067    0.2323421419402326 H
   0.7814415037604766    0.1754299987068595    0.0539393638514478 H
   0.7053253523406061    0.3158176029937445    0.2987825452304945 H
   0.9570294033073852    0.4820743303524264    0.3198729882593762 H
   0.8411985975735896    0.4391678065631202    0.3295905067519926 H
   1.0439732511780089    0.5433051702547163    0.1792536013556797 H
   0.0866193795693405    0.8386195497254743    0.0299646242179613 H
   1.1015349361935209    0.9073467779875396    0.2646291074653632 H
   0.2314157471332824    0.7463880647025032    0.0947371500714394 H
   1.0431714907148679    0.6415838834627572    1.0260249904228624 H
   0.3209338749223250    0.6631080743577550    0.0783258289275913 H
   0.5942186450219851   -0.0698119043170210    0.0560400887568155 H
   0.5141251328731992    0.6377630613843129    0.2427136575157051 H
   0.5875687494159325    0.7747103967922074    0.1606928714246776 H
   0.6153395309480647    0.7555587172500543    0.0459817830916955 H
   0.5516325877944771    0.7285428378852605    0.3310178996784150 H
   0.9646068257237383    0.5406973614995307    1.0130066739325558 H
  -0.0155200299888824    0.9861161935798337    0.1546428206723186 H
  -0.0614335503463598    0.8659199945407524    0.1631116592222849 H
   0.7606350337022955    0.7811245869910364    0.1366035937155140 H
   0.8680811542789086    0.7133801713445246    0.1079260142109148 H
   0.8347452118849735    0.7096307029909779    0.2947106623329939 H
   1.1581848151921275    0.0515599322846586    0.3388034691912865 H
   0.2151172145810956    0.1743053280906167    0.4554098395297567 H
   0.2146495209775966    0.1569408894673268    0.5781556171124721 H
   0.1950834215182750    0.3668244734571380    0.5670784933769332 H
   0.1828329932652809    0.4846345699576801    0.6213748872311192 H
   0.3476655120110527    0.4223894878229175    0.5759417329945348 H
   0.3770225215967327    0.3762040904847463    0.4019985371339944 H
   0.3602366444493032    0.1886109004834758    0.5223917739734319 H
   0.4529806790429841    0.1643633757548870    0.4418954404465651 H
   0.4567285161883338    0.4856122858785981    0.5534785893747817 H
   0.6743145152897803    0.3574635443098601    0.4625329384993345 H
   0.7146556432204932    1.0741530989177541    0.3510869055672881 H
   0.9065577961129837    0.4072616486955244    0.6343908927776700 H
   0.7308016840767493    0.3769252727756754    0.5758955141194213 H
   0.8110201765330249    1.2272917837336581    0.6025360737348509 H
   0.8856727220878279    0.4279958519220132    0.5088504138797576 H
   0.7742964031624839    1.0172400088208740    0.5090152612009957 H
   0.2142918729278621    0.8526057292545061    0.3708947748117698 H
   1.0520537389829996    0.9022925558072943    0.3800853981280922 H
   0.1078927571913508    0.6888897041716416    0.6577121668453640 H
   0.1435946789912219    0.5914426016382999    0.3468817582465435 H
   0.1896416688846222    0.5540634431812383    0.4571915771653827 H
   0.2337675778251630    0.7207890664463902    0.3869111556677730 H
   1.0039559715912314    0.8537941085536931    0.5755257631185131 H
   0.3510384082339336   -0.1316016817310085    0.6570496963020704 H
   0.3594058005183815   -0.1832906598264587    0.4924735257978690 H
   0.4305298139956940   -0.2660601312585469    0.5601595277724402 H
   0.6237745226441108    0.7139662912276119    0.4861091866947381 H
   0.7100801063029009    0.9112117714194921    0.4717004523781000 H
   0.8722393041318659    0.6091816473173021    0.3564968248993249 H
  -0.1091587349346683    0.9207086124237177    0.4579226057067615 H
  -0.0819177441399450    0.7971001763261412    0.4145831665128192 H
   0.7313511258059019    0.7194826137214796    0.4232746259779155 H
   0.1832943985514219    0.0456423300331526   -0.0881457006135568 H
   0.3098145577540957    0.3395231791927540    0.8122858024604159 H
   0.1899906704979895    0.2445870482165223   -0.2429288617957898 H
   0.1193516434969105    0.3635175680877775   -0.2265096064117139 H
   0.3903199546898286    0.2876838486055554    0.8902416384852098 H
  -0.3545839010195149    0.4142101423819793    0.9680588178846633 H
  -0.5023837261615569    0.3760647808313748    0.7694786506448642 H
  -0.4348440535782870    1.0926116279894738    0.7214349002789514 H
  -0.4360191828845575    0.4638723349106958    0.7050064011198528 H
  -0.3587483391898301    0.4260879892301088    0.8440843885385136 H
   0.5318251741565434    1.0042264485181247    0.8787331385819448 H
  -0.3320402832911947    1.1464072398676144    0.6694925877972138 H
   0.9055909673191959    0.1763465542921510    0.9177957911987166 H
  -0.1112826141223224    0.3410742732601705    0.9532225589732252 H
  -0.1942451710656819    0.4343582257253809    0.9124960268523669 H
  -0.0507261179650775    0.4326338440403559    0.8153978733847259 H
   0.8302805065608153    1.1273371074396297    0.6828067050882467 H
   0.9621229403673404    0.0821825725532039    0.7556576663567530 H
   0.8676095304770609    0.0049487061096879    0.8059230039864553 H
   0.3000967493170238    0.7953520100661505    0.8013365509460243 H
   0.1683965886907228    0.6515920928287489    0.7518014715431155 H
   0.1644781809370381    0.7847916587813085   -0.0561252639349142 H
   0.3313701236175449    0.6887232121468807    0.8662078234261824 H
   0.2755086424076938   -0.0525782808560433    0.7320074679611678 H
   0.0189935570382664    0.5063125111408500    0.7362927279987758 H
   1.0498685487011052    0.9065652848100899    0.6828228816945364 H
   0.4612223049802727    0.6020895967319461    0.9647926840433083 H
   0.5948969972569761   -0.1497280762023119    0.7781277428077732 H
   0.5986275415295913    0.7036446351415343    0.8750818474479771 H
   0.6083752194741135   -0.2727155650034582    0.7108946858093145 H
   0.3697626592069571    0.5132932838933300    0.9354976203671925 H
   0.4460556695525203    0.9545251813305357    0.7837564314820140 H
   0.6318707312424965    0.5799351146003531    0.9253140615505149 H
   0.7631574350025109   -0.1658659103166482   -0.2124351886250636 H
   0.8760908985136221   -0.1649145273180138   -0.2640824706206601 H
   0.3557342092209971    1.0407017931264833    0.1459197783092280 Cl
   0.5621749518451128   -0.3972855774889401    0.5863417502096607 Cl
   1.1483278777335104    1.0523222568955179    0.7199543556461485 Cl
   0.2069675552851673    0.3181765231608943    0.2038012162430523 O
   1.0679396007085697    0.4971452563897226    0.2400992098134507 O
   0.0403834257393331    0.1294977372022535    1.1179235204402331 O
   0.3752767274902264    0.2598202190330500    0.0289820956676524 O
   0.5888232687288474    0.3378166359389535    0.0818482464314507 O
   0.3885120634494125    0.3547325654343158    0.3294664861037714 O
   0.5257490875094054    0.4844230571303051    0.2281300617882210 O
   0.5782643978451470    0.0034873138678569    0.0207321805228071 O
   0.5016805528217778    1.1684249606931536    0.3043349727607980 O
   0.7190158052685752    0.1584121353187864    0.0939835513127136 O
   0.7036149300192386    1.1395012186364555    0.3030593318076650 O
   0.7134482862877631    0.3941588962366531    0.3291668337301187 O
   0.1265690597445198    0.7677058394647616    0.0074410186064139 O
   0.2887251134148059    0.7142669962111088    0.1277503681875203 O
   0.0062266221182822    0.9077290300852052    0.1618267744941292 O
   0.5064164418319984    0.7178864988514492    0.2702447007916551 O
   0.6396525239729834    0.8009643203089877    0.1063670515533359 O
   0.9893592149240452    0.6015119713399181    1.0598495038601026 O
   0.8327801127106080    0.7579940878367372    0.1581816458768433 O
   1.2049620359387221    0.1239508345405725    0.3353231878952389 O
   0.2408694462413196    0.2050290528027668    0.5229055738017772 O
   0.2059496339128460    0.4507347550384816    0.5602666014997865 O
   0.4385364140717284    0.1730727774379216    0.5138012257190001 O
   0.4220853898236108    0.4092204783337842    0.5539369265529906 O
   0.6652098177951105    0.3520788864274105    0.5395859658302445 O
   0.7899000766466151    1.1463392839391404    0.6201947652865543 O
   0.8611325635983526    0.3982455958852514    0.5757899810212455 O
   0.8957104486704865    0.4839753974514834    0.3682818677386859 O
   1.1155736046951876    0.9257543401129038    0.3414132950060295 O
   1.0085464432625491    0.8426102616251033    0.6510266065601943 O
   0.1764102631237850    0.6163960185739110    0.4103071502502339 O
   0.2755282933994375    0.7949714568666967    0.3809073237905275 O
   0.4140324134070613   -0.1848162704206974    0.5532005058095153 O
   0.6654094718712259    0.7677831393334006    0.4350966439173672 O
   0.7545337937857256    0.9756934530501513    0.4462731382344002 O
   0.8593089515645413    0.6906064408147132    0.3658114688638685 O
  -0.0463250818541687    0.8701485521900401    0.4486549509319167 O
   0.1600472753186789    0.0146261399938329   -0.0222728651096889 O
   0.1927677486512028    0.3252566814587674   -0.2282851815306581 O
  -0.4300036212919902    0.3866659056733011    0.7381861612492594 O
  -0.4022037562920773    1.1638209465390479    0.6928269572128565 O
   0.3867984969693657    0.3498032122726412    0.8355415997883658 O
  -0.1182988042144767    0.4201019213806653    0.9203147198924032 O
   0.8940833465541119    0.0912627587709740    0.7969365140352178 O
   0.8967087190510641    0.2058173415730639    0.9874322297030781 O
  -0.0139665011855960    0.4340481768017187    0.7409153858247125 O
  -0.3250751857775739    0.4569722598232785    0.9095534251368065 O
   0.2713709295861500    0.7292895036493674    0.8409338018849425 O
   0.1284272575237998    0.6202975383174181    0.6944230490334432 O
   0.3376332877060824   -0.1000522924879006    0.7268209398588462 O
   0.5833249212389728    0.6510943156526776    0.9304058409588536 O
   0.3844411639997970    0.5937361142242935    0.9614880344726920 O
   0.6353151570753240   -0.2248966770345959    0.7665583880522753 O
   0.5193915986604984    0.9745551912482137    0.8105834072270681 O
   0.8360736189268445   -0.1332462152000766   -0.2049061338690721 O
