Li1 Co1 H110 Cl3 O55
1.0
  12.5694957504999998    0.0000000000000000    0.0000000000000000
   0.0000000000000000   12.4884992487000002    0.0000000000000000
   0.0000000000000000    0.0000000000000000   12.6139473633999994
Li Co H Cl O
1 1 110 3 55
direct
   0.5926365323767011    0.4231414455143667    0.4713668933685286 Li
   0.7820784994425063    0.5288146712334117    0.7096420275046412 Co
   0.2141416353311492    1.1293552046190147    0.0969209040262293 H
   0.3109895936075642    1.0452938631324240    0.2331107857903272 H
   0.1998005667968104    1.0657606938468198    0.2950303401929606 H
   0.1042724705362873    0.2357930737519587    0.0306977562728332 H
   0.3116602649031621    0.3308229069101373    0.2974451275012049 H
   0.6483006587575997    0.1374577993892016    1.0063033256846070 H
   0.3357193048203338    0.2082613429048122    0.2645125340764588 H
   0.5903953923533330    0.0616845634578702    0.1441227816658641 H
   0.4350017282978515    0.2777268553514182    0.0220419646435767 H
   0.6564107693000966    1.0920248584568424    0.3091623160815892 H
   0.8044278446808645    1.1855108712074562    0.0625864496700426 H
  -0.0584778927723303    1.2293111701150243    0.1350954727101918 H
  -0.0448330335508951    1.0322018176637087    0.1783555232145499 H
  -0.1203491098391776    1.2052890683375648    0.2460615295419618 H
   0.6949835179309010    0.3313113563129457    1.0905989049641922 H
   0.0622213007446134    0.5395461448341289    1.1051542217663477 H
   0.1742418644926849    0.4118958989356118    0.2032184777651599 H
   0.0066904334882849    0.4315043398798263    1.0799757434637085 H
   0.2215683453482385    0.5101567047828588    0.2774941959846993 H
   0.1993709552907335    0.6444778883449763    0.0088747145183763 H
   0.1961194326512215    0.6581921062497280    0.1865337720234299 H
   0.4253521765252455    0.3582921802926625    1.1892912463966721 H
   0.4466266974215482    0.4567283474828849    1.1039254232345754 H
   0.5794546193319070    0.3834144943315297    1.1295240713577561 H
   0.5118130832769560    0.6129176510297498    1.1050670167092542 H
   0.3922140134463145    0.6176644183409759    1.0600929904463849 H
   0.6609543087652917    0.5289059552201660    0.0703310515131938 H
   0.4366342520209439    0.6663484105399016    0.2165006007337499 H
   0.6898942127376154    0.6412325023948415    0.0167491726192722 H
   0.9413633299354367    0.5194380441729434    0.2294648216305716 H
   0.6989598110927019    0.3879730885121657    0.2767434397204486 H
   0.7945117746591183   -0.3589653397358097    0.2788228839455060 H
   0.7810394760592906    0.4611404068426783    0.3265613105182399 H
   0.6992358762641995   -0.3454416971718258    0.2045630211908928 H
   0.1117325947816271    0.7206799988667080    0.0653670225541319 H
   1.0213665392893201    0.8933780914917692    0.0747248386761886 H
   0.2617656619335041    0.6815359840203374    0.2788569731950972 H
   0.0308683803234164    0.9544823110463674    0.2444878746480468 H
   0.4957551598720356    0.9618410815575292    0.2569114241908887 H
   0.4312903622314646    0.7740611126998529    0.2859784552666528 H
   0.6676085136483058   -0.0233519152135400    0.1858139339157852 H
   0.8513438078750556    0.9071747852792902    0.1874819288260104 H
   0.7627014293647102    0.8294632860292082    0.2240374959863692 H
   1.2065609214830053    0.2990144412098771    0.5946994200694066 H
   0.1353986197284247    0.2724556054847176    0.4486824796987642 H
   0.0822337185052855    1.0672260420552449    0.4476463250658438 H
   0.0013122543360058    1.1861594679554475    0.5875010389929594 H
   0.3345052545272349    0.1992418444241020    0.6275614566752316 H
   0.6187481606006848    1.1925493470282520    0.3780218074823745 H
   0.4956207073821708    0.2521825530579935    0.5078859929595574 H
   0.4651119258358032    0.2689003344216536    0.3944774017559224 H
   0.4010425298961956    1.0506587991960568    0.5504951766286994 H
   0.6591690342844831    0.0323072145311615   -0.5338537274809824 H
   0.8319158208780207    0.3038965330277827    0.3913221642356295 H
   0.7902498694034623    0.1891958014607684    0.3775453507613454 H
  -0.0467640577130247    1.2037756759255847    0.4682830054404031 H
   0.2337183952015848    0.5866871173622157    0.5752186030879597 H
   0.1807258159269943    0.3755224331609083    0.3825675692766860 H
   0.1647482457852477    0.4824592214334478    0.5400725867595307 H
   1.0907249302148527    0.6230141404068161    0.4777828072508730 H
   0.5066187619377405    0.5999369079659366    1.3837347405178406 H
   0.3973916276714047   -0.3723032113793812    0.5265581812297734 H
   0.5896563014475081    0.6358251272847354    1.4655489395364920 H
   0.9411087453392429    0.5674350042610337    0.3486598647589850 H
   0.8816791536652662    0.6361398168180201    0.5555031252256066 H
   1.0902794071715136    0.6732483589071140    0.3628631902397812 H
   0.1312648023477288    0.9583818989015750    0.4172188950994208 H
   0.2290610882449656    0.8433400534893206    0.6183827280295150 H
   0.0587378674495062   -0.2167841244721073    0.5004228256188443 H
   0.0196735796096007   -0.1163357058896597    0.5663355788631148 H
   0.3442765295598960   -0.2723440429364679    0.5979624747511970 H
   0.3423050900931207    0.9022422470476518    0.5833920952573618 H
   0.4872591945509326    0.9714178927994765    0.5240514322249579 H
   0.4182787026353751    0.9534013164663818    0.3563751339920230 H
   0.6591491448629055   -0.0254598546445121   -0.4246436633897774 H
   0.6662639887496575    0.8286305198342562    0.4761766486538596 H
   0.7615422738751655    0.6921873839484630    0.5598800263184551 H
   0.7113803570795042    0.7370470575444172    0.3950204514296412 H
   0.1148321622402859    1.0114627364625017   -0.1530712601356185 H
   0.2013042070680797    1.0848902942289369   -0.0159933930583346 H
   1.1502420353437710    0.2349242744043406    0.6886049966406982 H
   0.3288884818737105    0.3249887391251183    0.7479916405213879 H
   0.0071643586256368    0.2350275694419836   -0.0480611501486869 H
   0.3865558707959086    0.2988631019686790    0.8648805062763008 H
   0.3458263132892254    0.1871523213362324   -0.0043114036100862 H
   0.5233330362547228    0.1352998139128598    0.9935079654892482 H
   0.4489251189790599    0.1967307340516316    0.6873135690224678 H
   0.7683325224017705    1.2360773954490087   -0.0607298251792862 H
   0.8371109377940993    0.1799144620706839    0.7809115495741931 H
   0.7541306798184753    0.2346960644374547    0.7246143430343530 H
   0.7205302865820800    0.0316377185546237    0.7507623830172230 H
   0.3714096784761072    0.5947809641877678    0.8708897274832907 H
   0.4027013076557705    0.4712008630670783    0.7892848206016639 H
   0.5811905680472031    0.5694696762815845    0.7720324892155798 H
   0.4045231786722819    0.5772704534654515    0.7138199425126673 H
   0.6656108201450480    0.6504954248402300    0.8302680263426349 H
   0.1112409282802279    0.9170078322735303   -0.0720823380663704 H
   0.3006128845820799    0.9071267410757353   -0.1552252250458285 H
   0.3228818765572644    0.7033328384364785    0.9206441764213776 H
   0.3665248365366398    0.8477120760128184   -0.2389071978327739 H
   0.5759477165193382    0.9825401259224403    0.9188287256873398 H
   0.4962500086808873    0.8985908875774780    0.8675125134540325 H
   0.6504733791707407   -0.0769122339259448    0.7719651034896439 H
   0.6573049976942271    0.8073237162943754    0.9149441367804463 H
   0.9940543855789102    0.8193419738136385   -0.0275971357871728 H
  -0.0494149993785783   -0.0172437353209127    0.7113258778797926 H
   0.7838884368060712    0.7802363943301119    0.8965597251986389 H
   0.9209329160908889    0.7174946681710168    0.8381085537485889 H
   0.9251972080771340    0.8393603919615216    0.7960249787417469 H
  -0.1473008672306007   -0.0955485804848980    0.6780143388433129 H
   0.7148084977826256    0.3690797054641937    0.6098477312597980 Cl
   0.0178405068708568    0.1456285169404416   -0.2360048549780521 Cl
  -0.0845274660009918    0.5255724882301805    0.8262883046461849 Cl
   0.2252423193020594    1.1546504777906796    0.0235926846074760 O
   0.2496267501562413    1.0912801733017412    0.2379641436042050 O
   0.0349258541483287    0.2657462324582732    0.0208810512848854 O
   0.5861056419074685    0.0835560465368665    1.0083566083925364 O
   0.3699529772397611    0.2772496162627727    0.2983726721993815 O
   0.6143136151657351    0.0274300072072839    0.2123107941270292 O
   0.7486817738830660    1.2299437521284975    0.0151643396225843 O
  -0.1028949490395072    1.1745888222659713    0.1732595767873030 O
   0.0190995947701761    0.4777348747505474    1.1405277640164662 O
   0.1901056671430075    0.6503657054906317    0.2634343624614843 O
   0.2218905539777962    0.4303937180409817    0.2670977676326586 O
   0.1474770676640916    0.6507060185991458    0.0693526900499291 O
   0.4493770066373038    0.3783850669560557    1.1121147708689034 O
   0.4393734231606159    0.5933476454483794    1.1220561473775652 O
   0.6579820336047298    0.6086929640638207    0.0780876242323642 O
   0.6615263285298646    0.3898676316056813    1.1359217514554354 O
   0.8925546893839177    0.5432831831339757    0.2948670289042218 O
   1.0493310660274764    0.8469834055922354    0.0194787781113566 O
   0.4292998289199748    0.6927358886057150    0.2896053928684971 O
   0.4198897457831636    0.9440407041404316    0.2806367491330513 O
  -0.0217894679417912    0.9592386871983044    0.1883634926759013 O
   0.7308719902255876   -0.3105039523466885    0.2700318214172325 O
   0.7726644384213797    0.8972296351434219    0.1923614481570162 O
   0.1333102304627729    1.0303361010923260    0.3999182045453120 O
   0.0158259073592580    1.1806343845466318    0.5115438487180076 O
   0.4174250486612629    0.1836370871094642    0.6170104375401615 O
   0.5214109225534600    0.2846364125593415    0.4455240710854860 O
   0.8610896244480973    0.2295865633893890    0.3813926793256623 O
   0.6717630160274424    1.1341756397090250    0.3759312644318689 O
   0.1617258492823101    0.3468856856319987    0.4533217887361396 O
   0.1629971811095526    0.5528423781679528    0.5615995514896902 O
   1.0462203604927343    0.6629012389348361    0.4278103456700524 O
   0.3641245811406506   -0.3551730506018747    0.5980124194657142 O
   0.5373383713528310    0.5771447377994828    1.4537841845613295 O
   0.7247030872290680    0.4113922355350111    0.3469427179074890 O
   0.8106206149832772    0.6332315410294956    0.5903708781445827 O
   0.0870486292384860   -0.1560066055016825    0.5405664844919786 O
   0.3059599566790116    0.8441007533789403    0.6270001732168478 O
   0.4085384551003751    0.9770470719826612    0.5114344460100175 O
   0.6359206871908158   -0.0313820233957092   -0.4959385542032109 O
   0.6867349770142238    0.7542196573683972    0.4695332088498256 O
   1.2128380229329074    0.2723571148674301    0.6703291949936345 O
   0.4142912713974906    0.2165033260246586   -0.0259786099275170 O
   0.7573615174595464    0.1835001611293327    0.7833913442886343 O
   0.3269973956701088    0.6249591299140644    0.9332571987700863 O
   0.3953644978242121    0.3365601855513206    0.7898643378447127 O
   0.4332482768915671    0.5463163738517429    0.7806317006182474 O
   0.6576741453587081    0.5902648090536053    0.7783263160179933 O
   0.1598283984638036    0.9744847144597322   -0.1026524672171283 O
   0.3646496618703002    0.8656565860405807   -0.1575987881452650 O
   0.5694072791277484    0.9090725313197094    0.8908041914304664 O
   0.6902363107887508   -0.0357518038563743    0.7162117393967687 O
   0.7091941118596904    0.7456838038701399    0.9114876454265576 O
   0.9192781162156296    0.7931258534071709    0.8628272235683714 O
  -0.0671743434629359   -0.0944507704336681    0.6932760166079258 O
