Li1 Co1 H90 C51 N3 Cl6 O45
1.0
  13.4570152845000006    0.0000000000000000    0.0000000000000000
   0.0000000000000000   13.1082314052999998    0.0000000000000000
   0.0000000000000000    0.0000000000000000   13.1513636691000002
Li Co H C N Cl O
1 1 90 51 3 6 45
direct
   0.8998116511130874    0.8405029531097028    0.5690770951900967 Li
   0.1550328284610785    0.3707980928864874    0.6910119789290194 Co
   0.1329112811709536    0.2928669083952703    0.2358705844237584 H
   0.2963776928152749    0.1971552932117965    0.1443857749186513 H
   0.0316704063412108    0.1737547298164953    0.1654512710124840 H
   0.6435371409717299    0.0956702065614243    1.0485733785159419 H
   0.5443297779885196    0.0634843237405416    1.1324475704061496 H
   0.6063097179950296    0.3305623064029843    0.3243024785802971 H
   0.6683123227599244    0.0310253300865261    1.1689175526884374 H
  -0.0651081119606943    0.1140075392318570    0.2633696338835281 H
  -0.0715486188760596    0.2543781157885110    0.1458160448490764 H
   0.0668000387303863    0.3660255192214615    0.1491571432405109 H
   0.2955952013208847    0.5485874473723805    0.0572434808695028 H
   0.1845222799932534    0.4574695106294364    0.2831303223215344 H
   0.0967056300886376    0.5312536825817978    0.2030032703660078 H
   0.3495358400623804    0.4314492955863839    0.0908780157458599 H
   0.5930289126885325    0.5232048469503685    1.0600102153173907 H
   0.5734873580093985    0.6045626569420965    0.3161922929992683 H
  -0.0850924840011836    0.4240020666672690    0.2027538665716541 H
   0.8452824717604266   -0.4663110228072836    1.0653214516087357 H
  -0.0733989548884353    0.5131452518819839    0.3149756891243718 H
  -0.1233141839194736    0.3798588117834683    0.3244880106712189 H
   0.6711829444530195    0.5236770693126848    0.3302965337964278 H
   0.2359608780304644    0.9897893014731275    1.0091949525952297 H
   0.2730820367301486    0.8843906433870804    0.2981584216861933 H
   0.0440030073297194    0.7364400968918559    0.2139823599595269 H
   0.4385842638521824   -0.0299142410349465    1.0397537608003642 H
   0.3701979255339085    0.7208727794032820    0.1386510084033579 H
   0.5398914981220477   -0.1131901587578086    1.2082351484154048 H
   0.5722433971721628   -0.2141992086487536    1.1214806468513796 H
  -0.0129479571893400    0.9503842906803555    0.1358725893040631 H
   0.6697234826344229   -0.1394545715038942    1.1759297532723720 H
   0.7394670312711719   -0.0626837266137807    1.0509982221140950 H
  -0.0461923275450226    0.8380609760793722    0.2221404493181297 H
   0.2464357119382745    0.0983357072624474    0.3943917881905058 H
   0.3042063232933381    0.2158450761752666    0.3989175546051207 H
   0.2689184091488872    0.0351357244131181   -0.4025559857217682 H
   0.0057441520698155    0.2967972631782327    0.4135173333680739 H
   0.6121951241066824    0.0437493959687138    0.6590426706064267 H
   0.6601544959551614    0.2229375661630776    0.6454562468335202 H
   0.4817950344210296    0.0957228452415533    0.3417599838076399 H
   0.4442001451157674    0.1274746496712275    0.6187517917795423 H
   0.4271213951001736    0.2429898517745235    0.5456402860686064 H
   0.6115285572781278    0.0403912007523705    0.4308388831123970 H
   0.8347563634811891    0.1835089061082186    0.6010380393610494 H
   0.7073232021340949    0.1936437592315992    0.4849525817299871 H
   0.8831556545743773    0.0962843244962622    0.5133711609285939 H
   0.0924595176489933    0.5467981899756491    0.3368829230241486 H
   0.1311397144827996    0.3400151453229548    0.4035649814072253 H
   0.0389483946565551    0.4222337121667047    0.4570981371859051 H
   0.3704884803053297    0.5562361527468876    0.3534272149678973 H
   0.4058425309578536    0.4845422704112414    0.5185255313578195 H
   0.5061346515705519    0.5609809576009469    0.5695287593786521 H
   0.6411532542537776    0.3792568999193849    0.4629769191848893 H
  -0.0474816178990274    0.6169007058366719    0.4802647309830068 H
   0.1953590069283836    0.8038710090164783    0.3643933781452455 H
   0.0503186722972619    0.9430164012211452    0.3774429754583540 H
   0.1971216563345503    0.8137937816604988    0.6174196105365306 H
   0.4265967616765843   -0.1531535972876010    0.4591618015086983 H
   0.6888792905569208    0.7840834425645216    0.4472149795704413 H
   0.2900092672626406    0.1181682836003115   -0.0441779407838214 H
   0.4019553391182001    0.3265899932518030   -0.1594846145368236 H
   0.7649347886270508    0.2006294461003079    0.9217530698418880 H
   0.9407672410673331    0.1624717431627656    0.7453341023205695 H
   0.1098615934473118    0.4656238524849504   -0.0648898613765124 H
   0.1975021270326773    0.6343660673275771    0.8253988033275077 H
   0.4762244083635305    0.3488119079398687   -0.0479669014767022 H
   0.3634237636508497    0.5158472182193862   -0.2088391922316871 H
   0.6329515841459100    0.4657022002016060    0.6824638159530280 H
   0.9635063101350823    0.5604300823702060    0.7526025500956544 H
   0.7510996256236733    0.5229102229175308    0.9359599615909917 H
   0.8192767050579772    0.4369763569999249    0.8454552785825981 H
   0.8844040740526067    0.4663049512330538    0.6946100848890258 H
   0.3093196414062525    0.6708370438627261    0.6777509966926476 H
   0.1569336957380492    0.9841333134372416    0.8077496829898686 H
   0.1514807778027830    0.8990371654131086    0.9069850195554882 H
   0.2872226166415929    0.9225887789339972    0.7233835269077497 H
   0.1391243973956415    0.7434212064840316    0.8927583579934174 H
   0.1044725826996217    0.8284280976157723    0.7180745717486701 H
   0.2601817021217785    0.7056930046611648    0.9184522714538094 H
   0.1412377932266441    0.7049247850830509    0.6724047830398995 H
   0.3500248043580201    0.8855174162936091    0.8295420998989520 H
   0.3776052144380693    0.7009692552791571    0.7999071502613171 H
   0.3825290403087525    0.7774639378184491    0.6886038636341462 H
   0.6328847045310049   -0.2493328575568582    0.8304180546888775 H
   0.5103011326820492   -0.0067402528280266    0.9271304589689305 H
   0.4835073754946509   -0.1377266496127043    0.9604904975960141 H
   0.6889952152227563   -0.0175952641259251    0.9312729951629531 H
   0.7099062414830981   -0.0240660073846766    0.7174259698078659 H
   0.8746983557162058    0.7158476926495215    0.7697308118993532 H
   0.7752416803907658   -0.1887930352525969    0.9163832844890636 H
   0.6804561746130340   -0.2415995488544337    0.9956237363707593 H
   0.0570705409753523    0.3214069904576558    0.2186814924263146 C
   0.3419494624116401    0.1209985662565209    0.2697370344137676 C
   0.6152975951314488    0.0410625346438703    1.1036520774421932 C
  -0.0113116359446608    0.2339794829194050    0.2006468607358177 C
   0.1074613583790494    0.4938359726837496    0.2800910937665586 C
   0.3548728333318109    0.4964838508701209    0.0422959815115558 C
   0.4521842335431435    0.5504587143069941    0.0525496710446678 C
  -0.0702154852189504    0.4370015320208561    0.2884620888032683 C
   0.2510474329394004    0.7455954128371846    0.2278980271560773 C
   0.1296490421772471    0.9203047179440534    0.1487625073585914 C
   0.1156801199440593    0.8802863520958657    0.2583815579964525 C
   0.2117623471441187    0.8288446297802710    0.2916404664264354 C
   0.0267644150345024    0.8009064595819689    0.2603319260833959 C
   0.5919588388500503   -0.1414128829805760    1.1476087358196254 C
   0.2923857229122701    0.1819541578458588    0.6115411326885152 C
   0.3152533494620034    0.1325127053751647    0.3813923757872368 C
   0.4013467346225633    0.0963453548500349    0.4607655135290384 C
   0.3944559049668366    0.1644285288806031    0.5638008362601550 C
   0.9205829732889605    0.0467490378566425    0.6634498181432394 C
   0.8514480291478486    0.1035103183829510    0.5882081911228441 C
   0.7395123607879409    0.0678960554388864    0.5779408147961395 C
   0.0527909887282554    0.3624438003344256    0.3987791659143513 C
   0.4898683699789625    0.4254141564776851    0.3462340445575718 C
   0.6110418223029848    0.5605472606494496    0.3753458545290012 C
   0.5416470880133077    0.4870473375697845    0.4342007398074469 C
   0.4634677163058400    0.5407558035124398    0.5001875851137625 C
   0.4251239239350066    0.6389555499312848    0.4535412436821609 C
   0.8997284231478720    0.6125210150740579    0.6177397294311128 C
   0.6680448043003037    0.6363892235551425    0.4375600872570049 C
   0.3834720428789151   -0.0156514473582643    0.4825824145911041 C
   0.7230309943548164   -0.0290415069759968    0.5080781736953724 C
  -0.0005351006629452    0.7648680356791840    0.3682119935575769 C
   0.3411550812079335    0.2649424700265671   -0.0189197235861266 C
   0.6998133644870796    0.1355436253194019    0.7554098635369779 C
   0.6871047514414376    0.0455413997313650    0.6815391970081066 C
   0.2342361270727440    0.4243034040390217   -0.0955817356304636 C
   0.3996093508486941    0.3405163571033132   -0.0781972266356145 C
   0.3460246602798603    0.4465763553604299   -0.0659695973154830 C
   0.8218188735312050    0.5113169808316033    0.8840208610393951 C
   0.8129833332954032    0.5874440241485626    0.7888900417967075 C
   0.9224674922156212    0.5120828965138624    0.9381027051656532 C
   0.7060049306136313    0.5759202727491997    0.7592459676300110 C
   0.8911693186536782    0.5497826505630770    0.7148855488415976 C
   0.2001052302661520    0.9446657465318525    0.8643080763789630 C
   0.2768510745834696    0.8876206748605010    0.7984076859855072 C
   0.2052936021691266    0.7131356563037468    0.8599153760131647 C
   0.1665955707713457    0.7820007817420278    0.6889080146028702 C
   0.3336199779286206    0.7272664718403954    0.7302307255911514 C
   0.5000824774235991   -0.0598053825539753    0.9906402227482146 C
   0.7011866259131317   -0.1809567378281809    0.9422954262695152 C
   0.6890680396923198   -0.0772272599178174    0.9908417227649944 C
   0.0355323325485668    0.4028764097088456    0.2966825291104595 N
   0.5936635259232992   -0.0597321461294481    1.0557118017518972 N
   0.2469165020587593    0.7788340692606464    0.7688890740934092 N
   0.7808588249359656    0.2605856656466177    0.0080744352655611 Cl
   1.7156522939223089    1.5816464147724212    1.1337310874941655 Cl
   0.8641826509326203    0.9708714175624319    0.2080681443726863 Cl
   0.7364507606389499    1.2915538857022897    0.3906530124074645 Cl
   0.2089489446771089    0.5264383876691311    0.6416452351954069 Cl
   0.0116734014845727    1.3043473736118938    0.7091941238393474 Cl
   0.2734691953897661    0.1642317059896862    0.2122806352895154 O
   0.3161168396011120    0.2787643193972414    0.0712397480727651 O
   0.4185102731277201    0.0803271756229651    0.2410160584371487 O
  -0.0435468672221080    0.1817504690401424    0.2894239662418583 O
   0.2155492195614144    0.6649003161994858    0.1990918889082156 O
   0.5326196032827282    0.4854346867592829    0.0414991059734986 O
   0.4616541640816622    0.6404683398254258    0.0779211844782123 O
   0.5346320852059072    0.3472426649684880    0.3034742202420692 O
   0.4048935835330328    0.4440918859462851    0.3212373971929797 O
   0.9144694333797981    0.5228795551647599    1.0354142868540928 O
   0.2139626864744979    0.9273514351665350    0.1101672701823438 O
   0.0511769606885446    0.9531688005712354    0.0961938143017358 O
   0.0942184515209986    0.9659172785949321    0.3187387969849111 O
   0.3430507467370782    0.7674717431470122    0.1967202717295893 O
   0.2288812992393388    0.1024705137305484    0.6240934431677597 O
   0.2706855171960476    0.2696219724020896    0.6381429367905488 O
   0.4945974275489053    0.1079785031585355    0.4196763144469953 O
   0.6798750650701915    0.1543920872026810    0.5427560224321955 O
   0.3612680107304072    0.6323497770148112    0.3723849448484719 O
   0.5881533887619476    0.4230194779715284    0.5036231984187280 O
   0.9182258384169704    0.5684860890682036    0.5321544602286054 O
   0.7141805919823691    0.6139834549263364    0.5166736321470005 O
   0.3278475240554743   -0.0434461962252005    0.5497070886714166 O
   0.4563758019412986    0.7210367984790461    0.4879217544319592 O
   0.4319180010811705   -0.0806373309348676    0.4238090417722764 O
   0.6561097654670647   -0.0222282308566959    0.4350635400679751 O
   0.7654467892344913   -0.1113821345272921    0.5210694500602281 O
   0.8968912412622295    0.7060996193931754    0.6320127740159139 O
   0.9373221977928859   -0.0453129621712233    0.6554270759657188 O
   0.6681785635301141    0.7301753310770872    0.3978134865886522 O
  -0.0172438577867471    0.8345807201554836    0.4349667440221787 O
  -0.0091306173919208    0.6698437748550753    0.3912483879287419 O
   0.2505621841779220    1.0135201916582235    0.9368055012840448 O
   0.3184568830159598    0.1877604331279100   -0.0769958303091543 O
   0.6819022605086497    0.2294708655344461    0.7225988174084413 O
   0.7166499359860334    0.1170468508497380    0.8449435445777198 O
   0.9377227323754845    0.0878781561434936    0.7530800671165511 O
   0.2109174346758170    0.3698223701055461   -0.1707336381150853 O
   0.1725448840705744    0.4571601630237510   -0.0274283469361840 O
   1.0018602830695178    0.5012633667378884    0.8877459500288438 O
   0.3850065584875720    0.5251646078979524   -0.1345997426532377 O
   0.6339800440017848    0.6335719098491097    0.7800012297357451 O
   0.6985537984063660    0.4798178344377538    0.7207412153669588 O
   0.6380262607035458   -0.1783370098924874    0.8533898169791887 O
   0.8291325309744987    0.6879430891457945    0.8217923332158613 O
