Li1 Co1 H110 Cl3 O55
1.0
  12.7852477853999993    0.0000000000000000    0.0000000000000000
   0.0000000000000000   11.8308582312000006    0.0000000000000000
   0.0000000000000000    0.0000000000000000   13.0462438847000008
Li Co H Cl O
1 1 110 3 55
direct
   0.3744052499448870    0.7766352986437601    0.5245759241421212 Li
   0.6150161517932594    0.5672176932948793    0.7956876733366928 Co
   0.1729292955295530    0.2747232746842180    0.2233206329843953 H
   0.1958377291333556    0.1507009957145906    0.0896062079424235 H
   0.1286485737553142    0.2508222191163061    0.0454948909161565 H
   0.2946125062199688    0.3002767885622502    0.0404645005156700 H
   0.0858881979553003    0.2559300480513731    0.3080622651178054 H
   0.3284608920521297    0.4909518821113333    0.2471658103970934 H
   0.3902258271753870    0.4257799406568549    0.1549622604227813 H
   0.5703075931798905    0.2343686367813705    0.2829676859505444 H
   0.4325535167973265    0.3240882479251121    0.2853415492842139 H
   0.6078696340617580    0.0311484178407420    0.1049457188214663 H
   0.4946798058870885    0.0158256579481478    0.1078112945634500 H
   0.6862803161875121    1.1145896483506836    0.2135392736040410 H
   0.6684410060835301    0.3077766671227086    0.1184414039823488 H
   0.6935558889070508    0.2796992450533625    0.2946131834088723 H
   0.9124699097362869    0.1243005441246708    0.1152136550323706 H
  -0.0580423719395895    0.1445433697354472    0.2978033736557992 H
   0.8381498796555972    0.0605977268588470    0.1885435734713434 H
   0.7493162474050771    0.2976015811190122    0.0165076204540808 H
   0.8320334553740669    0.4803583987349977    0.2652031859114338 H
   0.1744959448691828    0.5439573351177965    0.2992382694131868 H
   0.1383754090961210   -0.0400936157910403    1.1170974244542209 H
   0.2666239989961485   -0.0326997312316505    1.1230301665280349 H
   0.1489962435358778    0.6066248090669624    0.0054506448774421 H
   0.0941011009637120    0.6127325654602760    0.1503111132775741 H
   0.0617054050059866    0.7213544401279139    0.3010709808212604 H
   1.0309736748123266   -0.1200164735856175    0.2162404342071574 H
   0.0105108555544350    0.5552118018181801    0.2166811740899020 H
   0.3535593496953549   -0.0527533905151610    0.2575680381340096 H
   0.3367720332817383    0.6103506588014942    0.0217803258095795 H
   0.3859099155148393   -0.1514892537274714    0.1819769324705210 H
   0.4894652022189349    0.6958829152299748    0.1333299804735329 H
   0.6217184075053351    0.8630871840448294    1.0586054932329345 H
   0.3941013875737223    0.6189054058893336    0.1686382273583100 H
   0.6732238621553404    0.8024212555065917    1.1506779709986390 H
   0.6851477608985534    0.9892479384746125    0.2501666741204761 H
  -0.0251612727965550    0.8142690857536272    1.0167926921829911 H
   0.9837239061617851   -0.0221072621519759    0.1447179325395093 H
   0.8385565984057757    0.5700763193843045    0.1753244430055814 H
   0.7296506136825052    0.6982166427973618    0.0602433504498351 H
   0.8355140292938636    0.6846842348459430    0.0201827012224411 H
  -0.1790724861753918    0.6478077892429136    0.3184943865163339 H
   0.1944564496856341    0.4329358035998100    0.3577608608002293 H
   0.2445391708614574    0.1751962600763718    0.3620916092132848 H
   0.2725660035059675    0.1800243121824621    0.5607802143711215 H
   0.2846189572372181    0.0576177232689956    0.4069435991938060 H
   0.3327611606838244    0.3405494374850049    0.6368197249587938 H
   0.3172456225159583    0.1441892111513344    0.6613647206548758 H
   0.4038728055467601    0.2192319496112263    0.3595245868353515 H
   0.5399968783228397    0.3406905937703195    0.4418341013201555 H
   0.5071136673709100    0.3762526799502099    0.5542564976023576 H
   0.3515703385766936    0.4657035024788016    0.5879152275694540 H
   0.6043476061155010    1.0783877100271815    0.5545715308055021 H
   0.6385706424886917    0.4948400193116160    0.5201761903561143 H
   0.8499447234107730    0.3025209199245873    0.3448276363801433 H
   0.7082744147548558    1.2998762908885053    0.5689856412316099 H
  -0.1219683914988913    0.2526817629947022    0.6285591097999443 H
  -0.0502122538472112    0.1466387375875126    0.6056544329718159 H
   0.7660409917032815    1.4008241660688896    0.6232909268188945 H
  -0.0524820573337842    0.1412629652845130    0.4087494829568429 H
   0.7950908784347791    0.3585177028336159    0.4299624851393761 H
   0.8387521362664383    1.0298874246897414    0.5052002323925251 H
   0.1202717318045230    0.8205949159290438    0.3501763022963028 H
   0.2706114070507829    0.5916250519460454    0.4588673564059821 H
   0.2451993066790547    0.5963804127914347    0.5878148155266028 H
   0.6647766265747105    0.9830184664819854    0.6068340828492835 H
   0.6630120929200901    0.9501298972508981    0.4043275205506628 H
   0.5460257016427930    0.6897126105425696    0.4587224871227844 H
   0.5612346364451400    0.8048944488648585    0.4038959787176451 H
   0.9794768238281907    0.7715917084972194    0.4342587408659560 H
   0.7116736449246166    0.5899337122639224    0.5737747591227198 H
   0.7272713089939611    0.8449270475778566    0.3556943656282651 H
   0.9361769199630360    0.9428692236529789    0.5195468904539694 H
   0.8686928934911152    0.7734351926784839    0.4663430713214742 H
  -0.0165195943672821    0.7384816844951596    0.6091067676359578 H
  -0.2567104026758067    0.6542544897704259    0.4024633824726893 H
   0.1392099646854295    0.4817200920023141    0.7087768344760352 H
   1.0677895432179052    0.2963632939454439    0.7061868169737849 H
   0.0574092035617936    0.3947348556070321    0.9802534396431050 H
   0.0640599937089429    0.3171428515393028    0.8857818039069820 H
   1.1758828725922614    0.2823862859576449    0.7348333763438955 H
   0.4113986667279472    0.3338804369393025   -0.0137435386908776 H
   0.5298054450250983    0.3679337568360397    0.8021010135087344 H
   0.5296443218279122    0.0346609863448940   -0.0644265556453169 H
   0.5854351842322019    0.0177315213740603   -0.1793477554366449 H
   0.4094737920275833    0.0184068739008051    0.7853582634934474 H
   0.5881836644016772    0.2783975643384852   -0.0330970018203005 H
   0.4682031974019124    0.4359998247630764    0.7112902015638953 H
   0.5269873533772271    0.1927943071437385   -0.1057863527462131 H
   0.6230801331669903    0.4602592651511883    0.9642718282427142 H
   0.9337131429186857    0.2400774364880464   -0.0040730158097318 H
   0.8032729646763503    0.0432659073075615    0.7650727313250376 H
   0.8593383622370103    0.1460512907713829   -0.0599601359987904 H
   0.8831705166945837    0.1430548893855128    0.7512350320151453 H
   0.0170968053469885    0.6378118956493172   -0.0096114681519219 H
   1.1223446063428064   -0.0680177100151405    0.8663509238590249 H
   0.2545045623922726    0.6708213352325002    0.8611386956804802 H
   0.2419963965213992    0.7990901362226103    0.8564400252783508 H
   1.1990893058957139   -0.0449962187017099    0.9588679740281936 H
   0.2880393054959305   -0.0151409036351736    0.7733762707159457 H
   0.1169921708054877    0.6124223597314709    0.7001804905021560 H
   0.0042333080757188    0.8390441269443852    0.7628345392248390 H
   0.3180700101365123    0.5170531161862748   -0.0429330129461151 H
   0.3368432090630196    0.7576518913869883    0.7233994340292847 H
   0.5050597376825088    0.7344659149650413    0.7053068702165834 H
   0.6258606815456144    0.7539742207438513    0.7248519593819822 H
   0.3968154530797209    0.8707535763071260    0.6913495962602422 H
  -0.0660735029527291    0.6693176404326516    0.7060312166325724 H
  -0.0529184978387834    0.9451767485566250    0.8078896528034947 H
   0.6973250767091855    0.5733677120490657    0.9744280081494373 H
  -0.0311584971982251    0.7881906733535569    0.9064160954608679 H
   0.2598748141975138    0.8777412350538080    0.4162198323433278 Cl
   0.6845447221362697    0.9160326244988534    0.7351714046713569 Cl
   0.7830551320352669    0.5577027453680135    0.7265988223259386 Cl
   0.1853874037080968    0.2346949022073072    0.0957457528342629 O
   0.1584375936001169    0.2826111217174873    0.2954471399174394 O
   0.2016475500493666    0.0036468288907578    1.0892196687404456 O
   0.3442353223475133    0.3617989525317675    0.0234691643898424 O
   0.3969953479115307    0.4762961406079197    0.2143824281623349 O
   0.6429319189329131    0.2332453032293757    0.2475720575933623 O
   0.5512770664287512    0.0047361835046109    0.0609991235357241 O
   0.4622299068343874    0.2652970777151847    0.3297788605228832 O
   0.6996488486453014    1.0373847675085477    0.1865974194499721 O
   0.6796359396821925    0.3258210047208904    0.0400090667484868 O
   0.9182578304119037    0.0820320129473449    0.1851012033610722 O
   0.8751456428929854    0.1846038616066212    0.0044837765503220 O
   0.0770043654393827    0.6021373915895055    0.2217332029023708 O
   0.0715558984898764    0.5882136341764060    0.0289535935199701 O
   1.0274227072626916   -0.0932804588503689    0.1438793770060787 O
   0.0489097046217659    0.7999362286872806    0.3302241994304912 O
   0.3724991468791468   -0.0684817507375221    0.1855703038971413 O
   0.6395819643040392    0.7876218219762112    1.0830876355892165 O
   0.4115981153458232    0.6892663200117546    0.1278793695062342 O
   0.7859365779499928    0.6419282495983121    0.0617584991910894 O
   0.8754193958979132    0.5399533990487227    0.2355946638407241 O
   0.3012420218478780    0.1405977557243776    0.4043420841293971 O
   0.2804383577762490    0.2091633647569289    0.6297502572395705 O
   0.3841837072809087    0.4035127479602792    0.6273403682111375 O
   0.5693580613285124    0.3604110566007100    0.5105059740766260 O
   0.6569879625087927    1.0223140096213648    0.5386811333982358 O
  -0.0468052021630239    0.1988665631539192    0.3521906751864816 O
   0.7903956233245457    0.3514742577705819    0.3576520172117950 O
  -0.0570834542708995    0.2134081962829767    0.6498311328015579 O
   0.7786125118410097    1.3263832436278242    0.5849871817397422 O
   0.9178902192338578    1.0239537892232231    0.5047870866589610 O
   0.2219451621376004    0.5093140326632772    0.3445233342350135 O
   0.2910740530934161    0.6177372742348138    0.5241827075162986 O
   0.5101468506655102    0.7576552723758582    0.4348941728012520 O
   0.6718949868542764    0.9020860454108828    0.3428362586142816 O
   0.6802397605959191    0.5670773822567822    0.5063384910462220 O
   0.9383278364303260    0.7921489660728882    0.4957492362981933 O
  -0.2199445919625579    0.7061814073274193    0.3586208784496892 O
   1.1137174759303667    0.3259359583424639    0.7614433342036540 O
   0.0477680920191014    0.3184183295904390    0.9640035517923479 O
   0.5338820183441949    0.4290924645020524    0.7508111552235667 O
   0.3496227814844928    0.0123078235538311    0.7379254540604026 O
   0.5252423735086729    0.2725873349657149   -0.0800908343301316 O
   0.5311116379343254    0.0601848235931214   -0.1395293981691389 O
   0.8571796242552938    0.0884047543433300    0.8005932998576760 O
   0.2809741315144649    0.5898365088339154   -0.0267579358998030 O
   0.2498718793974513    0.7310384374982705    0.8149951462174814 O
   1.2007083593820014   -0.0723428400268464    0.8860654104402262 O
   0.1688707116936374    0.5548838458978085    0.6922410405796021 O
   0.0033818580152490    0.8921712955501617    0.8236183178363972 O
   0.5752906800210196    0.6951365619369640    0.7154622836191628 O
   0.3859505873898571    0.7901060035483048    0.6730270812043697 O
   0.6266725547430860    0.5395071085179077    0.9479452899775668 O
  -0.0026522057193700    0.7143439597063608    0.6819806161093080 O
  -0.0556122274072731    0.7603152653691820    0.9711167102477736 O
