Li1 Co1 H90 C51 N3 Cl6 O45
1.0
  15.1678098994999999    0.0000000000000000    0.0000000000000000
   0.0000000000000000   14.8027236563999995    0.0000000000000000
   0.0000000000000000    0.0000000000000000   15.2991273597999999
Li Co H C N Cl O
1 1 90 51 3 6 45
direct
   0.8127151862779054    0.0475490419559164    0.5847440490891468 Li
   0.7004563953725599    0.0142213914875715    0.7715377094588948 Co
   0.1460955446160390   -0.0806692538155785    0.9944896412770891 H
   0.1195030436107820    0.2531031055612620    0.1891979595846596 H
   0.2467204871827514    0.2590594418441379    0.2052746935195822 H
   0.0555663245705488   -0.0150536264117622    1.1217818687486472 H
   0.2801564283872043    0.3697917663843797    0.2038118649886684 H
   0.3180122562097120    0.3529239246414822   -0.0136462894379572 H
   0.4341859168552141    0.3425602913290632    0.0124721937018043 H
   0.4410339720911532    0.1585934712214263    0.1723466716688911 H
   0.4719878806060190    0.2804750952980846    0.1747755683716954 H
   0.0102051284216782    0.0587854876169206    0.2524309778639875 H
  -0.0357191022098622    0.0435443735329961    1.0892983166928718 H
   0.6771234288899257    0.2361589265154310    0.1277062170901191 H
   0.7271491086042404    1.1040802833020453    0.2286760282218956 H
   0.2533859188218526    0.4745297683891443    0.0636587732748132 H
   0.2605524115930722    0.5841914994110678    0.2158164712437013 H
   0.0592016549422604    0.5746756830471584    0.1095783857780707 H
   0.4473816254859372    0.5920846414241245    0.1536462586798630 H
   0.5696791102441783    0.4860860403273859    0.0769373083979208 H
   0.7178412387841780    0.3695897765297149    0.3137279380072267 H
   0.8797848559758052    0.3399986005969928    0.0048835255856695 H
   0.7825948193279569    0.5884582817591050   -0.0005716875148698 H
   0.7317793090395924    0.5029519229713586    0.2160491642539807 H
   0.8549671662437887    0.5006975405499471    0.1329293908124304 H
   0.2056638017333558    0.6563025530777684    0.2815359058463520 H
   0.0318002039250176   -0.1527674720065647    1.0647583549571127 H
   0.2197752655121217    0.7969597759193091    0.1325280607329035 H
   0.2249111421163352    0.8545930885314207    0.2605804622801778 H
   0.3845933913037964    0.8063830417478035    0.2910567103062675 H
   0.3648713614272312    0.7001350270913917    0.3340245204656434 H
   0.5456238905112341    1.0335479931482268    0.3412602272740510 H
   0.8166729099306773    1.0076487053618033    0.2758715304893818 H
  -0.1173703101433705   -0.2066447190938050    1.0824051130793699 H
  -0.1103079853443544   -0.0666454832704702    1.1604847297729861 H
   0.7309314608607710    0.9376777983826552    0.1480413638395653 H
   0.1402773018647958    0.0820893071036038    0.4145872853223256 H
   0.1557132811888588    0.2078411648838568    0.5390689603362981 H
   0.1381497699261826    0.2635396984198476    0.4424803794814933 H
   0.0805824608825227    0.0013467337945866    0.6043405916205713 H
   0.6352340589538650    1.0892005891921868    0.3953306314576014 H
   0.7383524399438297    0.3326249575746961    0.4958234219183051 H
   0.0252099314557341    0.0430991851911094    0.3855431451207365 H
  -0.0579833580409649    0.2570321122326021    0.4730560449425928 H
   0.8487289551489147    0.3621438495126050    0.5091623134250340 H
   0.1005484284155140    0.4011866644306641    0.6424865581371627 H
   0.6308794421411782    0.4308625545031018    0.4534304811480886 H
   0.6495222127107989    0.5446406698752564    0.4254650299208368 H
   0.7047589281991450    0.4419041035986518    0.5997115694329341 H
   0.6212036879635867    0.4306050343271880    0.2995310498519770 H
   0.8035464268511021    0.3564509782575529    0.4036820881776578 H
   0.6886465163467220    0.5500329207780481    0.5684886775145912 H
   0.8017399696116226    0.5128185531530856    0.6003331735137648 H
   0.8105335924803004    0.6033210870851288    0.4568005426416269 H
   0.8417325594462300    0.5386891975621250    0.3744817299157968 H
   0.8956843168470776    0.5168084945565018    0.4779585467805134 H
   0.2011443621798406    0.8318925364033185    0.5018200384469749 H
   0.0474642979223871    0.7374423505825815    0.6148627603831499 H
   0.1568215492981891    0.7138081864840885    0.5907613857538442 H
   0.5460678570459294    0.8238426664762742    0.6967791972181711 H
   0.6302333369971308    0.8876653805881827    0.3920552812483032 H
   0.7162464139439223    0.8377961796806296    0.5097838586789800 H
   0.7337334474548541    0.8589902522906628    0.3431407266857754 H
   0.1261823203601128    0.0187529899661392    0.9279270213282012 H
  -0.0180995512153043    0.0543991326793327    0.8890280706884583 H
   0.0617478366425778    0.0907329866702814    1.0455677179295744 H
  -0.1096091369232419    0.0078833686900280    0.9581588109670872 H
   0.1206607585423608    0.6166767373417302    0.8232478483050324 H
   0.2518642752785247    0.6250839739347199    0.6756198204519768 H
   0.5100914831583593    0.5096346796245391    0.7684525661765385 H
   0.5612452624541809    0.5137400051991151    0.9219972713583842 H
   0.4341470186883786    0.6650745874015910    0.7622678997066964 H
   0.6107565633589184    0.5559331862985922    0.7960659058177298 H
   0.7917879725204028    0.3476066599389172   -0.0637896722570168 H
   0.0023285792829698    0.5084731366275133    0.7325884291511983 H
   0.9568988234997887    0.5430585286056073   -0.1141036530414778 H
   0.8176611870846846    0.5165159132653468   -0.0868870680554540 H
   0.0936166432272340   -0.0971439246708006    0.8952964020608728 H
  -0.0444369066177589   -0.0601892389860827    0.8715976647751966 H
   0.0198927498366093    0.6428766454804140    0.7695539361830576 H
   0.0763557465167188    0.8539134838699062    0.7565584237381832 H
   0.0003098303533033   -0.1761787041584375    0.9533729170871270 H
   0.4406977336998632    0.8168730031633072    0.7383318939863813 H
   0.5175431786073987    0.8874086710738929    0.7945383677137327 H
   0.4939726629977730    0.7019819844915712    0.9351476945994278 H
   0.4125084299814605    0.7847187853958079    0.8882129915204290 H
   0.5131740639864287    0.8195488620741013    0.9351078230442956 H
   0.6422574855860456    0.8236372988648424    0.8441679957404338 H
   0.5396838107899705    0.6714821919885341    0.7015232586468452 H
   0.6688671281563486    0.7165461961193949    0.7809506646303381 H
   0.6426886618760527    0.7068621674684904    0.8927302426272858 H
  -0.1498634652702848   -0.1544077106926056    0.9868480289647952 H
   0.0832717087218792    0.1553238026709988    0.3028070536933266 C
   0.2587703481192354    0.3159239770160869    0.1623258386896954 C
   0.1755045366165719    0.3415827685207020    0.1138047706220782 C
   0.3509563663555328    0.1921001427984207    0.0813460565842540 C
   0.3520448557359637    0.2911508333357716    0.1173807915749958 C
   0.6058804473942503    1.1383212792001791    0.2606007248737696 C
   0.3692108145477618    0.3559037816613037    0.0357421483617971 C
   0.0239018981845198    0.0239000157276489    1.0642929689365537 C
   0.7674838704488076    0.2761975041283931    0.0506501881889118 C
   0.3789056881632893    0.4527766973007180    0.0686218014406885 C
   0.8065125768950503    0.3586154447938276    0.0038194126060772 C
   0.8221463435081074    0.5299316875924004   -0.0172556456254934 C
   0.9179934044636857    0.5498451175018045    0.0049913748741417 C
   0.6789951559347732    0.4631428977082799    0.0248382584812319 C
   0.7810474634370598    0.4516634562254598    0.0386743417441382 C
   0.1552062864380706    0.6541914550984118    0.1457059365201037 C
   0.2329103193742199    0.6539793319734462    0.2149680568410533 C
  -0.0164150628040379   -0.1363036099729969    1.0119880249236906 C
   0.2981979255982829    0.7277117088882926    0.2062113482491620 C
   0.3347450608586129    0.7539048615134424    0.2982525455595430 C
   0.3742023064310096    0.6947725004481494    0.1470033961420268 C
   0.6144413405528785    1.0606403046247439    0.3299537000498564 C
   0.6262413302142664    0.9399111711569762    0.2158315047808823 C
   0.6734366738230756    0.9843597480048949    0.2980897911787577 C
  -0.1100627291060017   -0.1440488062396603    1.0441218838319957 C
   0.0714255686930592    0.1039312334615421    0.3928141480599167 C
   0.1045727404555806    0.2387456126475771    0.4976728738075905 C
   0.0363598602272949    0.1618915129286964    0.4676971118432169 C
   0.0091172983322107    0.0915037907645040    0.5358205397675155 C
   0.0682926180353926    0.3092893871744034    0.5583466611530756 C
   0.6751106135789291    0.4718786143913439    0.4172044280559176 C
   0.6915942062436975    0.4418045948842969    0.3231886083184184 C
   0.7392497349448997    0.4984269448960541    0.5672532475743408 C
   0.7905485055093732    0.3759919767058308    0.4728230904794928 C
   0.8350104287842838    0.5359573354441345    0.4432405535572095 C
   0.2622830503717706    0.7958397117753817    0.3581141297180249 C
   0.1153290725220432    0.7567293417219831    0.6323376132759030 C
   0.1310670071073038    0.8532446880300461    0.6138260999497142 C
   0.6927538990481663    0.9127323891072244    0.3709390441974978 C
   0.7411484929192430    0.9526291009359736    0.4524666353251728 C
   0.1086999018859242   -0.0480934920035612    0.9456260700145662 C
  -0.0478487373529071   -0.0048061879321270    0.9218129471199044 C
   0.1214064166218686    0.5541828327419481    0.7043946642484110 C
   0.5413847155462235    0.5698022555837733    0.8072162149816526 C
   0.0944460312590826    0.6372175517930315    0.7562231104958423 C
   0.2334186327069348    0.7410551992205331    0.7481520619258136 C
   0.1274745306482076    0.7328979166282992    0.7352343316950495 C
   0.5089333133160159    0.8251289162531367    0.7581598222639825 C
   0.5065253651519763    0.6596884164609798    0.7630829788747256 C
   0.4855612311005283    0.7613507885305523    0.8987586910368561 C
   0.6330577394839666    0.7496238925869840    0.8367361993166222 C
   0.7605810940629134    0.4694316728121610    0.4728565564405218 N
   0.0170254934371582   -0.0393126755121446    0.9877082087443674 N
   0.5339593851428068    0.7454814116879713    0.8150336543157587 N
  -0.0656456376165964    0.9395355646044889    0.2751440380162329 Cl
   0.7323786045252446    1.1325899015179834    0.6834098072399263 Cl
   0.6246300230999279    0.7547526784619520    0.5426908662592204 Cl
   0.6582096897343831    0.0325166732401907    0.9027902935295624 Cl
   0.8853426787965394    0.5730246355394631    0.7688388627188844 Cl
   0.8050357651372277   -0.0736752706538893    0.7317099476741883 Cl
   0.1072244087100282    0.2890795928862653    0.1330124020829514 O
   0.0450822796719348    0.1122418662109964    0.2370935017791380 O
   0.1225080918215657    0.2280962211126723    0.2926973267551476 O
   0.3001164623015257    0.1662819211744047    0.0267749702493721 O
   0.4112940160270367    0.1348268990576682    0.1161480415261560 O
   0.5334340621032385    1.1789921728799180    0.2505106068971311 O
   0.4143801570263081    0.3096649937268905    0.1851676643560560 O
   0.6725459717316389    1.1572867078953653    0.2099605816956865 O
   0.6901582705256003    0.2916277725912678    0.0876424941348765 O
   0.8055651757807686    0.2026171262680602    0.0598337185103325 O
   0.1633571006175175    0.4036868799895757    0.0653196523172851 O
   0.1105511909109090    0.5787357466810570    0.1534939624118992 O
   0.3084861610807927    0.5016104130937885    0.0855626369474914 O
   0.4125249122555434    0.6281793502359717    0.1942479208133639 O
   0.4525130848406965    0.4857126630943649    0.0823068956997337 O
   0.6315169765027026    0.4745520210507251    0.0956102688407924 O
   0.7321775207814339    0.5197676797049093    0.2766787660727949 O
   0.9371860236967100    0.5678505877238178    0.0815179618137582 O
   0.7972719547532460    0.4665773805223949    0.1315554562404997 O
   0.1403597132352100    0.7221742144445211    0.0989758202731764 O
   0.2632752832715577    0.8135749614560372    0.1743775064524253 O
   0.3895149983449329    0.7235881434271750    0.0759117597093578 O
   0.2010784330835092    0.8549970682407503    0.3245978390211218 O
   0.5478818302023907    0.9211166569541988    0.2265713330165594 O
   0.7560840704021510    1.0349443577956923    0.2657650717114596 O
  -0.1393457965325418   -0.0675770685868007    1.1003080949657551 O
   0.6694598307323676    0.9209470935644968    0.1408566403311627 O
   0.0853998999514557    0.0581200695338274    0.5673151465296034 O
  -0.0422216889810249    0.2061806596572141    0.4366976967232293 O
  -0.0654181822342531    0.0735820889103118    0.5625999102743936 O
  -0.0119562780191475    0.3271813647690464    0.5688063426915455 O
   0.1895560049176762    0.5432260653412491    0.6624478273532387 O
   0.1284595113473983    0.3516748301890565    0.6072610196259882 O
   0.1704075581791939    0.8773321470866664    0.5393432243450432 O
   0.2579548051976164    0.7799872237166355    0.4338086430562770 O
   0.7553799476533319    0.8971670103736707    0.5145004675614976 O
   0.7602797980926791    1.0336250060025136    0.4602926372391516 O
   0.0588186068925751    0.4874939569029946    0.7083269146693126 O
   0.6455216351454115    0.4602349193524596   -0.0480881231195671 O
   0.5199434064742579    0.5599020504997826    0.8990926970150942 O
   0.9805238558791709    0.5457114187703860   -0.0522439157020292 O
   0.2826867871044021    0.6793314231636202    0.7041554349176182 O
   0.2673846438458918    0.8006050510222237    0.7874876387758561 O
   0.0766359451761271    0.7920829706991571    0.7853156194692312 O
   0.0996208060301316    0.9123932623278206    0.6624903134365762 O
