Li1 Co1 H90 C51 N3 Cl6 O45
1.0
  14.1903763414000004    0.0000000000000000    0.0000000000000000
   0.0000000000000000   13.8488167345999997    0.0000000000000000
   0.0000000000000000    0.0000000000000000   14.3132315323999997
Li Co H C N Cl O
1 1 90 51 3 6 45
direct
   0.7625049826079873    0.6869238036439920    0.3087217415715952 Li
   0.6951276293231009    0.6902020620591366    0.5935477077254745 Co
   0.1533322734402782    0.1545700191086996    1.0596604779198187 H
   0.0587583193947722    0.2802464601617171    0.2847858470655588 H
   0.0899407200129326    0.0472164430962763    1.0635827228631018 H
   0.0251926134162507    0.1470235260037044    1.0663521882986515 H
   0.2601807433837056    0.0286415709660596    1.0062888826744849 H
   0.3560844718866337    0.2601414934099824    0.3092855555490141 H
   0.4874527989239760    0.1604441671719600    0.2237863447502629 H
   0.6119437889794034    1.0280655842407771    0.0889663360309299 H
   0.7950390034748681    1.2163668701899786    0.0919656587137791 H
  -0.1939072839507603    0.1834952339972169    0.2815734348373406 H
   0.7021077119944128    0.9884008236675796    0.0241102622715791 H
   0.7002966254254808    1.0094582183597496    0.2583592501685703 H
   0.3278470248760869    0.3566002758171845    0.2220432024037200 H
   0.5726663951604730    0.4223891455423289    0.1876561390151442 H
   0.3959523363032715    0.4886894669052371    0.2945097168768552 H
   0.4411519832026095    0.4691121336791699    1.0552002692062594 H
   0.3867890839080096    0.4279686835982372    0.9435420460871634 H
   0.3423991406926027    0.5318837708998504    1.0003936381373590 H
   0.9673395782571419    0.4803069456960449    0.1544644730433761 H
   0.7469719202918785    0.3791278322127101    0.1119793082765321 H
   0.8800790313759846    0.4432335256458496    0.2353455792687210 H
   0.8981285879090801    0.4987423113227801   -0.0108776437695125 H
   1.0390480358426726    0.6623845230315956    0.2910744339438084 H
   0.2064788554516187    0.7210631824126327    0.1425307598484664 H
   0.2378085389853070    0.8376038249043261    0.1100405427407980 H
   0.3511233631530612    0.8486033205954936    0.2646233841481710 H
   0.3872175432986364    0.7226062745344750    0.1801532910554150 H
   0.5513495538926708    0.9500408677102778    0.2277560981823498 H
   0.6303520393115597    0.8157925751933431    0.0552604605332878 H
   0.6454185882780058    0.7678758460808781    0.1663800212278609 H
   0.8340534726249780    0.6845365960844173    0.1198307847055700 H
   0.9249383067528346    0.8793243567788269    0.1156626134673034 H
   0.1343433478813515    1.0462866355288305    0.3274463740484277 H
   0.0660900488356938    0.1751602258725438    0.5345657092795622 H
   0.3933914458007428    0.1918352967053495    0.5393421289053639 H
   0.5016342409913641    0.1067276645814240    0.4812697782891907 H
   0.5795222387025620    0.2328597402291455    0.5602794692482230 H
   0.6241872979477399    0.1810379843525610    0.6654525041839321 H
   0.3519076975309683    0.0983883239566427    0.6104076320167666 H
   0.5344378812050440    0.2722017295442881    0.6733445025593026 H
   0.3433244156595319    0.3099226417356420    0.6494330609519150 H
   0.6003225327115990    0.0650179639571934    0.5595973032413434 H
   0.6812160884836898   -0.7059923111172860   -0.6439750669117039 H
  -0.0783423432792707    0.2345602465215830    0.5125311506066251 H
   0.1680387192017732    0.3365408003165850    0.4652321700467486 H
   0.0970377833731327    0.4683130690217286    0.6111866315022959 H
   0.0701406813641845    0.4307258144587102    0.4700063539789596 H
   0.3342316335587810    0.5432970925596784    0.4312223799516130 H
   0.4975797325966754    0.4736887990517173    0.3675770740025063 H
  -0.0960959245754201    0.3555648082913436    0.4855222770950836 H
   0.2985454764184243    0.8427335050323411    0.3728274606695484 H
   0.1310756403248777    0.7960919751183664    0.3826826774793017 H
   0.2492099279342373    0.7351170906800253    0.5967789836183647 H
   0.2216553380775018    0.8976082293184482    0.5655867263709800 H
   0.4859293720972378    0.0023786773939825    0.5539849438088729 H
   0.4873516740513527    0.1228936666515255    0.7759265083541744 H
  -0.0538010632158244    0.7232012712159903    0.5270576214129795 H
   0.2772500581201534    0.2058242174711203    0.6812176372700007 H
   0.1742055746744284    0.2609155667626333    0.9310200660161859 H
   0.0514096770831679    0.2872304503360079    0.9356248961588971 H
   0.0982583288740627    0.2452239734543710    0.8301951756527991 H
   0.1652495049450289    0.0771258575926884    0.8144377277634487 H
  -0.0270921168932205    0.0437894355107527    0.9370794943013829 H
   0.2984341333530970    0.0090507275604886    0.8863369349879295 H
   0.3286264263333782    0.1643629135197553    0.9833178296837094 H
   0.3476449494159996    0.2140119205921173    0.8166496671098034 H
   0.5580994805821099    0.2616029901131218    0.9244156874182419 H
   0.4625888353819639    0.0179597919494877    0.7185271713742435 H
   0.0012024110558802    0.1011004690243264    0.8261597487214837 H
  -0.0620059196057369    0.1639383285091595    0.9162714748596643 H
   0.1550186275879258    0.6081567854283012    0.8233763102009919 H
   0.5403888861656121    0.6495581564615038    1.0162789397539307 H
   0.6469393372335526    0.3885452432810620    0.8580092998845510 H
   0.5339571328558902    0.3994250897609102    0.8072800150017925 H
   0.3647058077171061    0.5916138558487932    0.8475951596771084 H
   0.6065027775402112    0.5101495674824568    0.9807991811228728 H
   0.4003074005040496    0.4772312099984542    0.8114558714367773 H
   0.6070475129167809    0.5436935163195715    0.8578059914986416 H
   0.4709733910228795    0.5798410088883262    0.7814374930553891 H
   0.5349697205177183    0.6722943949455706    0.8961600137023157 H
   0.7748034584060421    0.4800526279396982    0.0023311134263756 H
   0.1166454381178658    0.7071219191480512    0.0116819018697145 H
   0.0638483887672998    0.8800825442977481    0.6498264032930388 H
   0.1271405790793849   -0.0133981217497395    0.8848704597232426 H
   0.2792098370105036    0.7134986372238536    0.7126920111023691 H
   0.1562412871976912    0.7451684909308656    0.8349669841605700 H
   0.4281135693121892    0.6814619651743543    0.9633936078645865 H
   0.5782434142680715    0.0623354243069153    0.7232256211860677 H
   0.6669937736454853   -0.1605904804230364   -0.2236716583919598 H
  -0.0201888468429256    0.7817001318425404    0.6616343587234684 H
   0.0900985734726372    0.1202797249196259    1.0368214705817471 C
   0.3887756415102740    0.2325925693891448    0.1568992830945593 C
   0.3785736569739205    0.2965698764024137    0.2431132171881054 C
   0.5488444053931002    0.2922077708768874    0.3154714402529384 C
   0.7344098855923525    1.0939665213020517    0.1321166196410239 C
   0.6865478709663899    1.0069179291296879    0.0964712799534005 C
   0.4675217559977320    0.3532353673998773    0.2700826684350995 C
   0.8640900262543899    0.3645829072663971    0.0476304575005842 C
   0.9073256660457072    0.5020586957388763    0.1967428361530750 C
   0.7364725511126887    0.5309016653336744    0.1643001275342103 C
   0.8366439606512013    0.5377004411283431    0.1213266034486355 C
   0.8441624363725770    0.4718821465066310    0.0351133680093365 C
   0.9364735892613357    0.5844377915030424    0.2616142803058623 C
   0.1864117343866740    0.7962847713731778    0.1561964369219652 C
   0.0862142508391923    0.8020036715158972    0.1171283900777431 C
   0.1956771687089768    0.8336063714712334    0.2549037062623573 C
   0.1844343379226961    0.9482630984992455    0.2556631434289675 C
   0.2927584558331832    0.8106910563160309    0.2981818435996728 C
   0.3269506427299073    0.7089798396110838    0.3058223264460829 C
   0.5218952399305674    0.8433227250470455    0.1523978537804206 C
   0.6242020967095872    0.8333168160473405    0.1304139992408134 C
   0.6939099026339514    0.9145728555751466    0.1594088491501834 C
   0.7951186349076654    0.8684512256741465    0.1682950325191932 C
   0.0697368865766367    0.1784536480380669    0.4061106503476881 C
   0.0260410757621628    0.2859234794700581    0.4155857992470128 C
   0.0807210913820620    0.3288989922092113    0.5836680380170722 C
   0.3933223849121220    0.1638690085074295    0.6103237935071134 C
   0.5193037512261620    0.0729810991559195    0.5471262550649802 C
   0.5626187405690986    0.2148437606128765    0.6333437522951867 C
   0.5034336294914074    0.0811760231104300    0.7158722852352203 C
  -0.1600526497647438    0.2539878990897481    0.3887442017272402 C
  -0.0772246844083267    0.2813433047724230    0.4519442553246629 C
   0.0880866465643489    0.3467539472381285    0.4799497409546984 C
   0.4372289019071837    0.4347947541435870    0.3333695647554381 C
   0.3801662856298684    0.4053150514495653    0.4160783504912264 C
   0.0632458677492309    0.7899708745489431    0.5370769521053794 C
   0.0542439923283993    0.8027351419508183    0.6428321756252066 C
   0.2750852106727763    0.8596316996207152    0.6843853356264039 C
   0.2338889812046067    0.7604318888117753    0.6693964074088760 C
   0.1050551887796460    0.2374233070096995    0.9047087470699707 C
   0.1583716042007579    0.0585755362964178    0.8887305244385332 C
   0.2560596405607038    0.0574151483507927    0.9279795227327572 C
  -0.0099065261708296    0.1106449667625165    0.9011833377390466 C
   0.3462665504553649    0.2355047315451533    0.6784362947122503 C
   0.1129091031028940    0.6326433539560488    0.6952976163120367 C
   0.4072994631254284    0.4872260205770489    0.9892095809495998 C
   0.5735262736940959    0.3968780851556811    0.8755105887746913 C
   0.4283820611342761    0.5473104318265011    0.8316483764867908 C
   0.5704776582832568    0.4975966538775227    0.9118273351937887 C
   0.4945786846346311    0.6416722841813726    0.9548295041034951 C
   0.1329508548618147    0.7458891301155164    0.6989620578381360 C
   0.4895864985011792    0.1370046195036750    0.6293565325069219 N
   0.0896278319053039    0.1323435714706883    0.9339425367318528 N
   0.4756479675389703    0.5394678123391159    0.9266891083383424 N
   0.5936814121568847    0.5854364327779643    0.6622652435086099 Cl
   0.8515829583845825    0.6578216783343930    0.6229456811354278 Cl
   0.6662587684737357    0.7168592131410527    0.4339017189892851 Cl
   0.6435454878499041    0.8494358826996041    0.6453613039997499 Cl
   0.2132503460511780    0.6470951301500373   -0.0769724315089918 Cl
   0.6892349032960934   -1.1958464358419671    0.8592005053758758 Cl
   0.3288610924140997    0.2313664718585466    0.0938443399842617 O
   0.4598851720627559    0.1648669276990000    0.1581393943831820 O
   0.5368763648060072    0.2037308978355465    0.3263166501308486 O
   0.7816954532092153    1.1454979996713921    0.0688283260121910 O
   0.7362237909730649    1.1130620155285942    0.2186358656405577 O
   0.9292750486770399    0.3155216760420368    0.0202124702269446 O
   1.0226777864277734    0.6147450739260504    0.2436407011446745 O
   0.5048591730790698    0.3957097542931912    0.1842481035977349 O
   0.3771388817776770    0.6720048395216779    0.2305416326655830 O
   0.7949093381329678    0.3251578783658489    0.0955315899910357 O
   0.6907486052221891    0.4546000563045100    0.1493754755074167 O
   0.7063338155562359    0.6031931844710975    0.2083663468622673 O
   0.8623191077533292    0.6287859846931186    0.0847772051652500 O
   0.1921374458156906    0.9942930238146239    0.1799912032700851 O
   0.0646735959160233    0.7453880042696770    0.0436558134887675 O
   0.0239403562827907    0.8564162624571381    0.1436024954635352 O
   0.1249313353464660    0.7907644441520806    0.3098360950957379 O
   0.4625732614468770    0.7911948058294872    0.1193703715567236 O
   0.4943447937271491    0.9151122518386077    0.2093989578394979 O
   0.6738181169659277    0.9429182375325272    0.2503065613163644 O
   0.8828929102358077    0.6247618141760257    0.3171209629303684 O
   0.8192695095395210    0.8060697228673687    0.2236347367786398 O
   0.8522376274205894    0.9090980196051847    0.1027535789434262 O
   0.0820071742568873    0.1541317145144280    0.3212290499033834 O
   0.0761306563976172    0.1238886975096906    0.4765252871624819 O
   0.0697234972206796    0.2430382271498241    0.6122541751918822 O
   0.0311036617198311    0.3295033759742941    0.3276902043806696 O
   0.3716111918762364    0.3203971828303755    0.4440880280467446 O
   0.6287389742702035    0.3368491299076130    0.3357387013073928 O
  -0.1381976973280557    0.2104274988359986    0.3115617710861030 O
  -0.2400935149732519    0.2683299186143308    0.4197916978146234 O
   0.3188416259405296    0.6532674986374066    0.3760440648232492 O
   0.0963436509721996    0.5926399362910665    0.6176959931226327 O
   0.3455710086485416    0.4801189873996876    0.4678632320759454 O
   0.1678498588124838    0.9852128256713540    0.3384599595998918 O
   0.1421789399280265    0.8093609787828379    0.5004296024965488 O
   0.2702023239661110    0.9197285307038104    0.6111628772578942 O
  -0.0017721400754280    0.7471311134798444    0.4863264281335088 O
   0.3044269271983101    0.1478062643565716    0.9219613150481396 O
   0.3916508295263217    0.2460601459752384    0.7702722995323019 O
   0.5449089213258405    0.3290195801288873    0.9447262650360172 O
   0.0814899222951767    0.4010571425516393    0.6402261952834810 O
   0.1163311406043468    0.5780978996781589    0.7712154827659023 O
   0.1246424071389710    0.7823124585244881    0.7885539852164658 O
   0.3134443060839343    0.8887193832632870    0.7557395925381378 O
