Li1 Co1 H90 C51 N3 Cl6 O45
1.0
  14.0426509999999993    0.0000000000000000    0.0000000000000000
   0.0000000000000000   14.0925119999999993    0.0000000000000000
   0.0000000000000000    0.0000000000000000   13.8715349999999997
Li Co H C N Cl O
1 1 90 51 3 6 45
direct
   0.6770140203584069    0.3607573632011099    0.5402961640510585 Li
   0.8689429965894617    0.7740340579450988    0.1370602481989196 Co
   0.9884297914973463    0.5014466945282715    0.9184144782823241 H
   0.9921976035721461    0.6280152190042485    0.9355079729820817 H
   1.0435296925060662    0.5771082302431249    0.8289835097557696 H
   0.8880907800101278    0.4327084142273571    0.8023095172956707 H
   0.9386493953314088    0.5050053751949972    0.7077960542939191 H
   0.8124554046098561    0.5040235956513643    0.7263315963229737 H
   0.8238793337525799    0.5044851549532121    0.9448200995780208 H
   0.7444883120715599    0.5739437603459199    0.8705667584733773 H
   0.8202213926700879    0.6314766870519606    0.9571915826186503 H
   0.9462244408124934    0.6719102726327286    0.7263177925153922 H
   0.9125818216232819    0.7270131315126785    0.8370625370588043 H
   0.8100090346188907    0.7773293710872838    0.7053067155149016 H
   0.7418621904083497    0.7176157132241576    0.7949545381963857 H
   0.6985151877661847    0.6566556182460587    0.6508074283055193 H
   0.2907358254506219    1.0409093389453918    0.5899412545186961 H
   0.3509915798662233    0.9680322471962416    0.5033339698886965 H
   0.3472554797523630    0.9312847383064141    0.6270244900798650 H
   0.1398652989382133    0.9889365394899078    0.6564650703761337 H
   0.1955633569473456    0.8804061632163237    0.6974166860408744 H
   0.0900558968530942    0.8767292715450589    0.6241455440944351 H
   0.1533444084026584    1.0372515730339631    0.4889249416160504 H
   0.0977445099219514    0.9266030350018507    0.4561225769174068 H
   0.2101421376918077    0.9597543958096327    0.4039629147026627 H
   0.2992788697803571    0.7913012527503968    0.5749637945620294 H
   0.2814985674713414    0.8221608156161229    0.4524760316720536 H
   0.1880709895873650    0.6870598087835583    0.4648937431942464 H
   0.0991434993292933    0.7732700699492042    0.4836174388775287 H
   0.1848961396249184    0.7222962180198960    0.6554418656623078 H
  -0.0170026556951390    0.2094771932782459    0.9222086380490696 H
   0.0769113652400818    0.2952036911517265    0.9157476623892021 H
   0.0696323571667486    0.2159677962310765    1.0169659868212133 H
   0.0163186495199518    0.0465834834839949    0.9080387613915836 H
   0.1125041973912191    0.0498652064301950    0.9955689121643712 H
   0.1323424686691993    0.0028472943645533    0.8770771425080209 H
   0.0228170749241009    0.1448723967735490    0.7676320998361033 H
   0.1450636720943930    0.1182077283311875    0.7384420592241594 H
   0.1118217293871364    0.2382149612503434    0.7604672878668438 H
   0.2287982041282661    0.1868779803061371    0.9821690699695456 H
   0.2311038321752780    0.2502182428512391    0.8710917400273293 H
   0.3674656772428511    0.1477199771055721    0.8821193991868961 H
   0.2958118114592466    0.1018443674200881    0.7874431005652943 H
   0.2911188621008953    0.0344075250743090    0.9822099032298877 H
   0.5100882041432206    0.6314492242405044    0.1858678113128792 H
   0.4623749368975986    0.7477205022071296    0.1809412491119404 H
   0.4295560745617050    0.8130441953854644    0.3392475785844897 H
   0.2974204543002600    0.7044090798006771    0.3462345501056661 H
   0.2161472673500182    0.6759397224568622    0.2522162673417181 H
   0.2383866956460002    0.7776010061229680    0.1157383108646592 H
   0.3996623892454495    0.4910875307397290    0.1307673087369206 H
   0.3346438881091612    0.5564455052442034    0.3419697856077211 H
   0.5397634242993008    0.8504187997143449    0.8387646716819732 H
   0.4176786356080487    0.8530252952773785    0.8080942166818597 H
   0.3692269216118809    0.9259808748078413    0.9471753284694160 H
   0.3977578877378638    0.6174286521806758    0.8974175677024929 H
   0.3951212951172823    0.5914945788231367    0.7726054650765039 H
   0.2597558210340769    0.6709502777077642    0.9462216438195197 H
   0.5664806438613337    0.5958485591497102    0.7224542813754931 H
   0.5564532501733469    0.6834337284935432    0.9243304472071765 H
   0.2161355736890421    0.3331595410385317    0.1892043706770736 H
   0.2250013049530320    0.2322489141751307    0.1157688186635437 H
   0.0152100297871107    0.1858600695177694    0.2458977359030561 H
   0.3056841425454496    0.0985281545263187    0.2801057633491896 H
   0.4275834035895359    0.1290046146492549    0.2744093944902277 H
   0.5006247289062443    0.0521945604871580    0.1520361337083459 H
   0.3992934411031080    0.3943830936599522    0.2606364155084495 H
   0.2782226240615109    0.2557562654550161    0.3574697825438929 H
   0.8245474711292050    0.6379687553219753    0.4252069161776256 H
   0.7443583586888260    0.6131184702911732    0.3304767511310032 H
   0.6208055779496336    0.5838899402746650    0.4339130550440164 H
   0.9126473939998937    0.4644623634168273    0.1899504618630887 H
   0.8086864168311241    0.5340555998816960    0.1863263798851389 H
   0.8416123358758970    0.3418710510943684    0.1224798221682027 H
   1.0224229976234545    0.5941352130833736    0.3996054906684804 H
   0.8907246381043011    0.4460901299924386    0.4332461324575831 H
   0.3378847227635295    0.3490351457568389    0.4869514440903620 H
   0.3291572538547031    0.4037671999143943    0.6003646207863801 H
   0.4263672486056942    0.2703558336512327    0.6380347243473775 H
   0.0998210551554689    0.3377925092417874    0.6316454646151273 H
   0.0684605869646693    0.4510493551469035    0.5865935658887067 H
   0.1684477539176898    0.5787903895345273    0.6498280074988096 H
   0.0829939047833632    0.4464573427363411    0.4037859869149305 H
   0.1547028997587422    0.2606144163652300    0.4892348849640649 H
   0.5833430639271746    0.1969819958287068    0.3632549901651115 H
   0.6969942256629464    0.2436435817830065    0.3331320953304736 H
   0.7103508311927713    0.2403160699809942    0.1724796743835487 H
   0.8022258354209615    0.0216135114875190    0.3304958578845095 H
   0.8276227252247458    0.0437665229591431    0.4524881082014355 H
   0.8308341736898539    0.2366099159610437    0.4558814464296850 H
   0.6136282615013362    0.0450572566480696    0.5423850467882609 H
   0.6091409421198319    0.0139961768349035    0.3465711747113784 H
   0.9864506488126780    0.5707247941318055    0.8823690363034804 C
   0.8818052154112497    0.4990073742708185    0.7615049725931557 C
   0.8138212528389406    0.5720769959252119    0.9066636951137709 C
   0.8905222389988900    0.6754162260071164    0.7818653948535615 C
   0.7962977581654632    0.7071290441335086    0.7384585685722597 C
   0.3082751625743601    0.9678566943920289    0.5695387186782140 C
   0.1563723445095944    0.9150338207978819    0.6388396035478410 C
   0.1655598433657577    0.9630363770490314    0.4686501818291920 C
   0.2457210828639123    0.8143870794646121    0.5223024726535311 C
   0.1643868447631434    0.7428070439109792    0.5149754645033877 C
   0.0576109026707279    0.2238386697843507    0.9394127499227736 C
   0.0932537090040905    0.0556758057044762    0.9192061671617453 C
   0.0977074720435622    0.1642659477600587    0.7797379352753678 C
   0.2219851550821850    0.1798663013379020    0.9038423238668252 C
   0.2989465130195146    0.1122419927689258    0.8660971175864819 C
   0.4627444347936868    0.6815711166327196    0.2233439255280688 C
   0.5047811328502005    0.6971336118074620    0.3233390435881826 C
   0.3615381397714720    0.6384959828311659    0.2248926041710597 C
   0.2873454300046338    0.7053743676074217    0.2674844939655200 C
   0.2922253198487950    0.8086319898113268    0.2374647290296280 C
   0.3352466468047949    0.6140996757710762    0.1199475818645882 C
   0.4713286828818861    0.8131957922051087    0.8490520515573799 C
   0.4505017442931538    0.8116036062271936    0.9568420827255238 C
   0.4818920202460348    0.7125898711315627    0.8096667499307034 C
   0.3924047510687264    0.6500220358159000    0.8255505637984549 C
   0.2973954689894380    0.6995607312592673    0.8122550806381558 C
   0.5081072761831082    0.7177621363742674    0.7018299733951578 C
   0.2309135540005944    0.2561540128544861    0.1905752643813392 C
   0.1532095278875762    0.2087630743191846    0.2499534081844583 C
   0.3314860619978379    0.2392683987070580    0.2304142721047094 C
   0.3598336809766191    0.1339336287242473    0.2352414581371132 C
   0.3624983687196955    0.0803289612242303    0.1403673883243635 C
   0.4002369737736842    0.2942329472559612    0.1641611703391153 C
   0.7948221201253240    0.5798844875917083    0.3808811440118199 C
   0.7441253627965262    0.5157140891560000    0.4520325991319634 C
   0.8782486996223151    0.5342952817780109    0.3243447304137574 C
   0.8485867490404768    0.4833494333728437    0.2317219053262671 C
   0.7844951854176252    0.3977026267566776    0.2445636348104230 C
   0.9426361674871790    0.6176006321655075    0.2914592494630190 C
   0.2934750233413905    0.3525186652315783    0.5525896254452013 C
   0.2920454464046710    0.2533309781818884    0.5957570261690578 C
   0.1951066255224886    0.3885283510846044    0.5234322791241200 C
   0.1291791891716172    0.4073217031853512    0.6108959448251401 C
   0.1737222045894326    0.4468168535176695    0.7021075346023350 C
   0.2066056857782765    0.4772277085873690    0.4610446226751401 C
   0.6547590259132695    0.1779448837794142    0.3351511213430958 C
   0.6375379363910704    0.1379380347520726    0.2356465207347276 C
   0.6965063797426854    0.1054370739581417    0.4064768325927880 C
   0.8007321986425499    0.0777570265684358    0.3860522155623008 C
   0.8732312687967536    0.1514006601520013    0.3549153060566116 C
   0.6902811541780822    0.1494083709135745    0.5074604749942959 C
   0.8916211817839810    0.5795677122715951    0.8322090078711549 N
   0.2175226586489973    0.9145991750796452    0.5500295562098931 N
   0.1189568557959605    0.1535934019428190    0.8851312143897557 N
   0.5361167353657084    0.3565682626347950    0.6218169099526476 Cl
  -0.1356995904833069    0.8809857447699885    0.2473500034423011 Cl
   0.9221381838799526    0.3728690427937901    0.0245191141427391 Cl
   0.9637014136433357    0.7947977706174740    0.0155175566366664 Cl
   0.8717373250962372    0.0724738825838857    0.7932303086860971 Cl
   0.7342521280347991    0.7005705150366379    0.1093095421667465 Cl
   0.7647375043358979    0.6419789757851546    0.6663748424381296 O
   0.1404041886393104    0.6981581977719800    0.6051537720951574 O
   0.2963163579298524    0.0212133507496747    0.9107832831766636 O
   0.5640193600197001    0.6412585201275685    0.3558652463480069 O
   0.4788555921527923    0.7732320944626480    0.3736465243392314 O
   0.3350364414810281    0.8683639737188090    0.2873704207933729 O
   0.2453848913570522    0.8343836975267434    0.1583232944299243 O
   0.2832384056258324    0.6657961866557218    0.0703623521117165 O
   0.3737256341413029    0.5366102650826198    0.0825545889477985 O
   0.3619566860986576    0.5502368832469329    0.2765476517198709 O
   0.4897826428927131    0.7535266735980073    1.0103589660408889 O
   0.3896753625793307    0.8744763275702728    0.9922227828427063 O
   0.2766780104411909    0.7399102239543950    0.7358350456528423 O
   0.2342668225536617    0.6958324491758460    0.8835653826342940 O
   0.4912393400647784    0.7847219204070929    0.6495837237912027 O
   0.5559256026515222    0.6398819380107678    0.6684386702697287 O
   0.5619506117470271    0.6659607740621403    0.8549000337742002 O
   0.1662992336703376    0.1731496989323124    0.3302298419028608 O
   0.0700655809220068    0.2135436436030709    0.2055054339696364 O
   0.2876756967042761    0.0705631401981421    0.0936435996448843 O
   0.4426664416854055    0.0425371800286564    0.1093826515955156 O
   0.4258726575202930    0.2647775967833130    0.0862385193852014 O
   0.4265786987086698    0.3813929624470073    0.1963783979206339 O
   0.3367125601853952    0.2790968317075054    0.3258313661754088 O
   0.7840297035082622    0.4490753323467101    0.4961460047500151 O
   0.6553492129085884    0.5354399527919508    0.4752994135111940 O
   0.7241388559752714    0.3908685272008284    0.3080277539580155 O
   0.7936549722698372    0.3274903650960170    0.1790551182691749 O
   0.9319729714852275    0.6581241044889655    0.2139435217515581 O
   1.0087104956179571    0.6459342103097021    0.3539827380315156 O
   0.9350782868562355    0.4739409687925049    0.3846164602547591 O
   0.2237243786803503    0.1982782402456000    0.5859882031801095 O
   0.3695078842306913    0.2245259120588295    0.6425433126182503 O
   0.1918172402062830    0.3965502828736282    0.7719764820547979 O
   0.1913047116246071    0.5407659237756903    0.7058594185863353 O
   0.2781302526139829    0.5270537885651615    0.4596245109138967 O
   0.1307193470805477    0.4981720725162413    0.4052833388662466 O
   0.1467740941507412    0.3243008286954093    0.4600918268958699 O
   0.5896675122097673    0.0636751701896724    0.2267706529955048 O
   0.6671779103532518    0.1844563822262490    0.1587650898044088 O
   0.9272054215404202    0.1347201783471960    0.2867468748051316 O
   0.8807914246391227    0.2323570843863748    0.4044732086247124 O
   0.7300823526839769    0.2257739223496847    0.5263777231575308 O
   0.6388237213899285    0.1036773344596052    0.5727321251757647 O
   0.6414810337449817    0.0196330263901851    0.4098763006401238 O
