Li1 Co1 H110 Cl3 O55
1.0
  12.8134132445999995    0.0000000000000000    0.0000000000000000
   0.0000000000000000   12.8323175439000003    0.0000000000000000
   0.0000000000000000    0.0000000000000000   12.8313431836999996
Li Co H Cl O
1 1 110 3 55
direct
   0.5047821371893881    0.5461597835327552    0.5987144121949014 Li
   0.7542293327949006    0.5783994782398629    0.4417752694122418 Co
   0.1303830673691936    1.0682992939585279    1.2823279571231441 H
   0.0465209473011583    1.1521422939715258    1.2934257820321444 H
   0.3324471037485047    0.1389722289757185    1.0986605135624590 H
   0.3469155358876249    0.2591562872897307    1.1256958749454105 H
   0.6360703402533887    0.2553962494138806    0.0493488548185966 H
   0.4846173305865190    0.1910360902162463    0.0222088278538138 H
   0.5703056619499610    0.0888187007608609    0.0170861373405166 H
   0.9823918016227967    0.2099477169874651    0.1393790241828991 H
   0.9200820965692684    0.2590238092713070    0.2398665554990241 H
   0.7160443472129988    0.2798485744850568    0.2270518409640033 H
   0.6860757515960713    1.0051696217673116    0.3111802119806317 H
   0.7443826200110784    0.2039604898371735    0.3194833177798235 H
   0.0969707367257231    0.3606625035709190    0.2117518059490104 H
   1.2747885212539958    0.3811490601964576    0.2269458505013892 H
   0.0969912620919920    0.5193906517040862    0.1302926800386549 H
   0.0750209256464208    0.6331027691768684    0.0796116257881458 H
   0.1056521862252840    0.4579870901646851    0.2944648925530866 H
   0.6216065907073336    0.3645737222442644    0.1001804778733486 H
   1.3958803779186435    0.3900554794468392    0.1772425582684947 H
   0.5151064744658551    0.5063898824019499    0.1554350205856539 H
   0.4766381920035121    0.4979759696671201    0.0312325674843683 H
   0.2403131830308908   -0.0970287887390907    1.0595219765589474 H
   0.1407573523050222    0.7409952052285420    1.1998736119425082 H
   0.1444519182334216    0.7771188437228491    1.0821150906117512 H
   0.5382158516745229    0.8973091362965520    0.2745534930727456 H
   0.6072856602497654    0.9368343427345039    0.1116477107182246 H
   1.3759403357829014    0.9602128165739865    0.3258443042199403 H
   0.6330656763699207    0.8225369841332734    0.2660539931810631 H
   0.9599543765189774    0.7662455155401059    0.2048600878541866 H
   0.8799522740009764    0.8415280977155465    0.2549031730407555 H
   0.1701117477982382    0.1940534719064622    0.5518362333956535 H
   0.1344553624715147    0.1090780965489259    0.4688955790336118 H
   0.2221876457078923    1.0161497116472553    0.6009246250770591 H
   0.3141311409741903    0.2913211708805522    0.6366083406043349 H
   0.3277676324120698    0.2971922849441076    0.5135354886517749 H
   1.0091294080247744    0.1096203212855096    0.6052663373360508 H
   0.3933481287216020    0.3110167558078550    0.3427981021883671 H
   0.6208987387223193    0.0695590464424184    0.4397318356403739 H
   0.4668648398443772    0.2342067800082349    0.4100443746671606 H
   0.5527997877759167    0.0653043200601248    0.5489004534495716 H
  -0.0228852275425972    0.0080862846204524    0.3425346847151057 H
   0.7994179167379041    1.0316262613289928    0.3564256700506412 H
   0.9173193666608329    0.1919564228030606    0.6431228573469145 H
   0.8173928306506403    0.3039198304326494    0.6498064912246947 H
   0.0815096729000099    1.4479267449886599    0.6594274637318304 H
   0.1916313846612892    0.5425431336297872    0.6263467492716936 H
   0.2063113139205185    0.4126920763831489    0.5986053043657399 H
   0.1036143997665507    0.5152129184289707    0.4630177844083533 H
   0.0109321474010084    0.5784805236158398    0.4019002545618898 H
   0.1775320969421378    0.6494754936891194    0.3523715348556538 H
   0.3650473166680436    0.6605872823050255    0.6534655002097900 H
   0.5206280321218385    0.4892433304056121    0.3907907395283363 H
   0.4782802213050229    0.4001245881295043    0.4621410250668768 H
   0.9317261446579287    0.3589317172243360    0.6326851348043413 H
   0.7860054093349740    0.3774817569335041    0.3704242045320645 H
   0.8582016292133783    0.3976955646975820    0.4848876694221435 H
   0.2545069030435226    0.7461283388012311    0.3520223898023369 H
   0.2729492958305958   -0.1596534858953741    0.5306584037554021 H
   0.3182861618873289    0.9621999868503426    0.6457414452467911 H
   1.4597041213965687    0.9868798624002231    0.4153018133494722 H
   0.3557687585094589   -0.1373083405995966    0.4381941945908333 H
   0.4124257933011798    0.7237995584371412    0.5668705129124744 H
   0.8690340278374135    0.7169566791443246    0.3481895876322200 H
   0.9855213346546686    0.8041124089003772    0.5956983600602223 H
  -0.0694567373041735   -0.0776589438806180    0.4163632766588864 H
   0.8951863101062479    0.7344585839430225    0.4701549951187906 H
   0.8777670639039088    0.8493676792763862    0.5799618937285832 H
   0.0319573258493454    0.1385467407518399    0.7738909286219093 H
   0.0979370678479335    0.0684276841650797    0.8406516712609342 H
   0.2589967293608190    0.2530295685788637   -0.0407724195830559 H
   0.1625314100579461    0.2358300253751563   -0.1142164064290423 H
   0.3274921398534038    0.2774889071921917    0.7913481812877529 H
   0.6031907326142961    0.0937920814289802    0.7316225556047357 H
   0.5641738063311537    0.1851345841366995   -0.1351783584358812 H
   0.4590862723309939    0.2495266939152478    0.7532843564014822 H
   0.6168389305348385    0.2488284568299086   -0.2298512217993339 H
   0.8520830409415888    0.2068196771877423    0.9426441112778512 H
   0.7544353668897670    0.3305962276484217   -0.2002284461819807 H
   0.8705636749053609    0.0195333205512167    0.6950098648463132 H
   0.9465465517091125    0.1341476912577106    0.9410308740895345 H
   0.0090612953850475    0.5137790387001491    0.9397059933068588 H
   0.2265416768262996    0.4219148843128248    0.9311644089667853 H
   0.1847604597703665    0.5281295252252848    0.9826633043310237 H
   0.2419122885626378    0.6014350677963666    0.7674107029113518 H
   0.0695602417002843    1.3456693004147628    0.7384916727920905 H
   0.3687364195712002    0.5473435135914944   -0.0833490222176108 H
   0.4689993218499057    0.5127160974229140    0.7997985826563128 H
   0.4243827946930274    0.4181782249108141    0.7357218926146615 H
   0.4465509706956010    0.6409696256238543   -0.0832188721642538 H
   0.7039117485812083    0.3999897722636966   -0.2934852457912442 H
   0.8706573267666639    0.3952766719376569   -0.0797819755456659 H
  -0.0193042144960276    0.4614525592701578    0.8240906614774889 H
   0.9368926056731386   -0.3450658240689268    0.8686456228572332 H
   0.7700486930333151    0.3411968069697044   -0.0134751214759531 H
   0.1575858113489755    0.6843304603364040    0.7227029905707812 H
   1.0925419991585557    0.8519237257495030    0.7657390151002700 H
   0.1813523124511186   -0.0781654774804735    0.9058513926013122 H
   0.2141101726705174   -0.0684431494930939    0.7772530084433581 H
   0.3050273996233711   -0.1496467198096142    0.9760778674994891 H
   0.4411886212038325    0.8444036499978029   -0.1492509303728070 H
   0.4814557998353687    0.8309142705924213   -0.0254059067264381 H
   0.5092032854750624    0.9253633049039311    0.7201927311584295 H
   0.4835754536295243    0.8131778017728672    0.6984179258243370 H
   0.6417370582943915    0.9315663932960072   -0.0034025984244161 H
   0.9939421978501541    0.7687368815689334    0.7790127618594060 H
   0.8682145740510132    0.8719746634791660    0.9632421107402728 H
   0.8251425221734553   -0.3236908854374878    0.8224774242891720 H
   0.8218803156714043   -0.0638500586660969    0.7719768655617616 H
   0.6757662425309773   -0.0086513778684329    0.6816293482829263 H
   0.8389951933245088    0.9896463151378951    0.9703107393866657 H
   0.2838074487164893    1.0188772002618616    0.1975436285672696 Cl
   0.6488093346871155    0.6321185354282262    0.3179862024954000 Cl
   0.7325138074552910    0.5668419400560841    0.6280893571717306 Cl
   0.3527086839413867    0.2109888383557834    1.0685623395466162 O
   0.6725797379501461    0.3099093954303249    0.0946519062355706 O
   0.9913277500554483    0.2430048789964935    0.2108080232267633 O
   0.7571239557413376    0.2745767286342535    0.2930192138166964 O
   0.0859166953632710    0.5600372456038720    0.0603978150069655 O
   0.1380539352420785    0.4225258417624966    0.2309438730985222 O
   1.3489764040494419    0.3597164546628812    0.2369697426347856 O
   0.4866425520871942    0.4577283683875282    0.1011322878144555 O
   0.2346987539457820   -0.1437989842198983    1.0011570813739017 O
   0.1984039750978438    0.7096976630171653    0.3121154219448734 O
   0.0982056926034373    0.7443882010651122    1.1324917340188996 O
   0.6005349219141816    0.9695797917590059    0.0378529110278184 O
   0.6081012118752781    0.8894773475603253    0.2388292517803527 O
   0.8876707482366903    0.7749703619770008    0.2224810022637724 O
   0.0745649971683112    1.0907270431952050    1.3342554903876598 O
   0.1295542483966630    0.1244308182475603    0.5478841919550957 O
   0.2756901736380606    0.2984632946385142    0.5699590438193822 O
   0.4103537458698532    0.2834504180212598    0.4173093974060443 O
   0.5515089529542917    0.0861085122168958    0.4766656151531860 O
   0.7244261887996082    1.0602648917823589    0.3477999168137860 O
   0.8801629906889080    0.3071678797314149    0.6026524254859955 O
   0.9581047522582451    0.1242149570057757    0.6611451326994875 O
   0.0794703255769215    0.5360548278568694    0.3933812711292856 O
   0.1693523872895072    0.4808130527390946    0.5835234850090700 O
   0.4930452176716024    0.4724295320202562    0.4593018834837666 O
   0.8155432063899081    0.4290110304055690    0.4228240188285223 O
   0.2549946731544752    0.9474793411560817    0.6066005702183688 O
   0.3215998769130965   -0.1927839004557662    0.4823454570026801 O
   1.4309608042983541    0.9294233665273880    0.3687587514540775 O
   0.4345713367706052    0.6756102895942770    0.6238185650016939 O
   0.8818721371576859    0.6755861318379762    0.4157904605557885 O
  -0.0889082288967855   -0.0369899066459463    0.3519935541617728 O
   0.9364009334012985    0.8214771599858836    0.5400081653729075 O
   0.0728039519597279    0.1427914923186286    0.8407451922573582 O
   0.2213393159309236    0.2832509217111628   -0.1001929330152392 O
   0.5565325948810147    0.1698193459244544   -0.0002880375068368 O
   0.6048312010514519    0.0214807474220456    0.6880409919294395 O
   0.3861829808997527    0.2796295961134270    0.7295830185410522 O
   0.5643361362240786    0.1921192928374756   -0.2166078693640358 O
   0.8832925237207798    0.1450911548619724    0.9769273498836751 O
   0.7132324500773792    0.3282864344330808   -0.2699553630909251 O
   0.2180771094288726    0.6366874684989224    0.7023395729410570 O
   0.2309440947397133    0.5016495071897642    0.9246569062989375 O
   0.0382270604209558    1.4075131565448076    0.7123213806260624 O
   0.4620128929967095    0.4831555758178108    0.7299890555338604 O
   0.4433746117330776    0.5647604766019089   -0.0718849067392823 O
   0.8116488498240626    0.3457906770791628   -0.0793626897450309 O
  -0.0452856601612020    0.4947123347191283    0.8889162988321703 O
   0.1576154677717214   -0.0554486144506482    0.8296395739319891 O
   1.0592097408564991    0.7862722955134680    0.7443117961362207 O
   0.4256736295146524    0.8162949316181315   -0.0759733329662919 O
   0.4541945234422726    0.8745540884261223    0.7357109818317453 O
   0.8154651631721557    0.9214045500004454    0.9397293735559649 O
   0.8898091324031066   -0.2906220341915396    0.8440885678795221 O
   0.8265238871276730   -0.0438496963681734    0.6984724797389179 O
