Li1 Co1 H90 C51 N3 Cl6 O45
1.0
  13.5076159259999997    0.0000000000000000    0.0000000000000000
   0.0000000000000000   13.1824902299000009    0.0000000000000000
   0.0000000000000000    0.0000000000000000   13.6245600221000007
Li Co H C N Cl O
1 1 90 51 3 6 45
direct
   0.7683319186862110    0.5179224483333291    0.3110911474664051 Li
   0.3542914225217511    0.6888682226672802    0.5620563158427542 Co
   1.1752305179734943    0.2548880034349540    0.1202813161189633 H
   0.1999703334842955    0.1482541296004302    0.3008493488487869 H
   0.3934367463817686    0.1168920733584104    0.1809981391692606 H
   0.6391196276674472    0.1045347723356859    0.0769279895497463 H
   0.5391007192678156    0.3049726223867261    0.2500844067972202 H
   0.6324300682000307    0.2310601837649233    0.0747745255147677 H
   0.4397957784589736    0.0999180421930031    0.3002394208961396 H
   1.0010006603218546    0.2598567156325505    0.1148749030031990 H
   0.8572047446961146    1.0655421221659842    0.0486731321910083 H
   1.0147839956654097    0.3644818642916186    0.2072030220734330 H
   0.3195184468483828    0.4994369425032331    0.2814116569475126 H
   0.1743588560855265    0.6150422623951760    0.2576318064808212 H
   0.5461448934967297    0.6038342131250252    0.3182062396119685 H
   0.4050598189402502    0.5339386179885219    0.3725705639496754 H
   1.0106529928070447    0.4974147145679121    0.0667772030453992 H
   0.7033878156849217    0.4009681420442893    0.1894519901422953 H
   0.8581338501777002    0.6264376814230069    0.0687581844463560 H
   0.0473712359609180   -0.0368520193474617    1.0238268236459325 H
   0.1196356537047721   -0.1520563527863283    1.0282115523933635 H
   0.2596655457569456    0.7159321532128753    0.2291640982120137 H
   0.1781789232448746   -0.0348083993993205    1.0588870383776501 H
   0.5785823719089361    0.6946258601603728    0.1744019628630735 H
   0.4002825140217864    0.7350719360308227    0.3696376252026493 H
   0.5588358080844059   -0.0375696379335573    0.3026108736217756 H
   0.7019700969620241    0.8092521541038854   -0.0194942066803756 H
   0.6938998349263548    0.8844648022992273    0.0930004351659569 H
   0.9350697066377338    0.8638655076846117    0.1345254458145428 H
   0.9177283785097163    0.7542564751876493    0.2127290720800295 H
   0.2371723092254585    0.2864275678684605    0.4863886980754468 H
   0.0528844220337214    0.2169778672403156    0.6293722510738602 H
   0.3186618930299011    0.1881145801553772    0.5244148067468184 H
   0.1632503080766082    0.3757119124402014    0.6311176285364297 H
   0.1692609912678384    0.0148058987032134    0.5773700580598654 H
   0.5083751639756240    1.2083148431903545    0.6230285599851347 H
   0.5824763233129553    1.0671154212648872    0.5212455300927497 H
   0.5053373221962308    0.9966332905144631    0.6111419376107384 H
   0.7595398416349671    1.0632906507457602    0.5495133052998229 H
  -0.0038465365749695    0.1675532146415067    0.5214268937475020 H
   0.7653883940688528    0.1693457439427159    0.2902926776779970 H
  -0.0664223460020816    0.2595585929006947    0.4214220497165833 H
   0.1309537131489802    0.4726001465845394    0.4577235522383335 H
  -0.1779749699628823    0.4978397480708607    0.6239350112745685 H
  -0.2760144765090355    0.6394974293915292    0.5442329879990583 H
   0.1634960953434501    0.9141208075897364    0.3406495331571547 H
  -0.0146441488848711    0.6752744329602682    0.3714094255368138 H
   0.5744447801750445    0.8630363775423258    0.5495744448888187 H
   0.9150106524356917    0.9979979795592685    0.3290131940942539 H
   0.7094865973242065    0.8519314954262016    0.5727543493765764 H
  -0.1075058357193032    0.7681665935948746    0.5266468054279261 H
   0.6673770198002298    0.9343127436623504    0.4798117517480315 H
  -0.0227514270751853    0.6745257125115617    0.5619468811162323 H
   0.0493367937725593    0.0543576063780960    0.8830626450677537 H
   0.1570145666651375    0.0647039064793200    0.8105025037937293 H
   0.1636449002851223    0.0931833510647190    0.9432906449935466 H
   0.4108809794196987    1.1421907661155322    0.7211337463421162 H
   0.5216605654101273    0.1171757830319831   -0.1419737581149321 H
   0.6145046251517176    1.1731318093392822    0.7046943163981996 H
   0.6577446760385479    0.9842115100204720    0.7906068154514779 H
   0.7540318378238141    0.2518104362005039   -0.1307506434050282 H
   0.7336559253380122    1.0985002349673541    0.6760357762789850 H
   0.1904631043253132    0.4767871703590618    0.9072916843515573 H
   0.2703757999418853    0.4552627394623546    0.8086756558104090 H
   0.1625729124466076    0.5989421177109336    0.8068010998644870 H
  -0.1318891171069562    0.3993019925067625    0.7500689926444211 H
   0.3636520677083397    0.6347471888142241    0.7866698075838483 H
   0.3488100703419423    0.5790589245183840    0.9781167237241877 H
   0.4433290444521334    0.3748380259590364    0.8245939680089832 H
   0.4399327382311596    0.4773101671434146    0.7247272568790131 H
   0.6046538860776313    0.5548851914495587    0.8963107792979391 H
   0.5173384303775770    0.6118440806203566    0.9826431084221131 H
   0.3668273134537746    0.4425878201499914    0.9682969570834314 H
   0.5376098566233397    0.4759372550695676    0.9804969840736886 H
   0.4954568221338100    0.6502086074419203    0.7711926105471767 H
   0.4364406342019648    0.6936397035410025    0.8722857833003401 H
   0.5502241477709011    0.4522966837840948    0.7845633175428159 H
   0.9421967970530525    0.3571342388952950   -0.0682612860519111 H
  -0.2095638160137009    0.5376071206125794    0.7428907791944923 H
   0.8194423443736285    0.4028483634264210   -0.0361875897790647 H
   0.2879673572753019   -0.0071072599612092    0.9422234545685777 H
   0.1063320477254144   -0.1206715390838615    0.7736279185458335 H
   0.1180439590550437   -0.2065748836151921    0.8700457109640229 H
   0.0143024840473984   -0.1353440324160615    0.8656374952196189 H
   0.2779604100286143   -0.1561572471588788    1.0387462045044911 H
   0.2683347291747685   -0.2365335631296465    0.9294252431241598 H
   0.2834647122243029   -0.0685926080149167    0.8297405562207316 H
   0.5497956487647323    0.9223590082715528    0.7354894392733183 H
   0.4250411392175381   -0.1367102386248968    1.0224814591005624 H
   0.6724119571550217    0.8705046174790185    0.7361441393139457 H
  -0.1887562951647401    0.7812248243993670    0.8411031249751639 H
   0.7965019526940317    0.9825282165294084    0.6536328510098465 H
   0.5142912634885056    0.1627999397361419   -0.0015376635257225 C
   0.5809445948337516    0.1640235325261760    0.0880263295882302 C
   0.5411257990561258    0.1657083431812694    0.1970360882586669 C
   0.4576082482033107    0.0872573083643185    0.2194478211516704 C
   0.6285492945470650    0.1432224550955971    0.2658588611393336 C
   0.8495890410394838    0.2397156045549348   -0.0185928931715297 C
   1.1026137064374213    0.3798954922523761    0.0823777068161799 C
   0.3584016963335148    0.5662935063716431    0.3153378901066186 C
   0.4218140708556004    0.6226038079197013    0.2415718383317525 C
   1.0067277997685051    0.3427060089718929    0.1299278661570424 C
   0.8769069631673801    0.3511293036653449   -0.0141523828062875 C
   0.8356332104152842    0.3954723670627402    0.1632353637396362 C
   0.9141733470176253    0.3934741103190900    0.0844614438288944 C
   0.1215094114528942   -0.0706316764709685    1.0136268612416728 C
   0.2092310350533430    0.6832516814289590    0.2842873461394165 C
   0.1505545073565190    0.7702989676387590    0.3282660140030446 C
   0.4691438145722119   -0.0294156398553949    0.1964283622119858 C
   0.8136589403719178    0.9291741090934165    0.0093859919727734 C
   0.7236778506919476    0.7049167837745093    0.1618239420152791 C
   0.7456373142734559    0.8444776685477920    0.0425298145452103 C
   0.8015620610339821    0.7685800207929951    0.1040400577120079 C
   0.8786200708043437    0.8135988290492636    0.1742052592634231 C
   0.8546854252109862    0.8825122121928740    0.2611776090551162 C
   0.2612120806980073    0.2668614619581391    0.6482939630103799 C
   0.1640787296175599    0.1563838530541158    0.5329143105702197 C
   0.1599499477284738    0.1106967340427203    0.4290700031059757 C
   0.2497281888809903    0.2294034406443812    0.5434390541044992 C
   0.0631341952548792    0.2162648001463094    0.5515458846972552 C
   0.0400849760806265    0.3192817549337890    0.5129255733516784 C
   0.5655737106497886    1.0490990984110069    0.6012333607626773 C
   0.2872544261368422    0.6424794152921020    0.3612241425056623 C
   0.2285542081010455    0.5900113316495134    0.4377058783055526 C
  -0.1607543144990070    0.5557401133803512    0.6804748187069165 C
  -0.1706146777733011    0.6627919659050852    0.6331397121820896 C
  -0.1316374072553712    0.6273472212588724    0.4515378846011183 C
   0.6479509418426146    0.8972651152186536    0.5506066984057901 C
  -0.1033274521829930    0.6857830696126810    0.5414614489593573 C
   0.1322448366229924    0.0474082365395950    0.8820512362605961 C
   0.5440398588143867    1.1436184174675743    0.6642100733029879 C
   0.7429151462608738    1.0359741123892034    0.6256334147431918 C
   0.2540938741598034    0.5049664743844453    0.8728267181993787 C
  -0.0607455485257480    0.5234329398059673    0.7196936998401980 C
   0.3511791042392124    0.5158884623767772    0.9290670664203187 C
   0.5349212252468660    0.5469853183463879    0.9374974303963801 C
   0.4370884169082496    0.6331822341174849    0.8195868338417629 C
   0.4694589701128581    0.4525401127526762    0.7972639111560642 C
   0.2624913590025331   -0.0748198077752326    0.9055969507262110 C
   0.0938650068410303   -0.1353652727124787    0.8497668909836464 C
   0.3034638002558202   -0.1684265526678750    0.9614248085628093 C
   0.6325129843864352    0.9371248071915855    0.7331825757893586 C
  -0.1534362207257210    0.7443327052687245    0.7148561124323779 C
   0.4472135197205636    0.5336669697689862    0.8689139312973777 N
   0.1523475698875153   -0.0618677784528263    0.9090700904036203 N
   0.6481856242630628    0.9796228474123406    0.6308732169741775 N
   0.1631881209368049    0.1198748178409981    0.1776607836931025 Cl
   0.6078431979618312    1.4505892499451565    0.3034094315188638 Cl
   0.8707674637579861    1.1293836259579717    0.3728406644148670 Cl
   0.3273199716013306    0.8456345061205148    0.6242968578216865 Cl
   0.4821700955209703    0.5906568849441935    0.5371866687165071 Cl
   0.7533433373474199    0.3021059409524182    0.7290826268802275 Cl
   0.4903925679845393    0.2551595757962883    0.2188613801959963 O
   0.7097938314077588    0.1939313870456320    0.2405281349037567 O
   0.8947828045684691    0.1732843017640779    0.0300699626509373 O
   0.8330169086049863    0.9995690029121270    0.0767151386396768 O
   1.1830668379118081    0.3288345782474275    0.0932558562580403 O
   1.1090826496231547    0.4621062340090359    0.0456880816694479 O
   0.5072118942997551    0.6561027896976950    0.2800450073111356 O
   0.3970924618144936    0.6484358012730984    0.1595779979297185 O
   0.7456743304281008    0.3872552549609380    0.1285692901758749 O
   0.9352266551334280    0.5005269490004433    0.0685321221004891 O
   0.8558899308831296    0.4172894133858750    0.2529835829860974 O
   0.7456306513656198    0.6363857259664085    0.2232417051314947 O
   0.1881510753061962    0.8570033747778245    0.3005675048851088 O
   0.6311019285713736    0.7285048915278316    0.1287659937755253 O
   0.4258777043125116   -0.0793667483725445    0.1313524993171970 O
   0.5226738456273753   -0.0820263369167847    0.2594777376491822 O
   0.8450745508189985    0.9283207043266537   -0.0770395511706379 O
   0.9323430966865944    0.9359323162641624    0.2868004548155471 O
   0.8540146924888217    0.6947957825317105    0.0399220239125317 O
   0.7732032446374728    0.8809260171997177    0.3028207886572234 O
   0.2026058836950085    0.1802700835392940    0.3722021116846586 O
   0.1568887117393450    0.0802738023351471    0.6067645485498616 O
   0.2161537962950221    0.3523665509316471    0.6798406697886406 O
   0.1306331532497558    0.0265441968017794    0.4021700518851281 O
   0.3169302773156152    0.2241062624343330    0.7071560472684513 O
   0.6296420114321809    0.0782309409690208    0.3316290583821421 O
  -0.0350659614024326    0.3291167707569703    0.4513880815985487 O
   0.0810996157502087    0.3999043824847947    0.5422652180338989 O
   0.1733460940944435    0.5148782587075346    0.4073254477207415 O
   0.2334484840681870    0.6187191094213973    0.5255183286202303 O
  -0.2101190583333736    0.5760367337710216    0.4524402256660817 O
  -0.0800117166952975    0.6331754068793507    0.3672984670978515 O
  -0.2747411207892527    0.6726808410513244    0.6105298077521248 O
   0.0840490629523101    0.7520452086142151    0.3903854511538341 O
   0.3441800897189650    0.7167885923076976    0.4125153400831594 O
   0.5617893270635181    0.1118050223664896   -0.0766894481220064 O
   0.4787997746405571    1.1146261714401027    0.7400605960592238 O
   0.4292284066309630    0.1962609924133906   -0.0026195333237997 O
   0.7773534958962528    0.2098562992844323   -0.0724882115384284 O
   0.2311742115268077    0.6034314060751131    0.8244046040958869 O
   0.0074952132082113    0.5808719355339955    0.7286921555555483 O
  -0.0636735263581554    0.4267078159664732    0.7579195213827072 O
  -0.2014905926856600    0.7212020224703871    0.8004816297413903 O
   0.4092441250613036   -0.1594669404898885    0.9536931827467000 O
  -0.1150482473897371    0.8289244614962928    0.6965509341664042 O
