Li1 Co1 H90 C51 N3 Cl6 O45
1.0
  13.3664155806000000    0.0000000000000000    0.0000000000000000
   0.0000000000000000   13.0199798979000008    0.0000000000000000
   0.0000000000000000    0.0000000000000000   13.0628217726999996
Li Co H C N Cl O
1 1 90 51 3 6 45
direct
   0.7425535462705155    0.7854007097929038    0.6295223979466643 Li
   0.1684115892346775    0.3374169152141760    0.6738818793881867 Co
   0.0943311453019629    1.0534072679722151    0.0373256938496238 H
   0.2875085895038059    0.2285135212674082    0.1901548478209530 H
   0.0513562732028407    0.0502014180072139    0.3053022505929577 H
   0.1022861575757342    0.2542232383810261    0.3064865276403818 H
   0.5872688338145804    0.0371629954189132    1.0319400448739156 H
   0.4378814391193178    0.1785748880975620    0.1417081943327615 H
   0.6497941978480759    0.1041446656548758    1.1725398350232672 H
  -0.0433886486771921    0.2407155370343930    0.1782929390621709 H
   0.7741199746413637    0.0643143430225311    1.1438836988136838 H
   0.7261916429104687    0.0265216579447788    1.2663396296863725 H
  -0.1253455497921001    0.2658361595364871    0.2848319414474377 H
   0.1648115216092296    0.3923256021404367    0.2256923456202549 H
   0.2866744092456233    0.5665916930094371    0.0130208380133815 H
   0.0897704611280789    0.5108927053238288    0.2021392416008003 H
   0.3015273067036483    0.4630012872963269    0.0859086119237503 H
   0.0478355088126999    0.3870368074925198    0.1625551449180571 H
   0.5815253344046546    0.5483961196016617    1.0510408183776505 H
   0.5852660530512130    0.6245233492727202    0.3148208677924864 H
   0.8366049389134763   -0.4402647770312269    1.0441242423443755 H
  -0.0956786583499742    0.4305076887410607    0.2309377666473718 H
  -0.0545382346751243    0.5347689096219737    0.3030439330170683 H
   0.2466292679904857    0.9240821835094055    0.2103556899201297 H
   0.2224829291269508    0.8625060515731873    0.3104006895947963 H
   0.0037331841135049    0.7733054530233138    0.2381016093169222 H
   0.5247211750979516   -0.1528388340308391    1.0056333244746392 H
   0.5069418835169747   -0.0502357570310454    1.1736605729660137 H
   0.3445867190441829    0.7066801581455611    0.1227758377329912 H
   0.5737969348664919   -0.1783089194380744    1.1674697206825497 H
   0.5879526371831713   -0.0918356676489842    1.2723107744633004 H
   0.7420305938037266   -0.1951714646740630    1.0923167394138567 H
   0.7519749202537375   -0.1639002950414839    1.2229653871330430 H
   0.8206806996350768   -0.0886206089216853    1.1361977637418432 H
  -0.0502184527820785    0.8911911957077215    0.2947333243377950 H
   0.2483963834791199    0.1645449125190696    0.4414431266567073 H
   0.2253228827234179    0.0260784928980393   -0.4076708085254147 H
   0.0221883936281657    0.2760066821516071    0.4129313696657047 H
   0.3512751239842293    0.2417969519144782    0.4607710333213800 H
   0.4174633997164349    0.0504049513475709    0.6472000486118979 H
   0.4375040006078801    0.1803490843852019    0.6139323513592104 H
   0.4942729223449325    0.1095617247097347    0.3899914562829577 H
   0.6318439853507004    0.0950440371647265    0.5525447726297906 H
   0.7446730374556554    0.2291617557551866    0.6624379507637894 H
   0.9175286535382048    0.1165540550139224    0.3474034144585906 H
   0.7720536016610048    0.1855626100997038    0.4974305704667772 H
   0.1658275007936349    0.4002057986387852    0.4174209815597111 H
   0.1157557372782619    0.5323646816396364    0.3924595294574213 H
   0.0516577751257533    0.4333003197808262    0.4778986726548343 H
   0.5999042332589256    0.3632426079292802    0.3557515341755651 H
   0.3477274264198333    0.5677459958668803    0.3369332417516618 H
   0.3868934987930298    0.5166649646198760    0.5173991503447591 H
   0.4876609028796487    0.6040386786287190    0.5594418276128333 H
   0.6409129836374168    0.4109538951103144    0.4730582713158110 H
   0.6457654438657324    0.4572293121789059    0.6348673380533966 H
  -0.0073917131413600    0.6588329260541752    0.5124955390795523 H
   0.6766136542564415    0.5410168455356935    0.3608538008343120 H
  -0.1157057178399190    0.4313540802168092    0.3709228350972524 H
   0.0653532942345331    0.7468814490925941    0.6638220315018262 H
   0.1961535068612843    0.7844237497591905    0.6377036318224374 H
   0.0772442906682132    0.9528525812317874    0.4339791956855472 H
   0.3805761731427218   -0.1602582003246059    0.4319281840078106 H
   0.6458739247064826   -0.0210552204265858    0.6335896661774103 H
   0.7337957757751927    0.8122256360016096    0.4425216072671863 H
   0.9266522663171609   -0.0075045082608583    0.6218800981635779 H
   0.3726907382357765    0.2709751843679150   -0.1281048721951687 H
   0.9180186876809040    0.1744435453134863    0.9523531058426625 H
   0.9351938232747125    0.0216990698538304    0.8495897042317302 H
   0.8895660335114509    0.0913366581688660    0.7021414703420712 H
   0.0816246722033332    0.4324017008818918   -0.0373962932511962 H
   0.1092865384509037    0.6280794223514098    0.8572917154625859 H
   0.3154442763563045    0.4836543913801029   -0.2048639383025791 H
   0.1635486549941514    0.6567614942845802    0.6844347294843345 H
   0.4714481793792268    0.3470590191947089   -0.0788674247897250 H
   0.9674014108215809    0.5243412437526971    0.7511507893957809 H
   0.7450082058463871    0.4696227260908604    0.9117807081461996 H
   0.8229872267525448    0.3874845808413050    0.8349052812687772 H
   0.8925249419608787    0.4552044242599736    0.6733712699566211 H
   0.2764383067411808    0.6746332576686028    0.8319235365372214 H
   0.1027103550702539    0.7365089292377992    0.9458001572156748 H
   0.0139139239819784    0.7215081380283211    0.8485485815526761 H
   0.1853368448228959    0.9303479381910359    0.7522608098991842 H
   0.1512222389100120    0.9089408390875300    0.8864630542920245 H
   0.0596808684788919    0.9019577253874339    0.7868926840739855 H
   0.2691813125668573    0.7796710542492703    0.9226642677992235 H
   0.5920015910462062   -0.0290506244760797    0.8476559719616635 H
   0.4217659743037064    0.9365583932481164    0.8345202189838035 H
   0.4213978875888850    0.7685481492113478    0.8006263170609200 H
   0.6374962112256501   -0.1874241408847022    0.9572877211288264 H
   0.3406522311717327    0.7929882791113428    0.6916108206559914 H
   0.8023953187469697    0.7049589573314482    0.8101862729550583 H
   0.7018762235641094   -0.0092756323471343    0.9836725257290320 H
   0.0316262267734327    0.2893484846245908    0.3258261469351938 C
   0.3492244620221860    0.1768736565923143    0.3165295338363459 C
   0.3770194978535740    0.2606034325634609    0.0334574637781087 C
   0.7079399284901806    0.0436422680953331    1.1858225700264056 C
  -0.0495765454623291    0.2393345825213296    0.2627762168105049 C
   0.0933263882734973    0.4284953968477201    0.2204852011622210 C
   0.3397798955833552    0.5048942091193457    0.0283896460315364 C
   0.4414708082894365    0.5483509582416126    0.0524480007628850 C
  -0.0625508540160525    0.4540866037937264    0.3067491049042904 C
   0.0556670773711347    0.9528917517991767    0.1416836973285485 C
   0.2206118216599422    0.7622862347814223    0.1834518550431604 C
   0.0880272862387826    0.9129876963340990    0.2418772100912567 C
   0.1930629251154977    0.8664200361107686    0.2322805086907989 C
   0.0158980011521130    0.8431235331684773    0.2889658109083879 C
   0.5742469433196729   -0.0952542597166401    1.1932352103949944 C
   0.6353572683035481   -0.0304707495565326    1.0281705683506344 C
   0.7496856004420437   -0.1301091522401835    1.1478912555966607 C
   0.2894103708637162    0.1539442817130065    0.6405031800851587 C
   0.3266073289413642    0.1648997517765975    0.4272664806592075 C
   0.3853014489370545    0.1173520593181898    0.6028145391033993 C
   0.3900581467680182    0.0876976356533519    0.4867542248481404 C
   0.8637543267064682    0.0208718796366061    0.6651724288590698 C
   0.6747844428382744    0.0578327661950883    0.6182943491718945 C
   0.7852501089023337    0.0559011195875496    0.5800101247752056 C
   0.0985005503054170    0.4467981132780608    0.4070145776168743 C
   0.3834692449439701    0.6610541276402595    0.4420383273059459 C
   0.4863231470772664    0.4522092583452942    0.3530392564903527 C
   0.6150855658141184    0.5931515650454743    0.3836620428194139 C
   0.5379568850706964    0.5194214281690853    0.4368222261307467 C
   0.4468497372600688    0.5738656673736583    0.4908800026423865 C
   0.9026944596734126    0.6120432992823046    0.6262466891645521 C
   0.0458746240981739    0.8130213361548541    0.3993248148881253 C
   0.6534638428403498    0.6822169867353370    0.4497892559920894 C
   0.3457373640998642   -0.0259953202197025    0.4744953268254584 C
   0.7927442646388489   -0.0177272582991643    0.4917569877378994 C
   0.3946637195656610    0.3221757242479743   -0.0638630097092391 C
   0.6551389366502786    0.1221423892948175    0.7239529904682552 C
   0.2153793044171362    0.3941696910091048   -0.0746998719479819 C
   0.3324406055988075    0.4225537594099790   -0.0665086861642472 C
   0.8156988105415903    0.4641426869080419    0.8687356440869830 C
   0.8163624140294897    0.5513034973623682    0.7861937539225322 C
   0.9062511349625603    0.4727442362866292    0.9373402699169784 C
   0.7139976482664174    0.5430651589900255    0.7400092456671385 C
   0.9008749741237265    0.5333417952834180    0.7086852325924791 C
   0.0913984218830611    0.7090204075344957    0.8710651560813666 C
   0.1371339443433435    0.8874507905471993    0.8053986396941726 C
   0.2700461667179416    0.7574805437979752    0.8367280114885036 C
   0.1445824633123707    0.7372408812127432    0.6891213126028415 C
   0.3489745820165959    0.8078677183669478    0.7735739690959093 C
   0.5890554010401767   -0.1166736476256015    0.9652967104437267 C
   0.8435858680516837   -0.0555967484110135    0.7493272936446730 C
   0.0400009476793478    0.4086267025771765    0.3218247144032704 N
   0.6624408194483606   -0.0530091868122868    1.1355248616573663 N
   0.1588241273435481    0.7740005385818913    0.7961471929468423 N
   1.7021361600728204    1.6199764990959740    1.0780617795560135 Cl
   0.0201654129841069    1.3056826190677859    0.6222682225740783 Cl
   0.7317997283053891    1.3073569688111000    0.3938267685050614 Cl
   0.2314082838176393    0.4858141489389096    0.6326587800173148 Cl
   1.0437382562418995    1.1107890769963982   -0.0957412675042185 Cl
   0.8251658212923004    0.2002822948843871   -0.0150427769067988 Cl
   0.2758644805007986    0.2241594438844514    0.2673548600041981 O
   0.2999000940923954    0.2783945506616818    0.0836280939377927 O
   0.1142055834711281    1.0339479445334081    0.1124457572689057 O
   0.4280054930061659    0.1542200117854146    0.2727342490231050 O
   0.4522593401236029    0.1981271456276263    0.0675236102618651 O
  -0.0452447932696144    0.1315763516329476    0.2843818089950230 O
   0.5208630727002641    0.4949431952916747    0.0324354793835960 O
   0.4344446164556058    0.6375064722364712    0.0869482035400411 O
   0.5374123860645034    0.3750283404114594    0.3133916207029320 O
   0.4007483725161530    0.4704340176660265    0.3207307700588819 O
   0.9009782179583715    0.5188830018385553    1.0308399762784737 O
   0.1042455460028015    0.9979586416562527    0.3120320369691084 O
   0.1626059938952187    0.6903252941849536    0.1632249848770074 O
   0.3199795236433919    0.7669221866395151    0.1574398642258220 O
  -0.0184388034483765    0.9287911001498904    0.0955374656422376 O
   0.2033648642681197    0.0977260689553925    0.6295009630679779 O
   0.4979172501534065    0.0860125332052645    0.4615363350436230 O
   0.8240368724047691    0.0100945972521201    0.4057675269961543 O
   0.8119820324943697    0.1560786936105612    0.5545780239794728 O
   0.3163023972138250    0.6335825030444573    0.3708577649298115 O
   0.5877341792142123    0.4536355278284749    0.5109088987379291 O
   0.9725748247097713    0.5969365171257727    0.5589673512624821 O
   0.0508318244485932    0.7215327156392320    0.4297686199801549 O
   0.2717354752587274   -0.0563540460472096    0.5287891855598875 O
   0.0585706231845933    0.8871742924244502    0.4696442310130333 O
   0.6526266700072499    0.6772599898347190    0.5436456234242991 O
   0.3884975189486740   -0.0812304285408754    0.4045457389110291 O
   0.3887473989542641    0.7466817560039422    0.4819751961599846 O
   0.8496001954916202    0.6917292902082461    0.6219244989837140 O
   0.7700291247294873   -0.1110238693174288    0.5198002395233277 O
   0.6984100736662083    0.7533330719567393    0.3947622478534469 O
   0.2836586418727678    0.2349052362049576    0.6896043629046672 O
   0.1828530076415811    0.3297287313010698   -0.1405225567370341 O
   0.6017910517442496    0.0998028770773744    0.7963469966374549 O
   0.6906465861871408    0.2158360823393633    0.7165931717650006 O
   0.1535452251895248    0.4392547836592616   -0.0108652721570941 O
   0.3650993238144508    0.4739766498637490   -0.1510593306741672 O
   0.6470170883248709    0.5984472721464600    0.7637192836198329 O
   0.9877793497205728    0.4328540825327229    0.9122568686655905 O
   0.8334724611188482    0.6448244558852299    0.8405771032754772 O
   0.7066718248689973    0.4579644899652821    0.6771254358522693 O
   0.5500882600846043   -0.0854485610134807    0.8702889072603660 O
   0.3624194729760563    0.9176651229106042    0.7918548584898890 O
   0.7936540074136920   -0.1327673744702794    0.7396563357001943 O
   0.8909373809672794   -0.0383186879405604    0.8361117587262693 O
