Li1 Co1 H90 C51 N3 Cl6 O45
1.0
  14.7270065178999996    0.0000000000000000    0.0000000000000000
   0.0000000000000000   14.3725303266999997    0.0000000000000000
   0.0000000000000000    0.0000000000000000   14.8545076605999995
Li Co H C N Cl O
1 1 90 51 3 6 45
direct
   0.7129247715507321    0.4947061861606474    0.3929254313679653 Li
   0.7100151510553573    0.5849379665445656    0.5827014956044919 Co
   0.3044126959508718    0.1423436664871337    0.1720200957637655 H
   0.0238560196855333    0.1543011990922822    1.0632229752178854 H
   1.1430800778786150    0.3607512766049233    0.1662642671659063 H
   0.2581616130052572    0.2006131556420256    0.0233419941086082 H
   0.3994252158610977    0.0700272422824722    0.1959710746941321 H
   0.5451919062873412    0.1338524685403613    0.1143264973233993 H
   0.5681950196212183    0.2641273719456204    0.2311832817864857 H
   0.4117984024811023    0.3020024007419582    0.0303519874641062 H
  -0.0589449214641744    0.0898581275560635    1.1331943282743633 H
   0.7480452829303762    0.2817561397575979    0.1363561739358372 H
   0.9191737466094546    0.3229597404137652    0.1210362451169505 H
   0.9149671890904705    0.3034711748214104    0.2362585088975103 H
   0.0972823469357908    0.5880473703157986    0.1403421693893956 H
   0.2946170867872133    0.5856469579168830    0.1482300107556080 H
   0.2208933467535313    0.5827302829092732    0.2459727318995113 H
   0.4201510843279180    0.3575820364666450    0.1304899411403115 H
   0.7250888185878719    0.4889416479675299    0.1117595997276523 H
   0.8332268843967197    0.5284255096885090    0.0941864828015100 H
   0.9134156178344772    0.5097290801877964    0.2500960594038256 H
   0.6774240063840612    0.6279985818942707   -0.0035616239130111 H
   0.1628435320161705    0.0473429972268656    1.0874014945068575 H
   0.1029230044515617   -0.0084293672614443    1.1784385070351728 H
   0.1554944485572577   -0.0765440261104389    1.0898566415122835 H
   0.3431979032029869    0.7702553699145224    0.1747956842209554 H
   0.2462929416776829    0.8018434055408310    0.2875735721373250 H
   0.0037107172685486   -0.1419034289885044    1.1000145008939322 H
  -0.0437483504754958   -0.0534506672894520    1.1771883814554975 H
   0.4841950567980607    0.6434906347853585    0.2295554930672315 H
   0.5309042097521187    0.8190999354880492    0.1583192041118789 H
  -0.0732770941119867    0.0984509081724712    1.0175304477031375 H
   0.6819789035329467    0.7912711544099552    0.2315690232819914 H
   0.7554968991068624    0.8840620527198014    0.1875345783212232 H
  -0.1038107941856199   -0.0857379534841403    1.0658942182443538 H
   0.7869533936386552    0.7376974285247099    0.0037674645015962 H
   0.3574275431332258    0.2810109682563694    0.3927456879485936 H
   0.1329189170263999    0.1192844004799285    0.4282083240746786 H
   0.1152927959484678    0.2975925996450519    0.5159881232974105 H
   0.1697424221522283    0.1262734273051767    0.5890497369703178 H
   0.3519600368954761    0.2695613489993973    0.6191193973189233 H
   0.6924576114640141    0.2614785690462954    0.6154666340473461 H
   0.7710900204734403    0.1597873590242963    0.6251088250423330 H
   0.6851479114330432    0.1699435386726934    0.7071398171048987 H
   0.2690463776588997    0.5916312903931359    0.4142112260388086 H
   0.2071838396819754    0.3821824368111250    0.5312804039431377 H
   0.4043861697325582    0.4783019696002546    0.6871431934007105 H
   0.9059388777470625    0.2676465852539435    0.6371011444156973 H
   0.8282652515006395    0.3494707298734400    0.5984650608030264 H
   0.0677739740378906    0.9148513424232244    0.4964410802964395 H
   0.0386112246714130    0.8613819822944538    0.3939621537119072 H
   0.1604947858566602    0.6853113849481455    0.6328095178295742 H
   0.2690681064467297    0.7167456550265816    0.5981250966577728 H
   0.3399487703977667    0.7852415967725634    0.3610623760036059 H
  -0.1554567277346774    0.9865367016870698    0.3743916632828587 H
  -0.0283664057656416    0.9729823730078601    0.6173993807028378 H
  -0.1098676937932613    0.7765381884542927    0.4727777581567004 H
  -0.0648096571044433    0.6752053008628564    0.5850785518359586 H
  -0.1625063613363066    0.8512056252664717    0.5534177919679332 H
   0.3084888807428753    0.2366638710151875    0.7271108593486522 H
   0.1362474957121239    0.0856821057536604    0.9402427969622694 H
   0.2407779037165547    0.0098847356847164    0.9295497465004688 H
   0.4408620142531051    0.9969600576720417    0.9759982734907017 H
   0.7993143578155054    0.0449467594582091    0.9361490900963535 H
   0.7214730124880188    0.1985968092269366    0.8924222958571316 H
   0.7256089514465551    0.1044588968868584    0.8122082606817732 H
   0.8819883213613310    0.1745752909450356    0.7578564088098014 H
   0.8712475099270629    0.2647994874173167    0.8439602386521389 H
   0.6693571939021352    0.3299459841521741    0.7891216658355763 H
   0.7656340576542253    0.4045686132662401    0.7929945643061592 H
   0.2530193595603393    0.6025409908032795    0.6308949474749178 H
   0.1591679717497845    0.3974887186556880    0.7112981508182293 H
   0.2154407790574147    0.5784526784372348    0.7982623255667731 H
   0.4904526760832826    0.6083172875382930    0.6840646665962649 H
   0.3552329355623854    0.5838024671141221    0.8236223044100425 H
   0.4562778422914818    0.6456029976964042    0.8185659267961806 H
   0.7095907606680506    0.3981323074872813    0.6941175073508651 H
   0.8954554166436572    0.3756143518703242    0.7016249927921896 H
   0.7827801083260360    0.4963875184974530   -0.0477206101943178 H
   0.2078744077202009    0.6842816428175963    0.8686934717147526 H
   0.0500208753560764   -0.1049294245563973    0.9560003033938589 H
   0.1237140592818723    0.6466751819012532    0.7874891647420315 H
   0.1410414095271404    0.8015296124996975    0.7104357863230413 H
   0.0899536342154687    0.0374741712946286    0.8415791432427088 H
   0.2158047362535689    0.8324594480885062    0.8007544983701971 H
   0.2502591244812964    0.8391054594608079    0.6869910510307554 H
   0.5834374926741880    0.9527806414129290   -0.1019405155861514 H
   0.5725783272487079    0.8477086766528632    0.0121285628858549 H
   0.3496031424405295    0.7587361734865673    0.8278122783507531 H
   0.3883523613878009    0.7616827666776997    0.7089224409794170 H
   0.6619843445815333    0.7940048414578796   -0.0502228809426503 H
  -0.0244538659069836   -0.0223865477606458    0.9191441508703975 H
   0.2870812715578855    0.3043819399895787    0.1086884780828062 C
   0.3860830611087945    0.2954308369426082    0.1024082295460310 C
   0.3735115992998402    0.1236566299045039    0.1510412786181414 C
   0.4363152653996559    0.2126013022024066    0.1510594549189767 C
   0.4440608992364681    0.2376435175826290    0.2504528534572602 C
   0.3694904155020317    0.0790395732399078    0.0599187701562671 C
  -0.0214620834326262    0.0935965089529833    1.0711195681363519 C
   0.9162505456216860    0.3594654904851563    0.1838663315341197 C
   0.2543122224362304    0.6268957837341893    0.1976055953766587 C
   0.2040745859484115    0.6814477646434564    0.1281021137676090 C
   0.3238769366743067    0.6786006668068296    0.2590973674952847 C
   0.3821800275948122    0.6015822173871329    0.3034421559629082 C
   1.0107768839042133    0.4076731466355042    0.1856200079665669 C
   0.7522735692371905    0.3651228102577888    0.2407938325540925 C
   0.8329403360072102    0.4217777611600189    0.1949431039024443 C
   0.7938047520513348    0.4621010018717375    0.1039882213260515 C
   0.7921852783333724    0.3894810820472478    0.0282879675248037 C
   0.1174914776670264   -0.0122693313279993    1.1070770035629545 C
  -0.0387609146438673   -0.0741136955280007    1.1051550280486986 C
   0.2827355139918649    0.7473888326709403    0.3267031086578590 C
   0.6166900073250630    0.9171919184550945    0.1738336866693366 C
   0.6257604181948917    0.7070145918928910    0.0994502048841604 C
   0.6940757271327370    0.8443439246641224    0.1778116037669682 C
   0.6954555051599487    0.7886460077487644    0.0878813260006270 C
   0.2469706082481342    0.2609734387849583    0.4569632319961942 C
   0.2090314656721539    0.2532114095900884    0.6247022144606831 C
   0.1880808400562160    0.3041996478016031    0.5325633815035821 C
   0.3005456507417331    0.2806832597810391    0.6704378265403741 C
   0.0519574535714343    1.0072108622729756    0.3966549390208472 C
  -0.1061011442278368    1.0143404349836096    0.5129840661438799 C
   0.7291480277643830    0.2129937174467510    0.6610669336652630 C
   0.2114657689337451    0.7112427965735314    0.3925060300560980 C
   0.0235884839853752    0.9194552638271735    0.4395846688086228 C
   0.2336107988557190    0.6721946966744193    0.6450771745007775 C
  -0.0309385510250301    0.8114067876924523    0.5897377436167519 C
  -0.0787486744974547    0.9230127445795372    0.4640849759420131 C
  -0.0985578597276924    0.8339129151903423    0.5165145022376387 C
   0.1252350744299795    0.2678553167668927    0.6944944972941166 C
   0.7728188171551730    0.1538614713716693    0.8496548063842198 C
   0.8357535350065889    0.2174793576600288    0.7948970171269253 C
   0.7277091745952585    0.3565905617801364    0.7488786625897956 C
   0.1963921014012306    0.6505019263053214    0.8002590258733521 C
   0.3150326410028349    0.3849982249208093    0.6908780866242102 C
   0.3967016481115181    0.6304045604668649    0.7762124530645180 C
   0.8584804890276377    0.3224142553932580    0.6592432448147834 C
   0.0391551233917852   -0.0302432019080528    0.9540608247750949 C
   0.1155066887036704    0.0200311745291758    0.9073921625858562 C
   0.2113842859793823    0.8008790659510058    0.7307427535340849 C
   0.6464740642185576    0.8392049548153138    0.0065033343754793 C
   0.3478546540448259    0.7237430311123477    0.7624146211415096 C
   0.6940118988184860    0.9269118492414278   -0.0303447397920554 C
   0.0256649412723894   -0.0046248875520906    1.0586149463579617 N
   0.7873635245089484    0.2776149065406863    0.7196525172392156 N
   0.2492297231578453    0.7090872958164763    0.7343113672647575 N
   0.6759145346544887    1.4354882678572236    0.5528582985003683 Cl
   0.6891093410643191    0.6540447958517787    0.4427082997669932 Cl
  -0.1335099730016532    0.5715123556316747    0.5847830186483025 Cl
   0.7588791207375419    0.6219766777456870    0.9037696931490047 Cl
   0.6299153698427793    0.6354788235466594    0.6884034169252944 Cl
   0.4664886750100812   -0.0678788852362088    0.8666260857938138 Cl
   1.0727331272786549    0.3451061539376727    0.1644156700513190 O
   0.2280346486788188    0.2514504113925071    0.0611641833616518 O
   0.0431932828050860    1.0293725827744995    0.3190939705711219 O
   0.3819994070459744    0.2313523497823408    0.3016588588920627 O
   0.6304735280801651    0.9995323256832853    0.1643476772222683 O
   0.5235410025811162    0.1997747507316797    0.1089429462945010 O
   0.5233588881781153    0.2705451701970977    0.2794285697741088 O
   0.7162940917136376    0.2940184203716522    0.1949733977371698 O
   0.7936512924872846    0.3030377090461860    0.0378978450960832 O
   0.2552384120174886    0.3672275196800264    0.1512856488849277 O
   0.1177950016720282    0.6449350568549669    0.1097938664521261 O
   0.4645810232435221    0.5916166791872295    0.2737582371098084 O
   0.3482926249245264    0.5449394424898250    0.3533865914804725 O
   0.7080894372339144    0.3944426301100497    0.3040184120190214 O
   1.0308794077701575    0.4903274164819996    0.2117561821751383 O
   0.8509351674536344    0.4965982677483606    0.2538356650016160 O
   0.2292433125018682    0.7509824935522152    0.0907484691583209 O
   0.3861434942999470    0.7295840346163754    0.2026956328068825 O
   0.6199764864843661    0.6407973024966044    0.0398312649479021 O
   0.5295512531973849    0.8859343743909556    0.1748354028042622 O
   0.5688031540706133    0.7142784485435223    0.1625354327093517 O
   0.7830293103614626    0.7566050247393561    0.0688069812647507 O
   0.2217862641284246    0.1962332727286420    0.4078501939427652 O
   0.2246775509590677    0.1569722666863218    0.6145362767231075 O
   0.0953382994496162    1.0616383000461831    0.4559918096959940 O
   0.3284141791830801    0.2993591640163117    0.4514597173817826 O
  -0.1642562077812496    1.0668343231751978    0.4825656288369009 O
  -0.0666403074791295    1.0293023098318066    0.5895815620688335 O
   0.2197851785741960    0.6322511385847552    0.4380336244706733 O
   0.4021487836106772    0.4072544312205281    0.6908915505507549 O
   0.1457334696492034    0.7637958253604553    0.4011162110814335 O
   0.0066013250745721    0.8719681488595262    0.6385384185743440 O
  -0.1296816321958369    0.9232444365589109    0.3850301848421533 O
   0.0842328517945743    0.2003425004469015    0.7245621380537404 O
   0.3068918148373627    0.0970725844152969    0.0028606690488107 O
   0.1035762261357042    0.3559692376432577    0.7172182393199339 O
   0.4380590006230217    0.0232866903594731    0.0437485943760825 O
   0.8287555072760562    0.1050934406862239    0.9148612758365285 O
   0.2496507184220535    0.4401440469844168    0.7041178387919409 O
   0.4242578252278075    0.5856803549589549    0.6922561195060603 O
   0.7975733386906183    0.4280814528510840   -0.0524329844849627 O
   0.1989384437250708   -0.0348805203540736    0.9043472955977723 O
   0.6553821882042803    0.9732523324312743   -0.0937652193882097 O
   0.7691194910270979    0.9522393310226808   -0.0036538518098423 O
  -0.0190814231159905    0.7232239854168141    0.6154107587521858 O
