Li1 Co1 H90 C51 N3 Cl6 O45
1.0
  15.1464053968000005    0.0000000000000000    0.0000000000000000
   0.0000000000000000   14.7538352824000008    0.0000000000000000
   0.0000000000000000    0.0000000000000000   14.8023823590999992
Li Co H C N Cl O
1 1 90 51 3 6 45
direct
   0.9402378865026788    0.7728789784445181    0.4354596459357988 Li
   0.2279117789313442    0.1176710399682319    0.3020405143332507 Co
   0.0447825197220262    0.1182817286351135    0.1307714619268688 H
   0.0962026408396443    0.2570009132285228    0.0655981691016822 H
   0.1718965081279330    0.3186770796342506    0.1331447285502920 H
   0.2676353954751821    0.1384873222515488    1.0090273861840793 H
   0.4861328483889402    0.1370219405669783    0.2581171792762895 H
   0.5868721961105037    0.1197891332912120    1.0349765875140844 H
   0.3584708091562839   -0.0157993399233668    1.0681604350923783 H
   0.4732078675191320    0.1051326052860529    1.0226941051683809 H
  -0.0499250998365434    0.1627061096489011    0.1910455433791362 H
  -0.0122158226161760    0.3318872040710130    0.2509602232248961 H
   0.2289285218215915    0.6155924183343993    0.1220431371973990 H
   0.2641811105389652    0.6551475569698544    0.2293238411729821 H
   0.0684145294710603    0.6415382143035765    0.1726302644471999 H
   0.5843336399981653    0.5620640994340182    0.2617828054358950 H
   0.4445691913028171    0.6604241510560624    0.0654036058259789 H
   0.6553802000108366    0.6404185054493163    1.0647913828148343 H
   0.7344134734931975    0.5656325952855887    0.3382623863936208 H
   0.2449970208234352    0.8473945182317538    0.1695733240910969 H
   0.2554800361554786   -0.1709800069280459    0.2916523216579366 H
   0.0317682107268605    0.7530177020786664    0.1781841001748292 H
   0.3226524096227140   -0.0666911918132748    0.9746856168885789 H
   0.5350614212473275    0.0297915174452524    1.1018874384820105 H
   0.5579809847282670    0.7460879785157388    0.3321525590829920 H
   0.5202249637438544   -0.0376872079806459   -0.6881899529258864 H
   0.6751967830308193    0.7638684400010949    0.3321883641302568 H
  -0.0457307053029452    0.0077891029010666    0.3379840528186563 H
   0.2302370831257929    0.1803632133791268    0.5447165858503229 H
   0.3802931486052089    0.2292772744477689    0.5431687944580870 H
   0.2632013401174542    0.3211117008234168    0.4730986547442346 H
   0.4257078844438077    0.3068279572431022    0.6233192034407756 H
   0.5351483065488578    0.0948912004507794    0.3928495454331424 H
   0.4563129017965016    0.1011153447659559    0.4852585149365600 H
  -0.2221613454444390    0.0762058894978463    0.6594613586034617 H
  -0.2609362220315981    0.2614716151672034    0.6553086486876682 H
  -0.0809014264109744    0.2763009795875176    0.5126961996380579 H
  -0.2685485892553329    0.2743530115202393    0.5278031597594148 H
  -0.3055276602181590    0.1773301037406192    0.5820427396136955 H
  -0.3352112708321326    0.1195078504979202    0.3928002290472870 H
  -0.1011986515245284    0.1005365122226519    0.4994665724571595 H
  -0.1663527243323573    0.1916741706187723    0.4444486043866795 H
  -0.2518647627380928    0.0203099150467983    0.5218995830323701 H
  -0.2248022360684580    0.0399712434029607    0.4038214279355664 H
  -0.1029581449027811    0.0834724746228607    0.6543986600335974 H
  -0.0301362461681130    0.2083620348444022    0.6023583883183871 H
   0.3277671545387829    0.4737606193515110    0.4553727243071861 H
   0.1450129017980755    0.6539783694555693    0.4069891612681116 H
   0.1497777287064619    0.2671304827363429    0.5704250151266449 H
   0.2076105924818541    0.3980666063288623    0.5449363477724976 H
   0.3179483231986802    0.5820872320192388    0.5975260580714910 H
   0.4050785673342833    0.3881681631644457    0.4823136038443803 H
   0.2942978272152779    0.3960806820292361    0.7158860596912927 H
   0.4332608316285021    0.5173642646197637    0.5611947441685377 H
   0.5444886745301538    0.6119160861155691    0.5617297931767219 H
   0.7095580711625866    0.5405254287143390    0.4567516915237337 H
   0.8996038229162104    0.6442486959671279    0.5221127919553283 H
   1.0713798933328706    0.8614559467368885    0.5643611263672238 H
   0.3204769759711784    0.0076942123201971    0.4895281317095079 H
   1.2210523694491477    0.7555451804791121    0.7261080629019434 H
   0.3573319250746756   -0.1080384068474369    0.4923533661201222 H
   0.6031856377177250    0.7619035271872326    0.4808588312626706 H
   0.5522687383085139   -0.0397666672814148    0.6147354500342243 H
   0.6960934903160256    0.6952808503587500    0.5783777890210194 H
   0.3598526551753018    0.2002055116288046    0.6566401911057630 H
   0.1997757302230457    0.1905605618732823    0.6653124437800823 H
   0.3357287795475442    0.0620075474403142    0.8935608377234355 H
   0.4634064000348823    0.0803180405988128    0.8672792574641039 H
   0.5762551555792913    0.1224575919832353    0.8769756696035839 H
   0.5513118115909005    0.0157490670562917    0.8164239301432814 H
   0.6713120329228873    0.0147093374059072    0.9483513424087443 H
  -0.1584432569134205    0.1673632038000040    0.7174648596055939 H
  -0.1043036786757188    0.2939750280643271    0.6357597684479881 H
   0.7787282783868924    0.2387026202875646    0.9140629429006762 H
   0.2732208791449823    0.2808740277955647    0.7531077708073606 H
   0.1877676005556313    0.3481961837630282    0.7000865759104792 H
   0.5285709703829417    0.6092957505038439    0.8204138284290592 H
   0.6215437888905933    0.5339196209271081    0.8457610996248569 H
   0.9358916407581995    0.6196415349780738    0.7067463147017418 H
   0.7908710934761318    0.4382141333048885    0.8128738259286248 H
   1.1823435151275894    1.0052565219358600    0.7829732336278250 H
   1.1554605690203879    0.6626364571700486    0.7429999384077997 H
   0.9996117099571862    0.8746931827681851    0.7252777911455565 H
   1.0291296046845027    0.7861921269405102    0.7951888348475056 H
   0.1747849822479538    0.8502541136652429   -0.0448023029544497 H
   0.6316630215391780   -0.0597296121267696    1.0317885871736534 H
   0.4705078869674006   -0.1084688034106664    1.0152770558491200 H
   0.6362046931898346   -0.0940556019664513    0.9078538072514071 H
   0.6328606654371707    0.8034018893609226    0.7696334890374140 H
   0.4438602442147991   -0.0816093467056884    0.8940222499363015 H
   0.7881120229966879    0.7188699709730467    0.7760115164190644 H
   0.7582930667382335    0.6618759769433659    0.8854486300336930 H
   0.1342717394075343    0.2581036773361992    0.1285839762090651 C
   0.0679457713852969    0.2483211362384161    0.2053439174425440 C
   0.1916662153393393    0.1748026253401735    0.1124960253493443 C
   0.0310980847310157    0.0870945836526225    0.2720385869930220 C
   0.0225548035623142    0.1539178862806578    0.1939653436485456 C
   0.1029857684074371    0.2729235526984265    0.3032849086174367 C
   0.5336293322841876    0.0676060917116153    1.0367019854520927 C
   0.2495750047201721    0.6768591996626614    0.1600714752273204 C
   0.0759892640034028    0.6935104632356702    0.3017392114826823 C
   0.0818989169973013    0.7082849266770530    0.2006176512035834 C
   0.1688251523321989    0.7417494456004121    0.1590567736991730 C
   0.1549961285795234    0.7630395029982133    0.0559071614976386 C
   0.3710863436672226   -0.0152028848436156    0.9962814649247212 C
   0.6392436980754246    0.6738382902416943    0.2225404736336163 C
   0.6225209184214802    0.7145307602678568    0.3229736312115286 C
   0.3339382557044592    0.7092128209999840    0.1146814843663593 C
   0.2074428959272289    0.2282999014648129    0.5979036999850957 C
   0.3703277478354731    0.2580223425525967    0.6103496695277445 C
   0.4031104435967331    0.1265683875044751    0.3501462842509043 C
   0.4687202020817365    0.0816390530424891    0.4151263649342466 C
  -0.1647615877313859    0.1191113434278584    0.6576184120197160 C
  -0.2594375166024673    0.2315275367941029    0.5867088803959282 C
  -0.2408588510624936    0.0716965535369545    0.4678760494821516 C
  -0.1658311484341136    0.1348591131130168    0.4914712040678785 C
  -0.0893846273179794    0.2476101346717581    0.5800383325337932 C
   0.2718423342392444    0.3636843599305222    0.5308172016154928 C
   0.3464554170396533    0.4270299227696900    0.5086223959396331 C
   0.5567031237775697    0.5831798292789648    0.4171908974708766 C
   0.6396107818721632    0.6517138735221047    0.4047665460699726 C
   0.7201902968148871    0.5947754582612189    0.4048422095660795 C
   0.8020268756946441    0.6486319630134358    0.4340082579444062 C
   1.0902913110914707    0.7757819524292617    0.6661015059537680 C
   1.0103231623282072    0.7150601141511359    0.6453683568866296 C
   1.1697662735306988    0.7160869657941167    0.6915507877559243 C
   0.2976002609406138   -0.0690343113708884    0.3669908700716937 C
   1.2110301895309958    0.6648230072692275    0.6134160678208609 C
   0.3506207617763873   -0.0479936806428013    0.4487166335773430 C
   0.5096214577770901   -0.0653335787169775    0.4885760957697433 C
   0.4457126969430174   -0.0230056017505427    0.4169004036911806 C
   0.5323622329627833    0.0598087971235950    0.8716582823012885 C
   0.2596698091304848    0.3355730253479300    0.7014674347144294 C
   0.5879476988171354    0.6293712084665154    0.9519257670328639 C
   0.5934757431158632    0.6050690529159707    0.8504583164858479 C
   0.6401349986610310    0.6565268593417789    0.6912893433541978 C
   0.7534569357829985    0.6594264443772059    0.8155923072530356 C
   0.7962981237084910    0.5663789097041274    0.7882298199064632 C
   1.0561855291275772    0.8364244892933752    0.7455096695509870 C
   1.1219476670015867    0.8910679080769457    0.7888851198281028 C
   0.4594941846644605   -0.0543432160826982    0.9626848459524874 C
   0.6228450877455786   -0.0397626005422347    0.9610992903688910 C
   0.6505348259384178    0.6679862525614989    0.7937755488309381 C
  -0.1725786239784822    0.1804980935619341    0.5798707919352709 N
   0.2818684754933325    0.2966780540393815    0.6096741025982190 N
   0.5388606725213069    0.0055368071851424    0.9572951729887328 N
   0.6109221268007887    0.1131806821235140    0.2491267345781638 Cl
   0.9684551425976660    0.9371257626614155    0.4660312788676963 Cl
   1.3040489595355054    1.0532731892254219    0.7703205406047414 Cl
  -0.2796601365558928    1.1853005544979407    0.9490316383067765 Cl
   0.8499128249346687    0.2996840520833549   -0.1902498361805069 Cl
   0.6495781633098670    1.9630684894354220    0.6930289281977260 Cl
   0.2048502015570982    0.1034360972580787    0.1549783761456275 O
   0.2247882655457857    0.1880601950673707    0.0283568665446581 O
   0.0985008759051968    0.0680961337828200    0.3147276612697401 O
   0.4220984471834298    0.1437883167728377    0.2665928419741168 O
   0.0048304661392107    0.3146638858533337    0.1909219146310331 O
  -0.0468345975837852    0.0492488310525453    0.2849594800871272 O
   0.1497645242533417    0.6577353586681385    0.3408281895919587 O
   0.6189227049462543    0.5861729493155345    0.2120360834464239 O
   0.3937352818814656    0.6426579231578368    0.1057146845107670 O
   0.0048700794985709    0.7035214195174035    0.3412841972693885 O
   0.2678295009360475   -0.0125262926732321    0.3119645925279806 O
   0.1984367986766681    0.8201866775370120    0.2093425980984056 O
   0.1762420936497563    0.8477246018952070    0.0251648128026500 O
   0.3475500662033092    0.7895356643364339    0.1033616848952296 O
   0.4609756582822696   -0.0586661598311677    0.3319816406498220 O
   0.6660434561279694    0.7148696551995335    0.1578042726118327 O
   0.1800126252381995    0.2431387549432141    0.3149141177422891 O
   0.0584365844708605    0.3185672776763873    0.3592313083191636 O
   0.3299128781707983    0.1386330470721699    0.3828356168367855 O
  -0.3193791315411387    0.1260295445631090    0.4567173727237138 O
   1.1748697946616153    0.6503379600994968    0.5371136205120567 O
   0.5218529407690309    0.5849705500979451    0.5003064372639456 O
   0.3747353942869609    0.4895371951058621    0.5813543369125089 O
   0.5275453805091039    0.5322323986202618    0.3589847263898868 O
   0.5804264423199292    0.6147682258605612    0.6558078926485876 O
   0.8479149911775984    0.6095038319918935    0.5018179507120660 O
   1.2900984548141248    0.6312032744671603    0.6364002058971783 O
   1.1196428297094740    0.8335506602727557    0.5971051798743966 O
   0.2852686221717570   -0.1573699864719048    0.3519568036220327 O
   0.5552379576593639   -0.1296741370755484    0.4709104259028085 O
   0.5065489003761220   -0.0217564350323819    0.5683942609364913 O
   0.6432241804684772    0.7099299226754122    0.4820362633528021 O
   0.7038860983248498    0.6960040521429484    0.6454642873906223 O
   0.8285876331457154    0.7132910826077830    0.3949086734343362 O
   0.9782072914495121    0.7124309672711870    0.5674484672351555 O
   0.3539172534978191    0.0691690751365088    0.9571620863036162 O
   0.9911153045970611    0.6618935994798131    0.7126257736894025 O
   0.1233265682162875    0.7003683410730823    0.0103705726129705 O
   0.5191842547711941    0.6639168022219237    0.9771994014333434 O
   0.6621171119927092    0.6237116631075125    0.9992600395169994 O
   0.8557643783348389    0.5596069756213886    0.7273261100758780 O
   0.7578645822344863    0.4936266402464062    0.8252502120775325 O
   1.1175789736868034    0.9780574925093417    0.7734443620868674 O
   1.1750480547787368    0.8572685609610897    0.8412780374805255 O
   0.6228239606205864    0.7581018038436821    0.8202591236021979 O
