Li1 Co1 H90 C51 N3 Cl6 O45
1.0
  14.0835950000000008    0.0000000000000000    0.0000000000000000
   0.0000000000000000   14.0687110000000004    0.0000000000000000
   0.0000000000000000    0.0000000000000000   14.0587160000000004
Li Co H C N Cl O
1 1 90 51 3 6 45
direct
  -0.0115843660656246    0.2828334315773492    0.4960743555812636 Li
   0.0496890524045885    0.2178225673979656    0.8817223443449600 Co
  -0.0027044174445516    0.7494235150611880    0.7590228908529058 H
   0.0220201858971378    0.7426166590528444    0.6330548202268258 H
  -0.0401705892565073    0.8432294906050739    0.6819600644895309 H
   0.0775508959182652    0.8500449216705070    0.8575704296181813 H
   0.0447084810376896    0.9518257450878052    0.7886207026303114 H
   0.1675259875053209    0.9315960182848309    0.8150247860473175 H
   0.1648797327670953    0.7191158756477405    0.7813699835746024 H
   0.2517410703730120    0.8020182126137925    0.7385807437891199 H
   0.1912299295740896    0.7250094184179346    0.6557252788946017 H
   0.0720491664237718    0.9557274628784399    0.6241664573066275 H
   0.1172718016955188    0.8546445889747825    0.5618700427549713 H
   0.2218972215545818    0.9999357226116877    0.5605001032811247 H
   0.2802663268859975    0.8940108038327037    0.5970236279045682 H
   0.3064558914112483    1.0336527717429123    0.6974026212635634 H
   0.5507406475406315    0.9617380796293279    0.9976159088781650 H
   0.5687126717290578    1.0353514135019193    0.8940849455953160 H
   0.6602416478179045    0.9539147076089629    0.9329735354210156 H
   0.5324323633276873    0.7975330177725592    0.9835845954922200 H
   0.6391675697859815    0.7852449581201860    0.9132745124092414 H
   0.5277357073957324    0.7388202359121600    0.8705235520797205 H
   0.4073611915139565    0.9028759528858046    0.9317068891639891 H
   0.4055409481740990    0.8463191539011641    0.8177263193879156 H
   0.4227051353010364    0.9736409597154991    0.8252161733688909 H
   0.6636715547415273    0.8860634595450856    0.7776069855881576 H
   0.5765721294882450    0.9741100623930650    0.7461449139451996 H
   0.5894570022781825    0.8576009379963807    0.6231656703215287 H
   0.4731444471386745    0.8529306672089575    0.6718543756058519 H
   0.6243056698236494    0.7232073144440880    0.7229218066571655 H
   0.1642338323418133    0.5532585344883408    0.9153599155143328 H
   0.2276596834828039    0.4843998977589347    0.8267081602615772 H
   0.2808558368797172    0.5088256401030627    0.9409412267805964 H
   0.0949397756751739    0.4819628479112266    1.0461305975595496 H
   0.2118511154289796    0.4452791318266471    1.0826069272613517 H
   0.1169360983470485    0.3594277222696521    1.0762322682953407 H
   0.0393384395106505    0.4426095887533691    0.8858114795120692 H
   0.0446722928343225    0.3274167214039723    0.9326115514389792 H
   0.1062603262874287    0.3618572014166757    0.8148959961919708 H
   0.3087978254131846    0.3555088671591875    0.9779990221013071 H
   0.2720587967773853    0.3314309974808637    0.8587495401429263 H
   0.2908611735852955    0.1861344923497256    0.9472858438850319 H
   0.1754531687399417    0.1974555906365551    0.9012669350458462 H
   0.2295870258978620    0.2242217364476390    1.0977944145112539 H
   0.6028785377597127    0.2754000171017800    0.7138002432085547 H
   0.4890101156700402    0.3278044278541225    0.7155119308192867 H
   0.4601225035227156    0.1902164334742536    0.6159286971868554 H
   0.5459200999460720    0.4945513451800951    0.5637521918786893 H
   0.5913338263419248    0.5728549936095780    0.6494925966211992 H
   0.4770111480768938    0.6557486304182379    0.7020477033606768 H
   0.7520740350741413    0.4052025633336274    0.7594814419752132 H
   0.6836175344434429    0.3932609248992321    0.5766958540168249 H
   0.1261127290297683    0.8190101054744816    0.1865720269191013 H
   0.2233255606966829    0.8169922240921716    0.1045961971207043 H
   0.3251217938317595    0.6946562197489166    0.1196001185314505 H
   0.3717618633594618    0.7743371293930198    0.2890768161189116 H
   0.3967687639413091    0.8973965951820319    0.2976903445520914 H
   0.5114038375855029    0.9285124443881178    0.2064886131848741 H
   0.1985214506665379    0.9903750947759179    0.3403177537692632 H
   0.1899570507388206    0.7914466250674991    0.3466143053177829 H
   0.7403574690979114    0.6247004014795670    0.0644602921063346 H
   0.8382723061831869    0.6278576537679963   -0.0124301152395425 H
   0.7924919070734425    0.4006920363919623    0.1122260496620033 H
   1.0002952868212982    0.6640488855020193    0.1502049440361410 H
   0.9855817907288587    0.7881872824027730    0.1343621643683534 H
   0.9019232660410925    0.7823134869996263   -0.0466282553826395 H
   0.8107634719686273    0.8631343020693225    0.2139111032614927 H
   0.7873995737593987    0.6679091830090191    0.2353923509088597 H
   0.7155372303733529    0.1720512469123859    0.3935512538982934 H
   0.7390791399497075    0.0680117339818836    0.3270058538774095 H
   0.6292573898922825   -0.0106250281209131    0.4215696746416956 H
   0.9188664435465519    0.0088338967230189    0.4441153018526016 H
   1.0027419959179458    0.0725981157762072    0.3734530002597676 H
   0.9607197203554916    0.0711957698185711    0.2115549969143697 H
   0.7757231331914898    0.2900059209404472    0.3243013600957584 H
   0.8554866225562436    0.1533875633666794    0.5218056648985583 H
   0.0429695919259252    0.5364398529474377    0.3717308906446364 H
   0.0364863729750820    0.4859240516064336    0.4854715153218829 H
  -0.0092794176486898    0.6573020918547549    0.4703710914993944 H
   0.2670213251659111    0.4700467448652546    0.5104182209812048 H
   0.2672807582154982    0.3533777195366370    0.4634570454371508 H
   0.2738572019431119    0.4239844105120931    0.6567078536901947 H
   0.2220858275177609    0.3061625994023191    0.2771873882365928 H
   0.2053415764937858    0.5413013971215984    0.3107807583565953 H
   0.5465770259653164    0.5893622002754907    0.0940700224686237 H
   0.6071974442605030    0.4778906475511509    0.0991669125402348 H
   0.5243505639007654    0.4449642849298703   -0.0543926920495442 H
   0.4729916381435280    0.3737627846644941    0.2372046166947252 H
   0.5099210968506266    0.4237735902031110    0.3466343462660459 H
   0.6156844335554950    0.3220495928873655    0.4007937645230190 H
   0.5065291546654104    0.6213111343320650    0.3531232631770924 H
   0.3910041484436325    0.5405983128091834    0.2052594170050807 H
   0.0147551260881898    0.7895491221619380    0.6946117376579768 C
   0.0995440681161309    0.8976792124026146    0.8001493038197798 C
   0.1850615819327381    0.7656942224486664    0.7220940048863638 C
   0.1279037113748301    0.9010197188640807    0.6239547921730548 C
   0.2259304566767221    0.9467229492453146    0.6184095475006395 C
   0.5835991201110228    0.9663362741618617    0.9271341543566282 C
   0.5619689482692451    0.7952305303591779    0.9114698447568043 C
   0.4361551088340726    0.9045899777172195    0.8592668882421410 C
   0.5874193307887652    0.8996095008277589    0.7673151004686346 C
   0.5482856103146959    0.8375647904061716    0.6870411074524871 C
   0.2145197593370159    0.4952151067713311    0.9028121351907243 C
   0.1469173573934780    0.4240915461267205    1.0453733043615079 C
   0.0851912938422328    0.3795880930385165    0.8883507362976818 C
   0.2500153817260437    0.3297802741132432    0.9336699546388163 C
   0.2245725860478096    0.2269839504130833    0.9567430667210292 C
   0.5573535393484405    0.3283115084246169    0.6777178506202131 C
   0.5443071389087800    0.2964122398988791    0.5753775565279219 C
   0.6059099391881122    0.4259078887895273    0.6850987174077633 C
   0.5488224881502202    0.5077455098764911    0.6410034301852318 C
   0.4469280144735773    0.5220685413183909    0.6736076637439721 C
   0.6288686979425353    0.4470762147292670    0.7896163390739240 C
   0.2018406756229500    0.8014534679118790    0.1779908577710795 C
   0.2165996586808979    0.6980337125412556    0.2037128518706829 C
   0.2570693185937256    0.8645525258141986    0.2467849937362701 C
   0.3636339982795586    0.8429915100253321    0.2518758014601049 C
   0.4185743469618375    0.8341504996442105    0.1591793738489347 C
   0.2431151243698786    0.9691423649259694    0.2148037473692476 C
   0.8183895390346001    0.6221120627184680    0.0632740102296682 C
   0.8502381309601703    0.5247257179424611    0.0991465792466396 C
   0.8590729526090461    0.7067855463091111    0.1196709066460977 C
   0.9665256420679522    0.7179405718121581    0.1047264081584691 C
   1.0090216794788547    0.7088264710249574    0.0057787126505721 C
   0.8100451205817832    0.8005345720727365    0.0859439425335856 C
   0.7606580315608337    0.1079508812143486    0.3907562589641899 C
   0.7395915503108405    0.0527655689280987    0.4824837118837880 C
   0.8653124205857951    0.1374941314808443    0.3844946124525170 C
   0.9281751576923364    0.0489914506026885    0.3777089835231041 C
   0.9065194135446241   -0.0194149911814949    0.2970537700597978 C
   0.8855700522487333    0.2043301735318893    0.2987408629635878 C
   0.0861626452620940    0.5192590394386523    0.4349867619489575 C
   0.1231007629799068    0.6104253488468133    0.4803028420234109 C
   0.1612540335049396    0.4458453955021182    0.4061635742552876 C
   0.2204999284628676    0.4100593515639065    0.4911238480100174 C
   0.1695825874004471    0.3723144515513895    0.5780775883089181 C
   0.1080487226450349    0.3585465683387767    0.3611767938124648 C
   0.5409678508931846    0.5145771727061562    0.1177627295408770 C
   0.4554471681413730    0.4725758536087634    0.0662388023202119 C
   0.5271491440928258    0.5160962912664849    0.2261495864913979 C
   0.5304358326123408    0.4155961132473330    0.2714377031302148 C
   0.6228150979916705    0.3603689079973282    0.2614342376643785 C
   0.6045722182439924    0.5791736463987355    0.2718428190739467 C
   0.1085008536527783    0.8393932557147560    0.7104245786030531 N
   0.5415857989384103    0.8898031006536419    0.8651723372177089 N
   0.1729370064958557    0.4053564672698159    0.9428176769485919 N
   0.8095478846132682    0.6477491896734534    0.6120601604015615 Cl
   0.8544030348785236    0.6021670755764335    0.4719351425834336 Cl
   0.5394750743684408    1.0005605076399680    0.3200376044298782 Cl
   0.4255060934370805    1.1165803704404760    0.7178205370959908 Cl
   0.3190744841782230    0.2829142015924558    0.2040573925812286 Cl
   0.7534125810916886   -0.3024306946101885    0.7690333960796989 Cl
   0.2498951098778401    0.9916936064718367    0.7050590324180387 O
   0.5569439954784272    0.7379744889208399    0.7035083367499564 O
   0.1832669542116200    0.2094287863330194    1.0459880063015712 O
   0.5911861879015976    0.3341312228248914    0.5094280260018056 O
   0.4852845747126355    0.2273845279784338    0.5565885092208990 O
   0.3866106991858258    0.4583875971295451    0.6677421842791332 O
   0.4226345837124683    0.6082300922948805    0.7040828372946719 O
   0.5707345283643843    0.4824536434077009    0.8442550144693156 O
   0.7159350733956777    0.4216978961327729    0.8177611959726621 O
   0.6976551491291818    0.4207646862601698    0.6398883333300139 O
   0.1728684799584197    0.6623001894061226    0.2715255902459371 O
   0.2773532879921640    0.6494207678301160    0.1520367578376290 O
   0.3987789438705103    0.7746053202741886    0.0965415895733295 O
   0.4938672647147266    0.8894009444077713    0.1468901918212161 O
   0.2609491752638442    0.9954413229470702    0.1344384650774651 O
   0.2096655903553035    1.0284068348550197    0.2824713679400025 O
   0.2184925894276284    0.8550077899816124    0.3414605672381461 O
   0.9243276492969302    0.5066786360171873    0.1405469944765937 O
   0.7854748819459804    0.4588331439888132    0.0739402218524081 O
   1.0814781225958288    0.6626856376536557   -0.0095406330137119 O
   0.9672424214129987    0.7575591466766216   -0.0653167408744867 O
   0.8029060392605724    0.8149848454488829   -0.0009049766707002 O
   0.7773230641750206    0.8607688024865959    0.1488222117866240 O
   0.8493941987113376    0.6962352322113945    0.2187668952129057 O
   0.7849153706848286    0.0691752201036755    0.5567132382502072 O
   0.6704252586076211   -0.0106236669443277    0.4822846254238295 O
   0.8584834419052807   -0.0921699898448408    0.3086601244381065 O
   0.9444291326184827    0.0011884073814580    0.2126364256878082 O
   0.9452352421381047    0.1838957286136590    0.2379550138149173 O
   0.8396685917196568    0.2863154613098528    0.2942466331918220 O
   0.8907225079960053    0.1898208080328041    0.4703602377343706 O
   0.2026430929034810    0.6236345227363046    0.5123169370517193 O
   0.0566738293738211    0.6801878580063234    0.4862284521573663 O
   0.0958456296137456    0.3247210160191648    0.5754624789347761 O
   0.2111848260334098    0.3896012861448359    0.6619968345615630 O
   0.0238006361301926    0.3456727037750651    0.3835159903649807 O
   0.1530692667603691    0.2972096441529007    0.3090256379032054 O
   0.2280834872062140    0.4820868230216684    0.3414962646659908 O
   0.3741299611356333    0.4841720353769439    0.0959650518582209 O
   0.4699521407708756    0.4234942568654655   -0.0138578473311503 O
   0.6668218874513219    0.3519454177429617    0.1871339246059171 O
   0.6554811509419293    0.3163164365235735    0.3405689808372258 O
   0.6853491086615314    0.5849224872129366    0.2407465304797394 O
   0.5764501762511631    0.6273046294006608    0.3494919756541066 O
   0.4399523708257728    0.5599690071108859    0.2530117978057171 O
