Li1 Co1 H90 C51 N3 Cl6 O45
1.0
  14.4747652849000001    0.0000000000000000    0.0000000000000000
   0.0000000000000000   14.0996029863000008    0.0000000000000000
   0.0000000000000000    0.0000000000000000   14.1459973301000002
Li Co H C N Cl O
1 1 90 51 3 6 45
direct
   1.0072863950070421    0.6700566677359480    0.4484601910606436 Li
   0.2175450917801707    0.1187340519464737    0.1963273850964573 Co
   0.0425591800816725    0.3459908054248105    0.1055483491590229 H
   0.1555247424114313    0.3156934984428286    0.1468511987472088 H
   0.6258909187184509    0.0460561190290939    1.0369673005795981 H
   0.4479582925717054    0.0494888397976877    1.0526021119569049 H
   0.5328677177547260    0.2789967204908007    0.1687831977968514 H
   0.4686135497807390    0.2811095459390737    0.3194986228212479 H
   0.5631898674657037    0.0883998644934243   -0.7171105082152797 H
  -0.0550348031156696    0.1800350687793465    0.1661499440833971 H
  -0.0820922366761686    0.1799393214025365    0.2860099978098468 H
   0.1678924731812526    0.5827285350788516    0.0928345053908416 H
   0.0735551921875157    0.4577128873536842    0.2500160704734841 H
   0.3385425632781757    0.5797682389598363    0.2217070024979164 H
   0.0020452243485345    0.3582110076650733    0.3392342408540576 H
   0.4855437724943085    0.5641785092196742    0.0248668692062812 H
   0.6842124170905629    0.2989994113661422    1.1089685866135466 H
   0.1877511717053569    0.6974723332958644    0.0620017553328493 H
   0.0883961927683057    0.6977390074712759    0.1868391887630390 H
   0.2571118818957562    0.8980630877127154    0.1776910179426869 H
   0.1293550607244223    0.7327733272659517    0.2920845076513804 H
   0.4102072831947147   -0.0658888769777899    1.0177335913082790 H
   0.5452689551127686   -0.0984153247398732    1.1345935030857623 H
   0.6006566580716798   -0.2321006492012420    1.0873780269044673 H
   0.3715648603995416   -0.1432435373224648    0.2841868672522633 H
   0.6681776147686127   -0.0878079338689869    1.1356962885335444 H
  -0.0326296038867523   -0.0453570931905950    0.2671134863965995 H
   0.1484952674598654    0.3237979819599199    0.6744294122761973 H
   0.2212301256270162    0.2029917435392321    0.6112150641370776 H
   0.1825358885201608    0.3040059353135603    0.4557754052223069 H
   0.2957183801014962    0.1121820944133601    0.3749355058985089 H
   0.3516515841337986    0.2490809845364022    0.3212977183113798 H
   0.4978462655914344    0.2019293022765557    0.5472786742951599 H
   0.3926208149522517    0.3319790633784592    0.6165762980062957 H
  -0.0208705185648257    0.2254703906548960    0.6128522763787850 H
  -0.2624751270794957    0.2198553389348635    0.5687062196938171 H
  -0.1597363281608455    0.2990930310234674    0.5813458375183975 H
  -0.1691478797348191    0.2101614489627270    0.4884596260100633 H
  -0.0300706677471356    0.1019371250946951    0.5481966724890637 H
  -0.1886570043694401    0.0458199421662960    0.5386987914372899 H
   0.2074115941300903    0.4264207296646554    0.5658729093895151 H
   0.3119321145131227    0.4277994918907188    0.5019816206447567 H
   0.3324229476397512    0.4384707143461450    0.6678819771368648 H
   0.6125601326088277    0.5791419092675335    0.5890794739278444 H
   0.4946480306571316    0.5592170929253309    0.3064956513298981 H
   0.6897427312907874    0.5518766734751830    0.3100365822965270 H
   0.7240023541751268    0.5174503069688607    0.4253757105266937 H
   1.2556220280379879    0.8193615809342472    0.7076310303056756 H
   1.2333971426137249    0.7380344683117016    0.6154091834073928 H
   1.0778422886535797    0.8171430787515691    0.5952543655216761 H
   0.3705617353253722    0.0414233644711486    0.4340194983874352 H
   0.5186263814744726    0.7260993804823840    0.3876627810279131 H
   0.6333991579099613    0.7646628776622918    0.3377271007420886 H
  -0.2022738054795496   -0.0875277841368392    0.6554975551755211 H
   0.8541958297105071    0.7508213531747137    0.3488086806648025 H
  -0.0850297627198107   -0.0442074154290473    0.6626826265160713 H
   0.6835713013406806    0.6600251796055779    0.5501903106428043 H
   0.3095376024559112    0.2662609008954205    0.8594047052116939 H
   0.2396483862863525    0.1471937185335327    0.7268230316658287 H
   0.0397004117917875    0.1660942507158174    0.9419757656143855 H
   0.1620623268307598    0.2873395085901746    0.7966590408878816 H
   0.6260629422332361    0.0717667720419649    0.8497793676110513 H
   0.5568875891071617    0.1373806762702549    0.9291064008215170 H
   0.5167241744639918    0.0818088987697584    0.8258121638792518 H
   0.3956205181699126    0.0359125710058646    0.9393121146097423 H
   0.3355069354710818    0.1717681693415924    0.6463232285464716 H
  -0.2230617073264899    0.2029662109054161    0.7419318992141932 H
  -0.1154150568052918    0.1521449217743497    0.7748804421216805 H
  -0.1157542678324387    0.2659381967735796    0.7307428684016954 H
  -0.0158307131818603    0.1212050435079987    0.6704551431816900 H
  -0.2721333147770771    0.0645573491880896    0.6301511627202452 H
   0.2026660940374804    0.4083627743982983    0.7503880014746872 H
   0.3586948762351465    0.3715815969067121    0.8194011630933949 H
   0.3972039635349238    0.6485766302984205    0.7810687650767352 H
   0.9894380917762110    0.5571698012371856    0.6758029456896850 H
   0.4107613509009708    0.2600685279552154    0.7728883591781867 H
   0.5778963580933665    0.4526322478442167    0.7797659230381053 H
   0.6429281552570814    0.4406807056508844    0.8890371157246002 H
   0.3375953976606232    0.5669306434491064    0.9057103833985687 H
   0.7782173956320440    0.5402719495578511    0.8972931613942465 H
   0.8193317065232075    0.4618403794580041    0.6868873532673933 H
   0.7098017784867301    0.6234475539446913    0.9554742836434885 H
   1.1703446521562739    0.7585726352573506    0.8565247385999858 H
   1.0634551814431266    0.6888550693829688    0.8364271807279040 H
   1.0856786851524114    0.9843747378480042    0.8474628112569602 H
   0.4764882197844667   -0.0861575327887146    0.8261500686510723 H
   0.5931698354623315   -0.1061800823792462    0.8319983660930608 H
   0.6690653666421027   -0.0511913000175481    0.9665806055474028 H
   0.6511548862372530    0.7046228892439974    0.7736631366466286 H
   0.5191396195031230   -0.1649406021474283    0.9130629932975318 H
  -0.1350927506672527   -0.0646037344090519    0.8032078898547111 H
   0.8996300724809965    0.7548420337609035    0.8977618452095539 H
   0.0883637224663181    0.2056315341798739    0.0699693801930757 C
   0.0814779458724845    0.2910736562857628    0.1418646291647373 C
   0.0422241141994602    0.2686063570073503    0.2377624275556274 C
   0.0156288642991673    0.0785910776691158    0.2408332608794517 C
   0.1174564221896981    0.2522881670396215    0.3151016193050907 C
   0.4071060239261566    0.2196255452305196    0.1893734745516923 C
   0.4184201970251045    0.2303265557587312    0.2960432246434190 C
  -0.0210459963670564    0.1808443114233477    0.2372661741041254 C
   0.1005822280184945    0.5884522423405677    0.2903440860023805 C
   0.3032528718775923    0.5985021707064717    0.0412163703834008 C
   0.2204770909639000    0.6382564815579640    0.0935308154331913 C
   0.2317035251617325    0.6598634729247432    0.1953574994334079 C
   0.1378622798451676    0.6752000749702131    0.2410311967290536 C
   0.2784718137436691    0.7619110271287909    0.1971940613522143 C
   0.3403864619165767   -0.0108795266610733    0.3030932754579907 C
   0.6065862879006025   -0.1023026682383572    1.0925491009753177 C
   0.5611090737942913    0.6666884877917224    0.2562793262858881 C
   0.4460886249489612    0.1313400806532893    0.3368851664675319 C
   0.3556385227033796    0.0689893888746481    0.3674195989236241 C
   0.5070733996672684    0.1542478178650275    0.4240927327643989 C
  -0.1972858144082665    0.0606139757431760    0.6142972080808791 C
  -0.1892304160853910    0.2274264741011320    0.5626988666583984 C
  -0.0455438029304497    0.1484660947853628    0.6075087153532814 C
   1.0626365153185462    0.6730695185262346    0.6614893561084710 C
   0.2660833572491748    0.3787449191717530    0.5449115736080454 C
   0.3238100273231740    0.3666729480555885    0.6348330524770796 C
   0.5515328908806657    0.5697124239033581    0.4673258103430779 C
   0.7113251192501898    0.5789304848747407    0.3791819367862189 C
   0.8021590619167139    0.6352542693651009    0.3828663712438092 C
   1.1187369068632103    0.7524277813856363    0.7090674790427868 C
   1.2804307204714749    0.6744007616838070    0.7314116088078506 C
   1.2208373534619343    0.7520752891910100    0.6911825612037551 C
   0.6284139302686345    0.6408636471665076    0.4250480560042277 C
   0.5846308368970878    0.7067796875616201    0.3507180546997126 C
   0.2658975165846076    0.1951049966494048    0.6720591304772141 C
   0.3453447461158286    0.2963163570959788    0.7983485647469838 C
   0.1905588165410487    0.3318904083999314    0.7365367334850434 C
   0.5607905194060685    0.0759037679599831    0.8862490479002073 C
   0.4407602483927998    0.0018626760927608    0.9890258239785131 C
  -0.1504512035073766    0.2008604778554253    0.7245326311204349 C
   0.6011430217440044    0.4927328095798471    0.8425554160143295 C
   0.5173722678745141    0.5225341451499533    0.8956198965513615 C
   0.6637167479615108    0.5759052223874602    0.8101681626232133 C
   0.7141852692550529    0.5449344212645988    0.7217968749134367 C
   0.7363790660923065    0.6048144051776464    0.8843022074366226 C
   1.0540574470189348    0.8447927934547989    0.8370139191392240 C
   1.1049881519726832    0.7554016239853706    0.8170810721705609 C
   0.5317650401163777   -0.0972230925886322    0.8719022333728101 C
   0.6167778175797672   -0.0272828254081888    1.0147779849254730 C
   0.7893277657717082    0.6954829155777021    0.8647609906846718 C
  -0.1598979888132942   -0.0273416923139312    0.6725051930525672 C
  -0.1483523784554988    0.1563166704439507    0.6274097512032585 N
   0.2819917326506203    0.2931318702672626    0.7133181514129883 N
   0.5338474227600151   -0.0121341719171978    0.9413904410305626 N
   0.6971383607115751    0.3122870195478789    0.0018469298975766 Cl
  -0.3480654614037706    1.2647925626507113    1.2099222321342689 Cl
   0.9749763719569355    0.8158125448338249    0.3692335396024761 Cl
   1.0822969377432796    1.1206189996095974    0.8340385191714578 Cl
   0.5386214552669246    2.1844993098974235    0.6844866741772212 Cl
   0.9246425678737673    0.4516381773009810   -0.3885794127009878 Cl
   0.0210382784387998    0.2013867338079660    0.0079122498603786 O
   0.1569582717013084    0.1520037830485335    0.0732430977627419 O
   0.0946007838778893    0.0470263591141014    0.2163705106098986 O
   0.1933560985144041    0.2052449984734930    0.3043077532780483 O
   0.3358178213411757    0.1840919205967756    0.1550839162631520 O
   0.4686138952094836    0.2587145891231398    0.1356480296597395 O
   0.4951083490021173    0.0729951754244452    0.2726973980966197 O
  -0.0037358711202324    0.3529675976150290    0.2692306930735917 O
  -0.0503894773589787    0.0221228210257468    0.2650528328194937 O
   0.1027370125269892    0.5191651212103321    0.2267564874040114 O
   0.2816186696065077    0.5954425100875225    0.2521346909779734 O
   0.0728684798433529    0.5740613406820489    0.3704006542013789 O
   0.3793943483234823    0.5853308778565632    0.0799015183606011 O
   0.5207337040734663    0.5813278573420962    0.2427525317068418 O
   0.2846100825342993   -0.0080028499178054    0.2338864194721724 O
   0.2321429105247985    0.8357670074008473    0.1600973485680695 O
   0.3591577507528417    0.7686119250258311    0.2242342191490840 O
   0.6210459351474109   -0.1873440698413008    1.0391339912189907 O
   0.5826536027632911    0.7126316253842788    0.1831399091167286 O
   0.3841571198533196   -0.0864802369105555    0.3292957404627950 O
   0.2452236062233684    0.3052726376467646    0.4862849165652551 O
   0.1009269659055541    0.2934304602349440    0.3947679711148739 O
   0.4558729632240519    0.1870955512692953    0.4914474605906669 O
   0.5902046751191254    0.1523222317314051    0.4256857628968201 O
   1.2627931287748186    0.5878401683688123    0.7238872188679829 O
   1.0666282898905508    0.6717638080024780    0.5757612189046288 O
   0.4954711873553912    0.5342157506646645    0.4133032496025976 O
   0.5650234723275170    0.5447101596309151    0.5563172027931076 O
   0.7120429201813619    0.5834473496447544    0.6442837823818232 O
   0.8683853516790783    0.6067563038273178    0.4296646976220682 O
   1.0804088242255765    0.8367478860832780    0.6620647838998137 O
   0.6570672446289485    0.6974787164543185    0.5022093882545486 O
   0.8005845976990609    0.7113989665628292    0.3259803149819626 O
   0.2840705228353143    0.5846571709437354   -0.0471223992939413 O
   1.0172575411471845    0.6120188633527242    0.7161366165285701 O
   0.5327193906518168    0.5340896478232067    0.9848599812581410 O
   0.4409171421285739    0.5294122820800663    0.8538914848865315 O
   0.6073842283005102    0.6549888675853744    0.7868456642301173 O
   0.7674828519664489    0.4694131458758775    0.7366095456011470 O
   1.1155251103963966    0.9146529165346531    0.8383280717978311 O
   1.3649502256876489    0.7085322191771564    0.7697609727544763 O
  -0.1721178760804488   -0.0132299474518006    0.7730997263890117 O
   0.9713935850184764    0.8567378106417115    0.8523829309470653 O
   0.8670609778724785    0.6993525280804807    0.9175476541185127 O
   0.7601735797317986    0.7578598492299875    0.8099638645498743 O
