Li1 Co1 H90 C51 N3 Cl6 O45
1.0
  13.6496344292000007    0.0000000000000000    0.0000000000000000
   0.0000000000000000   12.8615230363999995    0.0000000000000000
   0.0000000000000000    0.0000000000000000   14.6749665341999993
Li Co H C N Cl O
1 1 90 51 3 6 45
direct
  -0.0211587560749733    0.2752609475705561    0.4953163095915880 Li
   0.2231679339399373    0.2251797870286012    0.4895532981528290 Co
   1.0542107035348176    0.1212418633304000    0.1919961630259075 H
   1.0336233389824856    0.2960757452614938    0.2321482137053281 H
   0.4308196490610815    0.2187932961155475    0.2887180190309697 H
   0.5331769691231607    0.2442319629883612    0.2155914468170522 H
   0.4182790934229161    0.2627562076929517    0.1729562558922977 H
   0.3252681042579552    0.1193672797424559    0.1099012569017706 H
   0.3485522443313408   -0.0055292815321120    0.1493343962313484 H
   0.4892176233170644    0.1515104403020560    0.0447017896477787 H
   0.3113065581822358    0.0926457165941931    0.2299669480836723 H
   0.6827458100023412    0.3092398160733897    0.3207473936060051 H
   0.5909279663450109    0.0847477406147921    0.1100041532181936 H
   0.9116999271407856    0.3324019251919520    0.2107512313498166 H
   0.8007182002778790    1.0318253118733729    0.2463492682368205 H
   0.9429842814738583    0.1893325550409773   -0.0032478938053400 H
   0.9913540750697660    0.6711114223231218    0.1243483085870954 H
   1.0469225962586850    0.4349619405390315    0.0355508318117225 H
   0.6214804329449858    0.5469534982980548    0.2553509923424354 H
   0.4273865168227739    0.5055664869391736    0.0876286337078249 H
   0.4175188532821398    0.3661611463021708    0.0656388050259026 H
   0.6533420921165779    0.3428807774723989    0.0838460015723011 H
   0.7912747239218932    0.3804303739418990    0.3149231895234396 H
   0.8366576243367805    0.6421871651455576    0.0547263440245917 H
   0.7848386541168245    0.6698479638700281    0.1717364916115217 H
   0.9289311578539575    0.7380016341250365   -0.0182182856960481 H
   0.2088591258166822    0.9640215224207598    1.0419115594891903 H
   1.0218640496892406    0.8121475962557334    0.1512982848666536 H
   0.4848287145656444    0.0210414441146738    0.0608292540238262 H
   0.5633667886481771    0.0607187046191838    0.2795881856042455 H
   0.4399401570604519    0.0293064061801427    0.3064645671674216 H
   0.4314816448124600   -0.1224244576123489    0.1988193472401030 H
   0.5598773179046892   -0.0870942716993756    0.1666264288508854 H
   0.9481763619187668    0.8727368435629574    0.0016563763224503 H
   0.7380886841223974    0.7345370366684297    0.0770650661767694 H
   0.9524226294873698    0.7259595144194878    0.2276384930292525 H
   0.8990175362021922    0.9372027701607205    0.1393800294081218 H
   0.7740881830502819    0.9024557189184059    0.1108743425961550 H
   0.7558591234157094    0.8211076548486274    0.2603792831959806 H
   0.8764953212963957    0.8533285666976487    0.2973279194151063 H
   0.5760293988372275    1.0880775922566850    0.5431714102055046 H
   0.7173218275834700    0.2357570724414552    0.5503898253039737 H
   0.7468874545673462    0.9910696409845915    0.4124218786458675 H
   0.2752433212836012    0.5707570555543418    0.5563161079838914 H
   0.3081072050987145    0.6283598758348994    0.4188825407386257 H
   0.2693633103268019    0.6654083652440801    0.6508162894165437 H
   0.4999313901038992    0.5663952082178149    0.6447542653708548 H
   0.4354408717265809    0.6058998608598100    0.5017708387913142 H
   0.4597158075659740    0.3761895076117115    0.4318985840498558 H
   0.4116559123795760    0.6481366938120645    0.6936163870205986 H
   0.7881383761887687    0.5833302165666369    0.3566023305677870 H
   0.7506575189062060    0.5007490170466388    0.6264646154848060 H
   0.7303485500881857    0.5641824065208888    0.4632583148490708 H
   0.1946206492473584    0.6748815823471537    0.5570712715458780 H
   0.2551878391078749    0.7640809716226805    0.4209643172066539 H
   0.2688021231360583    0.8725191399525783    0.5566016282261512 H
   0.3855156518582610    0.7457689879382099    0.3982848787749299 H
   0.3527091322168228    0.8291067075042758    0.6361729851542001 H
   0.5593901253696442   -0.2019445888678360    0.2894110359435670 H
   0.4977686948205113    0.7346334482673120    0.5178511071483189 H
   0.3906754970076177    0.8823095823164901    0.5264932801784542 H
   0.5636862111222819    0.9768808081781247    0.6174574399187184 H
   0.6822608153283566    0.7161348614882306    0.4867494757451860 H
   0.7129927739149270    0.8048669655143363    0.6439597150069527 H
   0.2728249414968588    0.2075636773844499   -0.2056210980698156 H
   1.1931177204102230    0.2482493721127524   -0.0302414817686801 H
   0.4325720769465368    1.0907887797188007    0.8040936406635066 H
   0.6495632363334766    1.2433920129785976    0.7833092661786195 H
   0.7885684243362445    0.9641824675898616    0.7120293761998432 H
   0.7955129326666084    0.1971652199372645   -0.0676487221000752 H
   0.9349635538442747    0.3145370114216530   -0.0541263743974392 H
   0.7857221942630866    1.1732735676399166    0.6879972941383199 H
   0.1565280539696638    0.5180300186333848   -0.0798770293729942 H
   0.4789895838245677    0.3662752851950410   -0.1302164968108510 H
   0.5098578830589154    0.5506808951129051   -0.0753196084177820 H
   0.3914723681660665    0.4363477017703847   -0.1940776305187848 H
   0.6975000513004947    0.5937589970166965    0.8023144202517156 H
   0.9217434195662479    0.5781613108459184    0.6941772060167319 H
   0.9487163031192603    0.4446205944673746    0.7286856322417467 H
   0.7713335305213054    0.4869146523686431    0.9119010415398893 H
   0.0211654543642553    0.9094346746568489    0.7974128758541615 H
   0.1837522263039100    0.8023384935823603    0.9029824522064838 H
   0.1966119113680387    0.8975348398109410    0.8151069536835632 H
   0.3478159608761223    0.7949933292707437    0.9629587388950298 H
   0.5279944127428470    0.7553323965370120    0.7241377513423618 H
   0.4253016258209225    0.8999357996282663    0.9548319741952901 H
   0.5342055680994061    0.8050006977321408    0.8814648562880127 H
   0.6965754844144393    0.9446015828620377    0.9128420999039963 H
   0.8273870463842091    0.8325635298319405   -0.0226619074138917 H
   0.7976331359694961    0.6709598073087505    0.8282933551345665 H
   1.0071449741680527    0.7071965732563745    0.7880772497945913 H
   0.6650991835487625    0.9445595971657502    0.7478768174034750 H
   1.0892629243456895    0.2372475646596588    0.0566473024086741 C
   1.0023697547042580    0.3038570943067631    0.0928831601709889 C
   0.4593701572832156    0.2136904789908370    0.2215703360905317 C
   0.5083061198882705    0.0912399732814586    0.0939257519864007 C
   0.3522930038560625    0.0759991655291236    0.1677228538384656 C
   0.9704575447282777    0.2776696825168236    0.1884302264441753 C
   0.9241588688715764    0.1726238029443709    0.2074340176521532 C
   0.8146086821793136    0.2841277046161448    0.0382568005038797 C
   0.9260175267082822    0.2721749988934304    0.0110921729682073 C
   0.5553350717132918    0.4244274494358748    0.0255753405791641 C
   0.4456799635297297    0.4403382866999256    0.0402677079857623 C
   0.8021775800219538    0.6971332238665944    0.1039755193679002 C
   0.4941166556205925    0.0295552103062903    0.2535322488422169 C
   0.5023778292501788   -0.0841506078818906    0.2212084954016535 C
   0.9664999295789345    0.7454525401902657    0.1560676313477436 C
   0.8963339478475004    0.8077873039449950    0.0088141439231603 C
   0.8393653891631361    0.8775753063036361    0.1476171861824347 C
   0.8163669710275965    0.8765062260740952    0.2488617100821954 C
   0.6191734114519679    1.0311395455006784    0.5846416921704901 C
   0.7641699687052598    0.3153464023445273    0.4427088301673028 C
   0.2643140908508164    0.6534432193150583    0.5781456637279150 C
   0.5870751159062110    0.4418933902396381    0.4303728565500472 C
   0.6713850661813736    0.4678826917441325    0.3587904105150337 C
   0.4411554277027567    0.6778843371445986    0.5448955027232650 C
   0.6631394241032806    0.6595047098383318    0.3646854835837449 C
   0.7284136997347210    0.3661554704580431    0.3566377650608599 C
   0.7185592233604491    0.5658944899139426    0.3910323920485060 C
   0.3168092696570077    0.7115109923063545    0.4337575320710608 C
   0.3382743133927741    0.8323847018662719    0.5634404172459500 C
   0.4747909365789389    0.6477261670039208    0.6432653352292371 C
   0.6889291257854693    0.9682574126684244    0.5305270883552595 C
   0.3103446276581545    1.0351390718285027    0.8754478067912240 C
   0.5792888267897318    1.1317434939085003    0.7174951467563259 C
   0.3326646393463983    0.3054618809204157   -0.1242580505141442 C
   0.7195358062915995    1.0047056621232739    0.7384771366833499 C
   0.7521593906307810    1.0597932281910571    0.8277379875989060 C
   0.6707359645482159    1.0787762055032322    0.6703570494810865 C
   0.2841922789010074    0.5153343814291534   -0.0239668507645543 C
   0.3930727773281806    0.4749355112075256   -0.0501720212570241 C
   0.4027856381881305    0.3984045282738348   -0.1293067843444622 C
   0.9980824603958617    0.5629757065090725    0.8306701919006820 C
   0.7703730652379309    0.6158877914988516    0.7783675172600790 C
   0.7693964823067805    0.4287194450139857    0.7460655696614066 C
   0.8262551479381270    0.5191053189660795    0.7943375707149761 C
   0.9317305002244946    0.5268019191058797    0.7513582563478798 C
   0.0933161046331885    0.9362876374842335    0.9230295166624325 C
   0.1858409269315993    0.8875204737334961    0.8846246590645257 C
   0.2801291664207671    0.9353095262633153    0.9299937574163603 C
   0.3662076622291610    0.8598993281666305    0.9213709098136009 C
   0.3934794548863814    0.8138581246229989    0.8339117665842861 C
   0.7552759576143623    0.6768937857173732    0.6915707264782023 C
   0.4547460041363024    0.1038628951189833    0.1839975076472771 N
   0.8763649148734813    0.7801233951689477    0.1085295331603169 N
   0.3370420459582691    0.7191593866467135    0.5314958810245216 N
   0.3193749061347937    0.0894205931090035    0.4907446466958908 Cl
   0.1124382284786180    0.2255032323925932    0.3720681239289554 Cl
   0.1043889286552498    0.2603614679787800    0.6022097049764595 Cl
   0.3066353708086311    0.3744628069762465    0.4631458784768205 Cl
   0.6316037809889743   -0.1833931312119483    0.9654166661356773 Cl
   1.0026386263739746    0.8264864890507829    0.7030753523733647 Cl
   1.1307629368872856    0.1780842760004187    0.1109956375916735 O
   0.9899364546858379    0.0920369239980254    0.2139662301636160 O
   0.8354986189376207    0.1644614725809379    0.2174749264103845 O
   0.2678665669447011    0.5676190135133038    0.0432223995619884 O
   1.0208618250457193    0.4090710721669443    0.0952770327510816 O
   0.6384112893132426    0.4717811413957093    0.2651390896212433 O
   0.5839805275332333    0.3411976953102991    0.0706268913584614 O
   0.7794179961216392    0.3431917048787941    0.0980579590247390 O
   0.2770873267132378    0.9559851491461890    1.0213561463441583 O
   0.5440659054365057   -0.1276718921353827    0.2988250267474330 O
   0.7817609160119762    0.9734294284407197    0.2823479874685710 O
   0.7402074221845782    1.1573018977670229    0.6384285269247970 O
   0.6955923079001078    0.2666981980666043    0.4876963944293013 O
   0.8534199780237436    0.3089295884285992    0.4653207386324208 O
   0.7113033513798686    1.0293364930990017    0.4549640540263059 O
   0.6250446309645258    0.6776712986115847    0.2892965552736395 O
   0.5800478214759073    0.4812238799933298    0.5065238308909861 O
   0.5234756104027600    0.3679585228597196    0.3996811340885109 O
   0.7461138074741017    0.6310586230907076    0.6182758404221887 O
   0.5484191355767126    0.7238470118859150    0.6658711789445791 O
   0.6434568456874610    0.7257721338119829    0.4311592297232402 O
   0.7272246569010697    0.8821291993250331    0.5449472234545002 O
   0.2432805605032328    1.0934004455304573    0.8526913664803225 O
   0.0955059068696541    0.9671735596938934    1.0037131759566886 O
   1.1187325780632635    0.2630547726443289   -0.0268268232150665 O
   0.3053891835874106    0.2649822271090793   -0.0539301218204205 O
   0.3053547504307984    0.2745534108368236   -0.2058050848607706 O
   0.5002538163214532    1.0850701723818748    0.7180818601897048 O
   0.5860450516892587    1.2187837298768018    0.7626543638799599 O
   0.4040958564282425    1.0528500380457477    0.8607172791613166 O
   0.7549404174924816    0.2336927757073236   -0.0188213535108451 O
   0.7975408258049612    1.1435173716655460    0.8324998383218459 O
   0.7289814805086456    1.0145870734958085    0.9050069883395482 O
   1.0326951089946630    0.6596477722108667    0.8334701982859940 O
   0.2228140783092204    0.4847421258396371   -0.0859458677442740 O
   1.0379428685864338    0.5026578112019281    0.8866566909557403 O
   0.6120853095323278    0.4835267954346950   -0.0165467316285936 O
   0.4418832567190963    0.5771769795218465   -0.0726545256791704 O
   0.7378249407951550    0.3594054145156560    0.7933161033088960 O
   0.7672418458472805    0.4328523148031673    0.6536053928809101 O
   0.8363762981210552    0.5083943013354210    0.8899371072952127 O
   0.0221845292759059    0.9485124727199218    0.8640120055845300 O
   0.3394018161167354    0.7908048673096262    0.7696424547734557 O
   0.4875920852768270    0.8024730033130589    0.8259137926382147 O
   0.7369450637506602    0.7766587977123409    0.7034044842994065 O
