Li1 Co1 H90 C51 N3 Cl6 O45
1.0
  13.9694905952999999    0.0000000000000000    0.0000000000000000
   0.0000000000000000   13.6332476655000008    0.0000000000000000
   0.0000000000000000    0.0000000000000000   14.0904334366999997
Li Co H C N Cl O
1 1 90 51 3 6 45
direct
   0.9004286670719414    0.8615428708467776    0.4750621581920411 Li
   0.3572792982214550    0.0595204717620920    0.7193928251985694 Co
   0.3710271152008812    1.1387996252711368    0.2327236229482511 H
   0.6623154748042769    1.1472055460621162    0.1404376045059011 H
   0.3260319168640516    1.0254751967925364    0.1212302464628838 H
   0.0202269219820418    0.1852095256136018    1.1038643195877977 H
  -0.0958188270694959    0.2896277856590370    1.0753527765039899 H
   0.7729558728528649    1.1572765139905761    0.0848261143753663 H
   0.9167742881554205    1.1061977089188968    0.2951439880811769 H
   1.1422263172408351    0.5267984202234179    0.0825181655002594 H
   0.1634361525801198    0.4504626838285175    0.2240106191537593 H
   0.4755498957589108    0.4744643163102669    0.0367828797196592 H
   0.4441507551096751    0.5840154545749604    0.2678204851009756 H
   0.5919571468971244    0.4810410177830125    0.2585241067753221 H
   0.4587948109257710    0.3720527534709004    0.2179689313389424 H
   0.5469668163111648    0.6139870365505463    0.3390766323664599 H
   0.8950132942289651    0.4923868836981042    0.2377930198777985 H
   0.9115142538328574    0.6524870339743628    0.1390238793646918 H
   0.7601400869959180    0.5752977958837918    0.3270713238881980 H
   0.3310879351575006    0.9302367010314913    0.0004908804495669 H
   0.2133628120557814    0.7726828992740710    0.1344853390644739 H
   0.2122167430641615    0.8639069443816230    0.2267607119861822 H
   0.0585318262553611    0.8827080405172589    0.1845100599622777 H
   0.3637469642672304    0.8385322128071773    0.2977180749723247 H
   0.4438815971203877    0.9961087530937879    0.1577308979375522 H
   0.7887617462663370    0.6388739899988138    0.0276461842036303 H
   0.9844539213925906    0.7664928848277291    0.3065801160557993 H
   0.9001466238597625    0.9557595997961444    0.2259239740637495 H
   0.8314411837112924    0.7490333619143185    0.1907206567046087 H
   0.1461993035799843    0.2357800145327375    0.3694497221598021 H
   0.1611368561397180    0.2288198240976934    0.6190367924084826 H
   0.1579134028797151    0.0052311330689366    0.4456632754776839 H
   0.2188934360590643    0.1076300650220884    0.4160032936270562 H
   0.0497756014549267    0.2696391514989162    0.5824896554936791 H
   0.0281205526944674    0.0208473681160531    0.5663678661235715 H
   0.3249223560039572   -0.0146262044226339    0.4443903550894945 H
   0.6513544451979777    1.2627994264540927    0.2643841110378552 H
   0.6610298158979999    1.0253013570693721    0.4523446881129257 H
   0.7780068802263006    1.0552201269771613    0.3832988348131955 H
   0.7706615873324765    1.1836576088569262    0.3542067560037303 H
   0.0041268359792157    0.6780891508407109    0.6082330083599734 H
   0.1354172354027326    0.4112663006107259    0.6088312866200334 H
   0.1331966819911117    0.6899351910478941    0.5838613663134229 H
   0.4545963042157459    0.4312148856194342    0.6339674899590664 H
   0.3380481030560145    0.4508883344249402    0.5684822794334133 H
   0.4081616117282301    0.3356058251826819    0.4761563757737261 H
   0.5133252245298500    0.3472882946798836    0.4042272186932775 H
   0.5166018794434801    0.3254666416666513    0.5373481058843318 H
   0.4018392623628412    0.5979035614036171    0.4448663518024510 H
   0.3613460177351296    0.4843856353766171    0.3847033338365154 H
   0.6112470414112925    0.4975563049342742    0.4443958907602282 H
   0.4063727132834716    0.5534269983074709    0.6098752573442900 H
   0.6011120977614764    0.4589128347262767    0.5578379652841159 H
   0.5785411244071521    0.5950319052171700    0.5287284278207984 H
   0.9567342277245707    0.5049093584736506    0.3452389694152154 H
   0.4141697048242115   -0.1285051596131000    0.6623271569483870 H
   0.1111443388581670    0.1423114565438245    0.8511432080622193 H
   0.0497748856092105    0.0513382687583070    0.9839340131432454 H
   0.2733714425982609    0.2962175581185623    0.0217826314342167 H
   0.0660346052067469   -0.0164951648218849    0.8489041002205950 H
  -0.0278542872372823   -0.0091454853868399    0.7523137429321433 H
   0.4274643914652895    0.2415915424932027   -0.0656830952616000 H
   0.0685959011792743    0.2284743451541899    1.0050682104223989 H
   0.0286517102158802    0.2454035468868084    0.8547279097129465 H
   0.0369576680608312    0.1635602453216506    0.7507836267652521 H
  -0.1440947463236237    0.1309245879260962    0.7704920339798024 H
  -0.1518215849841770    0.2104060164592335    0.8764646434604167 H
  -0.0782806070228444    0.0623019073327198    1.0164873055639947 H
   0.3120192369696351    0.3983109135794347   -0.0546593037864970 H
   0.2349763417647018    0.6089148775392355    0.8263661136194976 H
   0.2311551573316803    0.7359851136638180    0.7873680230023012 H
   0.4509887281444355    0.3036611256741348   -0.2152853065398989 H
   0.5331361043978038    0.2828340999377409   -0.0035097062075602 H
   0.6053327241041319   -0.3610909731917831    0.8768003322113164 H
  -0.0027066272275326    0.6544359459762504    0.8212307144619720 H
   0.0259178954257512    0.7768447836168300    0.8167858547434006 H
   0.3378899011527366   -0.1529776850293515    0.8369917626226034 H
  -0.0442364164522872   -0.0636504733568320    0.8639597052133741 H
   0.1840474982863744    0.8205093611706016    0.6833250915633275 H
   0.5762306607735778   -0.3619931793499772    0.7465885819310710 H
   0.4488608767530611   -0.2665573718356360    0.7332816811290249 H
   0.4416037760514716   -0.0874371753926676    0.8564787430078077 H
   0.5739084572702580   -0.0829107410819229    0.7420933334147958 H
   0.5896456810795473   -0.1037568378427989    0.9178423627917071 H
   0.4428865715748838   -0.2811467055644827    0.8647857976151651 H
   0.5552117125165248   -0.2147047232705464    0.9673298397477963 H
   0.6769874486033042   -0.1935820966546792    0.9269201530935188 H
   0.6090472475254410   -0.1836446258975944    0.6688329894631793 H
   0.6924103445586146   -0.3135894522123907    0.7972875191361786 H
   0.6920366730947635   -0.1282961118447379    0.7506445252955346 H
  -0.1893032666838779    0.0805000656943431    0.8778911432263962 H
  -0.0048062027131175    0.7084040112569757    0.9687520813055189 H
   0.3986845302915925    0.2749966423765178    0.1343795935594337 C
   0.3413481518076498    1.0025635613800550    0.2673286620473319 C
   0.7385072294526605    1.1630396308888944    0.1538424440978503 C
   0.7519536753855707    1.2737139204654171    0.1785194706465406 C
   0.7834709305779778    1.0895648415666934    0.2306136807570786 C
   0.2423982301501582    0.4275133464676367    0.0864193939647313 C
   1.0414996665157603    0.5227519155787760    0.2244534728124514 C
   0.4048365083765282    0.3518161959925116    0.0527731614247738 C
   0.4924841567748129    0.5557250567575702    0.3265553709877667 C
   0.7755049994482170    0.5995759435505136    0.1676071022874867 C
   0.9458669739070925    0.5350963696757908    0.2731411163176657 C
   0.9137290804787489    0.6420515160779172    0.2837234735368288 C
   0.8554993265410012    0.6689643991269425    0.1919243102384898 C
   0.1625327552862882    0.9124030926378538    0.0890722577086272 C
   0.2321115272085100    0.8493623542102151    0.1493975843792788 C
   0.3396286903973617    0.8743343937677107    0.1298900226541674 C
   0.3694730141510330    0.9762968926605978    0.1659925316568385 C
   0.3890156022030162    0.7862761387241960    0.1711201240992269 C
   0.7710681876992723    0.9840316600899939    0.1965040132185219 C
   0.0925552573001488    0.1413821108507904    0.5095066486458185 C
   0.0379698739035236    0.1569154602915036    0.4122993621451426 C
   0.1200995687677021    0.2449275047756962    0.5561561859331501 C
   0.1811791045016016    0.0747670223346314    0.4810214496770918 C
   0.2583043219638968    0.0597837986001341    0.5438441445201337 C
   0.6378779337449875    1.1040038076025078    0.3425768795534301 C
   0.7464115978508288    1.1073815794386737    0.3340058160341602 C
   0.1703369052841900    0.3234253085461194    0.5073284260852506 C
   0.0725273258525889    0.7083761382211941    0.6311038449064660 C
   0.4796641474281403    0.3612233455688043    0.4724406632489692 C
   0.4232115520654056    0.5332123725072366    0.4095513984168481 C
   0.4122684186020112    0.4772137712398400    0.5812041024209951 C
   0.5703904334980429    0.5136061857380771    0.5089435857680411 C
   0.8578000546728354    0.6641702369725060    0.3743438228494506 C
   0.0676602908282141    0.8231646345792705    0.6221403165262078 C
  -0.0168273998250938    0.1003662051972131    0.9848424309046649 C
  -0.0092594789135346    0.0021320915905868    0.8315384172485809 C
   0.0398854770400477    0.1717703213612173    0.8286868371193745 C
  -0.1364087108688932    0.1312209223065111    0.8484796987976817 C
   0.0010179180338032    0.2002705004479110    1.0284102886826281 C
   0.1373901061965519    0.5688085130532685    0.7407598045290869 C
   0.1197488043667691    0.6776226442418398    0.7298637593016835 C
   0.1191689693366553    0.6987100628125092    0.9067781183381658 C
   0.0594137481777070    0.7048003211307905    0.8152749005136642 C
   0.3038585958050707    0.3701104429774873    0.0218500530649471 C
   0.4619055900700457    0.3029665002824194   -0.0304662935763131 C
   0.4737727371838978    0.3895533524370419   -0.0984585242130716 C
   0.6149451003811294   -0.3225528337190025    0.8046407350940451 C
   0.4629684777894443   -0.2352962952046798    0.8048891305756832 C
   0.6017985938033026   -0.1851057597733040    0.9118893876489037 C
   0.4080112841278302   -0.1380502073664173    0.8095845148800213 C
   0.6191442513522990   -0.1506172789992143    0.7397193823117107 C
   0.4707860141022390    0.4720821473071918    0.4931185225432846 N
  -0.0412692359586802    0.1009456709410939    0.8733121499477400 N
   0.5734746547662469   -0.2222135724099231    0.8167099166961569 N
   0.0235706373223646    0.9040111083647649    0.3553862796908237 Cl
   0.4385177651689771   -0.2562370135870249    0.5671973650919677 Cl
   0.7656528148562961    0.9466656551219241    0.5286898910360757 Cl
   0.3066346454924550    0.1023561932518316    0.8662328787210516 Cl
   0.4810819514536260    0.1735160536022758    0.7055068080736182 Cl
   0.8518936116685528    0.7464257660668551    0.9534182733733052 Cl
   0.0868277757249137    0.2057402169695807    0.3454440731129110 O
   0.3523950828998916    1.0951049741787586    0.2931490175129340 O
   0.3755977900987534    0.1879601541446816    0.1293889734826343 O
   0.8823857757953759    1.1070038264537385    0.2308053001286281 O
   0.8147039950210574    1.3226164282433059    0.1486083964490455 O
   0.6935499709387889    1.3163670002206929    0.2423202049559986 O
   0.1998469290884007    0.5038776893992603    0.0452098738595789 O
   0.2296934003792206    0.3993732429931847    0.1719611202299162 O
   1.1057990762810819    0.4720696484511466    0.2709531069751213 O
   1.0533776944844986    0.5484135193714896    0.1394830561550344 O
   0.4346872747416452    0.3049528208323298    0.2184990782668959 O
   0.4497548964680106    0.4371727470177528    0.0923936601488179 O
   0.5359016311531601    0.4668861953419635    0.2949133351339414 O
   0.7294031036341579    0.5480753754374023    0.2239133900652324 O
   0.7551427680511966    0.5941656406051152    0.0747362899112229 O
   0.1864799420299875    0.9666176142349638    0.0262182650348988 O
   0.0662894462817105    0.9059504848544117    0.1174418605172133 O
   0.3661801238565597    0.8740035848430395    0.0327524856047355 O
   0.3230239331646218    0.9459284866755947    0.3364223492198118 O
   0.9919015802238298    0.7000142274867118    0.2843927219344997 O
   0.3796423183952262    0.7758721613682401    0.2683485029248007 O
   0.4205507535383279    0.7197182632814836    0.1227206193527130 O
   0.6934003591841051    0.9507893974157188    0.1723358425565018 O
   0.8485584864768243    0.9206601127376842    0.1931932562989729 O
   0.0335488107603351    0.0899145502800519    0.5731875995570168 O
   0.2538982915807482    0.0912715270220512    0.6260245121576531 O
   0.3297958336397778    0.0054306453250576    0.5159551514834488 O
   0.5843678221986512    1.1527984907419784    0.2938345890422555 O
   0.6047593316854638    1.0526250006457054    0.4140998745363315 O
  -0.0417051859998398    0.1281878959129073    0.4012095684420615 O
   0.2182620601373848    0.3131584958662467    0.4352858800159410 O
   0.1765611837864609    0.4090352107965965    0.5526685714306746 O
   0.7766131286168789    0.6160804482379335    0.3938563524841948 O
   0.0047574960551790    0.8675913196113865    0.5775823543584350 O
   0.8873093626313299    0.7262170816242478    0.4324066215330663 O
  -0.0749998861055463    0.2639750572277169    1.0149763513342585 O
   0.2126827586254011    0.5487296582773283    0.7944593591523835 O
   0.2079137944641442    0.6963804638219201    0.9121136532837542 O
   0.0878900907677395    0.4990978305131855    0.7113866839746824 O
   0.2158303322394879    0.7226742720762173    0.7229619134190222 O
   0.4628846522560785    0.3735476283899245   -0.1926167348855973 O
   0.4958068262510797    0.4735244668837488   -0.0790283199379560 O
   0.0709417275912284    0.7074042494735460    0.9867671410366728 O
   0.1439773184769309    0.8738319456227002    0.6557773229482758 O
   0.3902103487033370   -0.0893391433342915    0.7190628140586787 O
