Li1 Co1 H110 Cl3 O55
1.0
  12.9063419880999994    0.0000000000000000    0.0000000000000000
   0.0000000000000000   12.3340490216000003    0.0000000000000000
   0.0000000000000000    0.0000000000000000   12.5273016286000001
Li Co H Cl O
1 1 110 3 55
direct
   0.3565564122152521    0.4598801254046087    0.3542497774754985 Li
   0.7431841650363745    0.1064909024197809    0.6454377849289170 Co
   1.2228816661337731    1.0480868033004673    1.1962180091591443 H
   1.0901097310974950    0.1797652990447070    0.2138188968153189 H
   0.2206798019706970    0.2505141665473272    1.1031652485120556 H
   1.1852954933477677    0.2126223113113430    0.2840966011527045 H
   0.5282944617759784    0.1136491356848978    0.1368893210318306 H
   0.6029871981755596    0.2758789108784159    0.1773920577777569 H
   0.5220936343010990    0.1932896493783139    0.0292732485552024 H
   0.4222001089948013    0.2637109683206093    0.2940061573907843 H
   0.3813612717405288    1.0217450886347463    0.2312336607020555 H
   0.6889790307973281    1.0897033072645008    1.0186697975856225 H
  -0.0548506313061224    0.1081862094485905    0.2528001566650168 H
  -0.0758937743012804    0.1797734066823388    0.1426894527883867 H
   0.6869381736726460    0.3232023809714741    0.2553697443507247 H
  -0.1507693665404307    0.2332238185337488    0.2924727066469989 H
   0.2024290845933655    0.4540328971445540    0.2392768932342685 H
   0.2246600157328431    0.3631179025603558    1.0647770932446756 H
   1.1247516149412857    0.5350541415266657    1.0853880761725974 H
   1.2439565764569918    0.5486214623397212    1.0481813405308302 H
   0.0049330781842526    0.6627437588811861    0.1367815564038186 H
   0.4992614483671060    0.3532030725004265    0.2976557861261235 H
   0.4189606163454859    0.5904301173156284    0.1926690907473373 H
   0.4892593889052519    0.5986812601335121    0.2859301963419158 H
   0.7152258170914104    0.4111061989392215    1.0840789355063778 H
   0.8268205665043716    0.3757504127544646    1.0614723113189748 H
  -0.1065376236866959    0.5508032276264389    0.2482780335710324 H
  -0.1334003862200044    0.5424612792670790    0.1292380324429798 H
   0.1084834878380686    0.7226729839641680    0.1653280072359413 H
   0.2737606827215451    0.6928814694861161    1.2332331632400013 H
   0.0157665893471305    0.7873022065823050    0.0147262930014256 H
   1.2278637129491516    0.9190456427527257    1.2179385686273376 H
   0.2374320312390173    0.7492976551832388    1.3277227855939167 H
   0.3570189755043316    0.9462873051955764    0.0747640507163768 H
   0.6613042643662721    0.7246877319156706    0.0512474939403009 H
   0.6381753250994190    0.6922093463264397    0.2677690626241332 H
   0.5422782846257377    0.6941681515782828    0.0058258766703102 H
   0.7792005669284517    0.6794844090633285    0.1769817539348076 H
   0.7899170038652324    0.9670915033587772    0.0623563507496785 H
   0.9077730161576766    0.9549462621863396    1.2453107841423816 H
   0.7666671937891727    0.8105249130510720    0.1652258304034558 H
   0.8932685190528730    0.9031546729943961    0.0526972075768384 H
   0.2669183101824149    1.2007374046320127    0.4563220383589383 H
   0.1450100265300284    1.1953782561573925    0.4599636845292395 H
   1.1600753341190631    1.0243557479521863    0.3879545618351281 H
   0.0698382233270337   -0.7032910258430880    0.5909432081845163 H
   0.2929264541096017    1.0202776062233905    0.6554191842523381 H
   0.2617332623925994    0.2696952156566415    0.6169272556394650 H
   0.3581602748758794    0.1886553237079766    0.6019942712230193 H
   0.4472978477885403    1.0484597546315302    0.3376859550218047 H
   0.5980570638231095    1.0040299004092617    0.5125528229990878 H
  -0.0154297016213900   -0.7909556685006973    0.5576255782292260 H
  -0.2036573188842758    0.2498979860873103    0.4062258549504340 H
   0.2815351551547501    0.5216157321519559   -0.3430624018733943 H
   0.1422881088842391    0.4401461354088056    0.3440296994574434 H
   0.0128887793499798    1.3989691447295423    0.4713763577639605 H
   0.0741096892505952    0.5960568178320982    0.4799073250199908 H
   0.1442894505520654    0.6134647265913377    0.5800525947032755 H
   0.6192133294986789    0.4582083305249314    0.6467173901044964 H
   0.3674417583597705    0.3833796997659891    0.5419031181305294 H
   0.4523767462138601    0.4689866239926474    0.5376859290209938 H
   0.6630243489588289    0.6226344647529044    0.3655363261826203 H
   0.8201339313540269    0.4127025927889231    0.3420292686589395 H
  -0.0402430066070535    1.4785780386361942    0.3990646958549118 H
   0.7487155541833399    0.5831932399654830    0.5780162423621009 H
   0.8105649922918302    0.5258641342710195    0.4146634261955205 H
   0.8585569020499246    0.6261021013680256    0.5654915978175969 H
   1.0043766859774894    0.9572812618242983    1.3353940305953622 H
   0.1544348503966325   -0.1075669463350238    0.6240085890846081 H
   1.1801662320852786    0.9044113568273253    0.4124426766019698 H
   0.2105638450155520    0.7280094310534194    0.4766895530532033 H
   0.3329525126532472    0.7788370221309419    0.4600371241275885 H
   0.4240945264852524    0.9959222627774609    0.5308440725269885 H
   0.5155565380365036    0.7260846778796298    0.4282689100461594 H
   0.4914978233142143    0.7359395114210838    0.5498593407038290 H
   0.4661924346687613    0.9099002275040544    0.4461163289579515 H
  -0.0061551914534147    0.7244882840299283    0.5890784809916570 H
   0.7135801145352884    0.9403362991738347    0.5120802551488426 H
   0.8470121901449260    0.9015331454680360    0.4145269243333720 H
   0.8483061276537414    0.8259942856525480    0.5153539050708955 H
   1.1185918525490215    0.3005820719787498    0.7728051979045328 H
   0.1336644415350691    0.2565657072757033    0.9527976708926674 H
   0.0862416318369896    0.1522374369934538    0.8919545601736051 H
   0.3785153840340147    0.2937084167945091    0.9887750915185941 H
   0.3952567659220215    1.0486705532099569    0.7245130741945995 H
   0.4306107028021005    0.0466674009315176   -0.0970796602297435 H
   0.4410063672067558    0.1639400011511951   -0.1388013346569609 H
   0.5787084365954839    1.0841901136748762   -0.2102069754342053 H
   0.8365367200136792    0.1682775872842084   -0.0046938428915734 H
   0.9491712683109698    0.2203715913598182   -0.0247630491303711 H
   0.7191975079118816    1.0398737663794531    0.9083268010663886 H
   1.1501499811322824    0.4160080766514083    0.7182204181752034 H
   0.2450360448387257    0.6118026608768184   -0.2647997377285726 H
   0.4837775877825765    0.3421596592821507    0.9367606977314765 H
  -0.3416786111793702    0.6188117136095103    0.8998014216058851 H
   0.5540662877749086    0.6541091248033182    0.6891654779501650 H
   0.6688145256075574    0.5269748806265763    0.7397382204914333 H
  -0.2640183414511887    0.5272424326684257    0.9027230404097655 H
   0.0313353926676429    0.8876528698423930   -0.0639143376153768 H
   0.1407702504532397    0.9651537779647770   -0.1949953994979359 H
   0.1737013474590280    0.9488736416001209   -0.0789528515416240 H
   0.2123800064051706   -0.1610295196428815    0.7183433496767875 H
   0.3270755569620113    0.7078124949488404    0.8608145739606606 H
   0.3972185921329918    0.8694187928084730   -0.0255526844639226 H
   0.3738773541371475    0.7251182474739192    0.7376372093734516 H
  -0.3785287117298218   -0.1826323201128147    0.8686454702628649 H
   0.6551909907467797    0.9844175249779356   -0.2276081689603774 H
   0.5661812619592412    0.7747394220718297    0.7087554908097361 H
  -0.2009005346589077    0.6965704446085854    0.8329075265880757 H
  -0.0921067338054477    0.7360051832859014    0.6867651206432610 H
  -0.2819854773146123   -0.1845303180824193    0.7960783662726024 H
  -0.1164467056030063    0.7780068000374453    0.8693160057260505 H
   0.6510930054269448    0.2623529390172827    0.6128074538233921 Cl
   0.9180780274554268    0.0949277896293066    0.6687309097095814 Cl
   0.3910681274952819    0.6569111243688687    0.9961589641786747 Cl
   1.1667852136557937    0.1943525606718430    0.2104119380571326 O
   0.2445339660927902    0.2867536852339503    1.0373170695142144 O
   0.4398224531268339    1.0683315744670738    0.2613462907946190 O
   0.5631300488396517    0.1596924097958946    0.0833175288058139 O
  -0.0481996375482360    0.1798415108384459    0.2196613361665760 O
   0.8881934946919509    0.2161637274289135    0.0299718028216712 O
  -0.2010400009772232    0.2777987994696264    0.3321995380712390 O
   0.2132609686491963    0.4352345285314607    0.3134069834589566 O
   1.1942755746215217    0.5000486052876026    1.0852284248718389 O
   0.4238853270077793    0.3411875535300978    0.2971377176551622 O
   0.6328616583716017    0.3436757875192974    0.2057924276696856 O
   0.4186995044050843    0.5702712871079190    0.2712247150290509 O
  -0.0983075612803272    0.5912335842049399    0.1812532244866011 O
   0.7799273414094510    0.4365066168758902    1.0555173178006829 O
   1.2616687988830497    0.9798772479041271    1.1793747969291233 O
   0.0649439628109059    0.7039548809636296    0.1037417197118481 O
   0.2305850098226098    0.7526866477133315    1.2504755037219188 O
   0.4120136440676191    0.9377175322187631    0.0161729812458138 O
   0.9302270934064588    0.9811825775628471    1.3152220887445265 O
   0.7293359344405330    0.7381099260151168    0.1660655962454455 O
   0.8356999221037865    0.9216400867949019    0.1099545500808650 O
   0.3201239358068673    0.2492704549346089    0.5686710534722025 O
   0.2058739026557563    1.1609207962222390    0.4267745738710599 O
   0.0324197742850604   -0.7322174553858269    0.5272255757952973 O
   0.3590420119327847    1.0543134690016902    0.6554630883600467 O
   0.6748642645709284    1.0084891011067523    0.5301056852609805 O
   0.0279016699256869    1.4658247246413716    0.4293561354043248 O
   0.1094751708425791    0.6534767290680378    0.5237779059554175 O
   0.3790461308564929    0.4572491969930894    0.5160962836194225 O
   0.6053852440377052    0.6623237832518589    0.3351155690795929 O
   0.8337241492609848    0.4929195595179602    0.3442412374309485 O
   0.8052613981314466    0.5903879575999431    0.5234881388445408 O
   1.1358624316337473    0.9523193875936362    0.3763239645748718 O
   0.2532955501345166    0.7920184193927235    0.4567834306181304 O
   0.4767438364622022    0.9844580631660946    0.4721594473941810 O
   0.4598653126945185    0.7575893361892814    0.4802769177812466 O
  -0.0863614963037321    0.7315678732100167    0.6076586993739307 O
   0.8031647544794381    0.8624381168074925    0.4639413966876375 O
   0.0752777196664868    0.2269979635962889    0.9070735383554345 O
   0.4366480447593991    0.2777671796828624    0.9385088794747821 O
   0.6539985537251828    1.0664181719859689   -0.2298672348661101 O
   0.4624190959454497    0.0871931033285687   -0.1547393240116814 O
   0.7500815492899514    1.0671640746480946    0.9728179440077827 O
   0.2198987905881307    0.5409224496445632   -0.2984965395231642 O
   1.1480424900999606    0.3358624571335310    0.7068628246392442 O
   0.6337302236095549    0.5300784843120296    0.6701557975688510 O
  -0.2805141076563846    0.5894434178158382    0.8596331543350478 O
   0.1168494524235069    0.9739748877081761   -0.1179788137555342 O
   0.1910470833930683   -0.0900251804784833    0.6884981355129945 O
   0.3104542710703316    0.7303938872809320    0.7824896458085432 O
   0.6121299901540148    0.7139443012897714   -0.0168007598076427 O
   0.5150629822322429    0.7192588577574168    0.6809178917529811 O
  -0.3527127213967584   -0.1528099966117618    0.8006635516303864 O
  -0.0249011692233418    0.8460120429654642   -0.0257542442311302 O
  -0.1601569993888174    0.7596965112097864    0.8069881379099341 O
