Li1 Co1 H110 Cl3 O55
1.0
  12.4155195670000005    0.0000000000000000    0.0000000000000000
   0.0000000000000000   12.4179494431999995    0.0000000000000000
   0.0000000000000000    0.0000000000000000   12.3971155812999996
Li Co H Cl O
1 1 110 3 55
direct
   0.5741113567688036    0.1374542334551611    0.6219612328557035 Li
   0.4894511865417125    0.5695473116677022    0.3846140870052291 Co
   0.1753346504632833    0.1387394698038031    1.1967973673795629 H
   0.0871939170775744    0.0492295225227190    1.1759054108351970 H
   0.1573160730857716    0.0957433211689434    0.0192402651435946 H
   0.5482131252638861    0.2145595562284243    0.0934828172892192 H
   0.5936933000526115    1.1986890259044407    0.2511402971426937 H
   0.5310950337613043    1.0273805494341248    0.1218279591648063 H
   0.6509112035133888    0.1300198337241689    0.1169598912981944 H
  -0.0554368435960921    0.2824902563700590    1.2909886324639488 H
  -0.1472253502188049    0.2332220577195142    1.2325395524946536 H
  -0.0752082271999209    1.0318337806421389    0.1279164722148786 H
   0.0442363109039591    0.3723029911618508    1.0964111128642606 H
   0.2660380635522702    0.3573303098145440    1.1861093973327348 H
   0.2966360580985261    0.4681304065852263    1.1190050782236309 H
   0.1901991109479276    0.5765243089889019    1.0129562161816319 H
   0.2696279253989274    0.6344557737037896    1.0894256169695038 H
   0.0287514172623751   -0.4403303704215229    0.0088743458168568 H
   0.4252444495060091    0.3405731148403006    0.0688045767748302 H
   0.5464089317398761    0.3698879386495842    0.0369404711762780 H
   0.4143967359428993    0.4248317925540320    0.2557825060196368 H
   0.5076002457723000    0.3536300209536353    0.3234361464571852 H
  -0.2642031369447239    0.4753232205363985    0.2365901383725288 H
  -0.1805264132769257    0.3933902085964002    0.2928177338505815 H
   0.6938574529331254    0.6402288685555534    0.0864677983979554 H
  -0.0366895009058464    0.3775703664478581    1.0020020551826940 H
   0.8963161568508523    0.5687347781615746    0.3050947832175794 H
   1.2535062024279437    0.9693355394027218    0.1901236844444132 H
   0.2096835955636974    0.6980725571037731    1.2675960942482498 H
   0.0196835889373135   -0.3130388230343991    0.0412793030317409 H
   0.2519806574922053    0.8012441802336745    1.2089372880742619 H
   1.3678872391889485    0.9307623432248053    0.1803786756794525 H
   0.5642076230316491   -0.1436074680732841    1.1759215436201735 H
   0.5102493495671521    0.7206535799435425    0.2452582837403186 H
   0.4845194557615729    0.9505079542954215    0.0258123180913704 H
   0.6111094056640698   -0.1369646644141686    1.3023703122647599 H
   0.3810014359908905    0.6976457555594247    0.2448896496036091 H
   0.9435312570193622    0.6813258308466553    0.2726493327124047 H
   0.6957631323428608    0.7383408801700927    0.1742554771416810 H
  -0.0639577918680590    0.9950805306721994    0.2460052316847233 H
   0.9440870130602402    0.8245290229786527    0.1429909464967747 H
   0.8626486169831671    0.7345125508458794    0.1177423313695471 H
   1.1785113546509058    0.2148865023171139    0.5732031168216982 H
   0.2816105089063809    0.1029726951014617    0.4319783304172783 H
   1.2536834000061947    0.3015344633932645    0.5282353986178850 H
   0.5788819988414424    1.1813190083353875    0.3815085258972829 H
   0.4642214731729237    0.0513345399508833    0.4297294201915758 H
   0.5808545300647907    0.0308528170091560    0.4387549067465916 H
   1.3751523398972383    0.2080069445937749    0.6259532904980999 H
   0.7803266493454514    0.2056168559454230    0.5850211884561193 H
   0.9526891500407878    0.1906312900231924    0.5604711229183673 H
   0.8764217014744928    0.2221840034395414    0.4581118288004583 H
   0.8960181427419757    0.0403704109195354    0.4364067798932847 H
   0.1155828216335169    0.4711349284002535    0.3475159413128767 H
   0.0576049821951040    0.5810508212167949    0.3792604223108293 H
   0.1895450907954740    0.5076828304573460    0.4769791208302929 H
   0.2152765954881282    0.4634516953160468    0.6039723709678309 H
   0.3486604616294750    0.5340180963155171    0.5282789571373212 H
   0.4165545191798737    0.6449768344149478    0.5720835015443400 H
   0.6783091708851398    0.6061266198761713    0.4902943149105187 H
   0.6981601323104739    0.5250528480263994    0.3868678370664245 H
   0.7618650780223123    0.6385965539699033    0.6598853771388448 H
   0.2960972163719356   -0.0161837732645988    0.3688741353430588 H
   0.2474911152141555    0.9531170807174768    0.6652269422445123 H
   0.2564524800124299    0.9584641793108246    0.5401881790068586 H
   0.1239264112385253    0.8447739113275633    0.6348335819883286 H
   0.3421975826845394    0.8082912374310220    0.6203189153451117 H
   0.5344005740392225    0.8191086433654260    0.5988752175545549 H
   0.6568304080705091    0.8915368654413752    0.4751827352231769 H
   0.6522828738577590    0.7779303471951181    0.6177037909004462 H
   0.9844236254184625   -0.1989338327957802    0.5476979904133469 H
   0.9328269124059283   -0.2661293068808296    0.4463340891284782 H
   0.7484624975582383    0.9466425818183024    0.4043073776258526 H
   0.8022105502594468    0.7077303512950415    0.5691457214001477 H
   0.8984183644837390   -0.0887256211856567    0.4235441104316455 H
   1.0344416690974878    0.1111994961902632    0.7039327199597576 H
   1.0621489267876403    0.2337986424473511    0.7344664354452355 H
   0.1505551800319594    0.2418893502135208    0.8806915785530735 H
   0.2040454908011664    0.0739952860979932   -0.1022209320296676 H
   0.4540978533500304    0.3251567209440577    0.8983327789247060 H
   1.4412470365848522    0.2690693610151289    0.7166824599265623 H
   0.3388719063181836    1.0950406735023612   -0.2324197665420051 H
   0.7111213297159954    0.2639340526220899    0.6729029213362570 H
   0.6779418886320377    0.0183680746038874    0.7574040291246017 H
   0.8098316570113139    0.2873710944083545   -0.0034358564232676 H
  -0.2075111881139368    0.0326831514056651   -0.0968462947147985 H
   0.1811886140938656    0.4293421990632702    0.8016893305239157 H
   0.1382987457217544    0.5378415939241340    0.7394805050158834 H
   0.3222588279136172    0.5450368237331044    0.8024911299372398 H
   0.0857071488516949    0.3414162492118721    0.9049794863349597 H
   1.0455084633027987    0.6569304988004381    0.8570812477401937 H
   0.3443175100752511    0.5620903639305935    0.9228142801263083 H
   0.4436335309107728    0.4327179576932875    0.8341726930737847 H
   0.6485343396342133    0.3814220490641206   -0.1832559109658448 H
   0.4613331526474327   -0.3367295298894747    0.8294215878982514 H
   0.7874781825149533    0.4087228527556387   -0.0022100874207649 H
   0.7660477463125727    0.3599531260974557   -0.1455527858368794 H
  -0.2044360046877448    0.5260610660141811    0.7949353400935690 H
  -0.1035928629051147    0.6069343216667027    0.7960364026682045 H
   1.0276759433824505    0.7096469318149462    0.7403968472025397 H
   0.0251883444677753    0.8987441745393367    0.6960373349923347 H
   1.0370513061590021   -0.0028215832541649    0.8327449416033783 H
   0.4367727628583101    0.7537935119333083    0.6982709190723095 H
   0.5361806042571072   -0.0416134950914115   -0.1850321305917403 H
   0.5855140209292539   -0.2757339522005375    0.8183601438792208 H
   0.6174289156593296   -0.0678026820813849    0.6824890221692007 H
   0.3743122274119162    0.9914567439749004   -0.1659405928507345 H
   0.4809295939149156   -0.1434029254463699   -0.1435297346008459 H
   0.9194807129894800   -0.0133035070689923    0.7954725618332813 H
  -0.2366021978015219    0.7071537665672044   -0.1442879754947340 H
  -0.2914416264960488    0.7698315865696211   -0.0412311804183727 H
  -0.2377475385118532   -0.0968936364013687   -0.1288093749491805 H
   0.1234906662847354    0.2948578377249743    0.2639505350531599 Cl
   0.8139708313505490    0.1407172520545956    1.0701146733528197 Cl
   0.6498939283255207    0.4775127929874998    0.0775163613259810 Cl
   0.1639561496089582    0.0735364341735219    1.1626845935470829 O
   0.5738052882245519    0.1481041399155565    0.1389472639424540 O
   0.5875284352165524    1.2379869794218168    0.3249324622637412 O
   0.4895510615403631    0.3116754291441727    0.0336039692513954 O
  -0.1355850802147908    0.2787714459326975    1.2963043851136542 O
   0.2694273699580888    0.5764679389736106    1.0308071427579568 O
   0.3274724639318833    0.3986873794619186    1.1511415858965086 O
   0.0256236383731842    0.4184796971166332    1.0335819817738878 O
   0.4703742563559201    0.4250178136044934    0.3148317255900520 O
   0.4530040610260994    0.6605663647867283    0.2491793571288191 O
  -0.2234638028177496    0.4616430231111283    0.3002138091229865 O
   0.9454965392508731    0.6260413409926613    0.3305006929983264 O
   1.3030893065967166    0.9166939979799579    0.2224916975817016 O
   0.2439060860287233    0.7197170324037738    1.2019356593945285 O
   0.4946930130837914    0.9561127443872438    0.1066139362928648 O
   0.5848922185183004   -0.1841036870585671    1.2408882687199116 O
  -0.0271031119224686    0.9815919912989198    0.1756348302571585 O
   0.9382556018487082    0.7463872972099619    0.1412026272821469 O
   0.7243491289324306    0.7082940514479545    0.1013764276502947 O
   1.2462330472842786    0.2196288311749792    0.5320766147207526 O
   0.3039688160639665    0.0240161649203130    0.4392082380044269 O
   0.5237928826502891    0.0746278381981551    0.4704534093073616 O
   0.7054743650745519    0.2316372550038954    0.6024454028698198 O
   0.8903961468501947    0.1676830567980968    0.5162801983111652 O
   0.1248663638467930    0.5423431422881121    0.3835025381203590 O
   0.2404201263984041    0.4668451702365842    0.5312086708890253 O
   0.4209224394837603    0.5714413441814905    0.5313248269408550 O
   0.6423002066539291    0.5758438423757425    0.4257930206573478 O
   0.0539498794219088    0.8259543790795902    0.6646453553461152 O
   0.2344034631732460    0.9086894558085907    0.6005393143248648 O
   0.4122945283100128    0.7684319996185310    0.6241754575937067 O
   0.6134306939391576    0.8386859496761008    0.5974402063309091 O
   0.6671827738580535    0.9300053744480362    0.4058351523631124 O
   0.7361778727242209    0.6785000825086948    0.5982444256619798 O
   0.8796354211891356   -0.0183884850912355    0.3850875842442849 O
   0.9197142916153561   -0.2044854740160423    0.4964142868912948 O
   1.0423108524589060    0.1865331899115136    0.6691141367845624 O
   0.1267470745068658    0.3119025197772034    0.8462561490210667 O
   0.1435856771019336    0.1122044930343142   -0.0612405929606076 O
   0.3106539974252533    1.0245620486695588   -0.2087311917219900 O
   0.6156408310060698    0.0071661365837441    0.7155136396550262 O
   1.4295439419849127    0.2004936268413749    0.6810596574202966 O
   0.0547506513868958   -0.3661893051666503   -0.0101477402848258 O
   0.2038835966501280    0.4947587965229122    0.7502257464493775 O
   1.0178978588371468    0.6432535225188990    0.7848329901413823 O
   0.3856246818961659    0.5642082659336817    0.8521849474998732 O
   0.4716291373873520    0.3571732790576611    0.8261385661555652 O
   0.8356098774291431    0.3554032605775136   -0.0385875009442992 O
   0.7242420049419427    0.3787187041879356   -0.2136145857343294 O
  -0.1867645734748975    0.6019020898730534    0.7871069061837980 O
   0.5049551691951354   -0.2673428727814584    0.8090063551499366 O
   0.4904265786656304   -0.0621209871829864   -0.1235363741796624 O
   0.9938714781133894   -0.0035922418917905    0.7676749666797914 O
  -0.2025013293106592   -0.0224402812617822   -0.1520147728591541 O
  -0.2891050347937484    0.7657463710328661   -0.1218295255291652 O
