Li1 Co1 H90 C51 N3 Cl6 O45
1.0
  14.0067495780000009    0.0000000000000000    0.0000000000000000
   0.0000000000000000   13.6696098317000008    0.0000000000000000
   0.0000000000000000    0.0000000000000000   14.1280149943000009
Li Co H C N Cl O
1 1 90 51 3 6 45
direct
   0.7850371870052434    0.4526032192632505    0.3189731536184062 Li
   0.5611926053240959    0.5647533844014565    0.4264121675642720 Co
   0.3498798390382702    0.1148107689409319    0.1254031438821942 H
   0.6082581287225751    1.1136322545650028    0.0564083133703869 H
   0.4740332688055430    0.2036194485555296    0.1327757294890203 H
   0.6199396397747178    1.0587594374740181    0.1952976053757868 H
   0.6988601626158094    1.1452139899118932    0.2462424833569034 H
   0.3739939276152882    0.3593334759642612    0.2972878708576216 H
  -0.0313292323644626    0.0675197337205356    0.9458397023567207 H
   1.0042250851612962    0.2370571256822041    0.1613515768506548 H
   0.8578042479371298    1.0353403345192569    0.1842981833010865 H
   0.3079250659677925    0.3451867664106681    0.0222272907571726 H
   1.1729673038208150    0.5564444420542795    0.1336562495058110 H
   1.0687960975124102    0.4070163292442761    0.1381062730954919 H
   1.0412579454342266    0.4694317902928737    0.2487559291604594 H
   0.3545461607738041    0.5021806401511822    0.0567360310293693 H
   0.4281299707977116    0.4457221889223646    0.2138317023530086 H
   0.4693553098233310    0.7581802658233657    0.2013345468735422 H
   0.8302175478359938    0.3309522708840462    0.0680737879658268 H
   0.8960422414856998    0.4281780159026014    0.0121650137807286 H
   0.8589865350843213    0.5320861754980649    0.1737156633886770 H
   0.0566697707687110   -0.0723145427170590    0.3405041330321969 H
   0.1522551164296971    0.8323777017770929    0.1975173085692398 H
   0.2438138319516974    0.8460057425400408    0.3206747373164486 H
   0.2806532140743325    0.7164409618472666    0.3120606467984884 H
   0.6558980180690713    0.8008735107063780    0.9719488196070084 H
   0.5110282045052494    0.7861949644661853    0.9987756597648728 H
   0.3516946783668699    0.8078166496231817    1.0074569925670736 H
   0.4983077086466063    0.9178007690318795    0.2871102202776914 H
  -0.0187759987237205   -0.0407796265557840    1.0201417186288948 H
   0.8488621304742228    0.8678410402314072    0.2023141607828977 H
   0.1509585986402648    0.1345377401800565    0.4004070989011775 H
   0.0354078785401413    0.1814886047549661    0.4023026235032398 H
   0.2456679380635672    0.2399079751563148    0.5474559235830723 H
   0.1616377358067449    0.3027239597068565    0.6111104426618552 H
   0.5734258503782611    0.1908136697399517    0.6645701820735644 H
   0.4181604914961520    1.0229895796638782    0.3965884449698386 H
   0.7552936695902995    0.9369234801566557    0.4131371250281714 H
   0.6658931992651350    0.0968497588592370    0.6658937933528238 H
  -0.0402085229741372    0.0635108409522199    0.5754748632684922 H
   0.7664732797580970    1.0640485423490040    0.4001848454564250 H
   0.7264946967983837    0.2439373513183372    0.6258124372508898 H
   0.2436874643037185    0.4447084072438369    0.3540934447704319 H
   0.0257789493407619    0.3490873898122483    0.5121583109884369 H
   0.0435182541392331    0.5934989012697410    0.5122462709743587 H
   0.0091526793626238    0.6846390300180288    0.4306562174201217 H
   0.6367058422896007    0.3256726761561384    0.6710353507499037 H
  -0.1119296595880069    0.4956797962284886    0.6272570846417819 H
   0.1933117510755571    0.0686587567205845    0.5602498652707705 H
   0.1558048336373277    0.8392169606258125    0.5367499609930676 H
   0.3485554775297918    0.7834077598225205    0.4715662815893052 H
   0.4568893198356002    0.8565912677877651    0.4671904368563443 H
   0.6702975044650291    0.9813753706993451    0.5303755340097770 H
  -0.2910618691008341    0.8252875213554658    0.5771179107885696 H
  -0.1547561552470842    0.7319307967882005    0.4139504027607216 H
  -0.1535603032111267    0.7901014402659674    0.5338519601050081 H
  -0.0680101194709887    0.6847268159910578    0.6711910697239343 H
   0.0667234951689232    0.0878099982865951    0.8236930313136737 H
   0.1271043847743445   -0.0142097387190636    0.7615101981021827 H
   0.1535287880906812    0.0673383093762761    0.9601049760049518 H
   0.5308498054022966    0.0911729326033738    0.8464909969252580 H
   0.6252413694577156    0.2261102148455112    0.9011299536584891 H
   0.4055123036340473    0.2575580765835327    0.0171317412387834 H
   0.4957215269062762    0.0579898347984829    0.7324608234967918 H
  -0.0019862361388753   -0.0112184316881068    0.7629463517308549 H
   0.7533703111515713    0.0956514803273937    0.8244150011023604 H
   0.8102678801101645    0.2206367594271648    0.8313275079222783 H
   0.8076041643214135    0.1567987998406127    0.7218216785029166 H
   0.5473849050490963    0.2758248744712780    0.8133455054893465 H
   0.6860184966034095    0.6008378086149497    0.9419750405466909 H
   0.5572248039658642    0.6356259266267175    0.9889561628252129 H
   0.5763353048361325    0.5478114231566711    0.8978074770034928 H
   0.6511760088954451    0.3468642100452936    0.8451206699537894 H
   0.9072753972670475    0.3405984862203622   -0.0947990572943442 H
   0.7637367419349175    0.3345661267737323    0.7086577626891923 H
   0.2196926039595394   -0.0259138035731300    0.8953138499784498 H
   0.1284044722713469   -0.1547309403956088    0.8299961106943174 H
   0.1110114291071678   -0.2120661540300516    1.0011270162727335 H
   0.1739453735666695   -0.0455398209432714    1.0155713667410995 H
   0.6555003526457708   -0.0261969133361479    0.7377050138540282 H
   0.4651531214660515    0.6858365770000969    0.8344723233841762 H
   0.5218277122109907    0.7948243256149176    0.7891835832279586 H
   0.5737748963844580    0.6528926959717095    0.7241539240457826 H
   0.4745192487941259    0.8959493772454576    0.9321944733505385 H
   0.6909004286761726    0.5973344167413248    0.7682492906101119 H
   0.0828821334553883   -0.3002398484397409    0.9099174584884380 H
   0.0041015431510415   -0.1502567819702403    0.8214039623954251 H
  -0.0814350757003303   -0.0451572204108208    0.9122758931314817 H
   0.6717853585802146    0.7324743382712038    0.7303678189231181 H
  -0.0406397436485960   -0.2955432988826995    1.0169969031669972 H
   0.7472339838387021    0.7460365395543801    0.8999542754045589 H
   0.6694586231860739    0.8430429659503184    0.8535889508869757 H
   0.2922047877709262    0.2335749487520613    0.1802834650251727 C
   0.3779277453574533    0.3074607445015362    0.1561180036961932 C
   0.6933713802561424    1.0791916226964742    0.2014746939501696 C
   0.9640373173379798    0.2867908056021271    0.0181304661131336 C
   0.7335248788867866    1.1044417947386613    0.1066694434928060 C
   0.7492530104403070    0.9954818450152999    0.2574953026711624 C
   0.2849668487019480    0.4569443819394803    0.2195911809515823 C
   1.0174308613458385    0.4589940380997480    0.1725336148130818 C
   1.0288039496639310    0.5614219067250131    0.1311619146672496 C
   0.4481149786284842    0.4048080730927363    0.0152135666041349 C
   0.3801473895244934    0.3265337102415961    0.0480773482597549 C
   0.3704085133319573    0.3953966852342724    0.2306521828023765 C
   0.9193302997310144    0.3178494828597208    0.2387056850138269 C
   0.9012840000815212    0.3653043852297708    0.0624332220383309 C
   0.9220882557996140    0.4035165951195274    0.1669935584051874 C
   0.2913337791238407    0.8018201361155386    0.1877339101190141 C
   0.2951883493579512    0.7918410656314885    0.2920486351950134 C
   0.7191460967947350    0.8897816810904083    0.2144821829763451 C
   0.0850432344182801    0.1336789007439246    0.4383239612640875 C
   0.1030645461147831    0.1736237131213598    0.5403128111188856 C
   0.1725860289240048    0.2640557016872153    0.5458060810532190 C
   0.0415306409642444    0.0310746554678491    0.4311162962070300 C
   0.0037859810018515    0.1971810789836415    0.5899206293638949 C
   0.1597172331340727    0.3389722510700034    0.4743429632403247 C
   0.6194156067034384    1.0138196032312436    0.4038683070057648 C
   0.7039098709443637    0.2930536032279576    0.6846515594018349 C
   0.7222388914334026    0.9990759490610545    0.3690672397505017 C
   0.0060941539166283    0.6609441327980021    0.5104122766014439 C
  -0.1031553183808910    0.6458515293850237    0.5370286271752305 C
  -0.1264305256789535    0.5418190063277692    0.4987078156374151 C
   0.0583389660284537    0.7408183950075924    0.5639724689076733 C
   0.3230998928479594    0.9403551801523069    0.4603210358796922 C
   0.4614643284514928    0.7359374949071905    0.3331952506420196 C
   0.3826990164955457    0.8468770183223517    0.4393311799006575 C
   0.3923857749575596    0.8184870346448339    0.3309755474485666 C
  -0.2814664951526129    0.7037573518441537    0.5031261291814751 C
  -0.1695440258266606    0.7253300231662091    0.4914726874158467 C
   0.0663229739795666    0.0074909538136587    0.8025789540621736 C
   0.5607897995218944    0.0763846538968952    0.7790349530022794 C
   0.6214346333050433    0.2732227519207490    0.8365589576361849 C
   0.6182297498486768    0.1419622388489682    0.7103720870305645 C
   0.7688728371866662    0.1679483499650471    0.7900924157854821 C
   0.6063540467047250    0.6121702461831940    0.9297822448801023 C
   0.1589790176085920   -0.0132309251197923    0.9447758586386851 C
   0.5131046248651652    0.7460197139095495    0.8538437637535712 C
   0.4708370954356474    0.8097706190728481    0.9379709394735519 C
   0.0652013718610655   -0.1538179662761091    0.8681699093643777 C
   0.0615074384676059   -0.2335261666867199    0.9430544561621297 C
   0.6445413504058007    0.6665126896871297    0.7629612158147395 C
  -0.0221436608452799   -0.0113442582494481    0.9519870627633341 C
   0.6763545842698437    0.7790440654132134    0.8985528046382844 C
   0.6735809214879361    0.2197025703641832    0.7583901561134260 N
   0.0652970400239421   -0.0491046629980164    0.9022178630361478 N
   0.6138811320868751    0.7012825189545164    0.8657237058450621 N
   0.0366030166345850    0.8090580895917642    0.2681358632920742 Cl
   0.6088963924360953    0.4637095786889547    0.3081110473662600 Cl
   0.5055900548777557    0.5079154783042219    0.5561940230294422 Cl
   0.7483577277817454    0.9370163869781112    0.6319435179465818 Cl
   0.4678248333997594    0.0757087019045733    1.0471724090800358 Cl
   0.8038916684485897    0.4501500402469604    0.8463784545758450 Cl
   0.2347017964084572    0.2656709635909454    0.2376545819391210 O
   0.2840815612245824    0.1421758513833384    0.1389004398630475 O
   0.0822210236134201   -0.0044472069684845    0.3547524191559882 O
   0.4653014785126617    0.2540342013162011    0.1853542410704206 O
   0.6757641546377621    1.1198101924169055    0.0342431330441811 O
   1.0223741923888061    0.2302251823312368    0.0567813310945418 O
   0.9849786498267614    0.2464575402940394    0.2292146135466676 O
   0.8180062921804598    1.0989800441167188    0.0883307030466407 O
   0.8491234330683485    1.0045055114928865    0.2499691215308608 O
   1.1158491269343946    0.6045474975251923    0.1195474026451289 O
   0.2616488049130452    0.4855612192023001    0.1368768010141692 O
   0.2382229559555277    0.4919951263205593    0.2969820954177071 O
   0.4157145278691725    0.4979568912138784    0.0174304385435147 O
   0.5026211290917676    0.7173524728672158    0.2509678464052110 O
   0.8575208131560700    0.3102611170411552    0.3039002647457715 O
   0.9552758270781158    0.6076258589794026    0.1147703692099839 O
   0.8423766857610053    0.4640448333199517    0.1934381792631589 O
   0.2082052849992061    0.8373112734613122    0.1502148389534003 O
   0.3564823701597844    0.7776438791434038    0.1328040420297532 O
   0.4313248590728821    0.9058530981026581    0.2799082177287805 O
   0.6366444433193964    0.8714673324672725    0.1956118745779211 O
   0.7896906577935251    0.8308985081315574    0.1875973021099783 O
   0.1494885930629294    0.1015806912557147    0.6024142457757696 O
  -0.0270905615958175    0.2811059322987363    0.5927858584860561 O
   0.2298519917038243    0.3746733432012708    0.4369224904978129 O
   0.5503758916278670    1.0389110289722037    0.3544466437160737 O
   0.3575047344078389    1.0256436422484492    0.4325517420221839 O
  -0.0517736615594970    0.1261819786472640    0.6155916100463421 O
   0.0707115724661526    0.3762681217112943    0.4602238530836268 O
  -0.1107916368146837    0.6376164735651458    0.6387661324496731 O
  -0.3182701801995478    0.6337451121545752    0.4613586197161982 O
  -0.1192404206914136    0.4725552956837142    0.5621774538252127 O
  -0.1396570061674019    0.5200083618638284    0.4158997211901763 O
  -0.0221208147168318   -0.0085036504721908    0.4814101980953473 O
   0.0400270801357508    0.7705924708598645    0.6453226090698756 O
   0.1232362496514678    0.7810704582906285    0.5056919531853870 O
   0.2431170250340289    0.9390764311451872    0.4999629105681009 O
   0.6135348704525829    1.0159367082807884    0.4955473574967623 O
   0.4732392230536672    0.6840362330032311    0.4048104067986493 O
  -0.3287222839645745    0.7635798347144129    0.5534852206948297 O
   0.6129158831599409   -0.0141599933343473    0.7932436015690447 O
   0.9560633045680628    0.2860504772295841   -0.0779962721829343 O
   0.5245376342945282    0.3810568465400159   -0.0147842781158054 O
   0.3716357787945311    0.7857136047140774    0.9459423353168772 O
  -0.0345669571304732   -0.2381129837774754    0.9749350848408025 O
