Li1 Co1 H110 Cl3 O55
1.0
  12.6503746837000008    0.0000000000000000    0.0000000000000000
   0.0000000000000000   11.7060530986000000    0.0000000000000000
   0.0000000000000000    0.0000000000000000   12.9086175041000004
Li Co H Cl O
1 1 110 3 55
direct
   0.2281131914312581    0.7003982879832108    0.7230659866663049 Li
   0.7325203856483462    0.3562951162248541    0.6603040371591112 Co
   0.1890250211308846    0.1798411071236109    0.1571347397547218 H
   0.0226284476987740    0.2420789932721996    0.1955075554216723 H
   0.3178093489262648    0.1468949042701381    0.1731418760676826 H
   1.0569503019644382    0.3950195262528774    0.2968685260743715 H
   0.2968613527897193    0.2818003234322011    0.2824254612038861 H
   0.0450511037142902    0.2494896891975730    0.0783138280903368 H
   1.0104931799665220    0.0503400714430790    0.1032172695237743 H
   0.3109407776647386    0.2449057359600452    0.0470287582622370 H
   0.5852393725096064    0.2125788708063874    0.0883135821274365 H
   0.5322915336710422    1.1168793989891974    0.2259236708480759 H
   0.6451411555750834    1.1213642581947547    0.2659140106219549 H
   0.5521597198935303    0.2981371705649782    0.3225715109133458 H
   0.4952199044327188    0.2510606713078625    0.0012252475600099 H
   0.9320686253738174    0.3857704651826737    0.2628641100429428 H
   0.8321348264461919    0.4024438903205916    0.1356490926734671 H
   0.3275671626737937    0.5231942395710192    1.0386481935684857 H
   0.1963789535104424    0.5171896537889500    0.2959025047327337 H
   1.1169801444779952    0.8217594323444904    1.0811934157679635 H
   0.2370370377854265    0.7145097906911351    0.2274265428631340 H
   0.2397381435514105    0.8963951778550324    0.2066427525064373 H
   0.1340843559428777    0.8620240711625368    0.2638285820319878 H
   0.3271916797241764    0.6328597253831015    0.1967547842589112 H
   0.3908767499409555    0.8596355632884912    0.0662157858367494 H
   0.4020139694718156    0.6671231954546638    0.0479706871710561 H
   0.4907860436655533    0.5947307338057969    0.1110825579613434 H
   0.4908706261405199    0.8533217357859627    0.3157683036781708 H
   0.6017131928675539    0.7787261404435468    0.3330048512735527 H
  -0.0128891564223859    0.5707926910137722    1.0129521808161792 H
   0.9986595383754244   -0.0671516218215354    0.0518446109265719 H
  -0.0327876974770114    0.6971555212128687    1.0475802112662274 H
   0.6686882842134010    0.5377200578436474    0.0642666228073228 H
   0.6826997269122791    0.7047439029886718    1.1915228139043361 H
   0.8726474604838506    0.5308449822462520    0.1275932338669782 H
   0.8086548894935953   -0.0197757048212677    0.2890241538968059 H
   0.8795879663736191   -0.0465794445068091    0.1866963872261724 H
   0.7681296076092127    0.7693087903707726    1.2599112373524401 H
   0.2178818739220012    0.4086825430402460    0.3594499760044990 H
   0.2799005903328997    0.2400919870794135    0.3987082466782594 H
   0.2028459556384831    0.2081717491603930    0.5618395811787326 H
   0.1220056623215036    0.1199703723766603    0.5160910724935515 H
   0.2918781011804822    0.0689739353221081    0.5441715388862437 H
   1.0112125262489469    1.0227656963841956    0.5730383017198041 H
   0.3257079292053728    0.0674963237091838    0.6575624577460750 H
   1.4447728070418178    1.4198423165608041    0.6392049535497709 H
   0.6018515286910971    0.1872876819226288    0.6100143760243063 H
   0.4618090363305592    0.3651042339634651    0.3606290333276527 H
   0.5215756455341739    0.1985886728617371   -0.5445492319892001 H
   0.4495627587400927    0.1093146031819248   -0.4725058857745786 H
   0.6143294199746959    0.4145222568553300    0.4741888316201038 H
   0.7852974785561370    0.1395901364479054    0.3928664127269437 H
   0.9565580185930693    0.1577653487255129    0.4583110662486455 H
   0.9408984033679764    0.2768900432962880    0.4026381795300065 H
   0.9262348060723945    0.2990221827815416    0.5856577785885130 H
   0.7003497970155541    0.0355258468244721    0.4215356331049164 H
   0.7246123194841952    0.4807119446581868    0.4973346100045902 H
   0.0440696387134157    0.6993586549064179    0.6495313885810717 H
   1.0454407614456418    0.9620620592133559    0.4710420965040391 H
   0.0910768550898775    0.6221302336456156    0.5642379789924540 H
   0.0722024734237240    0.5556723085493215    0.4075310350182057 H
   0.2998391302027897    0.8824075426870711    0.6008305885302275 H
   0.3006533353356441    0.7737295801591078    0.5309129540729870 H
   1.0446344612169898    0.7677036379046311    0.4049296720148217 H
   0.5911775365465018   -0.0100616706338096    0.5636453516256914 H
   0.5255771080414643    0.5899195477018542    0.6292929703370558 H
   0.3450045908540223    0.6579655400863638    0.3675809784117406 H
   0.4416665499322455    0.7310098012731050    0.4093011703555292 H
   0.4274993806205787    0.6033476432927412    0.5514015927607472 H
   0.5963939828297118   -0.0960127586329177    0.4758845980329709 H
   0.6754904542796264    0.7320801876701647    0.6544513577396456 H
   0.9723045877643895    0.8484131641678423    0.3419686306994478 H
   0.8617861221096569    0.7920867495816264    0.5830385980303113 H
  -0.0476446487293857    0.6011214446089921    0.4411388167858666 H
   0.7915779249449993    0.6038841178796154    0.3657372488262571 H
   0.7584184327964782    0.8667378717523017    0.5441730882388366 H
   0.7794684021972356    0.6660886879312485    0.4734838761903601 H
   0.2988407408020178    1.3276250687055806    0.6848666984897529 H
   0.3270375340922282    0.4024028858935694    0.9662004663271321 H
   0.1122490343096050    0.3853339388866661    0.7145623649604843 H
   0.0556748206681577    0.4634789799431946    0.8782204793425242 H
   0.1346503470837745    0.4726161330979835    0.9777663834327075 H
   0.2176763464127370    1.2369711146305804    0.7389615695925810 H
   0.0885309225933880    0.0233003854503804    0.7557573263752989 H
   0.3180449150714984    0.2044924560940433   -0.0708501702532835 H
   1.4794437168738512    1.3029882421363854    0.6948879110602635 H
   0.6596490262578766    0.3848649507525992   -0.0169462568575233 H
   0.6390235502127920    0.1688356897626212    0.7332909391027744 H
   0.6212817832207683    0.1466343553067676   -0.0763774856282520 H
   0.6090774016225750    0.0319484839296285   -0.1365613124209543 H
   0.7119573583464610    0.4685652374117448    0.8281144164899712 H
  -0.1860721691613590    1.0881763000736302    0.8865405027660929 H
  -0.0985941277855654    1.0463517845109460    0.9593368343408363 H
  -0.0240807616941589    0.0429203203734048    0.8026283410139951 H
  -0.0953222879361631    0.2256720969099261   -0.0369924004447673 H
   0.7850619124109033    0.3647351941202649   -0.0286788068344590 H
  -0.0394433896683651    0.3532385778939047   -0.0126268167639354 H
   0.9459654469617597    0.3849469596066437    0.6892110831600855 H
   0.2374789219303446   -0.1054232746345216    0.8421980315589170 H
   0.2834475208485480   -0.2184109732943015    0.8878884395218666 H
   0.2961261966988896    0.5331873601398974    0.8448939050704645 H
   1.1238336964215367    0.8050065611292170    0.9614129668152462 H
   0.0664524461068473    0.5136496049226967    0.7153626055746878 H
   0.3689256214611166    0.5674149513378153    0.7426621982605872 H
   0.6160400412441105    0.7580137792439383    0.7530831438000514 H
   0.4572344682685898    0.8295058520161086   -0.0305456217735759 H
   0.6369911993423369    0.6331219828642646   -0.0044866731763959 H
   0.6703016751611252    0.5654416132873700    0.7433191237599527 H
  -0.0296214671477541   -0.1259989544107226    0.7064600255762101 H
  -0.0921895744007243   -0.2295906594701358    0.7513897014160736 H
  -0.1879211262543167    0.7776104783249834   -0.1021742062990933 H
  -0.1034169098394924    0.6885847417063246   -0.0906919542335314 H
   0.4079758482213183    0.9731674248652122    0.2168429153014212 Cl
   0.2348078548003300    0.0864794940509087    0.8207549916739655 Cl
   0.6194763031009242    0.8302994585307681    0.9121667946517213 Cl
   0.2669839768660638    0.2111445701195053    0.1664393767510424 O
   0.0599532710187026    0.1995659450391005    0.1399299538874932 O
   0.5750728752148099    0.2311752327198691    0.0161596896053156 O
   0.5884930310793431    1.1741318302189989    0.2353940885718308 O
  -0.0984304962685743    0.2969933179028370    0.0019558447751652 O
   0.9961299690306341    0.3428969196953374    0.2862074308830167 O
   0.8334075160227896    0.4775024939848004    0.1688617895299529 O
   1.0710605559658470    0.8094974001470484    1.0198855336691530 O
   0.1783779056605778    0.8480031198976198    0.2014291810315195 O
   0.2747616121108740    0.6446160363139359    0.2507946533446933 O
   0.3903028538958562    0.8126308217786645    0.0056513605796151 O
   0.4144713080044879    0.6111965740319147    0.1044342859854527 O
   0.6312048094661289    0.6102978936730107    0.0644573481115019 O
   0.9525265174498098   -0.0014507409591394    0.0785422801301516 O
  -0.0661626773140919    0.6208052780974594    1.0431413160877314 O
   0.7129154327358003    0.7117360120548599    1.2627310590714151 O
   0.8481343525519911   -0.0835858544684903    0.2529149423679994 O
   0.1616519188585715    0.4670660130487442    0.3463935817046083 O
   0.1954351079486675    0.1502060117521839    0.5034382845440964 O
   1.0252516361125334    1.0382277824071648    0.4969294543015617 O
   0.3220289867895432    0.2967267891271925    0.3541875999229066 O
   0.3462306414958254    0.0335314982764724    0.5890795237898074 O
   0.5207424686312336    0.1542329881893263   -0.4790519004793415 O
   0.5365886395955050    0.3571929423248619    0.3760319221294046 O
   0.7336349771408943    0.0801772844693698    0.3641359929215536 O
   0.6749703115831039    0.4166690094617234    0.5221722814204615 O
   0.8886390816854473    0.3453093468184791    0.6392382646305170 O
   0.9145513576611438    0.2328931473603217    0.4599580280548380 O
   0.0957931580841972    0.6402644414962009    0.6397487763098588 O
   1.0425001370823230    0.8402062989511203    0.3707331362618804 O
   0.2823194910188555    0.8020841414449861    0.6004045165671956 O
   0.0307113387242668    0.6189361596323625    0.4410814907399314 O
   0.5453962838578971    0.8225649984836982    0.3703318539403340 O
   0.4665045494268263    0.5510259944123640    0.5996011772478064 O
   0.3766400174723071    0.6872401382035535    0.4318217849688033 O
   0.6432518834706932   -0.0493818408161103    0.5228447004457555 O
   0.7947161719133800    0.7898964297715219    0.5388874718683516 O
   0.7999539614379365    0.5909933511344990    0.4411148018206775 O
   0.0133759154278669    0.0106792228129352    0.7406960698202690 O
   0.2912085557945330    0.4819916244848392    0.9806171922035392 O
   0.2211426469055201    1.2946421327195672    0.6801837802778838 O
   0.0550157097557558    0.4370294159960578    0.7436801229140853 O
   0.0564645996470265    0.4635789282340613    0.9568656169552511 O
   0.3481491617457648    0.2571464116850798   -0.0204357087671250 O
   1.4209632355839783    1.3573874486525559    0.6850332538934834 O
   0.6393705755072804    0.1074307914638114   -0.1472348024330520 O
   0.6355082393139536    0.2242360877052514    0.6735238881575468 O
   0.7222179240012669    0.4115955658766176   -0.0534664341615814 O
  -0.1093534928955473    1.0894918587739268    0.8951936369971227 O
   0.7077985882455415    0.4896432214189683    0.7538461999520267 O
   0.2318024102225509   -0.1880830739579779    0.8453044835075678 O
   0.3032777635308642    0.5846812321497631    0.7819971618876934 O
   0.6214715009216276    0.7021751464875078    0.7014563913776227 O
  -0.1399826252088578    0.7327747001528537   -0.1432227538938842 O
  -0.0482390975254114   -0.2064735594774522    0.6910486153351976 O
