Li1 Co1 H110 Cl3 O55
1.0
  12.8337674985000003    0.0000000000000000    0.0000000000000000
   0.0000000000000000   11.8757560585000004    0.0000000000000000
   0.0000000000000000    0.0000000000000000   13.0957540718000001
Li Co H Cl O
1 1 110 3 55
direct
   0.2797108292416522    0.7218227611844980    0.7477821042002810 Li
   0.7002880292439793    0.3389604004554166    0.6633745936484227 Co
   0.2132782715301580    0.1900073576944971    0.1776683131909331 H
   0.3130642463150120    0.1164048859281307    0.2022258910315650 H
   0.3025996652778616    0.2348836584011414    0.3070461245571724 H
   0.0642371579036597    0.2402820515378979    0.0643618940367096 H
   0.0267042978096694    0.2421084615696596    0.1744596396185968 H
   1.0037281531557738    0.0713611853531995    0.0995426096697327 H
   0.3086984199895352    0.2543796802846731    0.0771860505594441 H
   1.0478383491731291    0.4075682428518452    0.3010556333208615 H
   0.6144535305179620    0.3605666037772124    0.0092502909901812 H
   0.5742026844542184    0.2359505378433923    0.1219609445277610 H
   0.5269461013759537    1.0957787415973301    0.2425213942234227 H
   0.4715173272390415    0.2633887909023860    0.0595937073666145 H
   0.6489843103573035    1.1166700430671364    0.2684794259744935 H
   0.7385043986816620    0.4044526517418781    0.0111754951335830 H
   0.9282320059711497    0.4203707961588557    0.2686917085192602 H
   0.1874051208720360    0.5068326597186983    1.0232996483002879 H
   1.0011100599104406   -0.0485231397362321    0.0265920186031818 H
   1.1501387843456885    0.8022866908318281    1.0840216193788650 H
   0.2023656537025116    0.6314958805449935    0.1949418507634746 H
   0.2329903319231461    0.8327807493335436    0.2521497057592599 H
   0.1237893509825298    0.8063580105660688    0.2844059620759257 H
   0.3029869249037339    0.5772248095643215    0.1658140893601505 H
   0.2042567585556139    0.5171680016872754    0.3073210228165825 H
   0.4208026793325658    0.8615081834707424    0.0367050597670494 H
   0.5070182041291091    0.5934907213133035    0.1582330062506420 H
   0.4331653779725828    0.7020421258428124    0.1573678403397765 H
   0.4424409083274776    0.6029595921326494    0.3175289115160093 H
   0.6385610266243206    0.5175166110709312    0.0847039834299158 H
   0.7653834893337498    0.7382250853009974    1.0345857490616230 H
   0.8135673137697368   -0.0102960156892482    0.2432773644368003 H
   0.8983421080869287   -0.0475808839383799    0.1522524418959210 H
   0.8095373202385273    0.5840462699918466    0.2379412837791406 H
   0.6705789044647933    0.6369675321754168    0.1415657720613550 H
   0.7944638042174050    0.7945431838460830    1.1410859163947362 H
   0.9530960998576329    0.8716835356255647    0.2825206181801383 H
   0.2107536816150153    0.4186656415648873    0.3738364747122267 H
   0.2652209298398020    0.2362738856775078    0.4254218966968003 H
   0.1975993214460523    0.1627088852096262    0.5743739913455879 H
   0.1482139792171177    0.0689178882816642    0.5090016580453238 H
   0.3143195285228191    0.0189133246080141    0.5745656565208987 H
   0.0362346247393333    0.4729889197479425    0.6334045745225171 H
   1.0028788312398769    1.0116409405951927    0.5213545167744252 H
   0.2554248976135135    1.3275197765632851    0.6577307796614790 H
   0.0889608409559735    0.3556692313730048    0.6608065857417670 H
   1.4352226461522566    1.4123649009525503    0.6352861003869237 H
   0.5509943787065249    0.2111142243870468    0.3732385709980098 H
   0.5345977905632073    0.1373159756117434   -0.4814941873166461 H
   0.4347074037263072    0.2263620956895559    0.4119068292154152 H
   0.5588143738881214    0.3381351898371009    0.5036029616730208 H
   0.4931804904553375    0.0303748264550966   -0.4079062140914020 H
   0.6272268646163989    0.4594512553493101    0.5008692512044429 H
   0.6094838285183385    0.1418066370683527    0.6624895739743775 H
   0.9017627715830634    0.3567984226374550    0.6281906708690397 H
   0.7957899931172732    0.1431741289501328    0.3776354159360185 H
   0.9361174534838796    0.2816124727407392    0.3774406963356030 H
   0.9564933875212200    0.1714982203463387    0.4364537165681811 H
   0.8621796951357634    0.2852560302360980    0.5305918618968793 H
   0.7340684448585423    0.0300248697887987    0.3881915090973647 H
   0.1179235754019142    0.6674262245077758    0.6569144845522863 H
   1.0259897376852887    0.9720645129820977    0.4036453729138668 H
   0.1287115221226399    0.5408304951416495    0.5024804604470963 H
   0.0294102841853817    0.6195774814718925    0.4979110404906802 H
   0.3833530372024450    0.8496579905814001    0.6226957601059431 H
   0.6622087980239094   -0.0059114527407080    0.5337799180997598 H
   0.3815912786227728    0.7422374614196441    0.5609559018612725 H
   0.4251903231017536    0.8646094597026366    0.3368565499713648 H
   0.4838169111311799    0.6722208666105197    0.3970676684512050 H
   0.5103539354336543    0.8888361277634103    0.4121450743735706 H
   0.5874131466212956    0.5700648443729566    0.4132500126551437 H
   0.7837054668845729    0.7327315403276393    0.6119808368391599 H
   0.7789609520718246   -0.0407409825796903    0.5616171848964089 H
   0.6891073685364535    0.6076287685393432    0.4848342830117990 H
   0.7656647785187395    0.5270814757785302    0.3428966756156246 H
   0.9734174902856956    0.7825624729507827    0.3753568148080195 H
   0.7272520520876568    0.8089498455489009    0.5358599815959626 H
   0.9090014877286425    0.6148139952802483    0.3776827595251391 H
   0.8579798372213747    0.6835995105751101    0.4682999163145601 H
   0.0312048468500623    0.1318881106671900    0.7891176391402399 H
   0.2891944045062209    0.2385499512910864   -0.0496351306336541 H
   0.0858584783796954    0.4390517120438880    0.9060097242853296 H
   0.2032928950602338    1.2197287446749385    0.7176112566237509 H
   0.2420827515897513    0.3989346872706311    0.9750626398365839 H
   1.3504385015020459    1.4733041789602028    0.7050178619176657 H
   0.6213026494544143    0.0264830321329221   -0.1090963877503257 H
   0.3431318005265950    0.0278721647421417    0.6926321681186902 H
   0.5891608797014393    0.1348950771141339   -0.0445938019985840 H
   0.6387776426725952    0.1722299632313553    0.7804904154324209 H
  -0.2335141454799046    1.1014120671448111    0.9243744552264738 H
  -0.1322087415794554    1.0842089519078848    0.9886395594263362 H
   0.6816535947314365    0.4442084363567091    0.8494570434744716 H
  -0.1439722397118351    0.2705453878871454   -0.0185118369488958 H
  -0.0734083931947585    0.3873590032196264   -0.0092757135964835 H
  -0.0827244416594026    0.1229610158803179    0.8245482067468158 H
  -0.0613004911295105    0.0352378599929626    0.6711320698077192 H
  -0.0085200429813599    0.4256597225809376    0.8220435781610798 H
   0.0903196781019665    0.7224829296791504    0.7663018472154812 H
   1.1878362103008140    0.8463723050378620    0.9737874173554317 H
   0.2608862712910553   -0.0547105352702964    0.8626445238633930 H
   0.0522844713665279    0.7235093906421367    0.9510472224520108 H
   0.0025765426484362    0.6140780421369750    0.9086365298752479 H
   0.2948716150376191    0.5346018390766695    0.8839033225911042 H
   0.3329329247860692   -0.1600074101673667    0.9025811321054652 H
   0.5942085011428883    0.7062506999962219    0.8261746881149920 H
   0.4134244873861192    0.5793105715046968    0.8563829523990528 H
   0.5587177537802579    0.6527576847413904    0.7252373925035516 H
   0.4945581061868105    0.8046275944225602   -0.0465028176889317 H
   0.6608997514012428    0.5321481005646576    0.7676152500104405 H
  -0.2249383317126017    0.7970146054427730   -0.2232028372000602 H
  -0.1101964992637816    0.7490580797955181   -0.1989377205631895 H
  -0.0978166583465631   -0.1016086019918140    0.6797577663029859 H
   0.3857397097055568    0.9731507596123296    0.1979947486554785 Cl
   0.2206494507268403    0.1175442660175622    0.8510377084660794 Cl
   0.6459111675717101    0.8523003486633128    0.8939905614989010 Cl
   0.2877271814166488    0.1971959526420075    0.1922264668455241 O
   0.0644542414685852    0.1952171312613528    0.1257774486959040 O
   0.3195899995678887    0.2900801441466389    0.0054211873184819 O
   0.5843696132235958    1.1502258013731328    0.2400900718401959 O
   0.5463402504462941    0.2619884590062035    0.0509746542459502 O
  -0.1365659967663314    0.3422233506043686    0.0118701477629866 O
   0.9596491249151485    0.0135208258328170    0.0604410048906184 O
   0.9888065800462108    0.3674301667873047    0.2725066854748509 O
   1.1250487240779119    0.8309012900477472    1.0185271090744188 O
   0.1785659393913634    0.7839038612313711    0.2350281258356701 O
   0.2292135765778693    0.5610043686045119    0.1696886276052801 O
   1.0077410044097816    0.8408021333642317    0.3299046784333949 O
   0.4365151347766564    0.6240816157549233    0.1899700102995332 O
   0.6255204288404227    0.5665088602493374    0.1498646450704342 O
   0.7757795012620938    0.7181842559990472    1.1066396372781038 O
   0.8529072815585416   -0.0756666747172559    0.2114662905791236 O
   0.8272250335328918    0.5335450642542346    0.2958394388485557 O
   0.0228398830923390    0.3996622198973909    0.6649224235701565 O
   0.3123512834223097    0.2706396976720958    0.3770924918736836 O
   0.2151023656632905    0.0995494538180438    0.5299023254295258 O
   1.0312181322317726    1.0369698542675736    0.4543266850674917 O
   0.1716240963191390    0.4895823895892969    0.3719755662172758 O
   0.1950233046993048    1.2795986170853864    0.6620237741459326 O
   1.3643549138120612    1.4073041705279818    0.6555392296489598 O
   0.5574149407129373    0.0706969750106205   -0.4363467298462009 O
   0.5082384225880948    0.2257154000213249    0.4348195991372434 O
   0.6044159480220148    0.3950915635339041    0.5445910557573365 O
   0.3701620548958240    0.0005459887579418    0.6249651979586284 O
   0.7502756887582243    0.0905605524399632    0.3396230955098165 O
   0.8985992422449525    0.2281245097958156    0.4249553332620792 O
   0.8415466269403991    0.3168809641055663    0.5984512608385283 O
   0.0857116002318545    0.5884173601139653    0.5405714323197405 O
   0.3678377179461726    0.7698104427428526    0.6304944710041512 O
   0.4674927880687599    0.5910504556277131    0.3882060176166113 O
   0.4556077356071326    0.8359081291666294    0.4002961957867209 O
   0.6654081703052600    0.5467004372031578    0.4343087465385064 O
  -0.0807834683635320   -0.0364622655237239    0.6350585457166343 O
   0.7222971547819801   -0.0518214560545404    0.5073201970252657 O
   0.7563004200001636    0.7318212824925381    0.5428439245975304 O
   0.9268839996275704    0.6729500833405823    0.4318140448343602 O
   0.1999252167845403    0.4725518949408958    0.9584542033305595 O
   0.0098873342777038    0.4443103246065215    0.8980147665741538 O
   0.6457872756592077    0.1960406577763657    0.7098392719452077 O
   0.6223966384176427    0.1087216698406217   -0.1068070961344609 O
  -0.1620183824385963    1.1262610113759266    0.9321861474313763 O
   0.7024518521434705    0.4591498008581295    0.7761454957211898 O
   0.6667437095381474    0.4110433900169355   -0.0278291316484617 O
  -0.0396988842722566    0.1337347299385840    0.7639010690833000 O
   0.1386517053163054    0.7187433782955385    0.7085923028962726 O
   0.2726513278122715   -0.1378639778920144    0.8606896917964770 O
   0.0074601436648428    0.6935382462159051    0.8961592033231358 O
   0.3397228249467340    0.5724672177342367    0.8302294374412903 O
   0.5654757069697743    0.6320701597712091    0.7954036460054167 O
   0.4273198614468416    0.7983686244981317   -0.0099079032324991 O
  -0.1544375999434037    0.7782452741343500   -0.2580080112664780 O
