Li1 Co1 H110 Cl3 O55
1.0
  12.2737156033999995    0.0000000000000000    0.0000000000000000
   0.0000000000000000   12.4327790196999999    0.0000000000000000
   0.0000000000000000    0.0000000000000000   12.7670485421999995
Li Co H Cl O
1 1 110 3 55
direct
   0.7797314286025100    0.4312973391792327    0.5875269641457352 Li
   0.6477387987951821    0.8670470610568379    0.5615937972978439 Co
   0.1577600348800339    0.1492654624408164    0.1743147810352500 H
   0.0468333160286659    0.1904171630533111    0.2117220172043155 H
   0.1318135317761342    0.3321980148811218    0.2732663903930622 H
   0.2328693196140413    0.0169535314241503    1.0582277670867146 H
   0.2162573981235743    0.1339647802925552    1.0061483849333337 H
   0.0488204078587262    1.0862820362527350    1.0140828734460987 H
   0.5495468544041823    0.0350809347700064    0.2354792700257052 H
   0.5673515687271591    1.1343967818821827    0.0785410400677626 H
   0.5092094361359235    0.1144534546576648    0.3257945841868987 H
   0.5371504452876266    0.2951765252149195    0.0198901312437747 H
   0.6665024729295416    0.2780114167816524    0.0565325861113730 H
   0.6403816134962996    1.0412237271560840    0.1089504176711080 H
   0.4143498159832880    0.3217200678514526    0.2744044764551596 H
   0.5705673838295611    0.2962374304219614    0.2973526150975083 H
   0.8561842347714962    0.2273928061715214    0.1849264740629835 H
   0.8841138374343637    0.1006246879975662    0.1814276231067622 H
   0.8337541892257334    0.3274814507157744    0.0459753300976213 H
   0.0795155952146754    0.6252628231775311    0.2387995362454102 H
   0.2998302975735055    0.3905759526575396    0.2707850024751510 H
   0.1078542019772151    0.4657522264832891    0.3136469057718470 H
   0.2840380137807879    0.6497513144084600    1.2039858092723466 H
   0.2226792513379478    0.6167586906877258    1.1039940221509656 H
   0.3948976787727873    0.3953005600769207    1.0624887362386832 H
   0.4077910849028888    0.5042351754074103    0.2201812941971944 H
   0.4739055384409201    0.6095672172562164    0.1594938144371709 H
   0.6099816912513487    0.6581653624530881    0.0352544105720491 H
  -0.0438940591185574    0.5686157936691603    0.2338242281473763 H
   0.8144772230937776    0.4302219561149303    0.1300461313052937 H
  -0.1897850881973125    0.6213377152090974    0.1348389383348702 H
  -0.2134071118263826    0.5524504617122789    0.2424205767581953 H
   0.2885052836582821    0.8120151169584291    0.1241160214800080 H
   0.3286430883719200    0.9150894173999826    0.1778050160612007 H
   0.3998741669018653   -0.0198290735972518    0.3258635116290629 H
   0.5231603867309143    0.7455078623301753    0.0103277018697133 H
   0.4215367186988409    0.8885225493267519    1.0260981798415396 H
   0.7825341658592272    0.7916576409991960    0.0636802835371615 H
   0.1690035738750039    0.1242067044988999    0.3496802926959581 H
   0.2370131340581295    0.1117999851519552    0.4568836134537683 H
   0.2548830283173091    1.2621558289530868    0.5546885208192125 H
   0.2950729769799092    1.1596043400237221    0.6314133798782353 H
  -0.4188664919754091    0.2396780723825576    0.6005620833786509 H
   0.4138650402077802    0.2461923038244315    0.5438152168178102 H
   0.5856769077905553    1.0495324085728710    0.6525592225612679 H
   0.5194972743163211    0.2823153620150722    0.4195789851815607 H
   0.7593936590088548    0.2452496344516847    0.6347837751467872 H
   0.9592663038761053    1.0338963227314055    0.5268794309715114 H
   0.8886764329685545    0.1564311974594180    0.3747369844554205 H
   0.8052029329213324    0.0738545668949046    0.4356986074513243 H
   0.8493403414702100    0.2297543055558086    0.5562049245468248 H
   0.0003422844259839    0.4363935449349696    0.6428255711547396 H
   0.1393564798931945    0.3661164171411321    0.5670923273432152 H
   0.1843526341015431    0.3857403483324939    0.4446262777443645 H
   0.3217046841631400    0.4699668915969351    0.5525431541818517 H
   0.4578957166111258    0.6029242937498037    0.3381647102562076 H
   0.4550245404213958    0.3640702133149649    0.5606327294394863 H
   0.4275683070452006    0.5298891341478187    0.5023451778929980 H
   0.5621119166056626    0.5674816948504120    0.4193212905398332 H
   0.9223418700172618    0.5855685601959384    0.5714308398676184 H
   0.1704929354172362    0.8759992027963189    0.4755128212314193 H
   0.1988869451255482    0.8163263011204793    0.5786517727007064 H
   0.0231879905724034    0.7295637198592200    0.5045054265917351 H
   1.0321863575029038    0.9462731132885430    0.5763411368554294 H
   0.2746887666817096   -0.0087107226814213    0.3344159973221411 H
   0.6377605653117475   -0.0079589197268937    0.3760513054548696 H
   0.4508016953046618    0.8505101307636007    0.4349615537800003 H
   0.4816700983410697    0.7311096332844925    0.4676566593574771 H
  -0.0198095838421291    0.6733486130924575    0.4071125173464996 H
   0.7312318528232651   -0.0922798907936903    0.3926111234348182 H
   0.7049016028449717    0.6844836939766782    0.4486013546646293 H
   0.8010232695123327    0.7590092685511033    0.4575611388795868 H
   0.8576344883520067    0.9368625060691426    0.6090863714817528 H
   1.1521744725600949    0.3185646992940416   -0.1080394363928935 H
   0.0062893588375647    1.0040236772503341    0.7411176702136625 H
   0.2869857763955561    0.1859362662311504    0.8574844244473699 H
   0.0378410920301380    1.0294323167427155    0.8544688488526863 H
   0.1961176125861349    0.0752429129736573    0.7476226975679088 H
   0.3210121473409860    0.0478489570881438    0.7586189743922630 H
   0.3357664406496753    0.2675889682048154    0.9287851637679035 H
  -0.3698780666746437    0.2180931958577856    0.7235215908020862 H
   0.6555172094317749    0.2981750503186738    0.9112164986799153 H
   0.7619389355175712    0.2806849944224462    0.8421480685658359 H
   0.9350519575767932    0.2084018790726098    0.9153286472181202 H
   0.9648636308975145    0.3326275246465201    0.9056631399873679 H
  -0.0203881372508485    0.3195773449768814    0.6742306369908024 H
  -0.0681557423465369    1.0599564658005147    0.9993731306751482 H
   0.1511825645679764    0.5257798356620139    0.9184068841238623 H
   1.0961034324417007    0.3768541612760890   -0.2109998031256644 H
   0.3285493922136286    0.5569981175429192    0.9134409752224871 H
   0.1679386966672919    0.6471637995858265    0.9004230878501125 H
   0.4089260305420188    0.5838955633569338    0.7927466741938116 H
   0.4558563993571831    0.5944121180059647    0.9449282840293139 H
   0.4216149346222842    0.4204309029797370    0.9435027392027362 H
   0.4231629581070989    0.5564021124190238    0.6695678521816720 H
   0.7117120914289541    0.5256672301055424    0.7212595174728794 H
   0.6701606968489195    0.4111948343728672    0.7551256063007594 H
   0.9108783487376075    0.5546374224840354    0.6975140136473132 H
   1.0526365624865086    0.8232515428434740    0.8356782881990600 H
   0.1963636668453002    0.7605020964997534    0.7382383829705309 H
   0.3119325822279465    0.7114310079657017    0.7131910904077270 H
   1.0156876861515891    0.6981580301593301    0.8377931074472798 H
   0.6571100441227289    0.6996709662430646    0.7212634338048206 H
   0.3423870926694672    0.8814927453013194    0.7409140209527230 H
   0.4086465715655496    0.9170519713841995    0.8401585719397329 H
   0.5015980490858504    0.9594640499037712    0.6997502391857084 H
   0.5298225909600353    0.9246206734298882    0.9664994403611550 H
   0.5390317011962777    0.6868041727653936    0.6866618578383931 H
  -0.1937545463120585    0.8853454639834500    0.8931465431034602 H
  -0.1516817122424022    0.7925230951332196    0.8214150072694003 H
   0.7909562283658217    0.9187410547312713    0.7160711609172470 H
   0.8166607509565689    0.6838112779394629   -0.0032555471816854 H
   0.7884541335648397    0.9672016602841671    0.0688507816191422 Cl
   0.7261062655901233    0.5146922099765919    0.4014424519621062 Cl
   0.8764959323906703    0.6081105839507178    0.8581893641967765 Cl
   0.1258080154042557    0.1976753954933000    0.2272792542073303 O
   0.1877827282442115    0.0769878165037229    1.0572878474208391 O
   0.5323996426876505    0.0400707282748778    0.3108012989834092 O
   0.5667307298348282    1.0665680206161960    0.1175624316096916 O
   0.6071716212518088    0.2496822717496434    0.0098508492925592 O
   0.9050691869235398    0.1681896305312484    0.2171187226192170 O
   0.0254973157120660    0.5794605130827651    0.2784437812192593 O
   0.1587548436563280    0.4009059038129894    0.3090561814704338 O
   0.3709163507453997    0.3760643137299821    0.2338571253356819 O
   0.4317699686826687    0.5830791730725158    0.2240882269416833 O
   0.7986539788313636    0.3525836422294727    0.1130202698243486 O
  -0.1652538044582145    0.5630152758855119    0.1860684764570222 O
   0.2224657870468839    0.6694162661953935    1.1642898687168746 O
   0.3047057568014694    0.8887075441695264    0.1066593634855366 O
   0.5304540215919992    0.6685492034105633    0.0160124926622056 O
   0.3347968890986598   -0.0632470414662750    0.3217772108816694 O
   0.7846459957921955    0.7122843972186746    0.0595650802600424 O
   0.1906669404211820    0.0739917848087191    0.4013390607988598 O
   0.2972752440743587    1.1935629585539009    0.5591069265152152 O
   0.5134942021920501    0.2651759919947128    0.3426387278657747 O
   0.4843555117126220    0.2903272473580165    0.5422510338405158 O
  -0.3716517756885603    0.1888044906195591    0.6480350759028541 O
   0.8704097558477408    0.1295353602962100    0.4463659123926222 O
   0.9843035468699771    1.0050853867827794    0.5943774119771906 O
   0.8252970925034299    0.2823354701501564    0.6125350933891275 O
   0.2007388700629081    0.3923760329102763    0.5240487062444499 O
   0.4011239921785525    0.4848428899322183    0.5545788635248603 O
   0.4917827654429225    0.6111991934996492    0.4102581151616294 O
   0.9168504603921821    0.5240320365604961    0.6249866791628123 O
   0.1370458511548079    0.8361127060433213    0.5332552193716997 O
   0.5692409721278355    0.9678129475907264    0.6571225325390931 O
   0.4902762941674371    0.8075205466044111    0.4918329596965696 O
   0.7114562601793584   -0.0202322819219600    0.4153399474884626 O
  -0.0458329992707480    0.7016576499893824    0.4726264845907935 O
   0.7839420524812061    0.9374416203595671    0.6405149353094625 O
   0.7223812322361376    0.7559761574550041    0.4733807701226584 O
   0.2646779432301735    0.2279389431204080    0.9188220153096240 O
   0.2701970543281392    0.1125375515468432    0.7503234000745241 O
   0.9044499775296139    0.2816799449464118    0.9208741732467853 O
   0.6851765246516223    0.3051646380739380    0.8379105974055142 O
  -0.0060417073929478    1.0904403985881455    0.9616040254347205 O
   0.1961493878050337    0.5869680863977980    0.9366021623224342 O
   1.1085283577803451    0.3802966740025022   -0.1353166883629866 O
   0.0455416126429684    0.3676760040982617    0.6673418091063237 O
   0.4075686583705970    0.5478778717941343    0.9031018588978574 O
   0.4180797378324889    0.6200322950794318    0.7183387171111715 O
   0.4294617841918897    0.3648126056622732    0.9984332110092727 O
   0.6743827272164510    0.4597986098475624    0.6922951097025398 O
   1.0806883775297564    0.7479023390560006    0.8247673874110227 O
   0.2648474110643006    0.7764357827404649    0.7023224860046542 O
   0.0650184367543059    0.9902375398366141    0.7922923796886384 O
   0.3921201987413487    0.9385033298920125    0.7680236539157349 O
   0.4732944765390196    0.8688085336902129    0.9673610333882076 O
   0.6056007847893231    0.7283507971509418    0.6682558809813876 O
  -0.1651185560905939    0.8702724059243419    0.8234671652065618 O
