Li1 Co1 H110 Cl3 O55
1.0
  12.6546483837999997    0.0000000000000000    0.0000000000000000
   0.0000000000000000   12.5731031673999993    0.0000000000000000
   0.0000000000000000    0.0000000000000000   12.6994011362000006
Li Co H Cl O
1 1 110 3 55
direct
   0.6010675651594788    0.4139696870773646    0.4422054243323462 Li
   0.7410208808333654    0.5301438710121056    0.6655380027415249 Co
   0.1683617456117912    0.2268448405955295    0.0794963524163539 H
   0.2484983064425300    1.0789344049107354    0.1296702144092400 H
   0.2150315527915822    1.0629081306236958    0.0113942434488134 H
   0.3283685619680726    0.3127305591506651    0.2649214740220972 H
   0.2281935147006324    1.0596312943923010    0.3178192439874147 H
   0.5376481815733339    0.1151786925247560    1.0029594255348679 H
   0.3625860279036985    0.1949959012630125    0.2681145379756730 H
   0.6632755361851906    0.1110587867775170    1.0158261739939132 H
   0.4352660401889404    0.2768388628850948    0.0009242221797800 H
   0.6049649472521442    0.0260200667603090    0.1517074740405033 H
   0.4458305375930045    0.3288475031780881    1.1584470724579459 H
   0.3420109797393168    1.0162847957003078    0.2653585025040293 H
  -0.0063177818596958    1.2196872466267361    0.1402911876782488 H
   0.8195280008946241    1.1918420921458797    0.0783322817770022 H
  -0.0967076500969133    1.2034859956477288    0.2347594218204281 H
  -0.0387049322229308    1.0437163689092408    0.2033177817212102 H
   0.1023799834421757    0.3416709086535194    0.0548700730630284 H
   0.1778104474937865    0.3402583695401803    0.2116024243489713 H
   0.2228808423954845    0.4442430408335727    0.2801166787353284 H
   0.2191667921449720    0.6078812431617462    0.1936039378417253 H
   0.2900213882432598    0.6211635647792927    0.2997971343189832 H
   0.2477799933196118    0.6255006006942917    0.0217609606339824 H
   0.4580426509060726    0.4473313794468022    1.1107361612502618 H
   0.6268549272498989    0.3960170784814808    1.1003340959415719 H
   0.5398165547408672    0.6511466162965545    1.1082714780999061 H
   0.4323998997083853    0.6421170236424223    1.0442605856742146 H
   0.4326875410469356    0.6635826870038573    0.2265322622182185 H
   0.7011809749972296    0.6601515531440911    0.0152356844330610 H
   0.7361594261224818    0.3489117623065818    1.0775298710104855 H
   0.7021308235932118    0.5550796403146995    0.0824367272891153 H
   0.7168155461049721    0.4212678058296166    0.2542186071276453 H
   0.8681662547071868    0.6467889013179593    0.3219934565688958 H
   0.7697834342414832    0.5011565959418599    0.3326443525087395 H
   0.1402037131487035    0.6896748931706377    0.0550455931506368 H
   0.0244373120944146    0.9813371782227631    0.2830750859544614 H
   0.4500708766662492    0.7533059625532840    0.3250786414197244 H
   0.5094490574904534    0.9394779814124952    0.3066328897273659 H
   0.6749842771557956   -0.0442074171188829    0.2492396321884443 H
   0.8019313049417705   -0.3156680068044599    0.1510798853916747 H
   0.9970596028691217    0.8565549363918123    0.0785092979981523 H
   0.9137542459735838   -0.2446728047357739    0.1584203890107213 H
   0.8472411375511077    0.9329799833516954    0.2976521512833382 H
   0.7980829167034734    0.8373949886213515    0.2578140522600811 H
   0.1232629026656212    0.2804704245920240    0.4655128225966842 H
   0.0684705466103051    1.0919144940603378    0.4206240917119633 H
   0.2827039190262926    0.2392729578168338    0.5443377994018136 H
   0.6459396139733302    0.2262857105298328    0.6637497294397812 H
   0.6283239526574953    1.0872537512651987    0.3369807774636944 H
   0.3629708667275282    0.2323343366317155    0.6463237108719310 H
   0.4570825294051423    0.2769223744880794    0.3715414622781069 H
   0.3852646509120938    1.0632739909796280    0.5489718761877060 H
   0.4743030789921994    0.2591113379429694    0.5024373984070608 H
   0.6037227159768664    1.1676396342523501    0.4311930940263640 H
   0.6259422191564219    0.0440507467747544   -0.3407251952586762 H
  -0.0103828493700546    1.1789653983142581    0.5530594705115068 H
   0.7687727384392694    0.1922455858047205    0.3838617282750606 H
  -0.0589270665911681    1.2163865499373459    0.4383635108848748 H
   0.8123361772074084    0.3072673096182743    0.3676979739532231 H
   0.2003531520674822    0.3444005450482152    0.3940929193845083 H
   1.1127088058824204    0.6299378505328720    0.3798820130540070 H
   0.2498235111808512    0.5321107680995422    0.5910211030979277 H
   1.0951895518284072    0.6098354146715853    0.4926337865150709 H
   0.1659713196526847    0.4408484930093998    0.5496073392235965 H
   0.5052031868530058    0.6064734761400062    1.3868909155089644 H
   0.5765240147912516    0.5943571355698443    1.4918328718820961 H
   0.4328661315483432   -0.4142999820208411    0.5531634124207231 H
   0.9277491034068979    0.5888859325514549    0.4042855259973530 H
   0.7746891414659899    0.6417654795612873    0.4809560705023633 H
   0.1204797356481095    0.9694785305989535    0.4421235307069030 H
   0.2187985480137509    0.8193564823766835    0.6088077685932102 H
   0.0597553301416131   -0.2281343259504288    0.5013586073795888 H
   0.0309388913959245   -0.1398243848629410    0.5915290010634163 H
   0.4776994594127744    0.9902132685971237    0.5877177977254862 H
   0.3591359122880097   -0.3276165288200529    0.6161655958637928 H
   0.3406304593589667    0.8565947038218049    0.5753022516450842 H
   0.4311584586565650    0.9458884911273110    0.4117268217707911 H
  -0.1540383619425903   -0.1076708270166803    0.6098865596206822 H
   0.6982002521153290    0.9234198931814613    0.5606094328263983 H
   0.7636244326132929    0.8832150214588879    0.4516948481805687 H
   0.7225359737142190    0.7300221322925848    0.5575218856594512 H
   0.1343797662665169    1.0027320555588111   -0.1313019341555304 H
   1.1046643310845019    0.2860291159563972    0.7370090894696028 H
   0.2740043489820602    0.3145105493171363    0.7756408323949860 H
   0.3627764717569695    0.1689378950860258   -0.0063918708393748 H
   0.3735487979303708    0.2717796504414294    0.8430384986959744 H
   0.7980015236873452    1.2387358455932176   -0.0405800184018917 H
   0.7259560608385206    0.1947230966932629    0.7452228626138073 H
   0.8913356064827243    0.2271963846766646    0.8031523659116401 H
   1.1341001548784573    0.3978726267649380    0.6855869796396737 H
   0.0899032242931722    0.4048868060670424    0.8850562280579488 H
   0.0834587149297669    0.4983012944683873    0.9609101986246462 H
   0.3788725333639246    0.5813595487510452    0.8831348776148600 H
   0.4069151932022091    0.4337396672239128    0.7800843490139819 H
   0.5661381078885951    0.5484329120657272    0.7817812794258083 H
   0.4164373858657571    0.5498677209398622    0.7261314111823780 H
   0.6498591223228073    0.6344625887174362    0.8244706940041575 H
   0.8557913553618620    0.3481673160171194    0.8192735985433437 H
   0.2918997494018700    0.8761682328641894   -0.1394164900227557 H
   0.1200474834168264    0.9071391073424686   -0.0436197680393735 H
   0.3229310343566308    0.8224981093461031   -0.2488885812725636 H
   0.3589818187137863    0.6935204036509273    0.9047500700996087 H
   0.4822701118912774    0.8754603726103203    0.8634567843473236 H
   0.5780641603100281   -0.0557522997200504   -0.2793160003182166 H
   0.5569059272339700    0.9565461623653424    0.9183806341036524 H
   0.6595196040914276    0.7999921300160603    0.9005057754732774 H
  -0.0879203652488922   -0.0321709295481463    0.6723753330273200 H
   0.7771388341844131    0.7406193570370274    0.8637953829909827 H
   0.9264610391710819    0.6820506814924460    0.8148726036144815 H
   0.9063656566454366    0.8018230224929221    0.7743029740331796 H
   0.9826222202995762    0.7959740288896026   -0.0376680700664235 H
   0.6516434468899683    0.3892112805125379    0.6163183589727925 Cl
  -0.0083062211459436    0.1276783911200471   -0.2640719744052020 Cl
  -0.1086732136912240    0.5314927822374563    0.7636402665127430 Cl
   0.1182750122015287    0.2839651863397785    0.1059948460375023 O
   0.2552238982897879    1.1063341641756743    0.0539705030850839 O
   0.2916113178398622    1.0783935678628354    0.2682027311107656 O
   0.5953060459304391    0.0665243554167832    1.0142512965815453 O
   0.3938448972142353    0.2675905493660031    0.2659616805529662 O
   0.6114993050226737    0.0015249683029496    0.2281228884047100 O
   0.7693575037978606    1.2257796169016109    0.0271066300298791 O
  -0.0670805922262293    1.1735570278352572    0.1669570120244612 O
   0.2201877608521341    0.3677050543725104    0.2755786694715905 O
   0.2238291105445515    0.5928316569553261    0.2694610581632476 O
   0.1850204463205261    0.6278906232368502    0.0663381728921499 O
   0.4777753208646998    0.3740384152731406    1.0989245806575028 O
   0.4684870343445883    0.6208000904691600    1.1153505520684996 O
   0.6976241792147707    0.6331168588864847    0.0904586803644934 O
   0.7030751406249909    0.4163565282255238    1.1071926870724340 O
   0.7182418994458605    0.4359284665707086    0.3296056265415758 O
   1.0306282953460941    0.8168909017171389    0.0207023201630017 O
   0.4371064706215880    0.6776786502390535    0.3086873173117998 O
   0.8549616207314286   -0.2775835344490948    0.1989215114245853 O
  -0.0330582324622740    0.9687149959430946    0.2263448518061467 O
   0.7792953540000831    0.8933000417050250    0.3113268118549283 O
   0.1946840889829766    0.3153249862833858    0.4719572209680934 O
   0.0045059878607925    1.1906490692461000    0.4764401095223985 O
   0.1196839806263507    1.0311896284615545    0.3895856202303115 O
   0.3481186168427660    0.2030400570019266    0.5726407088181825 O
   0.5091005689456714    0.2778004393423172    0.4354743982718860 O
   0.6540330826256173    1.1143910454921859    0.4058556787774838 O
   0.8324007410182089    0.2351975915911866    0.3817261945038898 O
   0.1709528883291168    0.5120862764010410    0.5895714284398430 O
   1.0624901051547462    0.6511784302405484    0.4374177969987479 O
   0.3754018719383393   -0.4047112593010123    0.6125945613312487 O
   0.5251855674242207    0.5595550668860727    1.4464527792447164 O
   0.8562259782635179    0.6023416401637695    0.3833892650513502 O
   0.7353747342291288    0.6501945840225303    0.5496797835845654 O
   0.0858209299114386   -0.1583894118807118    0.5300394873749259 O
   0.2951396655778490    0.8091235272909736    0.6242856638019614 O
   0.6061107712656003   -0.0327460461207000   -0.3463624689562470 O
   0.4417490334347286    0.9151562212289877    0.3370225117151222 O
   0.4161236671531074    0.9921459656947665    0.5374555851097661 O
  -0.0877322920659940   -0.1069963714040048    0.6572675340104752 O
   0.7520603025354207    0.8715233970410474    0.5280819147513527 O
   0.3440552878240137    0.2827133076436097    0.7705051571532545 O
   0.4240701542422891    0.2100120828282388   -0.0340386863257512 O
   0.8299431460652101    0.2779332625584927    0.8187696377713859 O
   0.6781412198687312    0.1653079240762963    0.6964646579268985 O
   1.1456927330008018    0.3502726037609305    0.7473536717527409 O
   0.0669060622090360    0.4263333810620809    0.9527287104673953 O
   0.4377939650296615    0.5047205530178016    0.7889398847037264 O
   0.6259951641280782    0.5955732235790197    0.7601007295284463 O
   0.3659555407267166    0.6283137486919720    0.9481143196491574 O
   0.1676055017629102    0.9534283958539184   -0.0830130429375073 O
   0.3506963257613132    0.8330444317801551   -0.1712825595846068 O
   0.5511878702950960    0.9065266889205817    0.8555272765760515 O
   0.7101318361009648    0.7391042179543073    0.9063485706731620 O
   0.9144891537891108    0.7594802537339436    0.8408887910280923 O
