Li1 Co1 H90 C51 N3 Cl6 O45
1.0
  13.4576737397000006    0.0000000000000000    0.0000000000000000
   0.0000000000000000   13.1337501424000003    0.0000000000000000
   0.0000000000000000    0.0000000000000000   13.5741854543000002
Li Co H C N Cl O
1 1 90 51 3 6 45
direct
   0.7952081151090947    0.5330120868220484    0.3341138031721314 Li
   0.3654852587033846    0.7068025865081421    0.5258649037271537 Co
   1.1533287006737909    0.2587827950394465    0.0809708052686009 H
   0.1351207796735111    0.1529668639510816    0.2622214599235822 H
   0.3818016001638140    0.0853327160215948    0.1430327244044658 H
   0.3892902643972692    0.1180727937098265    0.2744218236623536 H
   0.6309189487372188    0.0503655516534079    0.1128275970780141 H
   0.4947693410531759    0.2942981653596224    0.2124821954739337 H
   0.6458888464993926    0.1829225122415025    0.0801486564893926 H
   1.0057719952275892    0.2958179140820809    0.1411173240227976 H
   0.8717614645160455    1.0576224171005666    0.0542487598669672 H
   0.8210149526589952    1.0408092451119264    0.3479267866937765 H
   0.9784537523342824    0.5283158653063916    0.0328721549150966 H
   1.0190417477460494    0.4260479688231290    0.1949039768174018 H
   0.3377315765125183    0.5206575042968209    0.2609005703526857 H
   0.4433820052196490    0.3548360917994739    1.0173349092357846 H
   0.3754156525132570    0.4635974877840462    1.0464880397372280 H
   0.5522265223577687    0.5341986481492424    0.2366081366659526 H
   0.6086810786722642    0.6545958677442123    0.1716922709614022 H
   0.7049153926443363    0.4019535558360570    0.2377006515759579 H
   0.8993843663035492    0.6514246485913872    0.0824169325567603 H
   0.2447868355272994   -0.0678779038076853    1.0351157183173008 H
   0.1655086466934703    0.6233252865661733    0.2403159097893894 H
   0.0573852051429815   -0.1605650637430692    0.9926792861689892 H
   0.2606432163645389    0.7132965428477451    0.1915431858400287 H
   0.3603387526028775   -0.2401112701709835    1.0683250774731534 H
   0.4892313111201022   -0.1551652351159776    0.1587957328531399 H
   0.7086916767914309    0.8571960368619232    0.0988628549107445 H
   0.9271172425211532    0.8811770016728196    0.2081276063754567 H
   0.8709485454178713    0.7899197455955403    0.2883453110521718 H
   0.2717194248447812    0.1973852512109900    0.4905217885461228 H
   0.0005031603849947    0.2072704704813694    0.5916290707930467 H
   0.2567547285759230    0.0791425571470524    0.5632516037769337 H
   0.0896352067699102   -0.0166731837004465    0.5276236096237523 H
   0.6020788975138747    1.1264656637130515    0.5176599841483720 H
   0.5036118796896233    1.0513218556384709    0.5459078006594198 H
   0.6980182125079074    0.2110591827273378    0.3214183821039443 H
  -0.0329892550738785    0.1680897342544225    0.4850905970946573 H
  -0.0971192092318576    0.3097217875394017    0.4359247003823367 H
   0.7762449566215203    1.0609855083365880    0.5612482423161996 H
   0.1740532140699835    0.3412497209560133    0.5969818781673547 H
   0.1404233305734849    0.4755935436166730    0.4376492974182924 H
   0.0253321171915704    0.6818546473097096    0.3943413580963219 H
   0.4060546773533103    0.5466411720459349    0.3641929560888658 H
  -0.1431353344536454    0.5413557814113210    0.6233282104171994 H
  -0.2520991887098334    0.6554471097641063    0.5666004603365440 H
   0.1499004513944302    0.9115064959666108    0.2968231678184167 H
   0.3480513392505840    0.8034002822343810    0.3528000072802129 H
   0.5642930208582458    0.8872849296545636    0.5175568840393665 H
   0.6928538727160327    0.8757604223083062    0.5412538934166844 H
   0.0077919386610377    0.7067058890693885    0.5813707020335505 H
   0.6408820376479319    0.9714200767389193    0.4519166728458656 H
  -0.0983645953456967    0.7940099711151026    0.5548827774939530 H
   0.7789021766352964    0.9624241693462109    0.6525299626206389 H
   0.2905057325596268   -0.0156711850437555    0.9192141045301085 H
   0.1069101091413495    0.0125439093491004    0.9901833721331846 H
   0.1391422770769105    0.0488115400589502    0.8645765719505711 H
   0.0310270093016320   -0.0317267668626332    0.8903239732349174 H
   0.5676114249794767    0.1029918002500404   -0.1428201551707748 H
   0.4231096308645489    1.1345136316471121    0.7444669708633450 H
   0.4995081243847908    1.2229483884688037    0.6418169809474783 H
   0.6207574600100408    1.1842876864990908    0.7013601485814497 H
   0.8071968141309805    0.2368301922509094   -0.1340697221963695 H
   0.7441413398779009    1.0955354270635389    0.6865887281765159 H
   0.1492450632366700    0.5732992092557109    0.7800293257188315 H
   0.2297054771940779    0.5116069285883448    0.9093004341700671 H
   0.2518549218726681    0.4352665087441172    0.8052949301379430 H
   0.4128166186635346    0.5496182349240973    0.7764195326918416 H
   0.5853135185662179    0.4406319222197784    0.9604128933548808 H
   0.5700441634031628    0.5342030642527446    0.8672463454056346 H
   0.3815355809342470    0.3449782828266940    0.7873704660278018 H
   0.4988766630962820    0.4067806615227512    0.7643480901326056 H
   0.4949496099500837    0.3108433255495126    0.8624976258440067 H
   0.5174381986804824    0.5595582747896756    0.9852637399221156 H
   0.3825803380202003    0.6094945072357844    0.8916816974285383 H
   0.3191005705266659    0.3756237569400344    0.9570270548340551 H
   0.9173332335945901    0.3814446381941398   -0.0618915422754790 H
  -0.0952897697257288    0.4136472456302756    0.7523584204358177 H
  -0.1946851054927124    0.5622376313800218    0.7357990474438423 H
   0.7923123694732767    0.3815321988670269   -0.0193158752532692 H
   0.1213680313471777   -0.1182907708731622    0.7431284006735408 H
   0.2277095899018512   -0.1887634073985031    0.7761226456326831 H
   0.2341876782911410   -0.0501792269271517    0.7693340246645786 H
   0.3566873042953563   -0.1874241098019078    0.8715316854133899 H
   0.0852540632572637   -0.2464156386188570    0.8762546207391106 H
   0.1745391821597513   -0.2386554788095906    0.9697489968306039 H
   0.6140029494045529    0.9736121391497198    0.7546708980504546 H
   0.4152041040953755   -0.1353201796539759    0.9674107349800598 H
   0.5098416264959141    0.9342296326765548    0.6920800337322676 H
   0.6211312244582873    0.8555514190059562    0.6952566515960187 H
  -0.1415414482876639    0.8003112939743540    0.8645331070957563 H
   0.7525580991329461    0.7692356304681334    0.0060396056452897 H
   0.5362470147430453    0.1024534924610734   -0.0046343313277831 C
   0.5888500138714653    0.1183354757284879    0.0978167516253720 C
   0.5195414826913364    0.1453757343103451    0.1833010706592200 C
   0.4293766872393217    0.0809082371507503    0.2085850923896936 C
   0.5805392164659626    0.1533688816492069    0.2787196874418351 C
   1.0859277502908000    0.3946956897303005    0.0493578586616231 C
   1.0097281024293072    0.3796485023042203    0.1283953820262489 C
   0.4402500374802573    0.6421957536690834    0.2321098925388504 C
   0.3717760933333143    0.5842983525646457    0.3011269251375341 C
   0.8411662808339377    0.4111609032188588    0.1883894054423668 C
   0.9037149810239875    0.4118469220560006    0.0891436713586878 C
   0.2150543566651004    0.6849984561649354    0.2529280846102194 C
   0.4551616042102495   -0.0314671304325939    0.2292883604381624 C
   0.7512577258040568    0.7020118756054827    0.1907350342174557 C
   0.8300670371690122    0.9149320217693865    0.0139531559913970 C
   0.7731470958168691    0.8263175752189875    0.0595249512260084 C
   0.8255380226321092    0.7714756608997329    0.1407504511804628 C
   0.8588290659926229    0.8416802856263236    0.2253013808744748 C
   0.8017961779284848    0.9258870040432999    0.2728305679606601 C
   0.2297887010871268    0.2079161352692675    0.6474593084563998 C
   0.1171956906376271    0.1266940937020090    0.5134816008346217 C
   0.1285148831627534    0.0969196579346067    0.4020000128531763 C
   0.2255479978940004    0.1555396249396522    0.5439957890630424 C
   0.0329760831540186    0.2067123663663584    0.5166276717457474 C
   0.0400345095832298    0.3236515485000110    0.4869771191321096 C
   0.5679119226790211    1.0897465244899662    0.5813910347452943 C
   0.7406704576954769    1.0329082268288849    0.6293624583119086 C
   0.2223171274745657    0.6009828484339996    0.4219334372867056 C
   0.2919517477013516    0.6541900430603094    0.3398356934661377 C
  -0.1019885500456928    0.6560090208648951    0.4708635187443447 C
   0.1619270470104723    0.7752559977769903    0.2973609533101927 C
   0.6370619123428919    0.9306670553857818    0.5185238518212780 C
  -0.0766936880521379    0.7115597959359578    0.5664484806831832 C
  -0.1396607369188531    0.6907561414551310    0.6497430550653118 C
   0.1048466024360206   -0.0100178111638689    0.9125882925944458 C
   0.5474533348632239    1.1554977372538020    0.6694827293833108 C
   0.8660688016174048    0.2357589064530642    0.0015104204350991 C
   0.2674467696212878    0.5138442941298998    0.8374861803216935 C
   0.3748167377114943    0.5381005040125241    0.8470970700829406 C
   0.5337745963560663    0.5011789092857808    0.9286806025702761 C
   0.3864651104564480    0.4099794432526070    0.9848357216060581 C
   0.4540515312296622    0.3721449333363709    0.8213334615645954 C
   0.8650678856893970    0.3503423257874752    0.0014441181141952 C
  -0.0372604241564247    0.5487418667980705    0.7389535645339588 C
  -0.1347795069774395    0.5836641087340806    0.6880960009383978 C
   0.2642805463330607   -0.0844862599614852    0.9529457786361930 C
   0.1893708688138260   -0.1133888959857939    0.7884600341679892 C
   0.1139930568961912   -0.1957941487327620    0.9382016158520755 C
   0.3448605946367264   -0.1700261847978126    0.9471745299477361 C
   0.5930424174838045    0.9374579566160455    0.6931666551026370 C
  -0.1212697426959900    0.7699071827593199    0.7323999484588358 C
   0.6349694258890906    0.9956637235684770    0.6049160559021876 N
   0.4357247382957225    0.4562011996754126    0.8969903032555770 N
   0.1661892992473346   -0.1025534530653003    0.8980268295390413 N
   0.1548374116213677    0.1381142896379575    0.1391378313975891 Cl
   0.6159810030054120    1.4494952595254116    0.3309622328518329 Cl
   0.8094126502834080    1.1923440298018624    0.4308039511311924 Cl
   0.5045047531707624    0.6209466818522655    0.5487340475918165 Cl
   0.3368510380012419    0.8538656857035901    0.6086989716559821 Cl
   0.7884082772047142    0.3438293345189837    0.7617637730022626 Cl
   1.1547293885166232    0.3221135262458196    0.0339101545834698 O
   0.4511684920989436    0.0724361710010537   -0.0177946053347520 O
   0.4819317583221912    0.2444159921115571    0.1603236330037474 O
   0.6605823220453682    0.2103061609405084    0.2582742617524369 O
   0.8977139438787817    0.1824184673245349    0.0680087015318892 O
   0.8450547686225536    0.9892634190790056    0.0762581836372428 O
   1.0866834529625031    0.4670340005477764   -0.0062859958107446 O
   0.5176649696707017    0.5904215084895005    0.1921163325696202 O
   0.7481056208548291    0.3844978407878563    0.1698387527459110 O
   0.9116799534310529    0.5176119918143753    0.0630875959359111 O
   0.8741690128506749    0.4268858863928010    0.2727753160265735 O
   0.7743226333061851    0.6569120378913659    0.2686903563664390 O
   0.3285628299381382   -0.2560617791823967    1.0077468569406267 O
   0.1828511684780118    0.8615801616835240    0.2511548658722674 O
   0.4895862758853653   -0.0823505409401948    0.1476952509489187 O
   0.4224594442001042    0.7315167767798239    0.2043763683972051 O
   0.6614309085262776    0.7112118374358758    0.1517816839939621 O
   0.4286217276380922   -0.0714016498435256    0.3065894996875606 O
   0.8629724269537010    0.9948193341229830    0.3116299494611657 O
   0.9118947007979381    0.7158997597225374    0.1196199015083910 O
   0.7108748178430176    0.9293224280090977    0.2813231585759947 O
   0.1201687156027050    0.1769386919961115    0.3439375970527254 O
   0.0832039318204605    0.0423708815202350    0.5740106287284998 O
   0.1357078053476954    0.0052870330596461    0.3872226989086068 O
  -0.0417686327200655    0.3632183130848167    0.4438681604420961 O
   0.5659687933904236    0.1142787516837694    0.3590051678243631 O
   0.1198447368761931    0.3753915308075946    0.4979293785144878 O
   0.1636301645360804    0.5297304650816699    0.3884537120000559 O
   0.2441329335104865    0.6176749582749090    0.5108501538045028 O
  -0.1846752031421593    0.6103967628650996    0.4686613976593900 O
  -0.0390155566151884    0.6434124663236368    0.3972888646067273 O
   0.1019924687467269    0.7740720252001251    0.3678270599668537 O
   0.3320351982615095    0.7405850169023084    0.3917850352792494 O
  -0.2438585371570434    0.7108090583405950    0.6168858349027043 O
   0.1963460713499883    0.3034775694668160    0.6593200569736525 O
   0.2743929924089776    0.1678521783418939    0.7149307602855681 O
   0.6008550604437715    0.1142688535207473   -0.0766548590634132 O
   0.4874100453891835    1.1070858219130848    0.7467418771628032 O
   0.8342624130632460    0.1907336856601902   -0.0798837820914329 O
   0.0371454515816746    0.6036051002376803    0.7479743636391611 O
   0.2206823724325334    0.5902494327323483    0.7859501229755494 O
  -0.0256343435256806    0.4516700490630768    0.7590446411527483 O
  -0.1606108658529704    0.7445884431461393    0.8182179891745669 O
   0.8679814650165827    0.9102539976457471   -0.0685195642885051 O
  -0.0754720801934556    0.8526482116518811    0.7208169329969252 O
