Li1 Co1 H110 Cl3 O55
1.0
  12.5855162400000005    0.0000000000000000    0.0000000000000000
   0.0000000000000000   11.6460361896000002    0.0000000000000000
   0.0000000000000000    0.0000000000000000   12.8424350500000006
Li Co H Cl O
1 1 110 3 55
direct
   0.1074796690262743    0.6731115177025090    0.5095342899943263 Li
   0.5482101797359406    0.3859460009933542    0.7687281256680368 Co
   1.0912137299820448    0.0349129856871899    0.2533990642997256 H
   0.2040184980127601    0.0573807331456483    0.1308934807499766 H
   0.1409602980258838    0.3698615584456589    0.0618144473309990 H
   0.2405978477367568    0.1810385147766242    0.0827457581730188 H
   0.0358119612580946    0.4372450000925936    1.1756509545282847 H
   0.0111795271101251    1.0124510093253438    0.0518420394892322 H
   0.3210943471000599    0.3420735630512264    0.0184637900894036 H
   0.6259781458118399    0.4594456867288662    0.0165147827631022 H
   0.3576069534355469    0.3571404920168685    0.2051379675850492 H
   0.4021692891637793    0.4472380997279810    0.0318738715365354 H
   0.3703597080257710    1.0743261390491807    0.1657373400537463 H
   0.5796955787011879    1.0564402251975638    0.1579997108881621 H
   0.6528066043002460    0.1012760114770441    0.0363624206143055 H
   0.4169974453109918    0.3288802329345631    0.3158062321677851 H
   0.4125749012580829    0.0218267478017111    0.3267582050181363 H
  -0.0056108052028544    0.4298124283067272    1.0587416616913317 H
   0.7126086804048333    0.1480169790593109    0.2533134107616141 H
   0.7616722220367178    0.3613359108876798    0.3312752611507270 H
   0.9246730843676539    0.4579859626027140    0.3286854096256457 H
   0.7522900085662279    0.4991124018651745    0.2969717978055882 H
   1.1032672681212161   -0.0830135583867875    0.1903572815811126 H
   0.2575085565182982    0.7844275035791187    0.2085656664465669 H
   0.1526292671169760    0.7404365703843975    0.1602617429628347 H
   1.0939549762958312    0.5871234627371400    0.0557065713951187 H
   1.0186938601097859    0.6938722294213949    0.0393786710254766 H
   0.1141318395374777    0.7181920920243402    0.3258954402887947 H
   0.4510119419622631    0.5581565254455270    0.2620368342840091 H
   0.4037361696654566   -0.2526824455369542    0.1076292011303573 H
   0.4392945044580865   -0.2480671413145615    0.2310279174820510 H
   0.4154122898338892    0.9469695023486603    0.1834185663255505 H
   0.6315345329052628    0.6284370901522482    0.2702735899762249 H
   0.6828466910786012    0.9871376756553644    0.1539848959563163 H
   0.6804351888866181    0.5758535338219949    0.1685273093905972 H
   0.7351790696191576    0.7748783318103317    0.1804915513277212 H
   0.8108557428550899    0.8548119662971720    0.1136047034164288 H
   0.8600591277771852    0.8636235480516269    0.2854031194808340 H
   0.2468971523094232    0.3763307123082650    0.3434559729387146 H
   1.0523595430996797    0.4295153315139927    0.3390378077092163 H
   0.1545354265102438    0.2745235411216603    0.3828807391943945 H
   1.1437741484333421    1.0950284618030206    0.4276105741332910 H
   0.2527936128585854    0.0638392396087459    0.5775416419178230 H
   0.1660899783638911    0.4591889470149136    0.4749871033998338 H
   0.3018563599263211    0.0380262509569971    0.4656057049710366 H
   1.0197267935033865    1.1234673224254670    0.3786144143279120 H
   0.1799598901475018    0.4998010481882180    0.5915786994772460 H
   0.6012409801634009    0.2235328014114142    0.3724901863529378 H
   0.4996289385424527    0.1673797902620936    0.4322576679101056 H
  -0.4706268512987115    0.3595258529712512    0.5222149069774739 H
  -0.3770025630668925    0.4341890247014316    0.5717195373318240 H
   0.5917594461742953    0.0308187265569821    0.6130606068356171 H
   0.7840765473439173    0.1424794726536902    0.3560174536370344 H
   0.7465627901807864    0.0762784075489389    0.6340574037008658 H
   0.8600591277771852    0.0694701683584402    0.4872293300015560 H
   0.7561992641789319    0.4733663029248535    0.4657349639467322 H
   0.2186853576377412    0.8831795580358119    0.5201078299399302 H
   0.2809799814775019    0.7870884947949691    0.5718417882907649 H
   0.0361737978258729    0.6220924421709905    0.3462303689049999 H
   0.4658114938001144    0.5094343687595715    0.5201989341577398 H
   0.4562624218583504   -0.0403109605325831    0.4308288111606996 H
   0.3411173636529350    0.5286039811809516    0.5032730163583735 H
   0.4645028466468372    0.5956637075363808    0.3866603962306977 H
   0.4000295279107279    0.6747747445450717    0.6335325811128008 H
   0.4885638382045423    0.8330440449312410    0.5681275394108378 H
   0.5947390617327588    0.8307110623131496    0.4909988643469915 H
   0.7744893363230048    0.5043708433643248    0.5884834920773067 H
   0.8773647349407416   -0.0139762493049226    0.3954165238312807 H
   0.8443664858359436   -0.0084584062419424    0.6236761948817486 H
  -0.0443502570221148    0.7208101501776566    0.6452593291487971 H
   0.7072215354751311    0.6825602261049666    0.5002603478224327 H
   0.9461104251056133    0.7909232759404957    0.3563172410204247 H
   0.8005446838945082    0.7996472742473815    0.5943904715328889 H
   0.7699190033383961    0.7776526663112715    0.4315366208529122 H
   0.2693745775183236    1.0160917330282173    0.9688755268417729 H
   0.2403602730562286    1.0182469727674184    0.8465856344743593 H
   0.0665677993674418    0.2587585205592173    0.7569834682558897 H
   0.1655290160747510    0.2967293797254370   -0.0404870239152971 H
   0.2018191444485395    0.4076873038605142    0.7392773245911802 H
   0.1933244591323971    0.2300586269165649    0.7789029873271579 H
   0.5471057355689367    0.1792061316676780    0.6838454693995123 H
   0.4337889694701947    0.1874467036904321    0.7420018857716552 H
   0.6443341667802734    0.0760580750720150   -0.0933474820260041 H
   0.6034490739332595    0.2433962121233421   -0.0657787227820163 H
   0.4963283190678239    0.3232663056776321   -0.0357288141394961 H
   0.3582529340886218    0.4849221660364744    0.7571586686747541 H
  -0.0743578461267791    0.2319545509580614    0.8002213742945891 H
   0.8136486358385564    0.1630478442524245    0.9411549272347691 H
   0.9248558341219064    0.0993469431112715    0.9283847633708686 H
  -0.0856374787848988    0.1793503867577918    0.6938965227626360 H
   0.8908484885479754    0.3251493498003684   -0.0251923388158385 H
   0.8386535696051828    0.4526837293797791   -0.0070422762231529 H
   0.7349001776028854    0.4847676070113524    0.7227251676853916 H
   0.8920721173373177    0.3798761246123133    0.6759248531297808 H
   0.1143829218085376    0.6719883887866225    0.9069012986754408 H
   0.0507949859035739    0.6618295675298543    0.7010781825990235 H
   0.1957725112752308    0.5386743603289000    0.7776135122443153 H
   0.0133196061888360    0.6225870310513809    0.8370547316881309 H
   0.0808127454293444    0.9824665584516775   -0.0490323659452730 H
   0.3335014662855021    0.8577425771457351    0.8639655160257167 H
   0.4332399256432885    0.5450748212914518    0.8505802040244695 H
   0.4250670388074601    0.7650526711188265    0.9153654255779164 H
   0.5229319159020845    0.9010053655998816    0.8432996532849898 H
   0.4048723963984174    0.7679704020486293    0.7283315810890552 H
   0.6463849368486453    0.8754936811809957    0.8650245052241865 H
   0.6174858441881442   -0.0088405963646191    0.7358908951616617 H
   0.6649713814202666    0.5755907834792875    0.7863595171540306 H
   0.6644978211875081    0.5647553371569853   -0.0309114255555452 H
   0.8075749874841843    0.8105934878710211    0.7110225583737720 H
  -0.1561574306943169    0.7682632055351105    0.9591032368117758 H
  -0.0594756596174397    0.8420900412071308    0.9972579946978202 H
   0.9182053321954157    0.5182030174514923    0.6810235746530017 H
   0.3014328572349448    0.0979112615001383    0.7257939003553692 Cl
   0.4237917633484377    0.6161453543487966   -0.0107276365006806 Cl
   0.7219869210545788    0.7209423840102610    0.8627118596951752 Cl
   0.2680373260556851    0.1047394216316527    0.0936322450001412 O
   0.0566539430249069    0.4503069550379032    1.1026274199455655 O
   0.1943502414486575    0.3106422679701683    0.0304411058711175 O
   0.3940194446882697    0.3630394948090245    0.0451003273713267 O
   0.3616163241310155    0.3775388486879685    0.2805232038140617 O
   0.6570050812631584    1.0693716636327701    0.1499864330635645 O
   0.4296548522033450    1.0306202813896843    0.2004729644320841 O
   0.7301081612207271    0.1912883541259642    0.3178868344753669 O
   0.9988933215186092    0.4827772302322814    0.3078568051625069 O
   1.0850240752619298   -0.0008213013461646    0.1809392857314860 O
   1.0939629219373204    0.6675345128793572    0.0380079808151337 O
   0.1797827023422919    0.7864685413719797    0.2177967818494048 O
   0.3947885827844277   -0.2080157459379496    0.1769836496077899 O
   0.4867848090751024    0.6043868471820157    0.3117197797313369 O
   0.6990446758185581    0.6089583596806240    0.2338840736438063 O
   0.6834148044450816    0.5159000879771747    0.0274417837137514 O
  -0.1049557169376788    0.7757000706272303    1.0160161195442448 O
   0.7561476175092519    0.8575476610418312    0.1699055526856645 O
   0.1734420804338813    0.3589737337870654    0.3800635164590535 O
   1.0988018176042653    1.1255452826521071    0.3685882783576935 O
   0.2321277939092310    0.0381745074085391    0.5040400048587359 O
   0.5279678634779624    0.2372138511184624    0.3982064931681317 O
  -0.4527682274875043    0.4089624158177706    0.5855447970515529 O
   0.4242534051189623    0.0316857657654827    0.4064253394841970 O
   0.7859302655033561    0.4422372566040339    0.3511017192179609 O
   0.8241130456798805    0.0762791803440645    0.6140401718442018 O
   0.8777858539396711    0.0688747726472203    0.4103264688109129 O
   0.1798772554760137    0.5248164264042122    0.5187918801271258 O
   0.0447504980534672    0.7048862772838382    0.3605594271625302 O
   0.2198660799630417    0.7966754476587858    0.5246007473481441 O
   0.0071907356261137    0.6629303712532232    0.6334181168391425 O
   0.4012936794716654    0.7541322173327072    0.6498238840616134 O
   0.4125955599259550    0.5634613346522140    0.5001046141167753 O
   0.5286813820836959    0.8753743272671515    0.5108447891274327 O
   0.8520499211560351    0.8331213244438019    0.6443661963468524 O
   0.7282480865480969    0.5196824907864100    0.5287611732947795 O
   0.8833160204161795    0.8456775279124623    0.3590931943237665 O
   0.7149065599235205    0.7656434300592928    0.4885663038646242 O
   0.2317599107082793    0.4877488788737054    0.7251530561565892 O
   0.1389158844707033    0.2891980618957427    0.7883832766590476 O
   0.4975543315496130    0.2356047199346924    0.7173469041605159 O
   0.6281616080930820    0.0515714604541881    0.6764909451498452 O
   0.5609279735036120    0.3151382182787168   -0.0843904579451231 O
   0.6674138716140577    0.1354393090593836   -0.0398214959241706 O
  -0.0546407367712395    0.2460245742116666    0.7280123269924578 O
   0.8915397593575390    0.1802511224097527    0.9286728707263346 O
   0.9033310913275654    0.4084592403248735   -0.0202439003185770 O
   0.6688146882086101    0.4940694843399441    0.7617551489972301 O
   0.8626652981856546    0.4579258563151666    0.6928460989179774 O
   0.0893467616708586    0.6381949166049499    0.8334105629757497 O
   0.0038298087325816    0.9939296861482253   -0.0237231470366673 O
   0.2295248017573572    0.9740430915825291    0.9149060111462273 O
   0.4096032313411086    0.8242934281255843    0.8573001134235833 O
   0.5994770477527904    0.9375671616537391    0.8419603434163367 O
   0.4318120938676727    0.5088702283178761    0.7811393233403972 O
