Li1 Co1 H110 Cl3 O55
1.0
  12.4616021424000003    0.0000000000000000    0.0000000000000000
   0.0000000000000000   12.4640410376999995    0.0000000000000000
   0.0000000000000000    0.0000000000000000   12.4431298468999998
Li Co H Cl O
1 1 110 3 55
direct
   0.5749438948080664    0.1637306482566412    0.6165122857342188 Li
   0.5055402988565243    0.5474272347436914    0.3790382710484226 Co
   0.1466827499716631    0.1465444083082907    1.1511366191496044 H
   0.0777376825411495    0.0400839115892540    1.1259821761878137 H
   0.5749647588989777    1.2060619403876691    0.2423210607539545 H
   0.5080167059546936    0.1941910742815269    0.0641755276546394 H
   0.6157187481691078    0.1293349014275606    0.0933554047810087 H
  -0.1241090761064964    0.2458966164929735    1.2411461275112829 H
  -0.2480514057002847    0.2606622931658386    1.2875251340072875 H
  -0.0990151919953981    1.0144066022212916    0.1392127579566776 H
   0.8013898981192048    0.2671016172788800    0.0051828136806004 H
   0.2759775213492455    0.3481250989045754    1.2101732127589697 H
   0.2775696119787879    0.5251920704689802    1.1523179939468513 H
   0.1836964497134177    0.5667957524876402    1.0674518860629827 H
   0.0441349406773852    0.3818268493023352    1.0584991546062943 H
   0.0142688852739889   -0.4443249556262651    0.0044419229148983 H
   0.5298317179325710    0.3404357789071434    0.3300449705283064 H
   0.3691172305725786    0.3725441455909111    1.1195288159008112 H
   0.4268377380788045    0.3961921742766696    0.2807808378267804 H
   0.5264766116210203    0.3687700886973468    0.0444813668594716 H
   0.3754751610452924   -0.3876266506493741    1.0438243901180422 H
   0.5035638274751923   -0.3855358359672676    1.0359324850099021 H
  -0.2202427823756069    0.4782634701674575    0.1777424531297487 H
  -0.1509876424555494    0.4140058190912546    0.2592524922018460 H
   0.9183547942332196    0.5911474053008765    0.3064889999962602 H
   0.7458825891796511    0.3839264893725856    0.0153337243882844 H
   0.7297562518352543    0.6518797149675722    0.0767254248204963 H
   1.2448136197929078    0.9996842501811334    0.2047027118530454 H
   0.0241590662147410   -0.3172578194374826    0.0300046232896151 H
   0.2437729945625551    0.6874099253271588    1.1941643787717853 H
   0.2593263718719250    0.7995733878648251    1.2428579154828043 H
   0.4871197139769151    0.9971730261001691    0.1542547933852985 H
   1.3547754035460273    0.9477909678946242    0.2328387197793166 H
   0.4672241983628809    0.9334617467808789    0.0435089427066356 H
   0.5505457478823578   -0.1535380439788039    1.1853884517065216 H
   0.5219290422673830    0.7016717525678048    0.2467267047257289 H
   0.6441677385917569   -0.1780301006943306    1.2845114227898204 H
   0.3833248740181670    0.7031447900798338    0.2735005151817050 H
   0.9650422099725211    0.6947277767145312    0.2638526210041875 H
  -0.0657754853134911    0.9782064646707770    0.2491047237903914 H
   0.7058973614131004    0.7630073978603424    0.1307406129821345 H
   0.9517212903906647    0.8470852660918626    0.1431273679140859 H
   0.8657050632834846    0.7500404957528199    0.1354765597033432 H
   1.1841071398912550    0.2063989930086685    0.5824139515353111 H
   0.2850213022942770    0.0883810888995016    0.4558742449363100 H
   1.2577413315075892    0.2926976498204153    0.5267269974871196 H
   0.5787933195812088    1.1840706777489367    0.3641352681639676 H
   1.3822598309965446    0.2238114838167098    0.6346315212299546 H
   0.4671311124188150    0.0527189791025635    0.4512114309406451 H
   0.5937697245303767    0.0422134777483925    0.4530863611460719 H
   0.6638257245554156    0.2941795127205881    0.5144471288463478 H
   0.9477972363692624    0.2041356821037482    0.5487857562863282 H
   0.8769877216763100    0.2175623067027701    0.4420312647440786 H
   0.7535589697049547    0.2270086812488641    0.5714649377681726 H
   0.8745963758718562    0.0353157148366728    0.4559136240962182 H
   0.0913701992961165    0.5953827893019662    0.3711495805655812 H
   0.1918791856758388    0.4950365214890678    0.4895273535313573 H
   0.2087341612720624    0.4515305671713770    0.6097993444543519 H
   0.2109577918841904    0.6287596049544255    0.3614944534811418 H
   0.3470398125282392    0.5073126363973219    0.5190480613050139 H
   0.4024283566426052    0.6251500212035441    0.5476799251835990 H
   0.6937263742264729    0.5919898287146186    0.4552120321247919 H
   0.7142309608021112    0.5385240227224577    0.3417180786439616 H
   0.7615531263841386    0.6459161595062918    0.6296898384896336 H
   0.2977973481173334   -0.0110393956970949    0.3778625218454482 H
   0.2653954149320202    0.9496603455651186    0.5826550484327084 H
   0.3596649949247059    0.7745325524683466    0.6302676673870625 H
   0.5147188939274444    0.7881332779062085    0.6071633517094741 H
   0.6177610216833141    0.8799157099874092    0.4647707204502723 H
   0.6330495855311170    0.7575172041267837    0.5959129668205889 H
   0.9632286389933045   -0.2646456691712470    0.4457361204007513 H
   0.9932007080524814   -0.2157722742459998    0.5634910597149174 H
   0.8143721774562694    0.7137504997048394    0.5395340646768670 H
   0.7318346362760380    0.9224941962419706    0.4221946156825490 H
   0.8935586246501254   -0.0887813573184606    0.4580762632658725 H
   1.0343109917981745    0.1506602484154303    0.6834239076689065 H
   0.1574325715812142    0.0832568278507121   -0.0210317323390464 H
   1.0801237206492700    0.0734179642246156    0.8177904232137503 H
   1.0540436070100931    0.2712655958668049    0.6960766728443195 H
   0.1309953610014395    0.2450365423029435    0.8600522983585326 H
   0.2398433232859074    0.0505334920749127   -0.1142853601864715 H
   1.4432712476115168    0.2769234719750990    0.7255499648948214 H
   0.3908744650679324    1.0763528039117889   -0.1851847248041113 H
   0.6983188816220732    0.0566839853032426    0.7576439802200325 H
  -0.2234470252605679    0.0210429120224077   -0.0666847960769872 H
   0.9529651111949947    0.0410978684561941    0.8129532157956347 H
   0.1520006857589500    0.5470589753656840    0.7569295297474117 H
   0.0513405149666239    0.3552632332970163    0.8926727085763945 H
   0.1709669468623943    0.4283879925338638    0.8015324557659221 H
   0.3298574311977145    0.5314300152707367    0.7775778716968457 H
   1.0217122907478646    0.6229292326233176    0.8599719327260666 H
   0.4111310899477397    0.6124976238371520    0.8563313695753667 H
   0.4732908340278710    0.4540626512606816    0.8032852302100010 H
   0.5634702497368987    0.3822255963848398    0.8253825645127931 H
   0.4582389973654083    0.3475739132995842   -0.0489862746672098 H
  -0.0767443798776113    0.3783809363861238    0.9904133907812818 H
   0.7012904096468693    0.3708625079954794   -0.2885381427804089 H
   0.7536087225371279    0.3708881818518982   -0.1804576183024739 H
  -0.2205733979700482    0.5412446491948378    0.7785792274773694 H
  -0.1130711695493617    0.6192025119025255    0.7590158215662235 H
   1.0427128007151647    0.6880477601975634    0.7532463728115047 H
   0.1452022019819929    0.8477110663420709    0.6719067088802350 H
   0.0563015143063199    0.9124813922386369    0.7154881877101053 H
   0.3058131713524637    0.9394549876386437    0.7125821664401424 H
   0.3999688013101721    0.6673466088438761    0.7080841019910324 H
   0.6144380139731654   -0.0105453344226356    0.6900420175024639 H
   0.4053011814680899    0.9610450962708322   -0.1317986388134152 H
   0.4767029153569103   -0.2059167226132311   -0.0471872899844632 H
   0.5681245469401980   -0.1473971784466311   -0.1034737716508495 H
  -0.2610505368030855    0.7797964953422146   -0.0638350307497505 H
  -0.2645035438489124    0.7425533573746860   -0.1842540907801575 H
  -0.2374010897550800   -0.0575333857479281   -0.1610027059951567 H
   0.1039370424845349    0.3211362596523201    0.1893263553933669 Cl
   0.7794432818755788    0.1124174346635945    1.0886764495971966 Cl
   0.6448739078226022    0.5088434400862932    0.0783627138507218 Cl
   0.1510609992029046    0.0742405706304344    1.1290441067847601 O
   0.5405815395421222    0.1379589102602398    0.1141073380306911 O
   0.6029467146712266    1.2427354396659056    0.3119570776292322 O
   0.4667675957579366    0.3251461951017321    0.0328469146130325 O
  -0.1690358835588948    0.2801367155675150    1.2937373973968924 O
   0.2558300317142053    0.5822016709549492    1.0993490055886528 O
   0.3325737753413642    0.4000344273513463    1.1867385943319468 O
   0.4589379444109382    0.6666044739317698    0.2791373606428551 O
   0.4431670990770693   -0.3574935662938282    1.0044934495892872 O
  -0.1795104596614232    0.4843658249150021    0.2451467163914515 O
   0.9610539587483148    0.6518227510986431    0.3319552616120180 O
   1.2766474077334045    0.9473095830867716    0.2550228489651718 O
   0.2636492510157480    0.7260691369377871    1.2602168920954138 O
   0.4694478289750089    0.9253102973679083    0.1269168161894125 O
   0.6064687337100682   -0.2023111504024152    1.2171971690364793 O
  -0.0372669519852412    0.9764012716413298    0.1731752742367181 O
   0.9447558938864169    0.7659358221081124    0.1425230183579432 O
   0.7526658261209423    0.7282249385689537    0.0795755919758954 O
   1.2559277605283725    0.2222614247354244    0.5646210005073864 O
   1.0449677274636597    0.2151609988195987    0.6390419871396770 O
   0.3240419670886956    0.0216730928743675    0.4464063697755158 O
   0.5349899631778827    0.0930583039233987    0.4723017838686410 O
   0.6877544294356189    0.2678405429589337    0.5830174974351292 O
   0.8824204099636093    0.1766325634151037    0.5081070841011220 O
   0.2419000411707447    0.4507258522342502    0.5384611834834488 O
   0.1654812958827816    0.5698356975492294    0.3834800795548066 O
   0.4770929133639454    0.3985742267675268    0.3453690893268822 O
   0.4131797831822264    0.5545100098832291    0.5027266050075377 O
   0.6597973500794567    0.5507279299095339    0.3974058363484778 O
   0.2736054347056330    0.9000375949556474    0.6439434870637651 O
   0.4058420429017146    0.7117679966044997    0.6366245889151062 O
   0.5830463842669823    0.8217483790385547    0.5919734435171162 O
   0.6564229846070647    0.9139656620628490    0.4056561721774151 O
   0.7508755266277422    0.6667488893741257    0.5521032495945157 O
   0.8629526082132577   -0.0297733680334928    0.4139032933810539 O
   0.9349738451091379   -0.2239453859753236    0.5098461963876816 O
   1.0197623007126893    0.0512541251322681    0.7676061040204911 O
   0.0948925393209719    0.3127537455315803    0.8344960272344130 O
   0.1663038225437095    0.0908603811215451   -0.0995559470681425 O
   1.4464249351992695    0.2151313134231145    0.6749565846323113 O
   0.6372946255665399    0.0665163502344331    0.7030017793938963 O
   0.3592107997148667    1.0054849371157570   -0.1776801820444563 O
  -0.2061129780384185    0.0166518321282982   -0.1452349689053698 O
   0.0540310999826484   -0.3750801579407094   -0.0128138642256251 O
   0.2055748564290643    0.4888868305687510    0.7596876782536374 O
   1.0268560916225453    0.6173596103964631    0.7808117847472689 O
   0.3998821350863865    0.5824624210592028    0.7826159931961257 O
   0.4828618345009313    0.3793918444826142    0.8311528169238364 O
  -0.0011215996579159    0.4051780240232512    0.9932502976073239 O
   0.7938796278561568    0.3360206779111221   -0.0334480618237452 O
   0.7037884833009849    0.4171677149708330   -0.2287670072903063 O
  -0.1981493150305665    0.6184924693109428    0.7615376951129998 O
   0.0655460720031212    0.8404742480640204    0.6812926110959139 O
   0.4903255617919462   -0.1370088942931722   -0.0850901332243012 O
  -0.2824980197949093    0.7997739648680972   -0.1362388400071498 O
