Li1 Co1 H110 Cl3 O55
1.0
  12.4351990487999995    0.0000000000000000    0.0000000000000000
   0.0000000000000000   11.5069398335000006    0.0000000000000000
   0.0000000000000000    0.0000000000000000   12.6890493065999994
Li Co H Cl O
1 1 110 3 55
direct
   0.4127114897204041    0.7386944782707331    0.5773969330774986 Li
   0.5214005420384228    0.2217229735895794    0.7195951353542831 Co
   0.0560982998070560    0.1180507534110242    0.2034445679044896 H
   0.1023100249064989    0.1025134339684127    1.0349103259035799 H
   0.1508757131299037    0.0817887231894685    0.2909333917852963 H
   0.0988102015559270    0.4506031135840995    0.0159618777109371 H
   0.2581462115566036    0.4983794996567451    0.0025053219143427 H
   0.3816689628991506    0.1381421072674978    0.0429781727632143 H
   0.3792837980229308    0.0866678657601586    0.2043508611753352 H
   0.4993598815773868    0.1256009797315849    0.1692363313761450 H
   0.4163953873259210    0.2863074774414566    0.2356621115613941 H
   0.6137955246592176    0.4361066442869917    0.0711225980366071 H
   0.6470728367775093    0.1350648338557683    0.2359355757048580 H
   0.3426104807555238    0.4767264795136638    0.2566731419040162 H
   0.6703680006798477    0.2017845709108704    0.1278037553575030 H
   0.6933230011490639    0.4291795202076651    0.2279389167315792 H
   0.8840412993196800    0.4029492622618221    0.0035373141214491 H
   0.7281555758670214    0.3652016068221497    0.0571621353006115 H
  -0.0358818925092364    0.4192003248993089    1.1811072517075565 H
   0.7845607847621445    0.4184503427037928    0.3189977480184126 H
  -0.0186175930671846    0.0427940811306233    1.0383621211438441 H
   0.2759480978900083    0.6291579708901586    0.0066834127010516 H
   0.1854662330171996    0.7760510653581667    1.0187152591941209 H
   0.1005121445579606    0.9105455549786334    0.0887280934998333 H
   0.1687371079598830    0.8502158747991163    0.1765300220036896 H
   0.2842382747979483    0.5528587972867669    0.1687816085785120 H
   1.0442156553700730    0.7369989797035815    0.1658286686777654 H
   1.0010157035324030    0.6123046629902238    0.2938398349008429 H
   0.0056679852186847    0.5300847145339339    1.1275019749397999 H
   0.4492818733721145    0.5380572946749127    0.0022023047294382 H
   0.3960161397557380    0.8210856277612256    0.2602746725542462 H
   0.4078052554284901    0.6861818199320822    0.2700460901761723 H
   0.4713924965250694    0.7728521262368517    0.1067359831753150 H
   0.5764467055388017    0.8347373894174973    0.0481067681707640 H
   0.6575704572408180    0.9957810749510773    0.1032321745821153 H
   0.7389298304225148    0.9426566119013678    0.0241840854964907 H
   0.7881513987784362    0.8410553159081137    0.1584924216705463 H
   0.9219980701078040    0.7131029653002140    0.1917856960358894 H
   0.8691078833549455    0.8737920821944306    0.2464241471324097 H
   0.7367497286088155    0.7290133639508614    0.3107394461182462 H
   0.1388919885899752    0.2474969851244769    0.3340461567199755 H
   0.2589841555218838    0.3189078043248813    0.3344748728411407 H
   0.2189920333171338    0.2421219678831477    0.5069708532028473 H
   0.1699015444874509    0.4636821773645368    0.4166583347225276 H
   0.1955858941103724    0.1660817684330164    0.6150151965475380 H
   0.2488870111571446    0.3438657865647734    0.6651403071552471 H
   0.4314373660884604    0.3496179675058175    0.3451462790850717 H
   0.3767064367861525    0.1142547832719577    0.6049206656725278 H
   0.5498086116329414    0.3770196924268119    0.5788012936067567 H
   0.5688867139672095    0.2655730334057456    0.4319967572707611 H
   0.4890110323555146    0.0625872670945343    0.5699976395818728 H
   0.6014081073452290    0.3969450594937797    0.4071454077030688 H
   0.5918143726947561    0.0906128763934672    0.4207224689814414 H
  -0.0546996049625470    0.2146289936799642    0.6582769088110779 H
  -0.1292002218295847    0.3115079220597369    0.6276000637146110 H
   0.9527253627309866    0.4234690532241932    0.3432020829988316 H
   0.9971315678776014    1.0069134873781469    0.3457783201313485 H
   0.9118333755577640    0.2748265796605028    0.3346711050363065 H
   0.7053364799372797    0.1555785415326600    0.3968349426052659 H
   0.8520273365002898    0.1758906317479530    0.4942866878165339 H
   0.8653524147197647    0.0794692533402999    0.4074117791165869 H
   0.2194045719487928    0.5622983182690333    0.3508228272849857 H
   1.0696193500564468    0.5729414607354130    0.3941830496866611 H
   0.2576918561435678    0.8836452665892877    0.5562858164345310 H
   0.0525474921499594    0.8680294727639934    0.6165779613789178 H
   0.2837276275638284    0.5676985376930623    0.5127435472975814 H
   0.3183101057623981    0.8994565945907012    0.4436138608407919 H
   0.3299673377400389    0.5202080660379426    0.6154722835884863 H
   0.6086995065133629   -0.0349358812174935    0.5236624110085085 H
   0.4938304164091846    0.7724506293952198    0.4017951250806593 H
   0.5957009208561757    0.7257092708948334    0.4571499419017002 H
   0.5144348312637039   -0.0842854049150791    0.4632299876274169 H
   0.6985710072118456    0.6019535182268493    0.3504350913812849 H
  -0.1319874711421194    0.5452712022125478    0.6080422549297623 H
   0.9539557411061103    0.9026981167103710    0.4210038139359562 H
   0.8805833731673720    0.9159249174238763    0.5936905099250929 H
   0.9233249487476431    0.6375224884241592    0.4683075941874676 H
   0.9115679998297962    0.7896932675658280    0.5559634912625520 H
   0.8046706357599965    0.6649155229373260    0.4843781440823233 H
   0.1979147671655081    0.4438993329859405    0.7228483341560664 H
   0.1357412549470118    0.1614463048978103   -0.1186236896342647 H
   0.1227667943560035    0.4602546805173577   -0.1042349048176564 H
   0.1392997022083985    0.2736116606462136   -0.0496349908871746 H
   0.2832362803826517    0.1395569056618202   -0.0355136807976315 H
   0.3509464952892037    0.3099514700178257    0.8159577524783262 H
   0.6342133723352869    0.0389397983550341    0.7347617562216086 H
   0.5625024172874019    0.4483401313858099    0.6922889131442568 H
   0.4105329962444501    0.2104219672506555    0.8904629401528880 H
   0.8548419275544937    1.0342708912192209    0.9157288203818540 H
   0.8191609546759119    0.2484251206804574    0.8845838551089675 H
   0.8483040346200140    0.1968875261000556    0.7694885501170978 H
   0.8005597244831133    0.4458112227079978   -0.0864660401413465 H
   0.6971243074099847    0.1396047029048716    0.7935084741189274 H
  -0.1846283655444626    0.4941099022910782    0.7074177061185382 H
   0.1282279051700321    0.7501136741561116    0.8607128784359988 H
   0.0787280943841807    0.7990398011843397    0.7575585783483491 H
   1.0785858329862685    0.6084304791807096    0.7720324759243062 H
   0.2834831602265490    0.8065874203825522    0.9376138326700132 H
   0.1094087452127508    0.9576388749960348    0.6877172546536695 H
   1.0125072767222820    0.5029428328069827    0.7410861070899009 H
   0.5336078255249425    0.5350269494654519    0.8491044437581239 H
   0.4246461599591022    0.8147372848432127    0.7774773282793257 H
   0.4511845369247565    0.8462678225230680    0.9469998786315535 H
   0.5204090018184704    0.6331416538382998    0.7609039826394270 H
   0.3768302787925374    0.9584731541474779    0.9390166170370612 H
   0.5406555615246695    0.8095934324500959    0.7193831415370158 H
   0.5495303692030113    0.6225628203898439   -0.0031878547968885 H
   0.6994893680643888    0.5766140270833284    0.8130970180668744 H
   0.8642185366093567    0.9033064452582983    0.9266201012541032 H
   0.9284957545986524    0.7661292267414721   -0.1795801869502368 H
   0.8069335669675767    0.6390294051414535    0.8339496441073747 H
   0.8205553835010519    0.8066300033809072   -0.2398368682448949 H
   0.2792644903207334    0.9545190185859503    0.2881412204299866 Cl
   0.6994660471670825    0.8966669736780630    0.6580396963984478 Cl
   0.0765098749659188    0.1313601129988910    0.7305880786890880 Cl
   0.0533755448381062    0.0525700077998935    1.0730534513896046 O
   0.0791242279708381    0.1274120607228428    0.2791933475628725 O
   0.4207580034599374    0.1462876265242445    0.1630506827823473 O
   0.6483225152055758    0.1286208964516526    0.1606509758173690 O
   0.3829652831218298    0.3439552977653970    0.2829982031382140 O
   0.6663077520419401    0.3830482283367716    0.1093870880128147 O
   0.7080666332598576    0.4434291819224710    0.3092870126415779 O
   0.9212984431886162    0.3575262386288726    0.3039721936688971 O
  -0.0280825802811495    0.4555401342709211    1.1105345887473597 O
   0.3077449351137885    0.5561081407734816    0.0344827372585284 O
   0.1231624454413373    0.8319260424852902    0.1147870197448445 O
   0.3052109989961321    0.5512041436364046    0.2420960057032930 O
   0.5213394252041030    0.7740418430684410    0.0458166044793924 O
   0.4469200293932009    0.7602136661332706    0.2738028728041037 O
   0.6838587376870844    0.9201223844045747    0.0753693306875687 O
   0.9942767683797656    0.6694501777417328    0.1790542457832709 O
   0.8309918871300408    0.8071774990740417    0.2124113547181257 O
   0.1841610669369216    0.3046364165905066    0.3718961160349094 O
   0.2466176465985835    0.2127509965484343    0.5755843465358074 O
   0.5460177595673646    0.3524527785391587    0.4459418524252076 O
   0.5758853956657061    0.3639988543788191    0.6578868086640618 O
   0.4497241662520609    0.0978791870903024    0.6343097862432889 O
   0.6223446439441446    0.1589434674434808    0.3848080368605918 O
  -0.1234882103272956    0.4796586231146734    0.6581894318084137 O
  -0.1302810247943990    0.2283059575189357    0.6302023075235955 O
   0.8334429938538163    0.1576329539430888    0.4187601470297844 O
   0.1217334373546743    0.8791844802514149    0.6558385858719507 O
   0.1901336291539427    0.5436739052538473    0.4207019788727093 O
   0.3269235585571353    0.8875950569469013    0.5205888946986843 O
   0.3329395458932785    0.5912104360704529    0.5718512063410284 O
   0.5442831673091023   -0.0070114282656730    0.4875154949616594 O
   0.5259883254567755    0.7671190641930282    0.4718271644027690 O
   0.9940194343405242    0.5783182160583077    0.3691086731662303 O
   0.9387167409697765    0.9471843143795127    0.3547963322168151 O
   0.7071627474470219    0.6851919824805262    0.3713326380447749 O
   0.9354035652145419    0.8706591901726050    0.5555733911155357 O
   0.8711424306026988    0.6559365935699190    0.5285303879946073 O
   0.1456630904975177    0.4262769239932691   -0.0398230658964472 O
   0.1584164046485528    0.1928829861731283   -0.0465693553884011 O
   0.2707917670787063    0.4079810083939638    0.7120642323141085 O
   0.6228199077478687    0.1112116631629905    0.7798061079448465 O
   0.4224757081718745    0.2736021011976034    0.8372517039376731 O
   0.3580006646399119    0.1116256741918942   -0.0257030167366723 O
   0.8233345911248603    0.3753841576736701   -0.0436950659819418 O
   0.8081912870843696    0.1870152228079780    0.8355258063175409 O
   0.0678600737381387    0.7384433254845175    0.8104143899851713 O
   0.2244989817569023    0.7541008332673838    0.9551486372581135 O
   1.0841748066510450    0.5219965519688489    0.7697478288006702 O
   0.3938891130876322    0.8838147295419244    0.9000066023354449 O
   0.5452650575025833    0.5498484400153094    0.7679691297464974 O
   0.4734664480475815    0.7634352003149371    0.7379779152114530 O
   0.5237623860173364    0.5404567162760946   -0.0130104976906450 O
   0.8868719737513366    0.9743592196562083    0.9619103731397270 O
   0.8470656145561642    0.7825097764555893   -0.1707087579503156 O
   0.7719554376836731    0.5600283837444816    0.8362035560679125 O
