Li1 Co1 H90 C51 N3 Cl6 O45
1.0
  13.8562964642999997    0.0000000000000000    0.0000000000000000
   0.0000000000000000   13.5227780952999996    0.0000000000000000
   0.0000000000000000    0.0000000000000000   13.9762593114999998
Li Co H C N Cl O
1 1 90 51 3 6 45
direct
   0.8351042979206763    0.7950594524239646    0.4469948300586810 Li
   0.4014494598128545    0.0822244171917939    0.7514227821430473 Co
   0.3507641990139488    1.0068325052551232    0.1299038330167576 H
   0.5734406557388427    0.3431855876798698   -0.0030838254528188 H
   0.3727866781653008    1.1504960325502445    0.2135528247779535 H
   0.6165487836241662    1.1610441609743569    0.2085529175465170 H
   0.0484554247471436    0.1458503965531681    1.0114372766515911 H
  -0.0214478140075659   -0.0197893842828797    1.0184262711903249 H
  -0.1682576058766350    0.2373752290452554    1.0675703221621642 H
   0.7113800398249466    1.1357165250709740    0.1168230797246682 H
   0.8845056658665504    1.0257975432223687    0.2727839810944968 H
   0.1695873595555832    0.4108821063647525    0.1874328171375958 H
   1.0941504297097835    0.4362624681203956    0.0483705718914172 H
   0.4652586459310923    0.5080323362022595    0.0121405629373507 H
   0.4393073391784935    0.4125985436113319    0.2003397041650546 H
   0.4007479736671847    0.5728706404191083    0.2976411329444301 H
   0.5871774432340008    0.5116707897547216    0.3246018519466849 H
   0.8825383292069867    0.4518881774613956    0.2302260987067119 H
   0.7522098532933307    0.5460122539662363    0.2479804916719186 H
   0.2699410149195995    0.8694472736919645    0.0481230092265522 H
   0.2005833765004109    0.9049725183284174    0.2834005557224381 H
   0.1651424488856446    0.8061466712589842    0.2037440485564649 H
   0.0431726278476549    0.9509357069291405    0.2237028940374208 H
   0.4468130244290908    0.9499595761439590    0.2042792418319535 H
   0.3505520211056906    0.8630787598116744    0.3618171030669918 H
   0.9226868639495353    0.6611232163017804    0.0917469851711259 H
   0.9834758346654957    0.7296024883473561    0.2828997064004568 H
   0.8213942852567984    0.7098972178680147    0.1645611750998027 H
   0.8269332833720410    0.9054628022000654    0.2591222425889089 H
   0.0777987634269674    0.2200392941990363    0.3821601715278106 H
   0.1795806503571160    0.3039096344506589    0.5975418364575040 H
   0.2109245236005166    0.1035329085364941    0.4499785325695301 H
   0.1617064658202804    0.0332559289615425    0.5340485955107058 H
   0.0384787328976174    0.1165945737324488    0.6401598207639265 H
   0.0667229322771787    0.3372896098387699    0.5535910205553859 H
   0.3560217366386448    0.0614542767649818    0.4774994873133727 H
   0.4946561837976855    0.4193478224471445    0.5912354279947277 H
   0.7440236831798198    1.0098792164937198    0.4011681187960334 H
   0.6500209311922379    1.2602382755672905    0.3196949595893308 H
   0.7908269542898798    1.1285929888182065    0.3986624411880640 H
   0.1828708513222483    0.4625053745334899    0.5102371454951664 H
   0.0235880295605751    0.6641824989217014    0.5513897162353748 H
   0.5436438048224562    0.6332458084686204    0.2996430992342926 H
   0.5187300047396258    0.6257858028921730    0.6234543493787551 H
   0.6470670394286304    0.6343417371228924    0.6151631466028700 H
   0.5130706209207216    0.3957339616154724    0.4723541191288522 H
   0.5846245965847439    0.5272206271119644    0.6699639329169726 H
   0.4288528861886037    0.4948641100622558    0.5076873287519498 H
   0.6217644630220630    0.6518869484935103    0.4407874466618507 H
   0.4995309351552383    0.6470417902325186    0.4770469341760109 H
   0.6791376580924936    0.4592746034824450    0.4261526294735563 H
   0.9669093588693533    0.4940474879212892    0.3222807730888172 H
   0.6761844880224516    0.4049195741519357    0.5432168569992835 H
   0.7345694974717184    0.5221542125396649    0.5272526426106444 H
   0.2545350223767873    0.7697170266602001    0.6378959818285710 H
   0.3118916184952112    0.6497638640357407    0.5929476171768725 H
   0.1360517029537471    0.7087266004188160    0.5019696257372207 H
   0.5666857483044392   -0.1549095487286059    0.7130920680327848 H
   0.4253512290087788   -0.1171902283045519    0.6815743356995312 H
   0.6290651151307006    0.9815544153840184    0.4728946070971731 H
   0.1045007036570468    0.0657780924475243    0.7978715482635957 H
   0.3113056033200221    0.2799145649676525   -0.0480157336267952 H
   0.4972601985207367    0.2685160195716016   -0.0669514154928464 H
   0.1231160674856549    0.0141984543669124    0.9199092095565975 H
   0.0701278825192262    0.2053374334867690    0.9039235301970163 H
  -0.0386890732874545    0.1602313172951561    0.7710904195182227 H
  -0.1508186025597983    0.1355063682023208    0.8420192694991556 H
  -0.1291115034965715    0.0515214065327413    0.9943046523446726 H
  -0.0808287605772283    0.2931869856740442    0.8935044333017419 H
  -0.0957432798019323    0.0340442285198785    0.7759608214249754 H
   0.3240925699136205    0.4122540138137439   -0.0736463399296740 H
   0.0121628987250825    0.5993614988414991    0.7189570135931862 H
   0.5149174275379105    0.3110797587636282   -0.2140952222987094 H
   0.5827711431698167   -0.3556796849289197    0.9235968915644428 H
  -0.0504541217922994    0.3174933817180819    1.0164006934324259 H
   0.0232214092292991    0.7316264807405695    0.7529281921051169 H
   0.1287279566510134    0.8508194445414180    0.6513580961043978 H
   0.0099472994789855    0.6600435564939282    0.9065766006054545 H
   0.5846755481504685   -0.0307146541467214    0.7380708547180564 H
   0.4215717198062347   -0.3141349671171809    0.9104331403847108 H
   0.5257012759049675   -0.0546853203600983    0.9029182540578966 H
   0.3780189565152043   -0.1915122346938539    0.9003059670942483 H
   0.4351554360961494   -0.2496489573746204    0.7968619791302876 H
   0.5989849273204974   -0.3049726486108185    0.8096536708136907 H
   0.4794520489451448   -0.1261654550770879    1.0272755632107033 H
   0.4974813254292071   -0.2580096654483036    1.0506544940617604 H
   0.6718377276774213   -0.2605890170988436    0.9113339536652457 H
   0.6450087693798132   -0.0973318827702615    0.8783694822904975 H
   0.6002413958180397   -0.1661860777765092    1.0440089390580995 H
   0.8018739176970483    0.6498489057329344   -0.0193335239549873 H
   0.0396500415544303   -0.0385806413906421    0.8294851574670571 H
  -0.0897950814350490   -0.0538386008532553    0.9127857011999602 H
   0.3543546245023307    1.0270509838897040    0.2836416788960205 C
   0.4341364047816579    0.2979367493355750    0.1270253804134278 C
   0.6980734538641854    1.1540722207905001    0.1924212763845298 C
   0.7278021769079882    1.2615767579318198    0.2059563715615595 C
   0.7518432329620547    1.0800156923950468    0.2589576778116865 C
   0.2333258918737582    0.3844382057490731    0.0395441758400434 C
   1.0319418877504769    0.4766943746522369    0.1849199845393124 C
   0.4238226820370414    0.3724051753426542    0.0391019974386370 C
   0.7929617238566405    0.5713428478416955    0.0969937395683960 C
   0.9168050613906783    0.6093098984271403    0.2363107024697536 C
   0.9449345114933245    0.5018920298676566    0.2469966805037410 C
   0.8544969257193320    0.6192390711942855    0.3229740916502457 C
   0.1515544024343368    0.9498168539912771    0.1408259257311076 C
   0.2044148476396712    0.8769960184307012    0.2101921258274587 C
   0.3104121466859282    0.8620146293572228    0.1783588584213569 C
   0.3682039240243510    0.9666218328497991    0.1971886464307607 C
   0.3541402815133761    0.7788645553061810    0.2469408715792916 C
   0.8638305886019942    0.6439536673848536    0.1431942275250479 C
   0.7052586350023423    0.9825948820618596    0.2269326566651690 C
   0.1110839923615736    0.1810813229680285    0.5455998980732707 C
   0.1332775128879501    0.2924223498923187    0.5395908510079450 C
   0.1884812971004758    0.1091123833654290    0.5257366432629100 C
   0.2805823865429548    0.1128253778142140    0.5848374356559319 C
   0.0254110275070380    0.1493208372916959    0.4873087643841832 C
   0.6360720379581781    1.1157354236955168    0.4119764471643905 C
   0.7341061702026649    1.0796659121970233    0.3741322723954814 C
   0.1681995428291191    0.3341290166752353    0.4475683740822528 C
   0.5322574289314314    0.5685231609599554    0.3464202794102544 C
   0.5838572919859001    0.5822991764123384    0.6124771632389873 C
   0.4968533076885056    0.4560433147862867    0.5193280758484302 C
   0.5558209403532038    0.6014964151875740    0.4451260896884655 C
   0.6738223849825571    0.4732761273309956    0.5030458078303522 C
   0.0801089045301454    0.7163929245475860    0.5594932436153233 C
   0.0312134437736895    0.8183128104088369    0.5647831426041869 C
   0.0706770913225747    0.0267742726493337    0.8580428703074010 C
   0.0130238791487287    0.1745582550467514    0.9475160241842083 C
  -0.0689128781171931    0.0092482880972118    0.9604772891380537 C
  -0.0831367365997099    0.1062719906791548    0.8126666372349242 C
  -0.0667781085504325    0.2571892049984011    0.9643724658650056 C
   0.1806898933672955    0.5848585617513635    0.6187127372976547 C
   0.3267195344920548    0.3562716561454541   -0.0126071175607781 C
   0.4991111260081846    0.3421828351460015   -0.0380030401813570 C
   0.5018352305405357    0.4150910787814324   -0.1226995225245253 C
   0.1214597807528234    0.6244243962440525    0.8261595179691011 C
   0.0609919636735121    0.6631102340440400    0.7372036698919974 C
   0.1358561239974956    0.6784598906410187    0.6522181259401428 C
   0.5669599196899742   -0.1100038351451628    0.8618743676205582 C
   0.4348371692337622   -0.2433026282849027    0.8753708258498922 C
   0.6024512215156127   -0.2888443058647519    0.8887184602806947 C
   0.5284130394773485   -0.1872224356901890    1.0157588908012585 C
   0.5471300177599795   -0.0951806975777669    0.7594292163044345 C
   0.5778590080855709    0.5242451290511047    0.5202378471768383 N
  -0.0177130498060832    0.0807091959957054    0.8980292491763275 N
   0.5300821723556459   -0.2075045107244103    0.9114012105741975 N
   0.3979716185206911   -0.2199841949143516    0.5890223894906016 Cl
  -0.0400566825940845    0.8850261731248570    0.3073354293208944 Cl
   0.6748522417005313    0.8482253030304964    0.5001211339895939 Cl
   0.3469060252127649    0.1009875735648315    0.9000025955049340 Cl
   0.5357243004813991    0.1637039765127410    0.7512145719249093 Cl
   0.8678749593430781    0.7442303997577158    0.8885453095150954 Cl
   0.3537354114231284    1.1268714490697955    0.2774039583402588 O
   0.4432283003198763    0.2056953481080022    0.1176416106165919 O
   0.4461356428485088    0.3388536375741175    0.2136229436830309 O
   0.7913905969645385    1.3024115624452446    0.1657768079541546 O
   0.8535096489217228    1.0788509908900006    0.2320205702774679 O
   0.6890825954251376    1.3080834739015641    0.2842849125252508 O
   0.2431113349284258    0.3990563558515809    0.1293994061996193 O
   1.1071856588899154    0.4451984278136186    0.2290841622525945 O
   1.0280339170932733    0.4831311659229783    0.0934477263687682 O
   0.4390684586083117    0.4715937733176655    0.0667631899926344 O
   0.4376705381719306    0.5258087870399427    0.3382736074387124 O
   0.7426878283900720    0.5069709418719784    0.1411936922332482 O
   0.7665852674246033    0.5766671975790489    0.3181451886873142 O
   0.1801861512585737    0.9712776808979071    0.0603973951102517 O
   0.0700167417101386    0.9910761274976522    0.1671477040983206 O
   0.3194968252884915    0.8331736621202057    0.0853389758458905 O
   0.3716579494288527    0.6985822351831195    0.2136243746810937 O
   0.3655358229126830    0.7939043643281665    0.3398398348184512 O
   0.6217991043132072    0.9722094421019439    0.2039830252329531 O
   1.0028237174630903    0.6645204472314196    0.2574358113718946 O
   0.7587657176423682    0.8993679007368338    0.2311569629465658 O
   0.0887670622354959    0.1666604696030104    0.6461099107090649 O
   0.2788770246476690    0.1253560870224716    0.6720252856264415 O
   0.0227017898621362    0.1655231293396701    0.3950491710794843 O
   0.3649101145913911    0.0971207645680785    0.5410715047035281 O
   0.5961248557204054    1.1970049669990461    0.3957117231825625 O
   0.5941445285766626    1.0526278289405158    0.4699114769855492 O
  -0.0454462901412677    0.1058645300256434    0.5246787063950792 O
   0.2739319803368361    0.5836287848606386    0.5923952519246302 O
   0.1566495590067944    0.2916251764177539    0.3717847200734517 O
   0.1948574597517029    0.4287808693477910    0.4460653968168899 O
   0.8780465084552904    0.6660349289344891    0.3955428654111517 O
   0.3474747197423819    0.9905725327516609    0.3666123775754474 O
  -0.0463455203238856    0.8424787027792500    0.5271367317675573 O
  -0.1494156302684587    0.2090911000516032    1.0069668387033919 O
   0.1335416527329245    0.5093697093272600    0.6105746513144895 O
   0.2025009163039549    0.5842196397828811    0.8257252100570401 O
   0.1509756041948027    0.3971984535904522   -0.0074777050046579 O
   0.5231299755512406    0.3844123234934054   -0.2111330563087056 O
   0.4883962138105045    0.5057038205837903   -0.1108508585645098 O
   0.7788215818277222    0.5830667701661402    0.0027646636298603 O
   0.0718469565922566    0.6245582444805053    0.9090028578209383 O
   0.1999143665651888    0.7519277825932870    0.6839748349498845 O
   0.0717451977995205    0.8852302731981221    0.6244474620343409 O
   0.4471844801072556   -0.0730883436328453    0.7354993511991980 O
