Li1 Co1 H110 Cl3 O55
1.0
  12.6881441600000002    0.0000000000000000    0.0000000000000000
   0.0000000000000000   12.6063831004000004    0.0000000000000000
   0.0000000000000000    0.0000000000000000   12.7330153691000003
Li Co H Cl O
1 1 110 3 55
direct
   0.5977459338702847    0.4114719907278885    0.4255944901905065 Li
   0.7521081459717590    0.5288656942361567    0.6680649428291122 Co
   0.1438001142635189    0.2691623380930201    0.0956401252412904 H
   0.2340741516291221    1.1238666505185340    0.1159270716174698 H
   0.2250775640619771    1.0286847105089583    0.2768543885649271 H
   0.3122873235072071    0.2137340685858188    0.2567578134346571 H
   0.2204425284524826    1.0784928112940342    0.0023214599011427 H
   0.5259363777594406    0.0743278657119558    0.2185123557890326 H
   0.5034854979138257    0.0132430332213768    0.1218424025753499 H
   0.3358305616855475    1.0522680014205734    0.2068269854594657 H
   0.4410839370538804    0.3269901856361325    1.1616251732872493 H
  -0.0170420052982752    1.1932917975277686    0.1683584855950364 H
   0.8152481915054155    1.1935694346558905    0.0662232911967027 H
  -0.1131499927724655    1.1821466499560165    0.2488406000270112 H
   0.0345740617751619    0.5156081247438654    1.0518240021213954 H
   0.0364694453471594    0.3370557214039591    0.0807069774763522 H
   0.1185789317198300    0.3648257802076529    0.2475251221520180 H
   0.1783638766601151    0.4687144205551325    0.2882523171618088 H
   0.1789581322033151    0.6327337101112616    0.1949727627459445 H
   0.2863954360997740    0.6258768662955871    0.2623338689047777 H
   0.2969147049792032    0.3353891053862899    0.2773287459598500 H
   0.1705573764540204    0.6425112965147787    0.0057660485338116 H
   0.4474520866414873    0.4307011382216140    1.0947831900390852 H
   0.5605237842757929    0.6244101490101658    1.0832776671324280 H
   0.4465071099885738    0.6536215411332812    0.2143523042643525 H
   0.6132005186801094    0.3870510289382828    1.1346009382552986 H
   0.7194012351133312    0.3486149449210816    1.0966052250659415 H
   0.7076548364185673    0.5386305886566740    0.0890789142807868 H
   0.7517558485873950    0.4340280242654523    0.2742799787295672 H
   0.7049121185268752    0.6474135749484746    0.0240974879638182 H
   0.0715023070797140    0.7054524267089598    0.0310943537821226 H
   1.0038415720522520    0.8828855557980659    0.0557700720540474 H
   0.0018947278417429    0.9307184667287886    0.2580442329924117 H
   0.4450159541692976    0.6667593300360114    1.0522323892825873 H
   0.4820639254149206    0.9248642895701030    0.2906830061308262 H
   0.4300437094024947    0.7571095907673276    0.2998803562168238 H
  -0.0703746275846223    0.9985174534161659    0.1917009532968569 H
   0.7948267652721878   -0.3297112595021894    0.1940955157093072 H
   0.8453550373280123   -0.2201699272261472    0.2228758155343833 H
   0.1373649730032702    0.2187696128410132    0.4994811519692317 H
   0.0797459870600966    1.0328413349414125    0.3786338934530611 H
   0.1678658874884663    0.3069106752814164    0.4147196113039206 H
   0.3123945101834341    0.2257787604526859    0.5421261959167739 H
   0.0071349741032577    1.0670858915729100    0.5288276963004989 H
   0.4510712132388005    0.2792707093034711    0.3592512104949517 H
   0.5820643655108030    1.1747059749223485    0.3552270262373605 H
   0.4037183464662022    1.0710917987072408    0.5807227094490384 H
   0.3762620064682494    0.2533052918325699    0.6395626604176168 H
   0.4681091659349495    0.2565369880039093    0.4822974768021557 H
   0.6448134949311610    1.0743599843297049    0.3469815323809103 H
   0.8121539643666849    0.2243691570907640    0.4647391849506787 H
   0.8393888377762568    0.2861473843425829    0.3649254359557434 H
  -0.0152136055175464    1.1494409962632521    0.4379874698128310 H
   1.1287534567230202    0.6339505539813731    0.3652702089629805 H
   0.2377287444060693    0.5135670952277004    0.6008860401729647 H
   1.1232680209396360    0.5807878034396468    0.4856855195201980 H
   0.1723756092632542    0.4267904209597821    0.5375381232327676 H
   0.5247289513772360    0.6298129675234186    1.3774263735801713 H
   0.4624921112182572   -0.3928705331541806    0.5323249040481675 H
   0.6137120198041635    0.6224119549366254    1.4774183992781653 H
   0.8166747200640255    0.4936097452093580    0.3641518564292549 H
   0.9647263166026324    0.6243990435250409    0.4266994916055009 H
   0.8164540416129697    0.6304039379818497    0.4957938871196237 H
   0.8735782349433836    0.6656979629576480    0.3442398408814468 H
   0.1221736260600620    0.9162416736195732    0.3996171399390728 H
   0.2684999899938085    0.8226462314849802    0.5664008858500075 H
   0.1270569249269942   -0.2471237328731625    0.4820178886687243 H
   0.0916965921358195   -0.1491455903589303    0.5555660603196153 H
   0.4978597736865563    0.9898155125718870    0.6013062077330371 H
   0.3706670195966627    0.8804740790280925    0.5942112661672526 H
   0.3877380740604700   -0.3111206774031444    0.5865131681787847 H
   0.6188766836961915    0.8722798175038079    0.3760586982577759 H
   0.4239837215090406    0.9268394794244563    0.3919905097038134 H
   0.7247329841183016    0.8148089319825665    0.3470804877315067 H
   0.7204068983402849    0.9052313783671946    0.6251285303492581 H
   0.7425961165939339    0.8583820961189611    0.5102280171879825 H
  -0.0946200961197150   -0.0951118524838385    0.6161173105655731 H
   0.7886422516813524    0.7173392620372662    0.5738492393822080 H
   0.2741012819639969    0.3183509114579153    0.7561587656577644 H
   1.1015706003769112    0.3128949452658504    0.7941709714055543 H
   0.5020684270031182    0.1189273353236766    0.9581776846203838 H
   0.3746163757332341    0.2708479920851890    0.8200642881449735 H
   0.6196829481798700    0.1200942045107262    0.9870082474806834 H
   0.6323301878373363    0.2600177643416209    0.7193552288351175 H
   0.3547797473953039    0.1864002966977451   -0.0308697354087764 H
   0.6578729304097063    0.0631559856510102   -0.3091639098271384 H
   0.4453383023353039    0.2693598570784554   -0.0150492880001561 H
   0.7356549911709075    0.2161669630771044    0.7545817629276232 H
   0.8061105273570600    1.2275839490955154   -0.0492781008434729 H
   0.9080907684138420    0.2137546930581935    0.7918070380301933 H
   1.1362407613124095    0.4186017121780599    0.7408199009553804 H
   0.3413104805076553    0.6137076343455338    0.9015610876005252 H
   0.4019663171922851    0.4632822518311924    0.7825971221853898 H
   0.5897274247237115    0.5393310274684788    0.7922790393453401 H
   0.4144480480114596    0.5554006644441767    0.7061274116121258 H
   0.8774401078368581    0.3347981349278590    0.7828288033633737 H
   0.6764942509921799    0.6230647988121806    0.8338709156329623 H
  -0.0072214201576348    0.4575906907046925    0.9477559584107358 H
   0.2948316580287026    0.8825523912443195   -0.1816780038618229 H
   0.1402101487472381    0.9122754289321169   -0.0521760789680849 H
   0.3030227692494945    0.7377741479159783    0.9199228026556548 H
   0.1390507987418705    0.9987078331611640   -0.1336414640266218 H
   0.3723977691627993    0.8222575395056093   -0.2626171977703625 H
   0.5717011478217632    0.9745772004826800    0.9154776654780656 H
   0.4863947400168883    0.9006781294659947    0.8596542819828300 H
   0.6174761636693132   -0.0465612099144738   -0.2507056437822893 H
   0.6410257069462553    0.8041325945328718    0.8918069173274410 H
   0.9775571922568699    0.8348384676542207   -0.0597673680067026 H
   0.9388438868431016    0.7118000047067647    0.8289467089008981 H
   0.9378429524400991    0.8145392273438196    0.7516625800850262 H
   0.7598476545052119    0.7782734724195943    0.8667460821089129 H
  -0.0055683021180302   -0.0212361823108093    0.6751748062334787 H
   0.6606826399740401    0.3922880584236001    0.5954929735654551 Cl
   0.0353905011117087    0.1059949978957566   -0.2469932474150696 Cl
  -0.0861854504654367    0.5055021332802269    0.7339000946529532 Cl
   0.2307545172153845    1.1419051313570852    0.0414370178080837 O
   0.0817811940749576    0.2943567175966798    0.1323607280558183 O
   0.2733809244487651    1.0830222627271093    0.2437663895492015 O
   0.3510353069632841    0.2829339328968058    0.2608330460873974 O
   0.4743354508040206    0.0246365470354574    0.1925876246525986 O
   0.6236661942214251    1.1319181272340701    0.2952616544957281 O
   0.7615460904410154    1.2092519661500924    0.0105827394920929 O
  -0.0828926127207558    1.1540497725900762    0.1795506498914715 O
   0.1581197813250571    0.3957077545931249    0.3077983549843950 O
   0.2088907996770428    0.6101681575864478    0.2633187102511906 O
   0.1090314361623710    0.6389392965492556    0.0560875145358816 O
   0.4811016097408528    0.3593277718219010    1.0974612673845938 O
   0.4834226741635634    0.6268969844292008    1.1009168510562179 O
  -0.0066624731666037    0.4543542350397282    1.0270223356782393 O
   0.6864042897192304    0.4046889190634008    1.1428629246701816 O
   0.6868393415227401    0.6164443431798786    0.0910032031699262 O
   0.4199760432104044    0.6799740640856781    0.2861609036805509 O
  -0.0552605180992836    0.9227859773538760    0.2009682004162123 O
   0.8048053719465307   -0.2779192431244480    0.2547999111407119 O
   0.1777845957260940    0.2846116543995998    0.4881342717674989 O
   0.0385939483209655    1.1142445409067652    0.4774368842240463 O
   0.3829091566689766    0.2067915538848953    0.5762524407538374 O
   0.5028739033494715    0.2862386079703944    0.4169531749316703 O
   0.4302297098112416    1.0004529808236446    0.5662186823473219 O
   0.8623630408058038    0.2241851233372660    0.4096194839485737 O
   1.1031153495343009    0.6409850855590455    0.4419723860741538 O
   0.1653635514809599    0.4919724794023760    0.5896231934832464 O
   0.5604599451524517    0.5861866557082122    1.4363126607843466 O
   0.4000881859463362   -0.3886877315067891    0.5778105948457697 O
   0.7733342604140147    0.4321289863090983    0.3458466872887519 O
   0.8889784382777695    0.6206557017890197    0.4065204536830672 O
   0.7633564418769970    0.6477181825404713    0.5515245981436659 O
   0.0941129423611467    0.9668192258740155    0.3440026621839852 O
   0.1474744104735960   -0.1713153116639358    0.5020335717266812 O
   0.3396033750612746    0.8127322062642144    0.6012174620614704 O
   0.4715344107502638    0.8813228553912081    0.3524884761775984 O
  -0.0247424222203982   -0.0944645613508457    0.6519352206818817 O
   0.6986905624817554    0.8771820959375038    0.3840081114223619 O
   0.7746086784688613    0.8645694378313928    0.5820444702034345 O
   0.5601691224794533    0.0779674504869532    0.9956472066597436 O
   0.6652695992066976    0.1944581194047812    0.7408960808681413 O
   0.3538489572142440    0.3108396372688106    0.7540492888982230 O
   0.4146553281279868    0.2186474525046396   -0.0654196033895840 O
   0.8584538796728174    0.2676186756606622    0.8160903669226058 O
   1.1579618259948901    0.3646679236690921    0.7943476773887623 O
   0.4273041440601034    0.5360271456438278    0.7769982912774335 O
   0.6659631600528725    0.5497075168198019    0.8064728492765358 O
   0.1914138544907579    0.9570305339853734   -0.0950959988895063 O
   0.3146533117574541    0.6675287815053779    0.9556880936569636 O
   1.0335149423459893    0.8429137418378817   -0.0030683081946803 O
   0.3618367290051345    0.8432548388810029   -0.1872972541278388 O
   0.5618675584152569    0.9130686778696081    0.8625679673059492 O
   0.6369139945206928   -0.0106068845231078   -0.3186738331634328 O
   0.6951628598141653    0.7468639874906906    0.8844166804297177 O
   0.9183917232541911    0.7861425018795075    0.8233549462322700 O
