Li1 Co1 H90 C51 N3 Cl6 O45
1.0
  13.8188680000000002    0.0000000000000000    0.0000000000000000
   0.0000000000000000   13.9460149999999992    0.0000000000000000
   0.0000000000000000    0.0000000000000000   14.1011860000000002
Li Co H C N Cl O
1 1 90 51 3 6 45
direct
   0.7678946191540437    0.3118594817229151    0.6514025437293005 Li
   0.2407440139090988    0.2983870338587761    0.6906272408576130 Co
   0.0640511711957883    0.8798145986505823    0.6457989235799031 H
   0.0647604514349511    0.8274167466476983    0.7623095894203509 H
   0.1400878639263361    0.7781822635354975    0.6703490259613625 H
   0.1991986485434263    0.9572922150162609    0.5853410550006219 H
   0.2788594442033892    0.8582723014423834    0.6153641353287589 H
   0.3066804082649896    0.9788441737657675    0.6538385338651657 H
   0.1070409146393178    1.0347950894933069    0.7064273572449864 H
   0.2109140220458000    1.0491920867717408    0.7822766616935625 H
   0.1050184320452298    0.9874359822501266    0.8256422679624253 H
   0.2871390768042650    0.7995817479043297    0.7642288116758406 H
   0.1991051763429537    0.8273303434708769    0.8522328228278103 H
   0.3719354429031380    0.8739076725501872    0.8938613049994518 H
   0.2791742833059843    0.9596910264329990    0.9146614419524712 H
   0.4331326060861135    0.9691278440472063    0.7836218953497954 H
   0.4402036092970857    0.6174864124267756    0.6936429659179023 H
   0.4815982510289555    0.5408990697342574    0.7875014066192730 H
   0.5123629164125455    0.5135681899094473    0.6663339565906016 H
   0.5524747844758341    0.7247401117810357    0.6167033035377307 H
   0.6156164021539247    0.6181335148427705    0.5792468803687860 H
   0.6800931205074107    0.7132173656775789    0.6385061986984640 H
   0.5054073560873438    0.7423863196762659    0.7811647013237042 H
   0.6319731478728937    0.7567279276553195    0.8000273615283140 H
   0.5647424188435696    0.6700495589600327    0.8695559465707352 H
   0.6719431975180602    0.5046341962202106    0.7030110311288710 H
   0.6475391667392728    0.5305595605626410    0.8252904592564058 H
   0.8074473632717240    0.5676878778633179    0.8266830853801943 H
   0.7654127624636113    0.6828351245857687    0.7916298827630527 H
   0.8578630253939759    0.5396182909598189    0.6834853777547505 H
   0.1531643351684089    0.7244389942216468    0.3266023063591956 H
   0.2796421219162091    0.7070549687491372    0.3046626687996314 H
   0.2405208255842664    0.7483651293935938    0.4189616759895232 H
   0.0734205616552673    0.6246691789733483    0.4443619508316535 H
   0.1676249617551887    0.6389599674172156    0.5308254504266521 H
   0.1330512904530241    0.5208648843415126    0.4919529215485846 H
   0.1135485301690413    0.5662833547791251    0.2857382811630171 H
   0.1750988973915953    0.4649996425502196    0.3373281048842275 H
   0.2369618386976415    0.5414096041055456    0.2542767856547669 H
   0.3383985026848799    0.6323159275248162    0.4742839800850794 H
   0.3636864502939025    0.5776596124412601    0.3622480137486308 H
   0.4064816922775440    0.4646783729975911    0.4748097280611716 H
   0.2954472529877267    0.4195120097031302    0.4305026499189500 H
   0.2963408326933870    0.5383014760847453    0.5953838428909455 H
   0.3136085148219087    0.1656347393861257    0.3897731821990009 H
   0.2400603030581087    0.0791977084493312    0.4500227427678778 H
   0.1557130504466792   -0.0136613183049065    0.2397722375976035 H
   0.0420559549450794    0.1933922443077825    0.3611864931077429 H
   0.0308147975651841    0.2597332944213813    0.4676401112644000 H
  -0.0884938759093726    0.1162213886906044    0.4320044058705417 H
   0.3638023903260383    0.2194050931395098    0.5255146162883038 H
   0.1963528553858392    0.2724509962164819    0.3062668076288051 H
   0.7177295882701825    0.3126495117063907    0.0215022020133626 H
   0.8331362322876230    0.3479335975187177    0.0625925372518312 H
   0.6261600161460403    0.2136287663536860    0.1199088601483592 H
   0.8327346400587951    0.4438427321353089    0.2217340094655868 H
   0.7589165957732573    0.5473578251565053    0.2111339805034839 H
   0.9258207242445619    0.6054221904967118    0.2063174225203469 H
   0.5891113345897797    0.5652575943737332    0.1467588251087533 H
   0.6069108070212409    0.4485296896640367    0.2231554565693978 H
   0.3642383225601403    0.1676869184494639    0.9547833593571491 H
   0.4411794808373595    0.1363484550963125    0.8605704548539392 H
   0.6289307098092262    0.0936575057462651    1.0088618411245693 H
   0.5777356835596086    0.3247287121087995    0.9010204978503227 H
   0.5060695282710567    0.4099690786221010    0.8430835782181726 H
   0.4428921898667822    0.3425661172743611    0.6987651967713921 H
   0.3237920276827306    0.4132795805826969    1.0333301525134126 H
   0.4427626409051740    0.3257514401067258    1.0221570136015510 H
   0.9164159213330644    0.9569384157409840    0.9366657201741755 H
   0.8670794836451149    0.9269627000974830    1.0494918328146299 H
   0.9467518316261505    0.6916937447722521    1.0327625279178645 H
   0.7152048358809130    0.7852434476802155    1.0020697486012877 H
   0.6254044694543721    0.8577470603609705    0.9495224621531835 H
   0.5452330986879678    0.9454793437408463    1.0477588154641744 H
   0.6800462121788847    1.0045366464900547    0.7889911373412137 H
   0.8333603179363173    0.8420779333737989    0.8238995493003213 H
   0.6430880206685526    0.0961606681191724    0.5472737314435820 H
   0.6296935306133614    0.2116260229176579    0.5950247149424169 H
   0.5094890145849863    0.0487778064199701    0.6311417557360069 H
   0.5440057723975654    0.3079442148886259    0.4022336426170111 H
   0.6575077162615636    0.3319328933749175    0.3526926316694213 H
   0.5793374030347492    0.4896615534975403    0.3996407366018716 H
   0.8064895677417282    0.2067214125325407    0.3163691195903664 H
   0.6513068697088648    0.0930867534560948    0.3595081789574296 H
   0.8720101603112499    0.8916950519557021    0.2578244659704510 H
   0.9465356706497233    0.8881492311602992    0.3595513568858676 H
   1.0411037119683031    0.8233326989824692    0.2064611934060014 H
   0.8403296847469707    0.7003045120774645    0.4536137513539641 H
   0.7620945051360214    0.7767911385438779    0.5186212954002593 H
   0.8452882037805123    0.9247733227018614    0.5578996667372517 H
   0.7070639389565050    0.9344944738694172    0.2690464284351685 H
   0.7641513458265902    0.7200660726379542    0.3068479998774571 H
   0.1082936605226998    0.8438634319552933    0.6994137386741797 C
   0.2489911308220037    0.9276080156231009    0.6382080032133467 C
   0.1501514762280094    1.0024642308214928    0.7633743856722406 C
   0.2505676347729785    0.8587856445013146    0.8016686447508742 C
   0.3201341709031449    0.9225973620421317    0.8581938717778774 C
   0.4995204021052955    0.5706916965168903    0.7179301280048358 C
   0.6113714292661309    0.6747592871512041    0.6329140648169593 C
   0.5723944587935857    0.7051089289664467    0.8004154962568396 C
   0.6704234985094293    0.5613333751612916    0.7571322249064724 C
   0.7705297539566917    0.6073595231325938    0.7692845190468376 C
   0.2221445569926567    0.7032237682233957    0.3579419163749772 C
   0.1418496225595324    0.5958427844800110    0.4708976989595060 C
   0.1830470701362804    0.5387324228462396    0.3114624840775804 C
   0.3162013256078573    0.5752612879019562    0.4249168559297069 C
   0.3277616480597398    0.4778430583933834    0.4723248087075796 C
   0.2391995559983640    0.1385431271943993    0.3990569034406042 C
   0.2040936797427980    0.1033466506381931    0.3030139564147299 C
   0.1759036984794992    0.2213970937217549    0.4336451246015761 C
   0.0678505272646066    0.1980551849399273    0.4348656120130605 C
   0.0396557966976745    0.1077548884036049    0.4891756813930403 C
   0.2033010026581049    0.2527062698555824    0.5327393823469884 C
   0.7581183523860276    0.3342757009798140    0.0850716542565994 C
   0.7552371388162910    0.2566601799868995    0.1612961512599011 C
   0.7135737572715797    0.4268960380438426    0.1259262043632358 C
   0.7937432827348810    0.4892515646942872    0.1702046324330450 C
   0.8654197615897337    0.5347623252950754    0.1009768164181367 C
   0.6572460392558928    0.4855061133951168    0.0480359942773608 C
   0.4337520974945271    0.1859612455601116    0.9206318482714858 C
   0.5139433483263608    0.1723617477824310    0.9910753386275453 C
   0.4259296723870580    0.2901166096551595    0.8886085106600253 C
   0.5202153953565516    0.3324782735426571    0.8483660381474296 C
   0.5637730304681976    0.3023787734345618    0.7543449955202350 C
   0.3434975462534269    0.2999933687150056    0.8191249984221186 C
   0.8707662508969621    0.9049089377861704    0.9749528685034010 C
   0.9169984154997356    0.8073494657792926    0.9632684633760593 C
   0.7694716405135357    0.9086408131641907    0.9293378365479330 C
   0.6918136905280520    0.8604926504094539    0.9925458440162408 C
   0.6700237537546491    0.8994737148927490    1.0911755486382493 C
   0.7437033293899327    1.0162025861868067    0.9163738681271206 C
   0.6084685048008274    0.1662960544643040    0.5345235946820359 C
   0.5011519973994976    0.1563672102747631    0.5375786760064012 C
   0.6526004105401398    0.2091563797973830    0.4434505055106712 C
   0.6214591643830740    0.3124929350785870    0.4198632363263629 C
   0.6380861181972359    0.3930747722557304    0.4898726504281271 C
   0.7640430446256525    0.2051964600640398    0.4593097474212453 C
   0.8919342488834832    0.8470269091206341    0.3193644399839843 C
   0.9355793383365411    0.7550035167752221    0.2818388105794789 C
   0.8016831733250510    0.8293349175373753    0.3815867530575088 C
   0.8268752976003535    0.7753589896468633    0.4730111155189358 C
   0.9142593315168797    0.8077172174273439    0.5304534583119462 C
   0.7539269938753306    0.9266416700397927    0.4037367644111637 C
   0.1903041182533909    0.9095297509718726    0.7269084635859707 N
   0.5899118198393675    0.6291719111158276    0.7271843786756660 N
   0.2151428590243427    0.6015342368411335    0.3919430769865740 N
   0.0867685804654911   -0.0758953751304584    1.1385231462091203 Cl
   0.5343909030754184    0.5580468671516559    0.2791914048931771 Cl
   0.9002201149906057    0.3951079924982155    0.7131613816029375 Cl
   0.3073570215736919    0.6853411580297311    0.6371506035024288 Cl
   0.2818969411966306    0.4588159011732025    0.1048646610292212 Cl
   0.5724021034139700    0.9566565703536100    0.7098390199235723 Cl
   0.3696026570338468    0.9935002550907912    0.8052019553532590 O
   0.8261413547043073    0.6042436846654761    0.6848700428460415 O
   0.2897150852009007    0.4736763756528298    0.5656795187298430 O
   0.1945062540578577    0.1583294489501123    0.2351080022630721 O
   0.1874970583697594    0.0096334128423066    0.3018187448913872 O
   0.0918102655007632    0.0707792541453598    0.5494987584732235 O
  -0.0464323886732256    0.0702669959841575    0.4677730227797860 O
   0.1440989421130588    0.2927538626625598    0.5873874970516665 O
   0.2903557013497777    0.2369008645121922    0.5662178216782617 O
   0.1900971099803544    0.3015024894208130    0.3704332132063218 O
   0.8180598034513391    0.2537688981404365    0.2245876502870042 O
   0.6849832330694526    0.1930329316295730    0.1583810794354461 O
   0.8554907464200396    0.5348534337586759    0.0148064240837615 O
   0.9425516634213454    0.5768412646910246    0.1418562474106788 O
   0.6589784662535311    0.4629366396063678   -0.0356143043570945 O
   0.6096452719571531    0.5642376298892551    0.0776838061706299 O
   0.6494907665374617    0.3957464537360673    0.1990021959855008 O
   0.5338178344275378    0.2338117390523386    1.0525390119667948 O
   0.5602181806787647    0.0891274955605598    0.9849746241202690 O
   0.6481754967194130    0.2755280931506240    0.7445311706405404 O
   0.5062612936168144    0.3119848365285711    0.6783647247827240 O
   0.2748741155932599    0.2399589223158013    0.8167582464340233 O
   0.3462441706513153    0.3685245147090405    0.7571445338002066 O
   0.4001885082048689    0.3481894835191272    0.9700999362748638 O
   0.9454160485504313    0.7779178639919719    0.8853299694082470 O
   0.9241176636175988    0.7580197662199559    1.0441926423777403 O
   0.7266890725057943    0.8959537638529715    1.1580751377933742 O
   0.5796396057911545    0.9325732512119053    1.1071306853196603 O
   0.7485108932222235    1.0688083499121432    0.9870660999720166 O
   0.7170471966299989    1.0496373530359748    0.8328451578470066 O
   0.7665952305210528    0.8603662300664384    0.8404705668019697 O
   0.4449190896099449    0.2111050224741620    0.4920946309055139 O
   0.4624567967506455    0.0919486147118012    0.5932783582884447 O
   0.6823887701944906    0.3856031769648892    0.5648858890308943 O
   0.5994682343011020    0.4786815459469963    0.4678452698943195 O
   0.7979792208739529    0.2169447810001638    0.5388495627247241 O
   0.8214019838672749    0.1828212274258991    0.3865874671818385 O
   0.6222519601460843    0.1574163866882403    0.3625382801134600 O
   0.8928013032615986    0.6759554223912709    0.2895129352949461 O
   1.0204376168872877    0.7583012817640020    0.2400977151850915 O
   0.9906427328200834    0.7630657144711231    0.5317639558828597 O
   0.9013669658035666    0.8866972981170607    0.5834010203113412 O
   0.7579168648256861    0.9649651767906459    0.4823934930012270 O
   0.7080992350458808    0.9698255630730356    0.3323022645045601 O
   0.7292943307657328    0.7760778179286341    0.3325558623225025 O
