Li1 Co1 H90 C51 N3 Cl6 O45
1.0
  14.3610284070999992    0.0000000000000000    0.0000000000000000
   0.0000000000000000   14.0153612381000006    0.0000000000000000
   0.0000000000000000    0.0000000000000000   14.4853610424999992
Li Co H C N Cl O
1 1 90 51 3 6 45
direct
   0.7440336722067454    0.4055346860164495    0.3616927811414611 Li
   0.7616417426618517    0.6589772437682854    0.2542415415463056 Co
   0.1195888381886996    0.0144893960027198    1.0537349035703194 H
   0.1834686644793052    0.2877167452621907    1.0181845297488381 H
   0.2242101757007951    0.1659560591829110    1.0516969840518906 H
   0.0680953114692346    0.0272532482474766    0.3142579952231798 H
   1.0494261465947017    0.3672872951077675    0.2722265955077246 H
   0.3056451514454160    0.2675124854368915    1.0295090662597823 H
   0.3581887422391603    0.3013539249790020    0.2575165721003119 H
   0.4961350608343231    1.1503552313208643    0.0681474571744351 H
   0.4904736974768212    1.0971928484652220    0.1781440251112057 H
   0.6002911809670910    1.1245992059236241    0.2720974996574719 H
   0.7215164825714873    0.3017955832348858    0.1464188924996206 H
   0.9498678169632990    0.2290218614111970    0.0989309494665293 H
   0.9115077507909042    0.1497880849045170    0.3190055468926362 H
   0.8415343497562547    0.1930891450548776    0.0826393293054849 H
   0.3525631005573948    0.5360946458286636    0.2733063062552933 H
   0.4711188858212311    0.5880978719758910    0.9690970408064650 H
   0.4373891983456100    0.4352538629198389    1.0108840558642225 H
   0.9131796366280026    0.4374233396449441    0.2458157936728556 H
   0.8811464154018288    0.4579154265145462    0.1298780552158957 H
   0.0640621741229311    0.7265816375404752    0.1775848398774904 H
   0.0715010564210250    0.8050698035828603    0.0871783946285438 H
   0.2100969803045799    0.9121430337697861    0.2889296655444410 H
   0.2724762176826709    0.9177604416026987    0.1221081418758155 H
   0.2930402045802942    0.8207097857621363    0.2784860183646334 H
   0.1905593822965372    0.6676598597874280    0.3071943121227177 H
   0.2459008228584872    0.7619699512324338    0.0092500643171318 H
   0.6200766720855073    0.8732100379853712    0.1297655278170123 H
   0.6056682332095212    0.8007944945856786    0.2704358220555551 H
   0.6918459055124418    0.9729862746619206    0.1438611378194787 H
  -0.0795584595484217    0.8069498835574219    0.1755952450088888 H
   0.0243254655932084    0.2642753230670295    0.6045400246225860 H
   0.0854088347735318    0.0919344208979287    0.6299008008519233 H
   0.2023649435136003    0.0912023669875301    0.4989227054883744 H
   0.1979530032121191    0.2055340615316537    0.4555819148682431 H
   0.2924928900163794    0.2829576813417632    0.5483525400571665 H
   0.6686560621001587    0.0977087993549032    0.5029366199382392 H
   0.5745757524106360    0.3227026433542811    0.3713929190660696 H
   0.5327910011386918    0.3024527193474366    0.4931013800997567 H
   0.8675192576208967    0.0054792821815566    0.6430547705348988 H
   0.7725873376111860    0.0548843590994220    0.6993426323015310 H
   0.8143810018938404    0.1099846156593942    0.5967480200140134 H
  -0.0622644334550527    0.2320884966031006    0.5225870794031332 H
   0.0759749700000996    0.6094815519901657    0.5794465527420077 H
   0.0813729121113814    0.4256634572416316    0.5514294395468811 H
   0.3037302468006759    0.3964795501662939    0.3218794828530764 H
  -0.0097312875957343    0.6147043927544130    0.6708352310163000 H
   0.3367515588235355    0.5705000380128590    0.5399696630516346 H
   0.5247506298834610    0.4516594336428358    0.4596217175233726 H
   0.5135505197353271    0.5028623950084814    0.3443304248106731 H
   0.1595894553949155    0.7950393807052936    0.5911230307741222 H
   0.0490305208262024    0.8313780801756644    0.4991169015454660 H
   0.6104408719131751    0.0432221552344463    0.5993071553984362 H
   0.6175009512560914   -0.0192014944408584    0.4943494677343663 H
   0.8581257799272445   -0.0762332031796309    0.5017734456168975 H
   0.8164323870150784    0.0334507338865820    0.4538470599394451 H
   0.7533895481364646   -0.0838755320629441    0.4381699912537751 H
   0.6749710694540306   -0.1495434791364773    0.5515226370858336 H
   0.7674345032944309   -0.1514670827840744    0.6386013088772482 H
   0.1266426505709603    0.1636022133248165    0.8142110152930280 H
   0.0756943494285249    0.2262570379191945    0.9111813286927949 H
   0.0352606156081169    0.0578125747410164    0.9201248406715369 H
   0.1495950458072957    0.0136631597178839    0.9044227812383848 H
   0.2473707732966859    0.2784569054482015    0.7860398155001665 H
   0.2915229037726983    0.0739891110534500    0.9321286836886240 H
   0.2870559534832410    0.1220863372717437    0.8140625895828444 H
   0.3670369943557829    0.1688457456713265    0.9121112330258991 H
   0.1888498946955056    0.3406186995824573    0.8803343240037850 H
   0.0868021890259408    0.5736323154657340    0.8201073129240921 H
   0.3159556943816583    0.3219356278048868    0.8782846684989696 H
   0.3894281484489691    0.5565353604940273    0.8788321177462982 H
   0.6812839878210174    0.5305779845962856    0.7393934117262096 H
   0.5188209431238484    0.5196078784828564    0.7745502848276693 H
   0.5986255620906480    0.3839219002413277    0.7942494831536747 H
   0.5538305807171723    0.3889685058049235    0.9141125638808875 H
   0.5349774044456079    0.6308802155640102    0.8268741446041868 H
   0.5975093467650050    0.5096480210358340    1.0223825611145445 H
   0.7782206389115305    0.3800953845283964    0.0408543853041487 H
   0.6742851854267329    0.3667093578100844    0.8928828548596391 H
   0.6461729925840251    0.6205080248276901    0.9752301292216825 H
   0.7618596936268712    0.5057595019263980    0.8329444109746290 H
   0.7162000109487271    0.5188069715487215    0.9883406067198134 H
   0.1411242039879274    0.8404488417379424    0.7075274472779852 H
   0.2617736415409782    0.7318173213557821    0.7882220186159367 H
   0.1264337518824432    0.7567314134057803    0.8172630621056887 H
   0.6131962456147158   -0.2086971453114343    0.7859997750760239 H
   0.7150768323334667    0.6195141153762425    0.8230772078320464 H
   0.5187208527988902    0.8477444082426457    0.0197303001603800 H
   0.6026795893058032    0.9453508827929552   -0.0289802565133405 H
   0.5699189828462129   -0.0889727963279417    0.6664383782341613 H
   0.6605556672884274   -0.0642092533764758    0.7501704989898251 H
   0.2362162796588345    0.2364023347534611    1.0106465747279283 C
   0.4591948790477788    0.9540477688688309    0.0884686627789312 C
   0.5364646934749535    1.1069721183442895    0.1220363452532150 C
   0.6133633645655294    1.1714164080529752    0.1537138435671132 C
   0.5531080697864879    1.0078836984022668    0.0854828897717480 C
   0.8520398648017797    0.3244264662076173    0.1630922773943002 C
   0.8838899515110201    0.2587977617900997    0.0816459125754649 C
   0.8562282835065476    0.2678357022218921    0.2576836373182860 C
   1.0135171583675742    0.3928192806143009    0.1416920513943759 C
   0.3969589461700105    0.4280120231787349    0.1966723862071110 C
   0.3729314190167737    0.3746427958507491    0.2823595842243571 C
   0.9158820893284522    0.4111866273866556    0.1743091189713437 C
   0.2214151112484363    0.8364082751740173    0.2780849237710673 C
   0.0824299394752779    0.8025218849531981    0.1613829654946966 C
   0.1899765549555745    0.8150602703015748    0.1760957503106709 C
   0.2356320596599484    0.7203220771545816    0.1436588646423447 C
   0.0255558788685742    0.8835950717727509    0.2071063684569532 C
   0.6208468119171736    0.9466344743960809    0.1507701820404937 C
   0.5921121009826849    0.9421279904798261    0.2545480578966384 C
   0.0315909619798332    0.1048459682298711    0.4190141000622560 C
   0.0131006427302230    0.2467966440777172    0.5322997127014827 C
   0.2041802731168139    0.1933945242689620    0.6069445211275617 C
   0.1770937728347250    0.1614688398432455    0.5124468488925481 C
   0.0640287503327684    0.1469383545749537    0.5098261064831170 C
   0.4047257994090763    0.3155469234055603    0.4473375915372874 C
   0.8007092790593580    0.0447133761630361    0.6308949079340838 C
   0.0393550299030520    0.3251499580839762    0.4572504959915638 C
   0.4769091396695480    0.4595590516490435    0.4005844593224263 C
   0.3988689765120185    0.5278320689294542    0.4279072163347495 C
   0.4439667217180517    0.3648835040511078    0.3614787719779405 C
   0.1142640106183987    0.7928624835506871    0.6519830947665521 C
   0.0131389408231178    0.8156396346049313    0.6331910191530181 C
   0.1693067260557693    0.7900512823743028    0.3550895629186386 C
   0.6524886962668587    0.0333315789128622    0.5388778711416091 C
   0.7954297128715691   -0.0367087135436365    0.4827944916789602 C
   0.7070168246015155   -0.1121937461465794    0.6103928300688056 C
   0.1324075580450705    0.1712409746939464    0.8885529662351183 C
   0.1079873013574216    0.0736309326294538    0.9311387187193059 C
   0.2445415887252027    0.2948831677534612    0.8579751988808600 C
   0.3000835720281290    0.1397426784673808    0.8899668074186353 C
   0.8751830541736274    0.2995929999781601   -0.0151890918047858 C
   0.0681036674167753    0.6122749155956342    0.6553982668050574 C
   0.1250731250912352    0.6905383282444758    0.6939440785636877 C
   0.0796752621026991    0.5155890024051653    0.7006543013682704 C
   0.2322102991420383    0.6681429012078373    0.6752396776719830 C
   0.4530407933169613    0.5365323084686622    0.9146123788305293 C
   0.5331772548137599    0.5510941878617664    0.8415675995602303 C
   0.6151452703785802    0.4019587524997481    0.8720266263463415 C
   0.7022817876617945    0.5441560862782227    0.8125534798039536 C
   0.6459299737763834    0.5425158859573412    0.9730762305436682 C
   0.6371116638051150   -0.1123942404436769    0.6878814060667898 C
   0.7364583094321537   -0.0175982535669153    0.5707496345478129 N
   0.2272071755520537    0.2098771532983168    0.9114360686325986 N
   0.6239218006121453    0.5100641358901657    0.8740231247363470 N
   0.6124651002049059    0.6857571457361124    0.2141141330340438 Cl
   0.8718838475529807    0.6771373179665943    0.1561977305682334 Cl
   0.6595418123201576    1.3448111539118017    0.4921491083573039 Cl
  -0.2185213487948049    0.5626429447757154    0.3731167283606214 Cl
   0.2234281982767794   -0.1654688624504116    0.8899164117123870 Cl
   0.6199186054111959    0.8022928505426348    0.9339664010863400 Cl
   0.1186341711821765    0.0808387382852498    1.0303471537582145 O
   1.0790918493510151    0.3788810027004251    0.2083745453388481 O
   0.3837878838590074    0.9813899110719347    0.1240162751918512 O
   0.5879863518844721    1.0110438024657711   -0.0059984337597846 O
   0.6420047674191471    1.1667344024389055    0.2415577016709351 O
   0.6517819223707091    1.2246572762206482    0.0943048997737814 O
   0.8232090604705731    0.3056706171407091    0.3255134965200851 O
   0.8877427396562372    0.1766115105453794    0.2507752834494115 O
   1.0397116612496951    0.3960707130408959    0.0624133922963626 O
   0.3824237754229907    0.5222494800349702    0.2087010819012522 O
   0.4209300706773477    0.3893102736636768    0.1232265123432459 O
   0.7598688891253034    0.3628878366170095    0.1515889396789952 O
   0.2107062681460881    0.8896156087083682    0.1143975988198086 O
   0.2640548152195849    0.7105221156932515    0.0560414420405704 O
   0.0594253195668132    0.9533107204385758    0.2418669794298294 O
   0.2324198941595171    0.6528111522539922    0.1959592524460890 O
   0.6054697794554299    0.8643519002684136    0.3093502818571531 O
   0.5609832718119977    1.0141910634782156    0.2916565564989783 O
  -0.0628765066124078    0.8719635485297510    0.1993854701188405 O
   0.2660289078260715    0.2629375052483186    0.6178617498756762 O
   0.0966552438343307    0.0605310205486369    0.3720570378251239 O
   0.3202311542066416    0.3079324211328763    0.4638087722900470 O
   0.5179741792532340    0.3118081685415363    0.3296335180939278 O
   0.4656955973357425    0.2840100980258158    0.5073232624122217 O
   0.0382666677358779    0.0763657890023172    0.5775903339069293 O
  -0.0535902635788611    0.1101744074139420    0.3925025068148901 O
   0.0814885027190275    0.4086538350171303    0.4822286100294831 O
   0.0362166752725635    0.3093986694621835    0.3749661817447241 O
   0.2496526433042544    0.6363970194969555    0.5985180829019712 O
   0.3515903289978669    0.5751827571297653    0.3719162059884846 O
   0.3826904694153309    0.5198481862382387    0.5195898810680265 O
   0.1369065394667671    0.8431416014434437    0.4150652858192299 O
  -0.0043145446024859    0.8419850133452409    0.5447089304954064 O
   0.1574078567578353    0.6959416852263945    0.3614180209895863 O
  -0.0482730956271391    0.8227446958522501    0.6915319881851678 O
   0.1766502112861071    0.1472016371216760    0.6778409245369694 O
   0.9203566992364884    0.2683080410997516   -0.0817535355332515 O
   0.8097699115093062    0.3738301161198095   -0.0227594933762936 O
   0.0816507473671091    0.4394015976098282    0.6560396039434789 O
   0.0753259914077731    0.5093437834262882    0.7931891022660370 O
   0.4456574084371168    0.4391209769441755    0.9408395469960548 O
   0.2963804946096826    0.6989697912651193    0.7371974015676316 O
   0.1062715467957345    0.6916385496185836    0.7901342940448148 O
   0.4568633607852395    0.8718515285843976    0.0426672500248107 O
   0.6257893548874882   -0.2082112498796786    0.7175437664828919 O
