Li1 Co1 H90 C51 N3 Cl6 O45
1.0
  13.5652908852999996    0.0000000000000000    0.0000000000000000
   0.0000000000000000   12.8428042916000003    0.0000000000000000
   0.0000000000000000    0.0000000000000000   13.5538207376000006
Li Co H C N Cl O
1 1 90 51 3 6 45
direct
   0.6413541011588557    0.6121287039265935    0.7159198912732712 Li
   0.4033540444480482    0.4723199862017275    0.7718148315020695 Co
   0.2018825077807710    0.0820809164311162    1.0804731855552885 H
   0.2241643742409694    0.2194333170398960    1.1061567183936929 H
   0.2427257159865306    0.2721079498257017    0.3207309549801345 H
   0.3107419500504708    0.1379386546409248    1.0484534319815926 H
   0.1337077809857734    0.0796281810872783    0.3433437669638255 H
   0.1187077340482985    0.2402387419247684    0.3001611093699906 H
   0.3635141320886571    0.3063154320877606    1.0217812480270618 H
   0.5551203439994250    0.0702898779194537    0.2108925537778761 H
   0.4446489937960962   -0.0358707369309765    0.2957284109329122 H
   0.8725596113480049    0.0996557384773906    0.1977730059070160 H
   0.6056408972109049    0.2193967206712737    0.0710426888064703 H
   0.1681117612576405    0.5836323575142005    0.2429846116869304 H
   0.1650156241858204    0.4095428869254171    0.2043999195824217 H
   0.0624590323837543    0.5863007778390680    0.1689722708554528 H
   0.5379552126381559    0.5881896176476653    0.2736947714314294 H
   0.4361391136191001    0.5016175594931076    0.2700028235321051 H
   0.6256426798703556    0.4363649105410308    0.9992968131285992 H
   0.6891252846505593    0.3673293650426151    0.2038369786857022 H
   0.7101252029279255    0.4821158997065597    0.2602896952158374 H
   0.8177152289981791    0.4717905846905290    1.0450329942395327 H
   0.0874581277122214    0.7839984879615107    0.2312646691647949 H
   0.1660705223167191    0.8414524507601662    0.0396183393004712 H
   0.4300535087693392    0.6031116701565046    0.1159444188634198 H
   0.6364010190194369   -0.0316652691239707    0.2487505135320981 H
   0.3917051973030720    0.7861327570337201    0.0677248051727250 H
   0.7593412503864785   -0.1107017456561177    0.1349670992567606 H
   0.8911379081299118    0.7993463820448086    0.2103701918448782 H
   0.2443961556543269    0.0811153952163991    0.4117790825812758 H
   0.1252037244951743    0.0585081831614820    0.6093528923463132 H
   0.2522080043567262    0.2499733759783116    0.4831099654900308 H
   0.1540877346732822    0.1959695942299879    0.6398535170781408 H
   0.1360873834781151    0.3164604126575586    0.5129240679356232 H
   0.2442229194134036    0.1123352122358211    0.5818750315120739 H
  -0.0103702204758795    0.0883739345418773    0.4788982379554000 H
  -0.0133557812237060    0.1926159653011277    0.4042808278848665 H
  -0.0096249360521628    0.2152340784020174    0.5298986911399683 H
   0.5093043710685758    0.0271030483605256    0.6089493161071186 H
   0.4913977885961552    0.1739852990877916    0.3703206620459383 H
   0.5206046079227751    0.1597236163710505    0.5849973983206150 H
   0.6996049714631769    0.1588686629083413    0.5369977226132913 H
   0.6642640411393377    0.2683618832418275    0.6744009711920214 H
   0.7811402668985714    0.0709540630776422    0.5943940107198544 H
   0.9180831467606657    0.2239650375799393    0.6956023730375414 H
   0.1409755941741243    0.5608735430556501    0.5122168872678569 H
   0.1164210156681114    0.4292558712746054    0.3746257211971288 H
   0.3781595976138593    0.5906138545427463    0.5092879714463665 H
   0.6090282186025746    0.4129650367146766    0.4506281281894472 H
   0.3538136397724476    0.4962545563330384    0.6002078695221477 H
   0.7937378589034126    0.5831724891033845    0.4057187987992915 H
   0.9014325638937134    0.3986044659380411    0.3690907505455040 H
   0.8442881940048212    0.6271160848466542    0.5070724338071018 H
   0.1408016207577077    0.7411908590732013    0.5739171278266000 H
   0.9831005509179002    0.7438156752141782    0.4045014298876439 H
   0.2155357350920042    0.7855113974132811    0.3471382689714643 H
   0.1477030577258933   -0.0031901797512244    0.4471512487978473 H
   0.2532127745540811    0.7838038264262853    0.6306147937377454 H
   0.4231206681251395    0.7426889742482946    0.5478224194157945 H
   0.6518927620109366   -0.0722124882652448    0.6698236640842261 H
   0.6758708692811963    0.0201092487229536    0.5279821835733647 H
   0.6392612599334041    0.7508546363279225    0.4086308927958209 H
   0.7603968856928703    0.8699882745319029    0.4826599816723254 H
   0.8547656692909590    0.9196004920455453    0.4038388860799714 H
   0.1906309982266783    0.3467902371379309    0.9727876828282953 H
   0.0583721314489519    0.2516420146582622    1.0085997250116088 H
   0.1846333384132669    0.1316892407140541    0.8094573538488968 H
   0.2986065670799228    0.1062345197218625    0.8753841517090126 H
   0.2091422120386958    0.2992562261743529    0.8499418792549163 H
   0.1939431277180325    0.0251657767619641    0.8917308338947497 H
   0.0560397081881807    0.1149545778538118    0.9969373308380238 H
   0.0481607765158920    0.1854695510199392    0.8849482445585211 H
   0.3966531192140377    0.2754397766626168    0.8932507005359585 H
   0.5043010577910442    0.1069929210630999    0.7149555875353780 H
   0.6262220998080820    0.1913039465537097    0.7817640556072629 H
   0.6166705169415170   -0.0069697281191574    0.7875144636662824 H
   0.7855419417690090    0.2664573147811838    0.7936086862179247 H
   0.6713556693847921    0.0389049879181607   -0.0566843952029457 H
   0.8042145970140571    0.1241215788706382    0.7887834785317575 H
   0.2947975813060909    0.4638290057644314    0.9488210090549840 H
   0.0870313031016062    0.5854587499022977    0.7789072965612631 H
   0.9951548445841862    0.4215332588491502    0.7771756815093617 H
   0.8947707089608473    0.6525030636245875    0.9330099691903718 H
   0.8447445056351681    0.6188414123073002    0.8126070192330327 H
   0.1315272158766201    0.7203317076046067   -0.0082102407398155 H
   0.5736939228581749   -0.0454784516635529   -0.0231875673497841 H
   0.7234946176742417    0.6964288283712305    1.0319045927765877 H
   0.7438907892226031   -0.0060353527500763    0.7382884916752921 H
   0.7318637710495687    0.8504177824264992    0.9664182611226865 H
   0.6282242684478588    0.6413427284870548    0.9803191384950223 H
   0.9118886610905458    0.8761310139374701    0.6723004564699239 H
  -0.0181061401024699    0.8501257901236614   -0.0503282538854640 H
   0.2338316936599809    0.1535396087200155    1.0545616727207023 C
   0.1733081113098452    0.2882695291262410    0.3486773183955231 C
   0.5899840269089081   -0.0061054309027574    0.1831254756022029 C
   0.6636573457083595    0.0069329987266284    0.0982202653091698 C
   0.7334582816415560    0.0955717394683654    0.1273323516823787 C
   0.1860531384133444    0.5139800464075772    0.1019291825933231 C
   0.1426276044545883    0.5986999389867741    0.1631687412439251 C
   0.4982772945934154    0.3168839961582087    0.3043473828273778 C
   0.5129915017333668    0.5102849811459319    0.2477146432581869 C
   0.5319380176741724    0.5024577186791396    0.1381425876178101 C
   0.6781730683467425    0.4063901487009093    0.2765928472404913 C
   0.2860672119390516    0.7051792537026750    0.1249610646023570 C
   0.1212635214835366    0.7665638222205984    0.0584211554903751 C
   0.1727227939681725    0.7148819632644412    0.1435919735459494 C
   0.0106613963476981    0.7838972639631935    0.0777500226099788 C
   0.5045053143767251   -0.0861666057563300    0.1645882671748403 C
   0.1643086728877549    0.0720324879827899    0.4192876664684507 C
   0.0194131438040428    0.1638060580877940    0.4776777702865227 C
   0.1763998253287055    0.2630110269615564    0.4595333662279851 C
   0.1651564247050389    0.1288985729450653    0.5903988272916288 C
   0.5300580727311829    0.1005737622775128    0.6404326895603489 C
   0.6755325057297760    0.1948491224332316    0.7161995172232799 C
   0.7068182336650244    0.0858394413532449    0.5732294988413540 C
   0.2501033683233818    0.6165521926530515    0.6004963490642411 C
   0.3546002060237885    0.5810590877477512    0.5874328739432508 C
   0.4355172323729603    0.6344999862008175    0.6388412563831222 C
   0.5675262703760107    0.4173604941800623    0.3077560157799913 C
   0.7563999201682494    0.3624565974928572    0.3524430462288867 C
   0.2189385371690331    0.7296287425269635    0.5790167968673932 C
   0.2596099834848560    0.7595365407989676    0.4775070435191558 C
   0.6919154938926638    0.6612028769568734    0.5027216163408201 C
   0.8334377079190786    0.7469084576858367    0.3872760286874993 C
   0.9125823432297321    0.8364449774280325    0.5341365367712489 C
   0.7688294361606203    0.7926227726181291    0.2975338059188528 C
   0.8387660123845823    0.8463758303090827    0.4509298881196677 C
   0.7921411367849454    0.6519144071420664    0.4479989064600243 C
   0.2315604559651528    0.2931913513828757    0.9270677333028504 C
   0.2191375745522215    0.1081056063984474    0.8805339911049525 C
   0.3399739070614120    0.3139126824845307    0.9416090205026469 C
   0.0783400040357113    0.1850763347187842    0.9588978724460653 C
   0.5405661408002922    0.1243738602202901   -0.0196003869567955 C
   0.6104605505860380    0.0274806917388625   -0.0004825304485441 C
   0.6641284008485723   -0.0058990896754187    0.7187500895430170 C
   0.7853591222466729    0.1925124053643879    0.7493813047580941 C
   0.2100489378954431    0.5793249649273507    0.7022307623116280 C
   0.6955247051078141    0.4898167879046838    0.8787868822669030 C
   0.8588636278581608    0.5899256870834181    0.8864946719759839 C
   0.7578307778007262    0.5670243803810827    0.9421845039881531 C
   0.9241088192428222    0.4949353740411241    0.8877983634104575 C
   0.6981003962813711    0.7481293748347693    0.8726203553799021 C
   0.7020147981507436    0.6695429557720630    0.9587569527720504 C
   0.1282770091267023    0.1595577647430386    0.4850206444418454 N
   0.6478124956555739    0.0951318043987564    0.6619483939248761 N
   0.1926471732008278    0.1852468582236415    0.9562890139784374 N
   0.9761283451023588    1.1588652141600000    1.2185220823367962 Cl
   0.4194628033274321    0.0405853062902248    0.4080686896984418 Cl
  -0.0072342759274218    0.4515721032666679    0.4619003002918984 Cl
   1.0462705932889489    1.2909874486403483    0.7324856998631049 Cl
   0.4468325076072227    0.3340679378417508    0.6900873229681072 Cl
  -0.0040282997071015    0.9052671738838413    0.8269793503838794 Cl
   0.7215860703221127    0.1896968209188902    0.1053488825360425 O
   0.8042433468582953    0.0563575625203137    0.1863828596900359 O
   0.2329146473463275    0.5367796619239109    0.0261210381673301 O
   0.1723460972911011    0.4163077645975642    0.1331270277018216 O
   0.1587444722643983    0.3927903152039340    0.3263802845295202 O
   0.4260465176580094    0.3202461901946188    0.2443429002725930 O
   0.4901451799979560    0.5738053760283465    0.0823479880993051 O
   0.5843696983520077    0.4306192806673230    0.1050390068130777 O
   0.7668855043848133    0.5305900713800457    1.0419578465887767 O
   0.1608188841025177    0.7725562829209718    0.2293286836956048 O
   0.3218762487011304    0.7683056536377938    0.0539677986717657 O
   0.3401176562826036    0.6498073906847885    0.1759164382472274 O
   0.4370812976170748   -0.0861611552333437    0.2370741011710457 O
   0.4984674416401547   -0.1331602362981227    0.0861314231168381 O
  -0.0157722424907122    0.7847771341024116    0.1672930395567194 O
   0.7202938016823744   -0.0861977516019660    0.0766632441815806 O
   0.8152906588007467    0.8162476751792037    0.2148405180483166 O
  -0.0537935429081558    0.8106850271486076    0.0097610755934659 O
   0.5304378655453262    0.2417158336540574    0.3606717222722847 O
   0.8529065126968804    0.1988793948585347    0.6737221957988603 O
   0.2109232280304856    0.5520439294116760    0.5218905433194136 O
   0.5632034732833552    0.4540299776750356    0.4087496784896241 O
   0.7417198073948625    0.3210450811351831    0.4337917685814915 O
   0.8466972835168947    0.3875983027364067    0.3183316315251780 O
   0.6822680782119712    0.6069102174902755    0.5755550423622714 O
   0.9925570381458306    0.7911207642123312    0.5328469373041769 O
   0.1904511274063155    0.7912928450094704    0.4195318780501207 O
   0.4656725754067970    0.7247676546693193    0.6065964740106067 O
   0.3488082181730052    0.7620780418028682    0.4572410236773854 O
   0.6215484071806202    0.7254871237035116    0.4768191194141738 O
   0.6791026466437819    0.8061003586709830    0.3116670900834122 O
   0.9307316038745439    0.7216997888741696    0.3530473038886682 O
   0.5413850690557886    0.2070100178618220    0.0344847314900199 O
   0.4819800767991719    0.1186694985920500   -0.0885979056716250 O
   0.1181570639548105    0.6193490895911676    0.7181591122713625 O
   0.2544305884689970    0.5235180100188517    0.7630977322953317 O
   0.3477157240919486    0.4236550695831052    0.9154289487081581 O
   0.4785000924479955    0.5939800196744750    0.7110009830708741 O
   0.6373969431108724    0.4225540639398713    0.9260200582394930 O
   0.6973595349106141    0.5027736932831173    0.7865073675666466 O
   0.9751221005540173    0.4935980492941268    0.8024253883356156 O
   0.9341189252662138    0.4301832388284184    0.9543781136868207 O
   0.8874992098950300    0.8984571347355219    0.6071785976901763 O
   0.7146146016820646    0.8466950752268519    0.8937627332781908 O
   0.6844420087416848    0.7196838740153771    0.7865317149448795 O
