Li1 Co1 H110 Cl3 O55
1.0
  12.6099776900999991    0.0000000000000000    0.0000000000000000
   0.0000000000000000   12.5287203270000003    0.0000000000000000
   0.0000000000000000    0.0000000000000000   12.6545724660999994
Li Co H Cl O
1 1 110 3 55
direct
   0.5586269475028816    0.3813527669863837    0.3259999296026316 Li
   0.7169896384668626    0.5046662387278301    0.6948112831669424 Co
   0.1537507355482581    0.1769551961920811    0.1282390011552980 H
   0.0978722068690839    0.2721460831200818    0.0712962635060918 H
   0.2484479689095434    1.0529456975003637    0.0574550214989661 H
   0.2599999322499991    1.0167408826301274    0.2640326049774266 H
   0.1159639914548020    0.3019336424445354    0.2515383069342839 H
   0.3388811185966589    1.1208616520265631    0.1097682072484979 H
   0.4675879283854024    0.3004235121593836    0.1824976497061968 H
   0.5150392415205373    0.1667849635845734    0.0571100868904131 H
   0.5201011061462069    0.1251031328492676    0.1820653948817328 H
  -0.0340221581229933    1.1492843472983687    0.1086397613813417 H
  -0.1291355698573870    1.1056406242581458    0.1725715933074924 H
   0.7376605711525438    0.2877973224232224    0.2787142546734324 H
   0.7146089839773967    0.1212447978606714    0.2539967068591601 H
   0.2588643235794745    0.5942460178838342    0.0059110438776485 H
   0.1493661124062673    0.6265956904299250    0.0558809659507948 H
   0.2662053357743395    0.5242747856175368    0.1841839966813448 H
   0.3268533415674358    0.5766089412923967    0.2841439126238740 H
   0.1863027360424592    0.3860914791972433    0.3077527702759472 H
   0.3935299067972140    0.4036551245063162    0.2182957773168732 H
   0.5004492077773023    0.4277094566435364    1.0892876681552737 H
   0.6597484586853400    0.4700513707540117    1.0545176274305710 H
   0.7259333497700587    0.4103964354938386    1.1381316730914983 H
   0.8065155700540616    0.5572518167281778    0.1252740649553188 H
   0.8281460603454236    0.5765163540233282    0.3000132753019077 H
   0.8988995558651232    0.6606646127826843    0.1249247840916752 H
   0.1394057458547382    0.9103134131681061    0.0296134724506811 H
   0.1065730152841645    0.9524166756108962    0.1843428325492009 H
   1.0316595052593496    0.7860325640981163    0.0938062298256248 H
   0.3339627911004340    0.8572992199652602    0.0096287514593175 H
   0.5631305240670642    0.9779579912160011    0.2382845995925859 H
   0.4375283985975273    0.7368104580965158    0.2780899743967843 H
   0.4574023433545234    0.8435627811663898    1.1451726063382506 H
   0.5778680600538171    0.8084953530066934    1.2105165760547434 H
   0.7296034593560841    0.7272125105917850    0.1981165100453729 H
  -0.0099690624352725    0.9767767053692650    0.1180142384976405 H
   0.9774643261087527   -0.1171482640040258    0.2782053477137344 H
   0.7599968517489107    0.8131805880880048    0.2898382970207424 H
   0.1851734715544515    1.0479571592962416    0.3582301768980345 H
   0.1503375653541673    0.2246919150580222    0.4074692959334035 H
   0.1067149663679800    0.1293437894058276    0.4850902509385094 H
   0.2931197370794625    0.1546999304727955    0.5377091759779591 H
   0.3711706285392233    0.2247158600414020    0.6131206529406498 H
   0.4555276374207802    1.0945461152921783    0.4910588445201839 H
   0.5488465971302695    1.0239483226274431    0.4999971156710274 H
   0.5668101499268647    1.0518123016203873    0.3354328836056039 H
   0.4629003705282297    0.2600650408388672    0.4921825490181504 H
   0.5710544080306692    0.3146173001408079    0.5184655388932327 H
   0.3660683197500085    1.0369743935860465    0.6598144469493308 H
   0.7998121482021449    0.0991028717293835    0.3380746164724829 H
  -0.0933424851198659    1.0377246697319464    0.4928487113893079 H
   1.0650695564389610    0.4301925514200203    0.3910752217317061 H
   1.0636738362852436    0.5526463982581323    0.4152238052432105 H
   0.0580378778682991    0.5102510070181089    0.5790515446278290 H
   0.4926387260761868    0.5926887957980356    1.3834896263781569 H
   0.5841654542246525    0.5321079878471774    1.4348781661128711 H
   0.7335844338854370    0.3976720713258204    0.3355877683324684 H
   0.8973214404640449    0.5155651969961961    0.3850600046863325 H
   0.7525273698580784    0.5646731652436860    0.4737133355677469 H
   0.6794669709706722    0.6597714649026182    0.5180538300019242 H
   0.0370844704560529    0.7297897889695627    0.5427231738961009 H
   0.2187524365935754    0.8586401390345282    0.4162384582498131 H
   0.1172812023498728    0.7455368082062226    0.4506726519902433 H
   0.2853163925836786    0.8010883714812129    0.5076354614356861 H
   0.3542792425879837    0.7346705747484756    0.3769846627280203 H
   0.4785760525046688   -0.2182048736939613    0.5616696851782708 H
   0.4053760816018908   -0.1625160258475933    0.6473430655239385 H
   0.6408967203363792    0.7945721433374606    0.4089889047587126 H
   0.7468834264864834   -0.0066954832026398   -0.4724292569279090 H
   0.6800141567127547    0.8235846833665217    0.5212969265277010 H
  -0.1371554095815601    0.9479150187354964    0.4097261876677160 H
   0.9756086527225600   -0.1774824386260721    0.3886887325728742 H
   0.6902996626182747   -0.0157942576205133   -0.3472428862114097 H
   0.1117213193966268    0.0116144953117366    0.7338675216391631 H
   1.0971156083774396    0.2560143478171200    0.7064742611454853 H
   0.5323334830615999    0.3236972378384227   -0.2123035190716312 H
   0.5396150185453690    1.0247464887401025    0.8917780322749960 H
   0.5328053316362942    0.2033274027204646    0.8941645214338277 H
   0.6399688836432830    0.1511808160820797    0.9358727657395054 H
   0.8263617590125463    1.1221786261124511   -0.0006032022749444 H
  -0.1099317293787383    0.0325109151508638    0.7289720579507647 H
   0.8339509873483849    1.2118765338531290   -0.0784372818251287 H
  -0.1713045580243901    0.0627238171967537    0.8422544310882432 H
   0.1238347428898280    0.3366442903518729    0.9062075991757476 H
   1.1037452791075975    0.3897231350098442    0.7172221548704100 H
   0.0802519536489342    0.5636978062540162    0.6905005883452775 H
   0.1281916102333073    0.4341594369999381    0.9833180667647591 H
   0.2585042912216405    0.3350535452893424    0.6814240272597336 H
   0.3674949677934958    0.6048911593283745    0.8669411600027820 H
   0.5314016812544305    0.5908282705894262    0.7246479292497290 H
   0.4750827870063021    0.5096284374502345    0.9889919052284719 H
   0.5022152695854436    0.3616596144887351   -0.0973577155767551 H
   0.3613886921209820    0.5532138943642333    0.6750792850556735 H
   0.3570064480474350    0.3624058998040718    0.7359750602439992 H
   0.8711041062129660    0.4213576507189919    0.8121222396592966 H
   0.9232294958174250    0.4891937886339252    0.7215423324304543 H
   0.9407949511610850    0.3499449304532313    0.9589632336935012 H
   0.8221904590076862    0.3857315062804338    0.9663676719114663 H
   0.1771409434652446    0.9400610641869267   -0.0845220389519517 H
   0.1460615863377784   -0.1065007280611477    0.7570662508563246 H
   0.2858524760063564    0.9637905427162945    0.7305398706961695 H
   0.6083169640436666    0.6671385381224656    0.7926281002357127 H
   0.3995997034202556    0.6826963919904251    0.9599352143773963 H
   0.4746886546674399    0.9630083399258881    0.8051026425738981 H
   0.4486251668423957    0.8735498820190083   -0.0306064284619301 H
   0.6016753979712895    0.8291319378495055    0.9000122101011643 H
   0.3900747063939487    0.6722851132168942    0.6944177495241947 H
   0.9055133661389887    0.7790965005791050    0.7982624272895110 H
   0.8703586647672306    0.8897606357671233    0.8335145072151701 H
   0.7080935085325429    0.7768193326596873    0.9022959695942184 H
   0.9682652614592512    0.7485003989825273   -0.0048483081561513 H
   0.0047729144792422    0.0816063521903852   -0.3615444361440386 Cl
   0.6646826466378571    0.3323214226857089    0.6824205050177756 Cl
   0.0811888308021171    0.7345269048481970    0.7105715943536124 Cl
   0.1011021887929994    0.2330982005565523    0.1384179305774547 O
   0.2635978767598946    1.0919680387482882    0.1214138002066785 O
   0.1354786968767787    0.3316310089982584    0.3236703368740765 O
   0.4813881114052836    0.1777988577731623    0.1317831746246228 O
   0.5809299211410348    1.0518841365705265    0.2597369244915292 O
  -0.0806921851811723    1.0883842729024469    0.1164582791752101 O
   0.7859049071022909    0.1385043418808210    0.2707922169855881 O
   0.2951800103518250    0.5094855657160684    0.2554523072004078 O
   0.1917547678929180    0.5642525317023146    0.0384498752844832 O
   0.5242240317593756    0.4554289675700892    1.0183014691029997 O
   0.4650320158539073    0.3734804546172228    0.2121470117059888 O
   0.6974067330828292    0.3579664998854595    0.2772515422783999 O
   0.7343068776695489    0.4592290364324612    1.0767704534943807 O
   0.8348550333570428    0.6282447016186795    0.1570665258288698 O
   0.0450457057942261    0.9230122360205192    0.1468117344996773 O
   0.2085620934258088    0.9847264398513539    0.3130449285198866 O
   0.4057020139786964    0.8391569042245092    0.0274509813769361 O
   0.5001946474538117    0.8307921233638373    1.2126185830621912 O
   0.9939116192838094    0.7197217216244755    0.0620350260906078 O
   0.6965518544886772    0.7842941583047438    0.2538520950988732 O
   0.1715152396183858    0.1572253280532503    0.4448423483432693 O
   0.3661492080770989    0.1625131785496197    0.5646354116064483 O
   0.4982493624895680    1.0408694442158251    0.4492146809644006 O
   0.5098838002027435    0.3134727299352542    0.4709506977865296 O
  -0.1529207031360504    1.0173155622312424    0.4479100142090260 O
   0.0645359068112314    0.4972943765113068    0.6566898846532973 O
   0.3325377291025760    0.3538727058936288    0.6640042368566575 O
   1.0299703666642255    0.4858718212730362    0.4351098978531456 O
   0.5349290467338256    0.5273461288190506    1.3750499892204335 O
   0.8226186913275767    0.5218778927812202    0.3562380116101488 O
   0.6966089521313292    0.5785947785806936    0.5325845461120569 O
   0.0444224691642224    0.7193601523754406    0.4586286694906139 O
   0.2392885554007726    0.7893489442962166    0.4469973006400025 O
   0.4064514205385050    0.6902893462201554    0.3358279977047482 O
   0.4103277160563293   -0.2262344247873161    0.6036663627763238 O
   0.6314510255915334    0.7728348874252909    0.4843829967010410 O
   0.6857096465672993   -0.0312092397543068   -0.4236563725295304 O
   0.9331422810000773   -0.1355771213792216    0.3409225988991155 O
   1.1385351899846341    0.3186097270363308    0.7369549432098772 O
   0.5611622414411968    0.1444395050945573    0.9416572361509787 O
   0.4848956513143134    0.3096271656044606   -0.1553683676131286 O
  -0.1582561606327612    0.0019913576844902    0.7855847963043655 O
   0.7919509130408942    1.1484382912189497   -0.0651843647116289 O
   0.0891414221916110    0.3677599980877919    0.9709905068714553 O
   0.6081044339293507    0.6110466163892047    0.7370560924192581 O
   0.4020699694877726    0.5957290105211557    0.7211250919417579 O
   0.3614870269499939    0.6135967571191518    0.9449524877378426 O
   0.8560208122790420    0.4837463049150240    0.7649385041676766 O
   0.8725553379637062    0.3410892774332738    0.9230868734911943 O
   0.1684977878087864   -0.0308295521345147    0.7801891181664502 O
   0.2011742928848816    0.9086292826703944   -0.0192849871106875 O
   0.5198053086363565    0.9484657533532315    0.8674390037677040 O
   0.6315065371885563    0.7587081453973300    0.9009446793751449 O
   0.3633101864007873    0.9662888026489188    0.7027514961033473 O
   0.8722619195222997    0.8155958387449126    0.8617572630220082 O
