Li1 Co1 H90 C51 N3 Cl6 O45
1.0
  14.2653042731999999    0.0000000000000000    0.0000000000000000
   0.0000000000000000   13.9219411655999998    0.0000000000000000
   0.0000000000000000    0.0000000000000000   14.3888081634000002
Li Co H C N Cl O
1 1 90 51 3 6 45
direct
   0.6068813160588813    0.6371054134833171    0.3600182880244848 Li
   0.7238574399495550    0.6746095225575702    0.6029008089611042 Co
   0.0154687644282893    0.1210408852296982    0.9525329635405596 H
   0.1494259491754841    0.2521748972388144    0.1681469413049913 H
   0.0678321760803870    0.1635378325276723    0.3965383384715145 H
   0.2900987284985323    0.1396288103560753    0.1717136022415476 H
   0.3405596220213120    0.0967576336357794    0.0692770429892546 H
   0.4800618690037798    0.0578815894432255    0.1359920890930571 H
   0.8453921767344640    1.0670777807557092    0.2455188811736326 H
   0.6931220282399212    1.0084113929090113    0.2113541335157669 H
   0.7251648077871298    0.3222362477644229    0.2554988599438873 H
   0.1636079109567044    0.4367574902431320    0.3303813649967172 H
   0.3353028116116749    0.5636566043095906    0.3345505775762965 H
   0.3713048477522466    0.5841171131288523    0.1564023966504973 H
   0.3269300494390243    0.3349909346207904    0.1456217956279212 H
   0.6505754418947390    0.4006490198782284    0.1016508153483080 H
   0.7310006454535160    0.6099791675447733    0.1771052927220236 H
   0.7353181138243595    0.4283312227704706    0.0204654950122302 H
   0.8832841129769670    0.4031207297921466    0.2193985801916511 H
   0.8730256567115141    0.5322782932821447    0.2408548395631048 H
   0.8496773990353191    0.6065780613745363    0.0632960055730421 H
   0.1020081032574831    0.6709965206491664    0.1938002126397854 H
   0.1814448946709621    0.7406118126886678    0.1135552064594287 H
   0.3247485327041541    0.8200906717671755    0.2568443501179273 H
   0.2819425757960215    0.7416454329165392    0.3352601568468000 H
   0.5663418372700231    0.9233801471998946    0.0825053797520004 H
   0.4100288728007557    0.7042016602558655    0.1539400662338530 H
   0.6509890327924168    0.8852827300587741    0.2094415359129994 H
   0.8559247245948186    0.9674688265513525    0.1016118962110424 H
   0.9569768979233748    0.8356445372392588    0.1677181358104755 H
   0.2255610234227555    0.1424926351291978    0.5814400321897893 H
   0.2039848975928817    0.1072841829335248    0.4648290536468992 H
   0.0050680048539744    0.2703612978986313    0.4388225911414196 H
   0.0588172965140536    0.2744850044505492    0.6733312427045850 H
   0.2021517786141910    0.3479977414910445    0.5323383976432172 H
   0.3570275497641041    0.0938514297150234    0.4368592596632880 H
   0.6610063445344779    0.2629384824470515    0.4620546751475359 H
   0.4661822491787773    0.3575775837280988    0.4631003489677117 H
   0.6848228712270268    0.1116542631742265    0.4898802598278861 H
   0.7443196743617847    0.2601615708411093    0.5556442890132194 H
  -0.0743898166051492   -0.0553483101267503    0.6115026332813996 H
   0.4800604670007369    0.4913051277433133    0.6412688234436567 H
   0.6312705609944858    0.5220205283410840    0.5903667618077932 H
   0.5854818426124223    0.3816036872736660    0.4221262812544698 H
   0.5170927230173481    0.4769007068644554    0.4625053031583042 H
   0.7102650204479060    0.4164418606455255    0.5642459048381366 H
   0.2278946574877885    0.9153281091495551    0.3597521089249718 H
  -0.0160335429458521   -0.1359627867037048    0.7007435200468661 H
   0.4826069251276936    0.7950309479937370    0.7062992268915330 H
   0.5554717571770721    0.9133384440827004    0.6687401744764302 H
   0.8865367600366706    0.8902942438390792    0.3357695805542231 H
   0.7771342565841514    0.8521300256686383    0.3699947918717694 H
  -0.1340625711218005   -0.1572694418943580    0.6604615179923582 H
   0.2344931848095534    0.1281526808350873   -0.1022201353716882 H
   0.3035972137963019    0.3202070767124863   -0.0754660084399524 H
  -0.0618727334374626    0.1955405536066044    0.8218140062342615 H
   0.0143036998995766    0.0175976956004785    0.7723547326156021 H
   0.4009614181203107    0.2956106504004632   -0.0101798506614733 H
   0.4647390973464903    0.9734873838059284    0.5982478871040808 H
   0.6115030190900504    0.2843801762776212    0.6684350762396515 H
   0.5811910823995475    1.0821209415842785    0.6234681830367949 H
   0.5297343461153422    0.2366511999735210    0.5900783432012713 H
  -0.1604076103023560    0.1223158511118884    0.8534629096617427 H
  -0.2630685821227268    0.0214067908530165    0.7716243038072778 H
  -0.0565388128604617    0.0861621284368000    0.6987120800785197 H
  -0.2130591335797852    0.0479799530004128    0.6578845151176991 H
   0.7260747077620210    0.2676598068096637   -0.0264209456393342 H
   0.2129703350953127    0.5778320700476327    0.8367353254680615 H
   0.1139510661790712    0.5148160732434118    0.7006031331588723 H
   0.0295168349189054    0.6225075928502170    0.6780724276050500 H
   0.0323986521737418    0.4121994206511704    0.9885088410504647 H
   0.4965922559821364    0.3753351648771172    0.7092904405842334 H
   0.6516900343139047    0.4338655084770056    0.6816731427867136 H
   0.4172435804599084    0.3773399140473667    0.6139621837596678 H
  -0.1729975976282774    0.3324668613193726    0.7781411743454865 H
  -0.0531613875299334    0.6270249226716788    0.8931882290564335 H
  -0.1255629276737606    0.4997641492690607    0.8212274392369011 H
  -0.0859514346990480    0.5380303647100768    0.7100903678519606 H
   0.2635384818508800    0.8162485351452964    0.6723742489186072 H
   0.3475359891631589    0.8809140863993482    0.6084801452819680 H
   0.2664623591970058    0.9433823865922055    0.6710127740989047 H
  -0.0625765389650364   -0.1290312820484169    0.8487523040834148 H
   0.3939345788689167    0.7255585957911685    0.7587636138947733 H
   0.2669222161951018    0.8177375516375670    0.8449097342630292 H
   0.3556325567363433    0.8902231330659316    0.9020541475224599 H
   0.3981973691210842    1.0327427699756662    0.7590506425321072 H
   0.2635602128980462    0.9484334063575925    0.8416168972565203 H
   0.4810795830126759    0.9545388767793487    0.8141420713007766 H
   0.4654557312019073    0.7961320875415667    0.8281613005315271 H
  -0.2522451186309548   -0.0667755958843642    0.6783691860267004 H
  -0.1547505280239493   -0.0494511439899717    0.8870327505071196 H
  -0.1774594723125474   -0.1558702117318191    0.8171173003478142 H
   0.2855569396408127    0.2412331759523896    0.0564580521523919 C
   0.1783773120129314    0.2057489001517807    0.0408424433091570 C
   0.3361398074283313    0.1644084007807510    0.1124084818792810 C
   0.4316933248223370    0.1927478396066294    0.1488228946680183 C
   0.7489743244644639    0.2971607215969515    0.1053001794515536 C
   0.2052635243680755    0.6043247836435894    0.2416582417538022 C
   0.4252216787759614    0.6447006186879816    0.2808810872870101 C
   0.3711373083886111    0.6509088046709508    0.1905059856640885 C
   0.7035949909709492    0.4655027920110233    0.2618927182089530 C
   0.7235756373379169    0.4021282676178242    0.0900438776434316 C
   0.7533044108626941    0.4770397176515992    0.1657561943015320 C
   0.9214508418158932    0.4931881984795105    0.1098627533113532 C
   0.8535118773578576    0.4739315375863852    0.1897838966708925 C
   0.2689256785435140    0.6829165537843479    0.1974996156338011 C
   0.1732957519836661    0.8250425674245389    0.2661800781695172 C
   0.2657893977363774    0.7707649353751267    0.2636920333228938 C
   0.7041389681516239    0.9343268965207845    0.1793646876372115 C
   0.7010475514418626    0.9346242688448558    0.0737068747915947 C
   0.8035816419868441    0.9010003657962881    0.2121248714305449 C
   0.8298713020472021    0.7936266897967330    0.1954375963433174 C
   0.2178044415874927    0.1692195114730948    0.5115534308409820 C
   0.1245705382280902    0.2340660719678857    0.5099951502839424 C
   0.0743206461632784    0.2398159885239043    0.4179772232281174 C
   0.0647723044390927    0.1721537287287270    0.5724823062588917 C
   0.3063409337514053    0.2220720548970052    0.4806044394483013 C
   0.5922878663845478    0.2829723266274281    0.5953310367629416 C
   0.6710818394028225    0.2422919363525858    0.5370279451883460 C
   0.7970686368507007    1.0116501653950936    0.3624993830251679 C
   0.1264842723817520    0.3013907351632717    0.3502871137388924 C
   0.6471363284303198    0.4452804396356485    0.6047710125036359 C
   0.5318997398152182    0.3998234884481431    0.4749090407002347 C
   0.8141478379202300    0.9105945738460993    0.3242071218633646 C
  -0.0805999890840099   -0.1026951558115124    0.6740130225913273 C
  -0.0826546245434907    0.1208957905208517    0.8405313313206472 C
   0.3627533301916167    0.1923944406128054   -0.1058152906765996 C
   0.3357717816295502    0.2643492052597962   -0.0328926421789312 C
  -0.0562156511590559    0.0480295150544247    0.7647585510028664 C
   0.5033101638630108    0.9726821800008943    0.6682599401219563 C
  -0.2203635694336884   -0.0039632344759749    0.7114101435960215 C
   0.0773307466965471    0.4901162849086017    0.8778158648211087 C
   0.0828749677299943    0.5842693907440772    0.7246801794344089 C
   0.1572372091294230    0.6589658707557554    0.7454011451053799 C
   0.0248348457568882    0.5558380107165535    0.8107359518054410 C
   0.4830944716858883    0.4104306299554558    0.6397641817975841 C
  -0.0418170799076959    0.3998668732026695    0.7479016996746959 C
  -0.0648561959129148    0.5027089253970694    0.7738823087532776 C
   0.3081607337011876    0.8792103010063592    0.6707771743215288 C
   0.4334009645286813    0.7949023739695612    0.7599360529049000 C
   0.4370679034875842    0.9653850654109390    0.7540794177310185 C
   0.3116496182736326    0.8831996872089986    0.8400226025978180 C
  -0.1309122702842342   -0.0963152983660961    0.8301864856385274 C
   0.5621763460290381    0.3844531462340315    0.5757230889193078 N
   0.3689761206978641    0.8803890159430772    0.7538396480460786 N
  -0.1219058027361586   -0.0350214033661294    0.7454164347664486 N
   0.4462128188361536   -0.0700416634146848    1.1343680377376821 Cl
   0.8411230774686032    0.6380535571252838    0.5299246466496955 Cl
   0.3524864619079059    0.9481195133488505    0.4168416184014742 Cl
   0.5955089683757843    0.7068974050197303    0.5025227940763248 Cl
   0.7197215309727768    0.3157091407382466    0.8490831167501727 Cl
   0.7115219161759336    1.6400733066749715    0.7502292030800987 Cl
   0.1212723260694900    0.2168587014474633    0.1106939548858118 O
   0.1515114287019104    0.1648946835425779   -0.0305283045900449 O
   0.5031989850217028    0.1291489499497903    0.1458782449431179 O
   0.4462625198440271    0.2777719024093676    0.1693284151148404 O
   0.7502073861407610    0.2385381494791626    0.0340642585635933 O
   0.7692690195130579    0.2711492627283568    0.1826491848285920 O
   0.1700900720259023    0.2717317964356561    0.2851531575865057 O
   0.2734226033038584    0.3317988510261687    0.1021192349646834 O
   0.2360171621172680    0.5318345333260787    0.2840418772206535 O
   0.1152570320136030    0.6112268383827252    0.2265847208939098 O
   0.1229659457454046    0.3984511941845237    0.3704534817038285 O
   0.3903223180286899    0.5996709786009354    0.3569075369816115 O
   0.5033904986373733    0.6863025758511901    0.2851781770318907 O
   0.6844134863384780    0.5372046896218641    0.3066879502170846 O
   0.9901707219688665    0.4430753592065015    0.1002163671462324 O
   0.7188712161272121    0.5621819536300771    0.1269204551871981 O
   0.6963648612783239    0.3764255300653790    0.2988860531645164 O
   0.9089008115766967    0.5706340795657011    0.0544446817834903 O
   0.2425336722610188    0.7106253334301909    0.1064079848944357 O
   0.1123051146066178    0.8113655953891671    0.2068026794094717 O
   0.1629167234565174    0.8893173685715982    0.3340279491615868 O
   0.6194762103954531    0.9300537855161930    0.0344207856603301 O
   0.8749071447951875    0.9674501509947682    0.1720951487836694 O
   0.7724578754343060    0.9495611226590228    0.0248591876156808 O
   0.7762005225575295    0.7303208627201383    0.2180391903257307 O
   0.9172595537189174    0.7773013801795949    0.1687105738107487 O
   0.0310506262479208    0.0945065107767460    0.5490254642350665 O
   0.1425771643105481    0.3242381237721210    0.5473687599598205 O
   0.3154013784166354    0.3098866768278049    0.4823478778008822 O
   0.3711288963703532    0.1648429666166525    0.4478233366186877 O
   0.6505768438977820    0.1364891619780169    0.5406032239338681 O
   0.8102474654546717    1.0834706096928055    0.3034076229332683 O
   0.0469416297385283    0.2061597623966330    0.6619328003779172 O
   0.7696125102585869    1.0255088649618420    0.4406219062553605 O
   0.2979303174965943    0.1212484712240379   -0.1344729804113805 O
   0.4381551568474118    0.2007416961153028   -0.1503360037700897 O
   0.5513100513443031    1.0619333832074014    0.6812387774154457 O
   0.1602935757631099    0.5018191069548963    0.8937011276868267 O
   0.2273219392447330    0.6441310142121637    0.8095982620250158 O
   0.0387756630147166    0.3829892699140858    0.7234931457478075 O
   0.0184347018657043    0.4291449024050313    0.9236890179345790 O
  -0.0004958442220744    0.6441575909657642    0.8563394508964282 O
  -0.1036951852109479    0.3279868826110793    0.7496148366989770 O
  -0.0413081528030957    0.0885569094234041    0.9259630075262414 O
   0.1552232317581884    0.7371309762576289    0.7063701153201239 O
