Li1 Co1 H90 C51 N3 Cl6 O45
1.0
  14.0614319999999999    0.0000000000000000    0.0000000000000000
   0.0000000000000000   14.0878689999999995    0.0000000000000000
   0.0000000000000000    0.0000000000000000   13.9661200000000001
Li Co H C N Cl O
1 1 90 51 3 6 45
direct
   0.7576571241108302    0.7017488429229433    0.7413860005499021 Li
   0.8018114812204049    0.1150639724148486    0.6973168453371444 Co
   0.8705398731793461    0.9506704548430994    0.0912592874756912 H
   0.8189644845560538    0.9764597136728062    0.2061015106557870 H
   0.8015194953117151    1.0567364624131586    0.1068224510458166 H
   0.7680920442526764    0.9016754790948157   -0.0406483626089422 H
   0.7033407031374899    1.0109394401665717   -0.0264027324697196 H
   0.6412980392039730    0.8997492360271097   -0.0252291631462425 H
   0.7968360157059395    0.7996823039737239    0.1006368561919846 H
   0.6708464194827383    0.7872278610767889    0.1047684016749104 H
   0.7357651233530127    0.8264246026137808    0.2097581411301063 H
   0.6409796249770293    1.0528052972383546    0.1318985229970815 H
   0.6554889914483816    0.9725751098338579    0.2297174412077227 H
   0.4969618058815062    0.9539746699802505    0.1975001575240654 H
   0.5387780014155031    0.8608681497535221    0.1214532210807296 H
   0.4330156380943279    0.9645961571618817    0.0460997070052384 H
   0.3437119043067591    0.6158067916446412    0.2677495123914158 H
   0.3685367542935883    0.7053848939112083    0.3569172039191987 H
   0.3904237825848747    0.7287869890045117    0.2322300596013782 H
   0.2199792531799037    0.6302979563481177    0.1610416794356629 H
   0.2558892828269553    0.7462205085808223    0.1199415857804458 H
   0.1375786925542150    0.7288063354365377    0.1644711480353885 H
   0.1845363985687944    0.6065630025378572    0.3324752565494210 H
   0.1092897302351567    0.7095345172502669    0.3358094739269030 H
   0.2092039174957430    0.7001456572317645    0.4158202385487164 H
   0.3050051986170398    0.8637077303884642    0.2384493810736267 H
   0.2792627969896665    0.8460486586012407    0.3617746281716038 H
   0.1777051121109144    0.9652270687639133    0.3094385405538546 H
   0.1013835155622841    0.8657437636593583    0.3254750066589718 H
   0.1759296578044114    0.9186405332133626    0.1423669143613258 H
   0.9421053524278323    0.1709543735819804    0.3179910418928092 H
   1.0292066490809755    0.1961891035471724    0.2274815883008308 H
   0.9088950243474491    0.1683447631433825    0.1941296215412727 H
   0.8167960375586214    0.2716342024475100    0.3472311787382609 H
   0.7820610119936575    0.2824093480710248    0.2244964843492681 H
   0.8067792896200046    0.3873057564632381    0.2940057009391298 H
   0.9806971210329076    0.3128205891181981    0.3940043576884632 H
   0.9655536534259099    0.4261810647160334    0.3387976259691310 H
   1.0633532587577139    0.3504661947097890    0.3039331260221164 H
   0.9022416642913751    0.3085573829512470    0.1032159569014157 H
   1.0223637052044201    0.3328931082479544    0.1372701953012003 H
   0.9603482092008837    0.4759522153421501    0.0732296027815886 H
   0.9637031768883851    0.4967815224573709    0.1990474441004373 H
   0.8158904249581409    0.5371798403292933    0.1552889829100709 H
   0.7476725578163020    0.7323205794999941    0.3948360840376568 H
   0.7474009617228174    0.7389006456547830    0.5220604734886998 H
   0.6765599044250969    0.8824305876211656    0.5530831555220777 H
   0.9413814083800285    0.8618011361406044    0.5334395522879655 H
   1.0102594678834986    0.7564579965926713    0.5488089376290624 H
   0.8996887258708786    0.6320354434016956    0.6228643689156329 H
   0.8896709773229355    0.6459684988552918    0.3178414326956950 H
   0.8990021883973126    0.8354721853248352    0.3551585221951408 H
   0.4559536247801789    0.2547880137159140    0.3444054698083648 H
   0.3785218816973975    0.1554750885318426    0.3506745466887009 H
   0.2609959611510407    0.2763888108272444    0.3404605538259731 H
   0.4065262115551247    0.1182939981909258    0.5779267434333946 H
   0.5047939221268503    0.0438958731089848    0.5578446132497787 H
   0.3457449632441418   -0.0236867257922401    0.6158411505844142 H
   0.6397892974200636    0.2238456334311457    0.4453057162619253 H
   0.4826580742274328    0.2672362434659210    0.5429064049284984 H
   0.5549359012652481    0.6493024963534230    0.1579965681234301 H
   0.5109487732117184    0.5621053283502282    0.2397869422574058 H
   0.6199795362236222    0.4754425470594595    0.3212995284302297 H
   0.6808869765184655    0.4216709674117498    0.1516262326258116 H
   0.6078750563953942    0.3670762135848935    0.0684587007701495 H
   0.5489989248605690    0.2386302307325544    0.1334570732601467 H
   0.4997925161534046    0.4536379256507851   -0.0485802885840878 H
   0.6048670967508857    0.5941899928229033    0.0038624499861092 H
   0.1981672599206112    0.4715765571073950    0.6965985005141012 H
   0.2550815948190768    0.4111325729959585    0.6017035590414517 H
   0.1927773928003919    0.6038145052314158    0.5995682902624351 H
   0.2470797298596615    0.2347090216412433    0.6576198034958884 H
   0.1551098558098493    0.2091149789936292    0.7391507555426989 H
   0.3183461812424225    0.1741767409961010    0.7979506190695769 H
  -0.0073505429603471    0.2514132896891645    0.6319752665736798 H
   0.1000660366597086    0.3321280301513310    0.5208288014137068 H
   0.4285558113853554    0.7878200187693398    0.7245593872886671 H
   0.4846777277022710    0.6902821867523045    0.7818589994930588 H
   0.6130737161051591    0.7632278387881092    0.8436135669749364 H
   0.6077616163133315    0.6564791232797523    0.5632499455825956 H
   0.5294718788242905    0.5591739105467265    0.5480606761219293 H
   0.4868981971395232    0.4944724812531974    0.7036659652072300 H
   0.3165790745921184    0.7263914180349066    0.5954203357840259 H
   0.4894621977334883    0.7936619427679233    0.5541108575610119 H
   0.7077999466910624    0.3135697393267925    0.9375248809261268 H
   0.7230369296669072    0.1916108909019526    0.9101791907845557 H
   0.8779515109129710    0.2685106058268998    0.7389505030745832 H
   0.5855429134102416    0.2184523017640213    0.7170540916159964 H
   0.4843772725281465    0.1780183738221870    0.7795762989291227 H
   0.4793572375843370    0.0248974844953484    0.7793910048030519 H
   0.4088855494945323    0.2495944205614064    0.9130985577955795 H
   0.5893142376964167    0.3772720487392380    0.8012254720709832 H
   0.8095130737751318    0.9822934490660015    0.1283272462215705 C
   0.7071948347792743    0.9360621162789065   -0.0061251378335572 C
   0.7311724509993008    0.8283098934267490    0.1315860625571025 C
   0.6389451785564941    0.9777665756261648    0.1531184867379057 C
   0.5398629456800702    0.9387714919836352    0.1327871692352636 C
   0.3443858577134961    0.6919948794242763    0.2835523681595175 C
   0.2119322918177893    0.7070832480057844    0.1715959099592442 C
   0.1821501778766202    0.6834988726825896    0.3442902817675918 C
   0.2513941261459004    0.8369604182151326    0.2889433113849802 C
   0.1591332945321643    0.8944539049873336    0.2805376009944064 C
   0.9542673975168390    0.2028684643504280    0.2475598627249372 C
   0.8256678345420296    0.3131172748696059    0.2815374527785813 C
   0.9891445295187574    0.3530424019416989    0.3274634494047022 C
   0.9475085041125256    0.3483411202929272    0.1534594253808502 C
   0.9288064537096934    0.4542073907700306    0.1425687170094486 C
   0.7812231897860759    0.7671713095855733    0.4571405086022460 C
   0.7672564401691094    0.8743476142488265    0.4450253499182307 C
   0.8877729117489598    0.7412954485877176    0.4562164681386097 C
   0.9370415033120382    0.7844352634170577    0.5446004208756619 C
   0.8869380814130453    0.7704657638426365    0.6397187271769109 C
   0.8974040510241063    0.6321163293043115    0.4531254242409488 C
   0.4167710408157576    0.2080643232840964    0.3942244596208538 C
   0.3493700165104094    0.2718241580752916    0.4501315483469997 C
   0.4898569761600383    0.1573162782816905    0.4581450374191257 C
   0.4456060549167397    0.0804722353678899    0.5211668136891277 C
   0.3789647967575422    0.0048675906909697    0.4811405823521493 C
   0.5726648644320151    0.1175472209459075    0.3959896313364055 C
   0.5689306928341296    0.5788588401837070    0.1896760460313960 C
   0.6632470846496999    0.5824850053617053    0.2429216124449740 C
   0.5641131920276683    0.5048692133636394    0.1081963329829616 C
   0.6054666686863757    0.4074772841797436    0.1353005122396199 C
   0.5628149928115429    0.3512628886597399    0.2168381182461557 C
   0.4570484243710028    0.4936013715062229    0.0779082579843220 C
   0.1846340330060267    0.4303670789386245    0.6311665315778470 C
   0.1331071814022925    0.4867492429124661    0.5541229088680321 C
   0.1357644072097351    0.3363361705024372    0.6559756632479170 C
   0.1999547734540835    0.2672395661827918    0.7115162858403049 C
   0.2617359711301097    0.3054274723877686    0.7920403519374027 C
   0.0428848342046528    0.3532741374866561    0.7130861334429318 C
   0.4867415665772874    0.7354718935844734    0.7174892862154986 C
   0.5791572700419133    0.7897714885054653    0.7069487624336608 C
   0.4699171087269063    0.6768548486644788    0.6256345420202604 C
   0.5541782472795089    0.6130097646421898    0.5997256073984757 C
   0.6016675712687015    0.5666168580925902    0.6852511377533631 C
   0.3818420812332627    0.6168029309471859    0.6416464558517325 C
   0.6946474107331315    0.2587619184988163    0.8824449546473895 C
   0.7459706642964956    0.2883025807522770    0.7933347150103249 C
   0.5874301742525228    0.2517042314916472    0.8666636252588406 C
   0.5622692560757682    0.1833489791820182    0.7839027811589760 C
   0.6062228804292479    0.0857561047735467    0.7827595352180847 C
   0.5405988629038636    0.2227149194814347    0.9622935818967615 C
   0.7207122404033957    0.9300597805104520    0.1005372215046126 N
   0.2453227039749579    0.7303869712303545    0.2715749427901235 N
   0.9284421252401605    0.3062247022597953    0.2522171225794995 N
  -0.1079094156270855    0.1131865734980926    0.5735242279172741 Cl
   0.3014930876172498   -0.0924595203149604    0.0500249403556607 Cl
   0.5681166590998697    0.7252536859904078    0.9587077513296463 Cl
   0.3489545922492104    1.0410065894281102    0.7465735243575166 Cl
   0.2270457247882008    0.2447302739683341    0.2042070166946868 Cl
   0.2018318475671610    0.2792659180746215    0.0610639440302675 Cl
   0.5012920476378224    0.9855324939492269    0.0525470796470315 O
   0.1223425544425347    0.9037952716624496    0.1865450962758447 O
   0.8292889401307064    0.4705000940880413    0.1407108903546583 O
   0.8094018695962119    0.9169106221813960    0.3798548251053263 O
   0.7070675788923916    0.9207111771127344    0.5011853571356969 O
   0.8485452520056278    0.8341205273842339    0.6854648606771243 O
   0.8829358012754319    0.6801483063194299    0.6747956583503506 O
   0.9031369230388484    0.5803746421832855    0.5235926857280332 O
   0.8966839415786386    0.5943473750359263    0.3651038735167677 O
   0.9324992205630266    0.7746523963276490    0.3698432778753154 O
   0.3681851322112855    0.3035652368715240    0.5303676690448026 O
   0.2672445580222555    0.2965272292069155    0.4090753459085272 O
   0.3609004509640270   -0.0087574231418535    0.3966931674652659 O
   0.3397377279924264   -0.0513340768571883    0.5493497807551416 O
   0.5677699639695303    0.0456495932777342    0.3484353041503295 O
   0.6516572963550227    0.1725968058050512    0.3979572121677316 O
   0.5353323921774112    0.2242276252000924    0.5221198980103278 O
   0.7304216142424186    0.6334655092264133    0.2179742383711439 O
   0.6695026616065846    0.5289308191324039    0.3218575201988813 O
   0.5580362469483905    0.3833523977260153    0.2997027764332542 O
   0.5329224797303717    0.2634800188729751    0.2000085084475860 O
   0.3917752573137643    0.5071682573141474    0.1341263264242323 O
   0.4407645053505219    0.4665927288222229   -0.0125517165827016 O
   0.6213943551410696    0.5296391242706757    0.0290471605571197 O
   0.0872282865642703    0.4494515125034170    0.4890385275223182 O
   0.1412045217016304    0.5819904082015527    0.5562853140313845 O
   0.2613647123564655    0.3854097088779005    0.8238291429545214 O
   0.3235263556371784    0.2391345774155055    0.8279026443994466 O
   0.0303893216565710    0.4115304607105589    0.7752263670940819 O
  -0.0266037861577683    0.2897560156188279    0.6882783836885261 O
   0.1133462914730164    0.2834308652358991    0.5711024944651771 O
   0.5958709212546773    0.8336479612353013    0.6315645268693093 O
   0.6420085564542786    0.7881869096028649    0.7779266166981237 O
   0.6797008476803785    0.5931644672448332    0.7154463272548137 O
   0.5549028747569948    0.4953757626508311    0.7265754661996315 O
   0.3796665972569508    0.5337447118510259    0.6666514386243280 O
   0.2996258567406222    0.6664579717486017    0.6282435723021139 O
   0.4464777691205277    0.7388082427512636    0.5463118439480685 O
   0.7235207623234959    0.3539460936213987    0.7416178974546975 O
   0.8263797897682114    0.2338652808313308    0.7770573817209074 O
   0.6945189359092303    0.0730490580228990    0.7753208808172920 O
   0.5511411071077256    0.0108923578150819    0.7870515067892871 O
   0.5902498678655204    0.2010127216543539    1.0324461654346373 O
   0.4476594581547598    0.2296503097807057    0.9705815595168878 O
   0.5471336973360892    0.3429893342988922    0.8459832702282379 O
