Li1 Co1 H110 Cl3 O55
1.0
  12.4248595684000005    0.0000000000000000    0.0000000000000000
   0.0000000000000000   12.4272912726999998    0.0000000000000000
   0.0000000000000000    0.0000000000000000   12.4064417377999998
Li Co H Cl O
1 1 110 3 55
direct
   0.5855302222330749    0.1554723868703710    0.6101917478832591 Li
   0.5035470018681003    0.5666392202433729    0.4387082520539977 Co
   0.1157196808853069    0.1209958472449412    0.1243304407177692 H
   0.0501617568286334    0.0158236523297708    0.1391606397295792 H
   0.3193742965427334    0.2224411238008594    1.0103620872057388 H
   0.5887157713157111    0.1457277049970146    0.1139745302387358 H
   0.5551717302176538    0.2239032284221549    0.2641819820919258 H
   0.4768199392263160    0.1951865924176569    0.0800889078431440 H
   0.4781173381957980    1.0159036558702195    0.1256168691988197 H
  -0.0087652673336431    0.2745699413995196    1.2252907554213559 H
  -0.1299337997997103    0.2303092905521128    1.2109272494487240 H
   0.2312557955671131    1.3661730673197083    0.2864067267711278 H
   0.2258360160010515    0.5271020444245872    0.0623413534150970 H
   0.1562046455024785    0.5909872453568343    0.2479009238909610 H
   0.1993005048200219    0.6541409916381417    0.0476808243251298 H
   0.0517866444089604    0.3398190759218029    1.0141665624128557 H
   0.3793806085574140    0.5731329925569969    1.0786814343572697 H
   0.5006302687009772    0.5268686870552005    1.0470285230472105 H
  -0.2338078108414462    0.4464650030927090    0.2379851073659713 H
  -0.1509770959883423    0.4099952696604828    0.3237155708202419 H
   0.7121336652209271    0.6256826581011372    0.1038749382164531 H
   1.2175429992604792    0.9921736254453407    0.2319124556264758 H
   0.0215648702365578   -0.2649482732196909    0.0497944843538634 H
   1.3404900628945122    0.9488174355744535    0.2352292809394601 H
   0.4070509414177050    0.9162841995596064    0.0692847624779502 H
   0.5457301748138123   -0.1550176399045206    1.1774527038233928 H
   0.6143530832101762   -0.1712810391896079    1.2927960093611945 H
   0.4998986708949852    0.7326995430213097    0.2928525717353891 H
  -0.1413971084363922    0.9943060289931851    0.1649617523100476 H
   0.9502723728426360    0.7006692323715202    0.2608836955352474 H
   0.6753662476509249    0.7420241816297701    0.1624275849263240 H
  -0.0999439236205315    0.9652329194899343    0.2789364140127466 H
   0.8589795905173652    0.7499148794373781    0.1223242248723213 H
   0.9291373251139786    0.8487473581367488    0.1680520823829472 H
   1.1737598082308156    0.2208728013424637    0.5676775434766110 H
   1.2522717619981625    0.2951890766862978    0.5021180529160055 H
   0.2914399767953517    0.1250932807791386    0.4894585004577476 H
   0.2997362476250167    0.0130649578365217    0.4070811337961902 H
   1.0513841796267653    0.2301089250866739    0.6599771749262211 H
   1.0394323342813516    0.1016642008927104    0.6375404435988259 H
   0.5698704878973366    0.2140853206156461    0.3846218335480749 H
   0.4659996962078823    0.0969824083183453    0.4709487613356646 H
   0.5649006128126276    0.0240685544368845    0.4479993930947682 H
   1.3756212446673950    0.2399236141708463    0.6283806859179623 H
   0.8950282876905018    0.2210755808496550    0.4098474386501785 H
   0.9452743284254631    0.2003164311412447    0.5171167128003341 H
   0.7695451792966439    0.2285196809330918    0.5557603473034706 H
   0.8642029895942497    0.0449497500494841    0.4080910929984185 H
   0.6982043327365450    0.3232804758769562    0.5155223797580296 H
   0.0858671100809381    0.6240950233087234    0.3433166784657223 H
   0.2168693150587448    1.4681904717709162    0.3606270406581041 H
   0.5062544771369200    0.3701418543721489    0.3490943221700896 H
   0.3757604469167627    0.4216502632404740    0.3706137880767859 H
   0.4478288670925015    0.5199846446582919    0.6278744972675239 H
   0.4214631767443260    0.6512988598151280    0.6095283828206622 H
   0.9062799239146689    0.6035587701221066    0.3351757463487985 H
   0.7003838342311834    0.5983291510060914    0.5153990567269514 H
   0.7085384535604582    0.5010336122223367    0.4095395340889246 H
   0.2553703538323848    0.8425352240275572    1.3711988278773508 H
   0.1359122632335280    0.8437502917095364    0.6496631781570966 H
   0.2168701198968152    0.7155864010394212    1.3780904090258357 H
   0.1884150699178859    0.7778083272043497    0.5553033266588868 H
   0.2831115124428709    0.9770858644936121    0.5888625057369188 H
   1.0149894020833574   -0.2079736691436276    0.5520155185296856 H
   0.3795906712937879    0.7301076668599489    0.3597258958950624 H
   0.5491676382124830    0.8276486332218517    0.6264308923743149 H
   0.6334518906207262    0.8834693253403270    0.4718813413811380 H
   0.7917522713350716    0.6742837560191374    0.6445319728247860 H
   0.6779119504675947    0.8057822430297306    0.6166343687159890 H
   0.8287257274510959    0.7361355291153834    0.5416716985438952 H
   0.9656045380837223   -0.2311331810343849    0.4309896811676946 H
   0.7158029219838726    0.9398693874793483    0.3961440736086121 H
   0.8873018422146788   -0.0807102160471115    0.4488602362136666 H
   0.0357592600426642    0.3194260558791546    0.8402407869485172 H
   1.0776460458638595    0.0024511082770640    0.8138762573829270 H
   0.3784469963957520    0.2918955190556085    0.9222062708069312 H
   0.4046613771866926    0.1128709873873624   -0.1166314775485811 H
   1.4625196111282914    0.3013102818894872    0.6849351771112140 H
   0.4853246631162141    0.0525900312593226   -0.1805676178830989 H
   0.7981201501480626    0.2366356893042456   -0.0284640542762603 H
   0.6792777606730603    0.0504355794634742    0.7743137453933259 H
   0.1419895955031050    0.5467740706638889    0.7898016672375526 H
   1.0311264053948419    0.6410271121591912    0.9009914853299575 H
   1.0169934488786490    0.5168697261172710    0.8954943410688267 H
   0.1944867683209701    0.5595733200344594    0.6824864492130740 H
   0.1135603003424284    0.3749216570416565    0.7452707685579795 H
   0.2998199507843380    0.4629899235676262    0.8408614322683222 H
   0.3863456772186402    0.4666528295864138    0.9323945264463289 H
   0.4665236457917116    0.4212286106144097    0.7876108698619291 H
   0.5854988335483293    0.4202629939134991    0.7373926031608692 H
   0.4520454137433179   -0.3453567852656870    0.9344499102976314 H
  -0.1205469733846557    0.6057177281292260    0.7987059124945485 H
  -0.2151677611310233    0.5341494369800667    0.7598236922580843 H
   0.7756522905748255    0.3659776323494718   -0.1707847967837817 H
  -0.0672489866867444    0.3610771275923504    0.9726236276300584 H
   0.7435545434892740    0.3578334601578748   -0.2991535937086614 H
   0.7458435029614865    0.3508085986587500   -0.0067609740788477 H
   0.2239365981549116   -0.0845260113768766    0.9336277567571104 H
   0.3007760984119711    0.9740844059149483    0.7114286719380624 H
   0.0881699932517686   -0.2023135459151231   -0.0378184688983354 H
   0.1480105891077541   -0.0141049533364576    0.9992710747375336 H
   0.4434086964098745    0.7619126669461925    0.7385033164734556 H
   0.3979055664237700    0.8279222246204431   -0.0677858848470383 H
   0.5545890274546855   -0.2687037175056492    0.8937774910283269 H
   0.3747930315561440    0.8379887787274364    0.6687274679025899 H
   0.6166774555574863   -0.0215441448683315    0.6925296189335561 H
   0.3753813681856052    0.9459688663067672   -0.0879221983267403 H
  -0.2126236679904945   -0.0274192787489054   -0.0598797501088927 H
  -0.2756634146925059    0.7036626441443432   -0.1562157524260195 H
  -0.2933022458433535    0.7386244061619806   -0.0396604152422557 H
  -0.2191766595596768   -0.1108970034787459   -0.1506420350410167 H
   0.9611940254579400   -0.0306207809207745    0.7762079226680556 H
   0.1694675720645709    0.3125218964676436    0.1271523618406751 Cl
   0.7609052426109189    0.1128259252746532    1.0983325160414876 Cl
   0.6378358435901853    0.4661104748727357    0.1216632779083730 Cl
   0.1244626368440428    0.0411441741631369    0.1332516126653051 O
   0.5131350378007544    0.1533287177943495    0.1325447218270336 O
   0.5853740836474176    0.2668763903350142    0.3241750095634742 O
  -0.0727146420228187    0.2560075696856809    1.2613204252853651 O
   0.2385379704280763    0.5989431222917537    0.0909874396589213 O
   0.1626843968072546    0.6023018590497545    0.3274434729034866 O
   0.4354005576094121    0.5703874224040743    1.0176083228226838 O
  -0.2044795115561348    0.4638316194585866    0.3114896640529646 O
   1.2730124390723250    0.9643155836240691    0.2806113503433375 O
   0.4359220926790301    0.9493404779541136    0.1399271770011826 O
   0.5798762347885273   -0.2083599158239918    1.2317631994707519 O
  -0.0776668106699790    0.9660456468798674    0.2022319067807842 O
   0.7241635798591695    0.7041382103695416    0.1067871350222398 O
   0.9295558409105857    0.7662877152819019    0.1567087816224057 O
   1.2532697612054564    0.2350890932216204    0.5524749572729178 O
   1.0491708749331701    0.1748925480868520    0.6017638680600358 O
   0.3193018611163975    0.0488698319829476    0.4848737854200186 O
   0.5418782198088863    0.1019482531388950    0.4610192422516662 O
   1.4527649737150647    0.2328118471686395    0.6472708725607570 O
   0.8793419936984403    0.1861999196545154    0.4778363123197353 O
   0.7071750578692036    0.2744259035749671    0.5785267460799569 O
   0.2476213728905907    1.3969440528553936    0.3612468799450264 O
   0.4599738735748108    0.4409843236344571    0.3626380927008491 O
   0.4207935514697547    0.5751567642259887    0.5719470996571402 O
   0.6647625060734283    0.5403905395902856    0.4684460292343727 O
   0.9624334760863532    0.6604553201815130    0.3333404094745178 O
   0.2771621494264871    0.9283544083209891    0.6518088376912798 O
   0.1249358816294370    0.7772571210042465    0.6069490775954982 O
   0.2627000141395014    0.7746507605923719    1.4158046876150303 O
   0.4333120028167287    0.7791416829321904    0.6630602507031749 O
   0.4557541075717129    0.6930931646722922    0.3554998654902078 O
   0.6203402736158686    0.8608658477331773    0.6026545343956002 O
   0.6426688962029267    0.9082695809420481    0.3948479727329671 O
   0.7644787236434870    0.7022793982202886    0.5743394052534798 O
   0.8453536819855232   -0.0319681380907785    0.4025117333832356 O
   0.9525661613432711   -0.1907776450615775    0.4980298541341207 O
   1.0317541790897526    0.0025360020786857    0.7490962006200509 O
   0.0684109771720710    0.3160987016639334    0.7652168582773257 O
   0.3792019345057855    0.2211745565614983    0.9613875292429378 O
   0.4081149373467714    0.0425307997456446   -0.1567211350435751 O
   0.6175756548440506    0.0526496580906038    0.7262000305494234 O
   0.8061331179769472    0.3153318410672935   -0.0461019882322378 O
   1.0138384836426879    0.5816038650657354    0.8491071486600184 O
   0.1963958442239547    0.5134345447037814    0.7443720418935865 O
   0.0078168919145786    0.3815988965284535    0.9590983958556046 O
   0.3493327840371666    0.4193665797428204    0.8836295370330725 O
   0.5075993615525555    0.4276395008278722    0.7191875444685089 O
   0.7409911342350556    0.4035063254303633   -0.2349176091417183 O
  -0.1974540800396287    0.6104862652705563    0.7670554192831378 O
   0.1438238214655426   -0.0637403072091913    0.9358685281714716 O
   0.0810117634536467   -0.2756971964619944   -0.0046833437199781 O
   0.3527179329612615    0.8854568863830345   -0.0367243598631362 O
   0.4740826849488917   -0.2798002627602805    0.8912223667896489 O
  -0.3076637763715395    0.7615400998357580   -0.1135185785549613 O
  -0.1893461413184369   -0.0419230830007582   -0.1325409545905457 O
