Li1 Co1 H90 C51 N3 Cl6 O45
1.0
  14.5336775999000007    0.0000000000000000    0.0000000000000000
   0.0000000000000000   14.1838547983000005    0.0000000000000000
   0.0000000000000000    0.0000000000000000   14.6595049701000004
Li Co H C N Cl O
1 1 90 51 3 6 45
direct
   0.7648506871155917    0.3144152955961242    0.2864457219779745 Li
   0.4313556053178952    0.8785235802465695    0.6874149233247444 Co
   0.3186222665784097    0.1204602643919326    0.9243397040103167 H
   1.0616200333703674    0.2777792747548589    0.1420922800086742 H
   0.5182620053889062    0.1086362572806852    0.1899486026765203 H
   0.4513185498655297    0.2024852157570187    0.1328559517509215 H
   0.6511038402740618    0.1638885149457826    0.2735448770732021 H
   0.7509581262952395    1.0736835025218434    0.0520026076293079 H
   0.8303860613147933    0.2892049416348826    0.0510175811888209 H
   1.0461015936327505    0.6176727711672600    0.1138982856791930 H
   1.0344858137422457    0.4323401491557132    0.1143355446461960 H
   0.2747386730683687    0.6100725805609011    0.1047233510361522 H
   0.3634251043683769    0.4674992795255313    0.1238133544551483 H
   0.6178789392343330    0.3539059705900007    0.1405895007507843 H
   0.5584401637377620    0.4027601791146856    0.2480849450522197 H
   0.8765051523289363    0.4004010884107952    0.0117399929500366 H
   0.9931879387980449    0.4644882503936539    0.2226509347796712 H
   0.7993223476128252    0.4477160820809529    0.1626714196600687 H
   0.7483737838435907    0.6541304201881721    0.1047970233738064 H
   0.1231906574432557    0.9244201301800915    0.2501450419014378 H
   0.0722668637294683    0.8162619445658486    0.2006140378545087 H
   0.3088504797045232    0.8708528869444186    0.1832560165216598 H
   0.0302190065508968    0.9197450964221353    0.0689383773231946 H
   0.5567873129823436    0.8633542202199999    0.1812307093874451 H
   0.7592526545845441    0.9094361922434543    0.2836830093159436 H
   0.6877483850796837    0.8177664720940462    0.3100822636420165 H
   0.7327253013148766    0.8566057021788060    0.0153676734282292 H
   0.6674871677810403    0.9351675611265976    0.0824913588464612 H
   0.8520405942323368    0.8131527756814290    0.1556070610605645 H
   0.2224518382478943    0.2791660627810842    0.3701395440069206 H
   0.0913446228234163    0.2105937308000368    0.5002377979309063 H
   0.1664130280842779    0.2973543482414599    0.6350946027160760 H
   0.3030728642714839    0.3118292567144800    0.4540279155793757 H
   0.3361525852640088    0.1699905232665653    0.3777728167694208 H
   0.5793268937421545    0.3165226211733420    0.3920618395179544 H
   0.7051507251454727    0.2472163561291016    0.5506350658814188 H
   0.6698802303600698    0.0458691172711369    0.5281698461709504 H
   0.7191953465839863    0.1288049634658534    0.4500234829522349 H
   0.7785244457794943    0.0180198474064070    0.4875963751558550 H
   0.9070087875549613    0.1140247783200546    0.5063854884691487 H
   0.8494252892113791    0.2223162140293440    0.4932005207370028 H
   0.0117880211269568    0.3664145588773867    0.3952713612648322 H
   0.1212186858068271    0.4102758369887902    0.6116790780649964 H
   0.2456668846586060    0.7163885307341035    0.3606569591390462 H
   0.1232181797270858    0.6117745156373158    0.3975279176811281 H
   0.2445818186186033    0.5095676740829486    0.5327577227832356 H
   0.5442765772273926    0.4483861397017584    0.6409106244831070 H
   0.5398145269614334    0.5712178398830668    0.6202237049303295 H
   0.6651519019980542    0.4953368459427597    0.5353547409006720 H
  -0.2053277073808581    0.6447190153269211    0.5345427762385448 H
   0.2081044716872494    0.8435605883764443    0.3806999278886244 H
  -0.0778802676486912    0.7833146247684116    0.4230246858709376 H
  -0.0819803998822843    0.6704814053962127    0.5196972544802125 H
   0.1652866786185300    0.2790088417694684    0.7854557509605630 H
   0.0718602219858782    0.1087314359200042    0.8881925079705595 H
   0.0785557055846523    0.1472526988467429    0.7716121729943273 H
   0.1535635618210876    0.2560940555832086    0.9093528405078923 H
   0.2330768159205147    0.1411358849598440    0.7002550567660795 H
   0.2631696810603750    0.2815751398962910    0.8658247676772279 H
   0.2797546092964093    0.0392566694328213    0.7594910269963947 H
   0.1321415922019086   -0.0070142498153551    0.7168108682000276 H
   0.2189558201443725    0.1308065349993833    0.9843628768114919 H
   0.2444737936545701    0.0168100211466193    0.9351190584511592 H
   0.3356943392382372    0.1468014815936753    0.7708140560030740 H
   0.5240849225011299    0.2680491977086288    0.0185410411575546 H
   0.6528198546708701    0.1936244369499018    0.6509027763530892 H
   0.7705567446106727    0.2426710473314025    0.6615252360007794 H
   0.8423981620924520    0.0016618119287872    0.6217435379700836 H
   0.8526729187033339    0.0875411456728124    0.7123536917719511 H
   0.9083353616355734    0.2095721467380132    0.5918312045799469 H
   0.3941695595779155    0.6140270767678647    0.8231480196372338 H
   0.4992569326465536    0.5588911485508238    0.9590455144068958 H
   0.5248038045547728    0.3849468974932266    0.8247817719398421 H
   0.4269472235054047    0.4403632149314315    0.8802679566138155 H
   0.4382286076473736    0.4448292081963649    0.7577365339181864 H
   0.6099552737196395    0.5185664971684258    0.9281481545762719 H
   0.6397667235073369    0.4689681115388495    0.7792795533205561 H
   0.6514870880763962    0.5962646275900717    0.7585332866068907 H
   0.4320354057284994    0.5908739914698284    0.7162262645577164 H
   0.9082410978134551    0.3018890816347902   -0.1244269515730829 H
  -0.0844484606847509    0.4166093761625532    0.7364520498488808 H
  -0.1028319701690839    0.6080992101056878    0.7795005703335186 H
  -0.1778398264055193    0.5508023742626273    0.6957569512615285 H
   0.1433858212607068   -0.0469617822779626    0.8257115441270886 H
   0.0465280238915340    0.6516275744875623    0.6823622288339635 H
   0.0063977818388265   -0.0643858185159549    0.7545897700885695 H
   0.6292800453109629    0.0599541458364282    0.8063350371727708 H
   0.4882555877425563    0.6836379134579257    0.7829829525902267 H
   0.5825200291121259    0.6362897130180502    0.9083125598141647 H
   0.7501448428080593   -0.0467333535435971    0.7579282184263422 H
   0.6711214853608086   -0.0123569441024598    0.6668630697243328 H
  -0.2227630741872433    0.7785211464815253    0.6555645981635384 H
   0.5894367230671844    0.1663652746489495    0.0767305913326708 C
   0.5218006761517937    0.1785234645382502    0.1557141588106729 C
   0.5548729317248297    0.2523158161157246    0.2257785983736000 C
   0.4854479707633355    0.2545465214105780    0.3110461433929918 C
   0.5578179537060723    0.3560654681621044    0.1879996964850581 C
   0.9520214827591332    0.2917338733329354    0.2185518877707468 C
   0.9737269319017625    0.2925799056824373    0.0065576897170863 C
   0.4712508070666935    0.3806899447213160    0.1328450373305283 C
   0.8919843728120952    0.3358960569499783    0.0561876056988288 C
   0.9080161031431440    0.3668481504565065    0.1536683871382209 C
   0.9726652598030153    0.4513071368911096    0.1508599703407935 C
   0.9282064505609248    0.5397221705919837    0.1123593524037507 C
   0.2026743250875654    0.7030275648545942    0.1827055204430774 C
   0.1603395481000648    0.8910638947470619    0.1071886457424681 C
   0.1347128615687382    0.8627084155265468    0.2031543692010280 C
   0.2117030102980384    0.7943997636277608    0.2390491692691923 C
   0.6500235906337293    0.7419478730395147    0.1462711387167239 C
   0.6292305052000686    0.9469288208385903    0.2569208505117965 C
   0.7005531276316501    0.8689711699937348    0.2557509610758995 C
   0.7253286875355300    0.8152396554768671    0.1704070151137552 C
   0.7280437608353720    0.8906528640305955    0.0814374351272420 C
   0.8170886698822676    0.9530012180271404    0.0789339399495498 C
   0.2379544526723088    0.1736820444182254    0.4694959685908855 C
   0.2334669442938067    0.2786309473200242    0.4428732415072617 C
   0.1515668201292119    0.3353545962462970    0.4892396775763074 C
   0.1757430823026908    0.3606763444668899    0.5908298065088700 C
   0.7189290684879299    0.2075741003392728    0.6163395355728964 C
   0.7329041961597723    0.0768282610472442    0.5046367868552615 C
   0.8656152726744509    0.1668813543821457    0.5438700352611984 C
   0.2641597952211638    0.4055792294059218    0.6185237839540871 C
   0.1281322835049549    0.4224907815482032    0.4314990511549893 C
   0.5834387229463754    0.5158195711349847    0.6487758286789628 C
   0.1922977360265119    0.7715815661347358    0.3433487348492413 C
   0.0911203162102008    0.7432253818872626    0.3740018845235673 C
  -0.1428349216590771    0.6898492009571857    0.5568949634828161 C
  -0.1747779723294177    0.7863765568466508    0.5163084019847616 C
   0.2684360700712697    0.1155624421152743    0.7601452100687125 C
   0.1125883856547952    0.1021380238095524    0.8208771380441718 C
   0.1122491735065889    0.0014806200006022    0.7864871636877212 C
   0.1981737436242439    0.2449645000255107    0.8505814152955632 C
   0.2500718261856178    0.0960895975375715    0.9259434416568438 C
   0.8047662553544243    0.0572235764284107    0.6612994439288949 C
   0.7247692971166827    0.0142698090172397    0.7175366771561759 C
   0.5547850668337020    0.5644876525427791    0.9092020850762111 C
   0.4556259937020732    0.6099139494953695    0.7830955075505317 C
   0.4743590361910488    0.4423202287612211    0.8234167872394166 C
   0.6057939044045244    0.5323088826321689    0.7502383271080522 C
  -0.1104122951929965    0.5878473107394853    0.7053275336438232 C
  -0.0333705421815148    0.5207575799482442    0.6699293397035500 C
  -0.1271368990194686    0.6878180182914232    0.6608915174666987 C
  -0.0424597764164141    0.7567760000184519    0.6824338547177938 C
   0.7789111338673076    0.1277706889185872    0.5856399996118994 N
   0.2087595020424063    0.1409998147569658    0.8391540171438741 N
   0.5219879584126869    0.5357470875978489    0.8176908094406296 N
   0.6871057397522503    1.3758291505803424    0.4250022424159320 Cl
   0.5004895869335954    0.9414987032087037    0.5719864689907603 Cl
   0.2857173120882062   -0.4829180218145607    1.0342329100418852 Cl
   0.8239238290714795    0.3559237577435628    0.8130958384550887 Cl
   0.3109098345921125    0.7910699213055128    0.6895473282090675 Cl
  -0.5156483381364922    0.9330665807920011    0.8153967347042320 Cl
   1.0393345520960182    0.2640446445876530    0.2067875068894173 O
   1.0521544319040910    0.2808701129383727    0.0394585278411386 O
   0.4036289685303300    0.2287975268534867    0.3061455686364412 O
   0.6490479256719514    0.2310952097093423    0.2586016712523506 O
   0.4619532291432001    0.3525903902865252    0.0516335637897626 O
   0.6477557544461269    0.1062807622142802    0.0818494544970856 O
   0.6380782313943586    1.0162787975542216    0.3061141896778107 O
   0.9107903493532207    0.2657712556075948    0.2877049732308409 O
   0.8105934108983578    1.0374782531518663    0.0470201747198083 O
   0.1252940479849732    0.6621825330745568    0.1789543705841866 O
   0.2818875862932441    0.6711744468958465    0.1482903064894674 O
   0.4090377853600456    0.4377555317221792    0.1734780601518942 O
   0.9814015207477932    0.6126092675554909    0.0934030506345713 O
   0.8431777307819404    0.5527679894213036    0.0987606667450875 O
   0.8181971298635260    0.3874511532477523    0.1924473227952905 O
   0.0944835392942422    0.9152336289184163    0.0461661213240397 O
   0.2425713157848126    0.8986041580619979    0.0814585818167538 O
   0.2974328602575952    0.8378047482919995    0.2423610137072565 O
   0.5559890291398508    0.9301082876765761    0.2103735761398608 O
   0.5660151219163276    0.7545643304514623    0.1531635951950350 O
   0.6808409798954177    0.6665607504832292    0.1014237853210304 O
   0.8960156993361130    0.9198212393335904    0.0953962966588810 O
   0.8084452966454164    0.7665039619838083    0.1737304561234872 O
   0.3116715137971112    0.1328144517755346    0.4306020222289225 O
   0.1855740420868120    0.1356275093376285    0.5224077825697384 O
   0.0698325177246937    0.2751008773417274    0.4919085944380842 O
   0.3118049968736874    0.3720865007538393    0.6805893176713417 O
   0.5106818936626932    0.2994637888995514    0.3825267290019376 O
   0.1795163874158012    0.4900217182097096    0.4217736204333660 O
   0.0332980620543922    0.5471862909954646    0.6231944737311059 O
   0.0472814464113837    0.4216605418025587    0.3850738818612027 O
   0.0705948849867882    0.6563865064535106    0.4019093753177266 O
   0.2816818572216139    0.4954499322668098    0.5872573802839179 O
   0.6703990254102677    0.5199560347997869    0.5974985173691204 O
   0.0312827428209312    0.8018434382494619    0.3721662154436845 O
  -0.1342300796195880    0.8162266932179526    0.4453763273941891 O
  -0.2337169431516336    0.8359787284709911    0.5543261182130196 O
   0.0121994792702172   -0.0037309392723297    0.7870096915640460 O
   0.5733876536973228    0.2202314493147796    0.0045201038599292 O
   0.6880311765460383    0.0825932664821420    0.7788006831258042 O
   0.9633124997004425    0.2719176806267264   -0.0786866621589700 O
  -0.0311515580477109    0.4309828312563289    0.6946368588686755 O
   0.0451897528402941    0.7190866689020566    0.6892007953615832 O
  -0.0534088289811342    0.8417472590406785    0.6881257249528521 O
  -0.2072473866780095    0.7225814875324577    0.7014904327243358 O
