Li1 Co1 H110 Cl3 O55
1.0
  12.5030088266000003    0.0000000000000000    0.0000000000000000
   0.0000000000000000   11.5696877661999995    0.0000000000000000
   0.0000000000000000    0.0000000000000000   12.7582433428000002
Li Co H Cl O
1 1 110 3 55
direct
   0.2348206302993061    0.7642753254701052    0.6903940405221097 Li
   0.5563360395700482    0.6006045300029991    0.6164920169702471 Co
   1.0826301573507680    0.3427669755000238    0.2145283718032079 H
   1.0505738734947330    0.3169814913946057    0.1013465676001309 H
   0.2605728315866468    0.3588728552580219    0.2219235905229735 H
   0.0364356387824675    1.0400511341588430    0.2108029372960487 H
   0.2194435316611792    0.2933101525015985    0.3282250588019408 H
   0.3286412471019090    0.3176790037357404    0.0786591182215023 H
   0.4277437925119283    0.3149615578862638    0.1627931930434695 H
   0.5862448403384221    0.2772708259657408    0.1406584843369320 H
   0.5109949534473280    0.0788220824562082    0.1761328037898067 H
   0.5564288172378949    0.2697935282418789    0.2681470387011123 H
   0.4022955180675342    0.4778103778435569    0.0780174154588238 H
   0.6592520670515639    0.4149296835066391    0.0334947500151862 H
  -0.0000415569320526    1.1717055081385728    0.2182201026108492 H
   0.8954912028439054    0.3883325958221311    0.1452562959967248 H
   0.7745747081851460    0.4047349399333006    0.1244940332868284 H
  -0.0889150445399079    0.0312160786356831    0.1272961431885944 H
   0.8041659853833890    0.3808388758746242    0.2907677077262778 H
   0.2872560087823812    0.8190866577043789    1.0200875482395177 H
   0.1828043509365045   -0.0688716180593793    0.2690789851831262 H
   0.2186277280301124   -0.0277709410480945    0.1479243749073853 H
   0.0709039260544994    0.8612329981980736    1.1112364602608793 H
   0.5610501048656438    0.5449271415533388    0.0072572037475874 H
   0.3743662408157193    0.9778281930952875    1.0758240615582815 H
   0.5140838099406416   -0.0569251418196496    0.1985316554437275 H
   0.3709326672979060    0.6017445780549902    0.0213202448088988 H
   0.6171310058491132    0.9509043895929991    0.0682442831670364 H
   0.5677940815491289    0.7525922098379886    0.2242193611250078 H
   0.4710821607011277    0.7997455998883047    0.3114500221256902 H
   0.6653162073758269    0.7662943946508868    0.0795164462803979 H
   0.6710476277878115    0.5986606573199608    0.0552331659199524 H
  -0.1982655232095923   -0.0403613413202224    0.0709565687905528 H
  -0.0386802563612612    0.8775506382083371    1.0645372412546645 H
   0.8732725510095577    0.5989225485707214    0.1673243811111924 H
   0.9207731173321604    0.7331923777478164    0.1427136262005488 H
   0.7604621051751724    0.7198290093385424    0.1532997230769828 H
   0.9523495166993324    0.6929769450237561    0.3317435682702003 H
   0.1982214399487033    0.4863603060697090    0.3521006027789182 H
   0.1321757375539978    0.2383752214262067    0.5419723535295478 H
   0.2190604238775704    0.1128529921882967    0.4503704010821103 H
   0.0477251853194337    0.3756771116847151    0.6497520817455026 H
   0.0805917541349134    0.1872709900979143    0.6449857515881210 H
   0.3063858041234153    0.2192096221048666    0.4667323714875272 H
   1.0004579367078281    1.1489218336499589    0.4949094480913274 H
   0.6060040841673477    0.3724713207636882    0.6273069854806156 H
   0.4824954134612479    0.2288218089025857    0.5555823776789924 H
   0.4160993953896726    0.3436684691453813    0.5421777109545163 H
   0.5138982546049481    0.3129459460157233    0.4201436692634519 H
   0.6431623399474757    0.3437618165218900    0.3888235267278806 H
   0.6417546787801449    0.1880800006943233   -0.4368214870070741 H
  -0.4464249897052855    0.4944763418606076    0.4131732739190029 H
  -0.0122235846442700    0.4701299631430325    0.6090544726743429 H
   0.7067062445402432    0.0290794868365322    0.4734590028656966 H
   0.9715688904782877    1.1071143095598883    0.3806633124097587 H
   0.8273132137036862    0.2848820944614439    0.3755403500830615 H
   0.7866981899887830    0.1255847964492842    0.4639694519340376 H
   0.8501261224967420    0.4594840405832351    0.4560686777215058 H
   0.3035008985378684    0.8163311814422507    1.4155887049757705 H
   0.3140375622983326    0.6824693148736013    1.3787184253172888 H
   0.1632370609031239    0.5362475641931468    0.6190190106271124 H
   0.1380151319759766    0.6007021990173093    0.3661895329843011 H
   0.2082662221080832    0.6004627802831155    0.5231249312364386 H
   0.2774751630918760    0.9194947260529296    0.5849147857499823 H
   1.0007538654759600    0.7505480751579593    0.4331125393150939 H
  -0.4083405568616524    0.6300729138427110    0.4219965889299623 H
   0.3463833764626481    0.5450714842559033    0.6162333606716226 H
   0.4477165849383980    0.8041407055322578    0.6027722598456283 H
   0.4330721099532683    0.7388234718029498    0.4972028672724652 H
   0.6382683179685567   -0.1330738692359440    0.3737023227488960 H
   0.6256969439753142   -0.1645742871698414    0.4845388981304138 H
   0.9082721263972845   -0.0327566417139773    0.4546648794462435 H
   0.7729606966876041    0.7037179436151826    0.6310645560733614 H
   0.8232205988211678   -0.1365622952691779    0.4539406418100947 H
  -0.1038130584966534   -0.1725909252913093    0.6152434124741595 H
   0.9226606629883540    0.5721128363063880    0.4587955421545810 H
   0.7599678241516439    0.5892887535839956    0.5723762257224156 H
   0.3105927914757791    0.3886852414667197    0.8763138365525422 H
   0.3022595973266766    1.0004217155206430    0.9726280364767397 H
   0.2871616314995715    0.2308434710660481   -0.0997453014813490 H
   1.0317384073068683    0.3797126570635975   -0.0860890327209381 H
   1.0163021229151148    0.2402905712997564   -0.0706127641865690 H
   1.0515336424724586    0.0997516014625394    0.8039175061814607 H
   0.1896539022075395    0.3068541653709680   -0.0647977003093097 H
   1.1681135809668612    0.0772536736653494    0.7713307315895948 H
   0.5801335113727544    0.1743069410214833   -0.3328181407510377 H
   0.5030584638090189    1.0952816652598456    0.8015621662500463 H
   0.6193720664121025    1.0435603040535233    0.7983422872356534 H
   0.4078421829513066    0.4488579975573239    0.6904528260445244 H
   0.4078141896894563    0.4739641202003728    0.8646978173234033 H
   0.6643884306973588    0.2077616035691423    0.8452123761603535 H
   0.6710268327932941    0.4370141169989977    0.7219234595174774 H
   0.7567022102049324    0.3087945807437654    0.8513417466307899 H
   0.8711370650341183    0.1616808440211163   -0.1192142826981226 H
   0.9190375350974399    0.0642579902002127   -0.0450537596090285 H
   0.8284537391722168    0.4869091540704780   -0.1518175172362648 H
   0.9965308819739676    0.4939395944456823    0.7806470611818718 H
   0.7071269432754795    0.4986121492364807   -0.1193694764772973 H
   0.6952881929352344    0.2937535525400150   -0.0132826929261884 H
   0.0972178321360540    0.9154323865196790    0.7640820847723829 H
   0.0678924909253891    0.7570746125655285    0.8501033316252542 H
   0.3273063684153889    0.5860362889747143    0.8004311327987880 H
   0.3074991361375770    0.7054820361656857    0.8709682730476348 H
   0.2029283069769660    0.7369375090664493    0.9663419046131976 H
   0.0380232806273463    0.7466067414831459    0.9734902241388216 H
   0.0195643638017425    0.8179077149121760    0.7169752861440930 H
   0.3346254066780281    0.9468247635085432    0.6928034631341458 H
   0.4518899803765415    0.6691863289274320    0.7845276894682056 H
   0.5749811515773308    0.7106316997697510    0.7806243307798715 H
   0.9885807956084739    0.5747369347793558    0.8750675834773513 H
   0.6667710571845625    0.9317941072355160   -0.0443125133617278 H
  -0.1710472748087758   -0.1774069584571120    0.7149460099103385 H
   0.1941384227559624    0.9481731145025581    0.4533222181142924 Cl
   0.3336168494439348    0.0828863235100914    0.8139776685840249 Cl
   0.6914731112487751    0.8782118487919407    0.7931777831397832 Cl
   0.2074752125089410    0.3579653113197426    0.2837863390843114 O
   1.0248040764428008    0.3058895758137111    0.1724998585045800 O
   0.3633776858282426    0.3616533970193980    0.1348105005671204 O
   0.5315508055277660    0.2469113204113946    0.1949527928391223 O
   0.4940062427341037    0.0008990634241996    0.1436087337551829 O
  -0.0223766607366365    1.0889461442430952    0.2301943216232350 O
   0.6944515943096502    0.3339957794184436    0.0543729377752843 O
   0.8318345253962550    0.4354756139417242    0.1749915808479965 O
   0.1534962055866905   -0.0538132168716676    0.1924493133912229 O
   0.3030466078884116    0.9548284367166070    1.0417911631150143 O
   0.0123145888669959    0.8146837731123835    1.0830272475714924 O
   0.4281724893219792    0.5455425427762483    0.0398433512938811 O
   0.6392456827108739    0.5416470184621290    0.0050335433863818 O
   0.5393793211560812    0.8143103836063486    0.2726398202275243 O
  -0.1221166527093620   -0.0050242597790599    0.0637247738230999 O
   0.6758456728689581    0.9145075560301943    0.0303983441120731 O
   0.6829287679245729    0.7067690199029220    0.1329614999354377 O
   0.8773755633893345    0.6793698362424870    0.1861302616351285 O
   0.2311591116492830    0.1995271549024873    0.4425143038666137 O
   0.0664585160919189    0.2466355999196697    0.5872379895958101 O
   0.6229384079718345    0.4491795274097429    0.6575266630365842 O
   0.5957769459022001    0.2336421637061896   -0.3881886162168993 O
   0.5636870701319447    0.3554959274800624    0.3692024869597944 O
   0.4282004825838295    0.2678487912312801    0.5110080593563265 O
   0.4052923967004823    0.4827966835387320    0.6170344113903932 O
   0.7103053782067141    0.1145853639173380    0.4712353425044910 O
   0.7845107165270502    0.3557509041103409    0.3679530986567412 O
   0.9380969473801075    1.1168379946128819    0.4515437601095072 O
   0.2064818516169950    0.5659078287512378    0.3777381448144046 O
   0.2110439534911173    0.6008136972725836    0.6041713552790976 O
   0.3175055275378477    0.8863304775655201    0.6432809714380955 O
   1.0040410742246704    0.6796913660949061    0.3901246462906586 O
   0.3584796648119164    0.7572656289563474    1.3926309989554277 O
  -0.4547693811591282    0.5699390524923188    0.4533527865859480 O
   0.4830816723451420    0.7464909215900704    0.5591087252169071 O
   0.6795183888237214   -0.1302189953043851    0.4370370607914973 O
   0.8817825026120580    0.5198858434773098    0.5029638484691028 O
   0.8990023576874181   -0.1178962772776716    0.4683901232196209 O
   0.7175204414967664    0.6575040776228757    0.5973632079765131 O
   0.2693851104171306    0.2996275226395833   -0.0541818187681856 O
   0.0398869120398450    0.4594442815154629    0.6679215110134291 O
   1.0637147104147593    0.3068463864229256   -0.0473102614820898 O
   1.0919559125843350    0.0709742475072603    0.7419998911325358 O
   0.3545070210516138    0.4396529090404901    0.8218549285875908 O
   0.5756201977549997    1.1155847196504960    0.7830071039550796 O
   0.7351953870290647    0.2352048679351507    0.8806953174898491 O
   0.9374091129460707    0.1216209902579039   -0.0994529414832067 O
   0.7531062757683872    0.4597684043505627   -0.1682429760058895 O
   0.9677538087918284    0.4976207655248555    0.8533326163232334 O
   0.0928536826135875    0.8301137487182536    0.7490690461546414 O
   0.0666687854787889    0.7017870358455481    0.9125962609868774 O
   0.3230865841433221    0.6755987750970461    0.7928180157426052 O
   0.2821340416712523    0.7419436942955105    0.9826372514265445 O
   0.5246260723534759    0.6482073703846537    0.7662618519435189 O
  -0.1069938928503323   -0.2097967694505232    0.6846064098886440 O
