Li1 Co1 H90 C51 N3 Cl6 O45
1.0
  14.3111588246999997    0.0000000000000000    0.0000000000000000
   0.0000000000000000   13.9666920069000007    0.0000000000000000
   0.0000000000000000    0.0000000000000000   14.4350597072000006
Li Co H C N Cl O
1 1 90 51 3 6 45
direct
   0.5801641229199376    0.6276618328211958    0.3704813116174736 Li
   0.7156117846882105    0.6720853799068964    0.6049202449259404 Co
   0.1732832356817887    0.2805295270751547    0.1525868197484057 H
   0.0494302324616140    0.2257348770877477    0.3236709752762276 H
   0.3546165596835507    0.0959732986764356    0.0830588773388984 H
   0.3008012111549073    0.1670287783497697    0.1670114223633947 H
   0.4949365732197079    0.0717828891053585    0.1348660755887947 H
   0.3504876138222263    0.3330351597358958    0.1080667406468655 H
   0.7373235135430199    0.2691302637477078   -0.0167169482700261 H
   0.8143550113765373    1.0715987362008104    0.2821498446292204 H
   0.6936890316922402    0.3176134693389435    0.2679683999970313 H
   0.6818514158796330    0.9975676056017261    0.1915599872594062 H
   0.8667651627267878    0.9969819264734143    0.1388535894036000 H
   0.1185588063331110    0.4925286173777980    0.2907109453455797 H
   0.3014755101490143    0.5506235477735670    0.2812527232966678 H
   0.3587462043003093    0.6129697353725928    0.1358324726999228 H
   0.6238770750059902    0.3974412481321745    0.0999012046261721 H
   0.7139829857708392    0.6100305998937178    0.1746726307160584 H
   0.7277540578701757    0.4076510386773910    0.0309226191407686 H
   0.8694532748825696    0.3962312264612124    0.1995066118198009 H
   0.8558547953755070    0.5251987013013625    0.2408455471691545 H
   0.8842473249377326    0.6280885623572274    0.1408743638646472 H
   0.0924071854487103    0.7608558632387751    0.1908623801691510 H
   0.2009343857282138    0.7856570115585685    0.0852583833086703 H
   0.2843664833399898    0.7912281231690744    0.3167551743010362 H
   0.4180467829882682    0.7169922196718274    0.1544967529637320 H
   0.3339557590019400    0.8601356353791624    0.2281057314891215 H
   0.6021003618957901    0.9409557751404130    0.0411047730757945 H
   0.6625881260666379    0.8695186732477755    0.1855537772569110 H
   0.9612082484723848    0.8963317510914761    0.2124106110950579 H
   0.0293130635078948    0.2661882643122152    0.6297798580677559 H
   0.2189958161941997    0.1626003854297107    0.4346604711631670 H
   0.2405608064078045    0.2821390706942804    0.4123993924757183 H
   0.0345425491782538    0.0208008813652133    0.5753926912721513 H
  -0.0199093655510439    0.3112017864611540    0.3866024780497764 H
   0.1344582874853489    0.3487060143585846    0.5672722537833106 H
   0.3319880636989295    0.1317749043646665    0.5121800015771534 H
   0.6718305641962261    0.2321522878787725    0.4874218739871621 H
   0.7523132151197892    0.2666515092951219    0.5698489663674261 H
   0.7451509719181351    0.0923009903034393    0.5476393595834589 H
   0.6148316859088767    0.5026261408236022    0.6106881462501360 H
   0.5476565527295304    0.3478654430913010    0.4751888799031874 H
   0.4398353749408515    0.3249172747031345    0.5392916282651121 H
   0.4940114909002279    0.4473706802164136    0.5299064228868187 H
   0.6904118687053369    0.4109551138282715    0.5533778879775384 H
   0.3690444618911365    0.7072476072802344    0.7731682500788818 H
   0.2376204435402376    0.9772728930198229    0.3436611939419716 H
   0.3223955490967531    0.8687633046898674    0.6290282158702120 H
   0.4693360607463457    0.9523607663810951    0.6210836695831744 H
   0.4290465910351403    0.7510818952918511    0.6784405504547534 H
   0.5660006996442373    0.8931513272675631    0.6879860599846706 H
  -0.1721017929204367   -0.0913402039559369    0.6507330100556994 H
  -0.1302589200032219    0.0231901371734974    0.6491181916571048 H
   0.8430801485254933    0.8626480413220058    0.3598564854573503 H
   0.7196044732398449    0.8727019610283062    0.3458641637006723 H
  -0.0658734980198057   -0.0935447345623818    0.5301619119582051 H
   0.2876555251692762    0.2968662516114498   -0.0974315434039038 H
   0.2621907808768000    0.9456841675161720    0.7083676867993661 H
   0.0533034338339817   -0.0220410456783837    0.7709812137492534 H
   0.2226391270286801    0.1082868801540709   -0.0709591901368509 H
   0.3972776752143399    0.2717114046493752   -0.0537046719670530 H
   0.6281387843998330    0.2391926092341387    0.6905873654701803 H
   0.5441171468281315    0.2071635504005223    0.6095374755679971 H
   0.5965536412582554    1.0582863498527657    0.6541268304481128 H
  -0.0226484868535302    0.0793902738710216    0.7822468408612000 H
  -0.1545204074378202    0.3162638297828705    0.7950538540464513 H
  -0.0066253259894198   -0.0031310561211199    0.8761951879763542 H
  -0.1727914645340985    0.0698339666270399    0.7850421185267211 H
   0.2141052269094800    0.5360906147139906    0.8023950083020963 H
   0.0763302204161583    0.5344436964610044    0.6976548804004520 H
   0.0074406209031946    0.6307577699248877    0.7434946630838554 H
   0.4578623567639261    0.3032242353026581    0.7069697015877127 H
   0.5521102801167210    0.3590377378567981    0.7677917569036378 H
   0.4660171121844709    0.4337358123532202    0.7043018913547705 H
   0.6935835196216596    0.4282282089807111    0.6760339099070408 H
  -0.0131971208490839    0.5545170967952777    0.9738241572072242 H
  -0.1036489155539153    0.5067688540710495    0.7789680182612221 H
  -0.0930313267296095    0.4394389523638003    0.8859637655132844 H
   0.0313359604902156    0.4271529364686101    0.9925563277340373 H
   0.2582015861023372    0.8059252325417583    0.8468956901856354 H
   0.2945159060233094    0.9311868191175698    0.8809842225492780 H
   0.2408333210271845    0.8194087402977083    0.7077144162073993 H
  -0.0190918216929039   -0.1673116651634868    0.6218623293343630 H
   0.4041129008727379    1.0123270060308442    0.7774425656169897 H
   0.3659608541595365    0.8413760035443257    0.9157371096294594 H
   0.4788593985605256    0.9292199969103909    0.8373508734135040 H
   0.4836101668828404    0.7609288941325255    0.7930358506165472 H
  -0.1694136807646549   -0.0050112436406146    0.8870922679462792 H
  -0.2364955999690646   -0.0469710720459719    0.7855007241808909 H
  -0.0087446512216752   -0.1842534005352629    0.7987046875773798 H
  -0.1379158820523659   -0.2053249613497067    0.7791121118806590 H
  -0.0973237813625618   -0.1479806739834267    0.8828602106331023 H
   0.1833061836314986    0.2014592648072952    0.0483011409542166 C
   0.2883137527883941    0.2357558612929450    0.0403101798955336 C
   0.4434682044438173    0.2036773992076739    0.1391563245559749 C
   0.3475661173513858    0.1717407029749771    0.1050823401058332 C
   0.7365954103804713    0.2918922749557263    0.1186735551045591 C
   0.1867489516563327    0.6577212054910155    0.2155086239129539 C
   0.1025621981755044    0.3583389324420887    0.3151265007467263 C
   0.3665596875667382    0.6701901566151590    0.1837643838963060 C
   0.4113904387210529    0.6276367732007913    0.2603889370630867 C
   0.6829016452973976    0.4598248819639760    0.2674647650867875 C
   0.7038643083266292    0.3972135635810704    0.1010089243255943 C
   0.9045021487120105    0.4976805173383936    0.1093691252840847 C
   0.7346361001426724    0.4719199242199765    0.1703553641952337 C
   0.8371735688392901    0.4674094696349625    0.1922562088340899 C
   0.2683160710139414    0.7248401767933741    0.1876119606383889 C
   0.2713961849683699    0.8171068351662629    0.2481257387396530 C
   0.1848189891467748    0.8832198417066678    0.2440343112569845 C
   0.7351133501043047    0.9394228423608098    0.0659630007020384 C
   0.7104899073547349    0.9300233367416449    0.1699196195479939 C
   0.8026026437269157    0.9166064159770556    0.2232079339438342 C
   0.8543287135069790    0.8208686421835611    0.2070008655460977 C
   0.7856117065862892    0.9109715813318068    0.3302313915073267 C
   0.2054867773827286    0.2363494163019553    0.4631033046760212 C
   0.0997727664817480    0.2661488849087223    0.4697052170984871 C
   0.0570690268694660    0.1830433077665779    0.5228628081001554 C
   0.0495839586571617    0.2840307140402458    0.3745048488371381 C
   0.2612782062795941    0.2480980823367568    0.5503111878115585 C
   0.6066471635068305    0.2546601229369735    0.6199108306518913 C
   0.6856491516650955    0.2215570803717341    0.5585678907568571 C
   0.7787345556018326    1.0032690272383356    0.3873513492161775 C
   0.6481867765655557    0.4312391581717739    0.6152083908021870 C
   0.5090872511962864    0.3684973865649338    0.5373117265134244 C
  -0.0348864895299956   -0.0943222987840769    0.6022773739732854 C
   0.3252576513556775    0.2418689766933433   -0.0584438279794024 C
   0.3365341665545355    0.1589681724493616   -0.1189354378315224 C
  -0.0109429358180072    0.0052159454410543    0.8000146925502423 C
   0.1120009865821331    0.4590380814821889    0.8824639531796504 C
   0.0648629449837343    0.5824736093185796    0.7608343904613011 C
   0.1456851910483710    0.6485508164012638    0.7760459659209078 C
   0.5069604772311014    0.3649088489230040    0.7093167649658504 C
   0.0317286610442966    0.5208997592204218    0.8429109474019730 C
  -0.0332164640420001    0.3692183876434300    0.7618271123682878 C
  -0.0544250889841080    0.4612343782133581    0.8211327208911955 C
   0.3152885075744092    0.8584881443348527    0.8611706571189013 C
   0.2937151322955928    0.8757220032816302    0.6992537653699743 C
   0.4387502077513716    0.9440717599404286    0.7708599811367464 C
   0.4133252925186510    0.7642883152450424    0.7492978950551243 C
   0.5089760442689164    0.9503939441739162    0.6883442157599058 C
  -0.1738535727942462   -0.0084107601457787    0.8119585295344430 C
  -0.0837965749097987   -0.1596112018077497    0.8098075166096740 C
  -0.1098468762562248   -0.0516142617123555    0.6669664032492946 C
   0.5714184999041422    0.3591301004577177    0.6247594423943901 N
   0.3669782420718885    0.8613943443126245    0.7661887153874009 N
  -0.0902677489869225   -0.0569326291513527    0.7679524767099329 N
   0.4766793514810290   -0.0571352540820523    1.0991953047264358 Cl
   0.8400692113590614    0.5916661940721183    0.5571460746773738 Cl
   0.3312131439222822    1.0231806856226264    0.4249833376539565 Cl
   0.6025189164009405    0.7337513778092275    0.5095361919376986 Cl
   0.7268799148218568    0.3082683788955142    0.8542146761921361 Cl
   0.7158325914054517    1.7283677116653149    0.7428947348413916 Cl
   0.1483313778780943    0.1412338370836478   -0.0050536781890562 O
   0.1345624020450607    0.2332849827210576    0.1176718273463575 O
   0.2878057575876524    0.3283511586877105    0.0820495292450535 O
   0.5082685474041254    0.1443190343500235    0.1585604701349704 O
   0.4600476445091800    0.2927722256265028    0.1455019858734901 O
   0.7448973236954813    0.2331145773023068    0.0479561475769107 O
   0.7484917216495602    0.2582787321233888    0.1974137905490353 O
   0.1709997029224710    0.3348688079603535    0.2699614641466483 O
   0.1979814452628293    0.5779664575915351    0.2512992621561964 O
   0.1037989952942291    0.6887263998338180    0.1968394943446445 O
   0.0692616104427014    0.4493622040494199    0.3180956606164719 O
   0.3690360768259247    0.5487755797660211    0.3057299341407465 O
   0.7080253969379315    0.5591917899844556    0.1286070089944990 O
   0.9455861732275671    0.4409214079080173    0.0549606215486787 O
   0.9192885124573961    0.5891244325739439    0.0972583336735171 O
   0.2599344995794203    0.7474167468103989    0.0897342913624329 O
   0.1192184314630975    0.8715578103595504    0.1888436839814611 O
   0.1833872392618783    0.9623781706405203    0.2965502007217080 O
   0.4897845096514702    0.6510660863007248    0.2874078762231003 O
   0.6656857089069240    0.9401710510271738    0.0069608200892915 O
   0.8608082726493145    0.9998788185921789    0.2090798316611483 O
   0.8195404754545348    0.9446431192856520    0.0422568292735049 O
   0.8176587270699441    0.7420747517293060    0.1969441007702935 O
   0.9464694000965321    0.8294411803293762    0.2096610554433966 O
   0.0222898726376679    0.1948886323372255    0.6090518523601830 O
   0.0579969740862267    0.1019074167882301    0.4875733108391281 O
   0.2470298842186254    0.3157053582424266    0.6030013058593994 O
   0.0857983565510279    0.3528236679856273    0.5182924217395717 O
   0.3322452056987547    0.1834929489555507    0.5656612455525375 O
   0.7056063056243582    0.1261508095567339    0.5921374782631906 O
   0.7861462544935346    1.0856500233562116    0.3474020859850482 O
   0.7731347295512907    0.9965752446337064    0.4740444440411202 O
   0.6602808356225537    0.5332938894779288    0.3127378719014434 O
   0.6620899134419764    0.3744952277114711    0.3059135149539716 O
   0.0483150187884589   -0.0391195349786532    0.6085648436367972 O
   0.2695277129370310    0.0933205588593267   -0.1234972478507186 O
   0.4052595585404369    0.1536426451188202   -0.1719431853241320 O
   0.5520131531113521    1.0417763559411020    0.7023150620252253 O
  -0.0949109788478973    0.3030022786647893    0.7524284674889509 O
   0.1842963200819127    0.4330976512198899    0.8397443515632873 O
   0.2297433735292867    0.6071279798617180    0.7873829470847871 O
   0.0963160233482277    0.4119311502435705    0.9617867979219465 O
   0.0395372530226853    0.3581756869148821    0.7157711892557290 O
   0.0065427201701091    0.5836864949461592    0.9163661336989249 O
   0.1374189142605107    0.7341802553127224    0.7774730469595629 O
