Li1 Co1 H90 C51 N3 Cl6 O45
1.0
  13.4783480157000000    0.0000000000000000    0.0000000000000000
   0.0000000000000000   13.1290112269999995    0.0000000000000000
   0.0000000000000000    0.0000000000000000   13.1722118661999996
Li Co H C N Cl O
1 1 90 51 3 6 45
direct
   0.8510320029234145    0.8120243735625226    0.5322900970862309 Li
   0.1419873938312617    0.3816934139559786    0.6836440246005432 Co
   0.0563752699525868    1.0892562181445991    0.2355385689673884 H
   0.3382176734559741    0.1985988946172755    0.1504435210448589 H
   0.0899483754602426    0.2286971246490503    0.3416703268073342 H
   0.6238921489566002    0.0078495718617455    1.1751537319878824 H
   0.5228262024167671    0.0264138030735191    1.0804536153582021 H
   0.6527443495042504    0.0324310117295324    1.0415945379914437 H
   0.8488640814566321    0.1619632339659359    1.0228520517250712 H
  -0.0344926909112648    0.2451918930863445    0.1599256035734959 H
  -0.0604550714338920    0.0705724978888389    0.2053295194894441 H
  -0.1186001793571421    0.2393780508494648    0.2613284669321864 H
   0.2015162024853636    0.3504161156964178    0.2585574820459154 H
   0.2620562626655519    0.5132319030425337    0.0456995331698729 H
   0.1560477222765023    0.4732038848686103    0.2183546668028008 H
   0.3291305064042456    0.3961491864980641    0.0904657429750080 H
   0.5660209618429106    0.5029390258666736    1.0465663681339612 H
   0.5732690311082395    0.6480683861098506    0.3467195926918791 H
   0.6156040412545378    0.3567577966166667    0.3619577320445453 H
   0.6829238640505569    0.5703029716131113    0.3448148252727958 H
   0.1123398435873791    0.3472650787078195    0.1609990755266979 H
   0.8170545451914615   -0.4776843262958390    1.0573079202314539 H
   0.0498128930279837    0.7628386436674955    0.1961617349725650 H
   0.2739471857826367    0.8567573690520999    0.3134617006650953 H
   0.4511988784394184   -0.1449441126980308    1.1224359343200618 H
   0.3636703475967809    0.6607905932214191    0.1532813132379770 H
   0.5375623555245992   -0.2517876499413554    1.1197978048735433 H
   0.5493166150091784   -0.1553637854086969    1.2076501725513979 H
   0.6857810391253615   -0.2370241619186331    1.0541558300265781 H
   0.7240624367713476   -0.1371499233085392    1.1438810798179750 H
   0.7458336508443327   -0.1147666687801516    1.0084991091881288 H
  -0.0296805284767848    0.8690880767650364    0.2194061227117009 H
   1.0242245927928018    0.1332603870047708    0.6596617197903236 H
   0.2607875611911516    0.0472980871417759   -0.4094176529864598 H
   0.2545464402539259    0.1131354899023425    0.3974179876754586 H
  -0.0178393147157146    0.2716302892456960    0.3975728591595132 H
   0.0453991473723066    0.9418346060722735    0.3842410055738130 H
   0.3034144468696307    0.2282949618426738    0.4135157396820220 H
   0.5133665861602731    0.0923281347042449    0.3903204704968975 H
   0.4193426005409803    0.1226959966175677    0.6419258981703062 H
   0.4203894647400324    0.2366847787219125    0.5783412847046544 H
   0.7381791519487839    0.1637676348907581    0.4227785727763699 H
   0.8530092482036935    0.1767609972278379    0.6785659101062236 H
   0.7075151566640074    0.2398342923665473    0.5436187943100366 H
   0.8792802718920226    0.1549916503167600    0.5505095125069481 H
   0.1095205069776005    0.3573732275779400    0.4610757095916715 H
   0.1450656642507278    0.4815973577733617    0.3986812531140215 H
   0.0244752181436285    0.4549760841711862    0.4520732731592389 H
   0.3908361396933713    0.5897969758130364    0.3913286534911353 H
   0.4387089204858244    0.5277261933367376    0.5515112425226837 H
   0.5445649199256712    0.6049409951578527    0.5903597673716561 H
   0.6841895978022101    0.4418035004167950    0.4789113170345524 H
   0.6819675153952925    0.5054802682666638    0.6181204808884431 H
  -0.0558298755324815    0.4074181234684079    0.1993396370914501 H
  -0.0003223312007480    0.5234422454424489    0.2518494210993152 H
   0.9137310814021438    0.4746325530048235    0.6823018050720701 H
  -0.0940890152578641    0.4442533421789724    0.3281312187356198 H
   0.0002593424576905    0.6346088805199253    0.4820818931249025 H
   0.1922198109799620    0.7656385498724961    0.6494606995391390 H
   0.1908791422289436    0.7700539623508391    0.3597834578762494 H
   0.4284557351667463   -0.1568475224291923    0.4976877080091496 H
   0.6860622308556525    0.8440519187241305    0.4176407872102527 H
   0.0904469528817614    0.9803950118215556    0.9475609760823512 H
   0.1285087390444595    1.0129488723225692    0.8244055017794625 H
   0.2898378572321731    0.1055020133010052   -0.1146015629139350 H
   0.3703343690254733    0.3180046878559959   -0.1853049504285083 H
   0.6313530039428985   -0.0159983778875932    0.6399930413153896 H
   0.4545621244356782    0.3543935667852408   -0.0837419013681731 H
   0.6261179410169516    0.1740920986037024    0.6970312978839688 H
   0.0757062739967399    0.4137407625891126   -0.0459115046920714 H
   0.2097731490985810    0.6265747644561749    0.7927115080720536 H
   0.3182092866947874    0.4984710580215883   -0.2059013394598872 H
   0.9926509904860283    0.5565882297420934    0.7456093200490949 H
   0.7562288416968612    0.5417306752296223    0.9046122286930333 H
   0.7956142322047818    0.4365939687302546    0.8370184176426150 H
   0.2168118455240994    0.6673028886655853    0.9171940184245866 H
   0.1006180806668811    0.6655243845881434    0.8645589707163831 H
   0.0567425256425448    0.8369607525738162    0.8858909992970214 H
   0.1567392016765849    0.8203913402823081    0.9657629305024154 H
   0.3460250100730006    0.7740222733758807    0.8664060409159168 H
   0.3423257436686963    0.7800394820318941    0.7379659568066355 H
   0.1464449133974590    0.8886942752478767    0.6981525977954817 H
   0.0792564123330006    0.7730183897039028    0.7145659384095034 H
   0.3198801146014246    0.8946932037763273    0.8046032086908341 H
   0.2448946639495548    0.9904902122679861    0.9973794884677969 H
   0.5505698101322249   -0.2911051576405206    0.7830684806678304 H
   0.4650530985398705   -0.0915486217597398    0.9697478345210554 H
   0.5645669260829517   -0.2793830258410213    0.9475435150816980 H
   0.6570675796161398   -0.2143628971168980    0.8841456584056414 H
   0.5782582182045861   -0.0480769550719800    0.9107911454024470 H
   0.7491359843312078   -0.0403802596961554    0.6836675589927280 H
   0.8749600095028803    0.7291933072166000    0.7735575495294186 H
   0.0185256759663088    0.2655620485669039    0.3279330743369030 C
   0.3692726662126856    0.1449924205400331    0.2847823866791609 C
   0.5981389928876460   -0.0028115508671428    1.0934149920604774 C
  -0.0430909256404029    0.2189241114509103    0.2403631193652657 C
   0.1345487967655668    0.3898928128397738    0.2325534970296301 C
   0.3248970499054570    0.4587578617278915    0.0356275724887338 C
   0.4224676125937139    0.5085709122838273    0.0536776921205091 C
   0.2384495120734635    0.7251861509204878    0.2130237473859802 C
   0.1593114753676645    0.9625094303455425    0.1949819786675608 C
   0.1253777915462317    0.8770010869836848    0.2778875689429655 C
   0.2128484517953001    0.8057002110978545    0.2926413553209904 C
   0.0307564033379406    0.8218499421274050    0.2511578136386596 C
   0.5266320842607622   -0.1718760723015718    1.1283430667584384 C
   0.6973299321958388   -0.1535814729713461    1.0659594664681511 C
   0.2744598598872043    0.1967160414783306    0.6143139827460423 C
   0.3285302844786375    0.1498016174329531    0.4008600823259661 C
   0.3975209351812938    0.1091123384946131    0.4829250848464462 C
   0.3826934504059186    0.1656939033326641    0.5799803412442321 C
   0.7356595553364660    0.0271267280484595    0.4838271732823672 C
   0.9194840119474658    0.0310363903309045    0.6513335816526816 C
   0.8476109605266542    0.1154304075834271    0.6173878780349495 C
   0.7402342999511752    0.0921042031416034    0.5902041367136601 C
   0.0898816016984321    0.4229166249535419    0.4130858953963763 C
   0.5067081588889589    0.4673897379629380    0.3774418437542395 C
   0.5688305791606924    0.5341048153481026    0.4557356800875536 C
   0.4971197063687048    0.5816638423916553    0.5271605105986813 C
   0.6284572484723812    0.6094211497546465    0.3917780844644702 C
   0.4333106328087851    0.6717342962555455    0.4953282713165354 C
  -0.0299157205044953    0.4431983503170174    0.2701773983936590 C
   0.9345199792458272    0.6218211696179243    0.6149812966405717 C
   0.6831746366226898    0.6902688222600299    0.4465114130294310 C
   0.3777210309430933   -0.0080785126211089    0.4995078275337618 C
  -0.0026401226662607    0.7730023945922856    0.3545831163773572 C
   0.3606247221275332    0.2267122074645477   -0.0679890420832077 C
   0.3813883943278659    0.3317939974140294   -0.1036967884190317 C
   0.6668610646816867    0.0676240656473924    0.7772600408418414 C
   0.6967022588348196    0.0210006002990525    0.6731605916431416 C
   0.2091417660841280    0.3944674147623075   -0.0874929798128485 C
   0.3133355440133043    0.4216492027758703   -0.0734065073293529 C
   0.8188693076513347    0.5174289365469822    0.8654973097080080 C
   0.8424671550751817    0.5858851046818441    0.7797068584551159 C
   0.9072740586350639    0.4925575129222944    0.9377630771940734 C
   0.7466238070257576    0.5857626278271748    0.7228409343712443 C
   0.9253230064524547    0.5523389379229754    0.7063478804933709 C
   0.1453431463275850    0.9667001495892621    0.8934402249707417 C
   0.1840422509502304    0.6816002334354619    0.8474145455967507 C
   0.1352669856703736    0.8535073147058708    0.8922726154488005 C
   0.3076575484673475    0.8133923364417884    0.8056698480785631 C
   0.1514640744935517    0.8053620287379468    0.7124258270685725 C
   0.5725116682631705   -0.2128365064654233    0.9036055640466782 C
   0.5450437619909215   -0.1120155095819845    0.9553204929378515 C
   0.0555220496627854    0.3809698255732934    0.3081922743375317 N
   0.5907775566133767   -0.1121289987072688    1.0609261432363766 N
   0.1949033742740592    0.7904065993758176    0.8161692236887352 N
   0.8813035168748822    1.0204467713111509    0.0831237717873020 Cl
   1.6788055540295259    1.5661405692771597    1.1074004944097611 Cl
  -0.0014982913393004    1.3008959183442401    0.6358274538986857 Cl
   0.7647973991985280    1.3097236966129988    0.4087289202290344 Cl
   0.8496060121434159    0.2628520196557526    0.0189864796922788 Cl
   0.2324547121242500    0.5140636564633506    0.6257205712162401 Cl
   0.3194631495554521    0.2053328366081380    0.2270244332140926 O
   0.1444676681171801    1.0578768558394807    0.2099111342260594 O
   0.3694329232410309    0.1990985514373192    0.0207173962787714 O
   0.4327189430860750    0.0835673835698823    0.2598564286597263 O
  -0.0205963291478034    0.1137471125037069    0.2555169904104317 O
   0.5039861339080589    0.4602860803921225    0.0235119155572272 O
   0.4306637208906150    0.5939630168845464    0.0967896619072375 O
   0.5420613490161877    0.3741345812088550    0.3575256745743946 O
   0.8932411816252342    0.5155148860853359    1.0375618060144924 O
   0.1784673837697366    0.6695780028751438    0.1668857102686556 O
   0.2010947858552704    0.9265067191110569    0.1155412582609072 O
   0.3318467146485613    0.7199618427975012    0.2001367697299664 O
   0.2564123959311873    0.2865788635599893    0.6301807181222243 O
   0.2198760192605167    0.1177603621756732    0.6319146714044827 O
   1.0076394742204355    0.0641439863626678    0.6881094857241176 O
   0.4979848865811773    0.1315968953965767    0.4504736177472220 O
   0.6800466568472091    0.1822358954328283    0.5860408268187806 O
   0.7300015919190523    0.0897437816700863    0.4033380260708398 O
   0.3645131808569673    0.6569555747931878    0.4276050211091009 O
   0.4371880367709862    0.5016071662393439    0.3303533208622268 O
   0.6291732115851276    0.4716065825556325    0.5191631445473265 O
   0.7494639176947662    0.6852410255083410    0.5111541631346677 O
   0.7332007970404644    0.4949162587154516    0.6724112869629361 O
   0.9721403166498889    0.5766690260367771    0.5319624376131036 O
   0.0344660567718598    0.6913877184012557    0.3865967223141141 O
   0.1169472331523068    0.9333808087465657    0.3720547454657521 O
   0.2985993167124035   -0.0298836581153302    0.5500803514778498 O
   0.4317967232424026   -0.0787319673224315    0.4605584084679715 O
   0.4447628523107746    0.7558617283144473    0.5406453377335824 O
   0.6550569474549557    0.7809991887289290    0.4010096395924306 O
   0.9176492173590494    0.7137290809706459    0.6194664962866235 O
   0.7495700137829763   -0.0682399357734969    0.4841359369160919 O
  -0.0593674010470669    0.8300859012663255    0.4077617326276346 O
   0.9016658045736649   -0.0615059937826345    0.6535177250822164 O
   0.3244585688695677    0.1647143931641030   -0.1445213671201890 O
   0.6017054536990161    0.1471609006721432    0.7666483074883356 O
   0.6905101053229218    0.0314004695381924    0.8546168287792311 O
   0.1938409295305847    0.3626866513227943   -0.1767938513709784 O
   0.1443971847019356    0.3990069797736795   -0.0178129587713418 O
   0.3417240378817147    0.5039547154543690   -0.1360611327167358 O
   0.6745504343195143    0.6382527192807314    0.7428740163380717 O
   0.9882246320086759    0.4649401247023551    0.9057433978657851 O
   0.8655107802760013    0.6772213812122443    0.8280214472625608 O
   0.2436556397026257    0.9936595293841469    0.9218735665996481 O
   0.5211839388415711   -0.2263104838230024    0.8109028340569374 O
