Li1 Co1 H90 C51 N3 Cl6 O45
1.0
  13.5084735792000004    0.0000000000000000    0.0000000000000000
   0.0000000000000000   13.1583559849000000    0.0000000000000000
   0.0000000000000000    0.0000000000000000   13.2016531822999994
Li Co H C N Cl O
1 1 90 51 3 6 45
direct
   0.7697300682151376    0.7686704560894174    0.5647023511491146 Li
   0.1389252663224397    0.3669515782853852    0.7112347568476391 Co
   0.1230441233685587    1.0176354486583501    0.0149878646535939 H
   0.2497801302136332    0.1969721368896144    0.1897796099096967 H
   0.0652529898683196    0.0458993127251672    0.3038577468826618 H
   0.0753192641370407    0.2716957574641243    0.2680675323182096 H
   0.4174534048231053    0.1795839464300645    0.1440103421023803 H
   0.5733001766775961    0.1221732789525391    1.0458936013871594 H
   0.4782553892356655    0.0186253888085444    1.1599134123316062 H
   0.5805991508675312    0.1215820196790457    1.2198725696484547 H
  -0.0393709701752622    0.2860258151260682    0.2035475825635832 H
   0.7097869521219310    0.0998201825370346    1.2254074825105779 H
   0.6286778620699602    0.0120386997039588    1.2834744525645849 H
   0.7777442971630105   -0.0353570388454220    1.1134911959972404 H
   0.9130830524473267    0.0811331976065332    0.3719605812462717 H
   0.1241508361227679    0.4363569052918913    0.1972817006427564 H
   0.2408797907863032    0.5377954133799625    0.0670169545346185 H
   0.2716693539121047    0.4078343451460272    0.1171879437928446 H
   0.0431350208581085    0.5375376304165063    0.2294382793786052 H
   0.5262677717004510    0.4853194049186937    1.0774896442645205 H
   0.5214379884079509    0.6549009242635633    0.3164781359884278 H
   0.5699157084227671    0.3480943593224127    0.3418938922855148 H
   0.6168808223033519    0.5673087507942757    0.2897299708060973 H
   0.0008511908864155    0.4377187775516602    0.1533637161302297 H
   0.7903511989718294   -0.4766591290657854    1.0064644486278749 H
  -0.1382622321796487    0.4334302478854346    0.2659382535368455 H
   0.2584369188074283    0.9278719553043606    0.2061033230859321 H
   0.2436143706619213    0.8609281820084526    0.3121029263686629 H
   0.0189094858203163    0.7629562164012463    0.2107451659789237 H
   0.5030153081146577   -0.0855798782911981    1.0715358444703111 H
   0.3462070131151684    0.6892190412470378    0.1437179544788987 H
   0.5232839408654066   -0.1011038541005174    1.2033625161733166 H
   0.6361309617417858   -0.3002997113191439    1.0728834029733516 H
   0.7685278598453477   -0.2078071536321017    1.0707995730453783 H
   0.7035308788872668   -0.1015514784091134    1.2045813029250829 H
  -0.0470876081350466    0.8584369893368441    0.2843389793130454 H
   0.2122629379839828    0.0519692199454655   -0.3962848695278742 H
   0.2327811703641963    0.1603019023592733    0.4468645335274754 H
   0.3227284166519562    0.2518163743329658    0.4448619055508939 H
   0.7036700507921441    0.1982253329590112    0.6486789550403897 H
   0.4096116602041494    0.1166900711655787    0.6559212298282314 H
   0.4805759326942741    0.1151488451930277    0.3898537948262732 H
   0.4110973943163220    0.2359291312579269    0.6035717255308010 H
   0.6120823526894492    0.0519031022632111    0.5455532342537442 H
   0.9319430663864506    0.0558542037579313    0.6057100940828434 H
  -0.0107667020664679    0.2361328041182048    0.4357639540791015 H
  -0.1331498855036825    0.2298827832117652    0.3681709043543596 H
   0.7474440565325483    0.1774818601183898    0.4927330843550243 H
   0.0538941935468563    0.3624183371974825    0.4591960951699421 H
   0.0844572321891876    0.4900540389467966    0.4217502546245481 H
   0.0226330745518700    0.6174866758145203    0.4739400062023095 H
   0.1550995586078704    0.3916233534199495    0.3633313589491174 H
   0.3554404767828959    0.5891943875965079    0.3808564368166526 H
   0.4299756190472544    0.5229777568107264    0.5420456432452118 H
   0.6412381264851236    0.4262826984417254    0.4365138601600515 H
   0.5267245220478404    0.6174935155747535    0.5586951489521710 H
   0.6576855806476803    0.4885400200205067    0.6045087293915437 H
  -0.0909978246759689    0.5181812381519800    0.3632033446787331 H
  -0.1297986556452842    0.3978300558449120    0.3825584963761422 H
   0.1604747032957057    0.7909612346894637    0.6841881441947082 H
   0.2471884236233411    0.6830374179429303    0.6663282597738601 H
   0.2848433072056891    0.8198683413551063    0.6469602309013236 H
   0.0725765412244350    0.9040908689468328    0.4249125100953987 H
   0.6519602853693828   -0.0528630251756550    0.6209627292808328 H
   0.4175481601625961   -0.1268038731901416    0.4706211794315272 H
   0.6746386433795513    0.8213229303647033    0.4218871314213437 H
   0.3271286177295616    0.2856336688726972   -0.1184166397429660 H
   0.6971756086565732    0.1081874892223338    1.0327073740566766 H
   0.9704603716133832    0.1696108160366784    0.9812138231647750 H
   0.8616768002213719    0.0914711152123574    0.7032546956730850 H
   0.0386585713432566    0.4350649505811729   -0.0412785733252431 H
   0.1919260732457635    0.6297070474311970    0.8283261528004215 H
   0.3048129950033814    0.4645860397237503   -0.1778228360102252 H
   0.3686099884199417    0.6599532271558312    0.8209361692390594 H
   0.4245689385979948    0.3439205856334333   -0.0407036453298481 H
   0.9741336215708324    0.5438619007201442    0.7523599093192943 H
   0.7441379835156261    0.4810640100909312    0.8653715131993527 H
   0.8145078883332728    0.4097418782777348    0.7828772994095110 H
   0.9175032409793559    0.4701330092755515    0.6560530315030650 H
   0.1938382063856448    0.7229481788770965    0.9425913875531793 H
   0.2428563279459947    0.8848232643698674    0.9140048162511865 H
   0.1774714423168733    0.9089448187923375    0.7910815749274602 H
   0.1064130807357385    0.7337937586868971    0.8436499912020569 H
   0.3122653543991172    0.9250038158465660    0.8020536856169159 H
   0.3595127355527323    0.7529564869402866    0.9147850215677303 H
   0.5043314368316264    0.7547857428159920    0.7854065281007152 H
   0.5198268515261708    0.9383899865963261    0.8188349172506197 H
   0.4235281104157753    0.8392621015097065    0.7203131653124735 H
   0.6047195667005758    0.0224434949653966    0.9663194764276838 H
   0.9710873854614201   -0.0061755817970916    0.7852057956649053 H
   0.6888697109293302   -0.1376714922273603    0.9730610563473354 H
   0.8430025955807808    0.7256111255278948    0.7678625132109339 H
   0.3193771867935579    0.1669889079472794    0.3138443749344246 C
   0.3414411156492155    0.2433137923897209    0.0367555929851705 C
   0.6280353024240380    0.0653485509349924    1.0320438207971694 C
  -0.0020632760790173    0.2870418995073801    0.2786003040915532 C
   0.6388307486411846    0.0655963022501066    1.2201217808612148 C
   0.0485146072024824    0.4556837117935419    0.2164323324999063 C
   0.2894796563559318    0.4676090617521594    0.0644074328690903 C
   0.3912757617365840    0.5142238896762468    0.0838921137986635 C
   0.2345363649730460    0.7685990185936483    0.1828857763311854 C
   0.0748825012440751    0.9511848980725929    0.1381330478780457 C
   0.1066758787476076    0.9025815618553701    0.2416981075808033 C
   0.2123880446431543    0.8645388154382306    0.2349118362886506 C
   0.0311965883583538    0.8231666257342343    0.2667911770188149 C
   0.5265361958106024   -0.0467976777955122    1.1378525388956582 C
   0.7012700757091028   -0.1632324361922424    1.0539122940870957 C
   0.7062395490997431   -0.0702443758749718    1.1267781682860731 C
   0.3108521673437423    0.1723664794373046    0.4240746604831372 C
   0.2726605835963095    0.1846522087628765    0.6388620027079531 C
   0.3795438662658757    0.1152210426621561    0.4917535479423167 C
   0.3733396123574957    0.1626297007586440    0.6015962153700761 C
   0.3577427354220871    0.0011019230910487    0.4987206905213475 C
   0.8622519947431250    0.0306147285240103    0.6459035450599848 C
  -0.0476028402935280    0.2243402975027837    0.3614906803867857 C
   0.7687358774265737    0.0539770695605936    0.5740989015876854 C
   0.0781160272041997    0.4103224979241988    0.3926678363320604 C
   0.6570615279040024    0.6799108875429919    0.3940116074306516 C
   0.4631856629037837    0.4583285710783901    0.3634025621527632 C
   0.5328396467150118    0.5344456028070778    0.4241339712368123 C
   0.4743101618428341    0.5867636128069593    0.5041303917923786 C
   0.5797811457883331    0.6122390597689262    0.3487309147972875 C
  -0.0913990543166254    0.4405561380884054    0.3302695905498996 C
   0.9463273710868124    0.6206185260279733    0.6062426031484068 C
   0.0408379441515457    0.7759639204181020    0.3718681685777102 C
   0.6632665220884721    0.0309627963225450    0.6109086854298735 C
   0.4078697905649156    0.6793333077899650    0.4789714972650392 C
   0.7758595542384507   -0.0126459949777126    0.4702188055828397 C
   0.6451179134716192    0.0850789792877387    0.7127330540477594 C
   0.1765031611914514    0.3848709901230482   -0.0594338752931322 C
   0.2858989409097041    0.4127840516347969   -0.0342127915847363 C
   0.3504132618572535    0.3187533078686406   -0.0434979923324993 C
   0.8105711000878647    0.4803386155195309    0.8221473811819272 C
   0.8257482404803725    0.5685753983921311    0.7496784269692306 C
   0.8918141801120841    0.4815701523481892    0.9051733465564427 C
   0.7350000154634792    0.5795693250016565    0.6808370487380184 C
   0.9161603801525092    0.5461510924728652    0.6925734576453312 C
   0.2436262150793577    0.8842654439241807    0.8331013123300265 C
   0.1856581555936630    0.7090467461897676    0.8583080039015153 C
   0.2386115848472414    0.7672128271863836    0.6881982480255662 C
   0.3594609162264482    0.7424566950089430    0.8326369765445494 C
   0.4447521960475864    0.8107836198186789    0.7956749390435015 C
   0.8762594989137926   -0.0717597627533084    0.6955935339531573 C
   0.6243220775577412    0.0015016690780121    1.1261131000647862 N
   0.0067771009850412    0.4013198535105700    0.3078231593410187 N
   0.2587878096739802    0.7763507468579581    0.7996638334094438 N
   1.6605050273140041    1.5480390954367997    1.0358660693673449 Cl
   0.6933802131443118    1.3052960047600148    0.3537977044694842 Cl
   0.2267649465826184    0.5072574798827139    0.6714904920381776 Cl
   1.0618437535153009    1.0995628567051536   -0.1044699015990753 Cl
   0.0006587191030748    1.3105930190739599    0.6539192078363618 Cl
   0.8965201152147655    0.2298250252364625    0.0198592242562097 Cl
   0.2373797654338606    0.1941001975650235    0.2647982447976235 O
   0.2591757143450208    0.2151013013744293    0.0744008782488617 O
   0.1458646143879634    0.9682478199343855    0.0711270458429365 O
   0.4006868916658569    0.1532531494522661    0.2693688844869694 O
   0.4255942209823291    0.1991236214696400    0.0708179936398783 O
  -0.0316617349763754    0.1214323049272742    0.3346523749785631 O
   0.4652625815012483    0.4479217998862182    0.1000673607204886 O
   0.4006743069723308    0.6075804230767479    0.0891709981200178 O
   0.5049834868170195    0.3799927211300477    0.3194815477166772 O
   0.3723580062624579    0.4876086726687506    0.3527531383223831 O
   0.8628642030693664    0.4958777907960351    0.9999054216026768 O
   0.1016279360914516    0.9790827601171567    0.3155327998378969 O
   0.1745051560251565    0.7273925030819676    0.1295992681730124 O
  -0.0127262128760947    0.9643088780134130    0.1213533312061215 O
   0.3277867231733690    0.7368435317775516    0.1982588509906609 O
   0.6253399571811777   -0.2276842568431826    1.0835002551254684 O
   0.1995057601289401    0.1213692271384567    0.6312932536565868 O
   0.4852319731885048    0.1334794026180428    0.4640569257881891 O
   0.8191035222985781    0.0320905967876662    0.3988519103167836 O
   0.7799569823953393    0.1599424349603500    0.5555389533284392 O
   1.0045900604562363    0.5695012739357005    0.5415300260034920 O
   0.3405890578698879    0.6575965497688091    0.4134443251711812 O
   0.6015371197906455    0.4735449096718867    0.4788034274051996 O
   0.7376035664712076    0.6564565897299399    0.4309592527947924 O
   0.9135538680404217    0.7078862668701988    0.5926215817871510 O
   0.7002514558095765    0.4867353112843050    0.6636687443696020 O
   0.0273382693784615    0.6824157597350670    0.3815245349614990 O
   0.0647140688749655    0.8331245566604354    0.4482577681281738 O
   0.2914695184852392   -0.0296876375854463    0.5548629773823385 O
   0.4170514349063590   -0.0557387643670421    0.4440113302596830 O
   0.6249490914057781    0.7726428368381966    0.3960492310243441 O
   0.4115630279767886    0.7643370879949964    0.5225504333312697 O
   0.7473500414691472   -0.1014443221654597    0.4796959595628992 O
   0.2552433677561514    0.2689036153422543    0.6770397970372078 O
   0.6771385557347117    0.1832986962100592    0.7174195883132521 O
   0.1619685804448658    0.3464087384116049   -0.1413372539888921 O
   0.1077633443234828    0.4118834832040903    0.0049868444649241 O
   0.3284004120517900    0.4794081801358059   -0.1109175789334658 O
   0.6934838517968799    0.6581862890955840    0.6548653014677827 O
   0.9777654160672543    0.4532551409267352    0.8856454892161481 O
   0.8392086806206988    0.6602974950875695    0.8092755084207316 O
   0.5924043336711271    0.0453300926790919    0.7776711332535823 O
   0.4781542675218026    0.8911690419195720    0.8619696665230430 O
   0.8269741376850350   -0.1473011146623671    0.6809824850688694 O
   0.9424349994067908   -0.0712802195636242    0.7719173084142930 O
