Li1 Co1 H110 Cl3 O55
1.0
  12.6374675344000007    0.0000000000000000    0.0000000000000000
   0.0000000000000000   12.6399408488000002    0.0000000000000000
   0.0000000000000000    0.0000000000000000   12.6187345471000008
Li Co H Cl O
1 1 110 3 55
direct
   0.5574388023648017    0.1054320934363011    0.6026899722244969 Li
   0.5025053279079702    0.5384776326106125    0.3796628541331050 Co
   0.1389237806167273    0.1482922623627587    1.1533046138168095 H
   0.0749690366935515    0.0436895576653294    1.1677830862276575 H
   1.2318531956599887    1.0019236305051467    0.1948455896685022 H
   0.5046260059573537    0.2203052575886355    0.0686464059028070 H
   0.5453264072521470    1.2242980888687591    0.2466114777265976 H
   0.5057496488044152    1.0333082710462185    0.1323044531500730 H
   0.6147999784095096    0.2025195730914377    0.1054451830120946 H
  -0.3069930919418339    0.2542492455496814    1.3080824160369899 H
  -0.1993940024645639    0.2435545752488443    1.2375127407120856 H
   0.0346221872466930    0.3950972148001877    1.0798978869740710 H
   0.2831362183570493    0.3686611733663606    1.1478365536288047 H
   0.1858936342194557    0.6306631905921297    1.0619880086771272 H
   0.3146354090704124    0.4912638040698993    1.1138711826638927 H
   0.1756542409511632    0.4955201531021899    0.3112407792588519 H
   0.0240278731853072   -0.3409734766131574    0.0740215883148649 H
   0.0449399189951679   -0.4528553292987464    0.0169067407594393 H
   0.4457558250469090    0.3878250288699246    0.0453664962649969 H
   0.4101925289374138    0.4152990498447118    0.2600787552389101 H
   0.5585387062784746    0.4167531705735872    0.0337956054236839 H
   0.3863467703485426   -0.3595819497708724    1.0123316823901141 H
   0.4758987313660022    0.3366689350452144    0.3319892940186120 H
  -0.2215843660984685    0.5008991339703207    0.2283307223038588 H
  -0.2070513910779539    0.4064255905982116    0.3072490953216083 H
   0.7273011576315302    0.6528294335636385    0.0914896631980677 H
   0.2741320409227448    0.6705747697707533    1.1427092566119363 H
   0.2732916826807876    0.8182281506152675    1.2571264348647120 H
   0.2056650005410597    0.7183257843696311    1.3097703824428524 H
   1.3577803243088344    0.9821371455055951    0.1965280087669275 H
   0.4873108279436926    0.9477540732112923    0.0449786602278941 H
   0.5482795305656916   -0.1396726928170401    1.2087776881878742 H
   0.5207518634082450    0.7081611798404731    0.2556837028037398 H
   0.6262714223206717   -0.1638215400032181    1.2987233159181002 H
   0.3979883432823230    0.6781657863069667    0.2806101325361321 H
  -0.1015990924767950    0.9970185442597559    0.1570089905849811 H
  -0.0641857421585464    0.9701908870692405    0.2739692130614246 H
   0.6811123149372876    0.7606463938090957    0.1349053478655849 H
   0.9549147987483196    0.6759592886394837    0.2872906756353903 H
   0.9514172625623960    0.8201031593897155    0.1763389795858241 H
   0.8653082381840662    0.7481676961722333    0.1283309960801228 H
   1.2025356129250400    0.2212221922593464    0.5591293443383730 H
   0.3117123550724933    0.0983192436947189    0.4581960855202211 H
   1.2786505463467599    0.3055967959665504    0.5051643451177104 H
   0.2969783904159550    0.0122193945721402    0.3714885003882831 H
   1.0574590780093722    0.1345160902996962    0.6508001846815393 H
   1.0554412686713395    0.2554945045416565    0.6609715691037195 H
   0.5351906739929848    1.1665367426145705    0.3569537624305732 H
   0.4544909612361425    0.0372725181419442    0.4531099970728855 H
   1.3712798644291646    0.2143313372275154    0.6129556608731079 H
   0.9356466978145543    0.1916706299167535    0.5092360687765465 H
   0.8524971271320063    0.1924973742919847    0.4182966805425874 H
   0.7367706181602517    0.2131193062391382    0.5752632917829517 H
   0.8817672320001777    0.0406617745089206    0.4494178677372456 H
   0.6876088697079739    0.2929836040294113    0.6495179641910767 H
   0.0998990315000591    0.5763267021373436    0.3594302389649957 H
   0.2028551021256264    0.4792289376239506    0.4809226116175552 H
   0.2208634569942353    0.4616536971495389    0.6094109314207969 H
   0.3442244069437709    0.5123809914992488    0.5228610483145710 H
   0.4177122317371498    0.6239226527194316    0.5605209260325957 H
   0.9160620777689410    0.5778243357280735    0.3654015191847952 H
   0.6881770215137415    0.6061100693621784    0.4685378515279695 H
   0.7145422722329252    0.5287457832711689    0.3662550120576186 H
   0.7594990642842985    0.6387075320345703    0.6638522066085598 H
   0.2570938171319508    0.9353331290092549    0.5758893450508537 H
   0.5684235981414969   -0.0183227578491388    0.4411507947109750 H
   0.3390176675538665    0.7937905362549658    0.6477665999859331 H
   0.5198664011928494    0.7809146848608155    0.6021154296685109 H
   0.6651273084911687    0.8597552436830989    0.4694904034621698 H
   0.6437203296590888    0.7413219362881422    0.5962812471896569 H
   0.9451027062810223   -0.2319405296646090    0.5742124732598655 H
   0.9182302336851018   -0.2615751620161965    0.4598610702238440 H
   0.8063684230690149    0.7035725507722045    0.5613015114362457 H
   0.7497605625105059    0.9169707013067522    0.3924628698079826 H
   0.9149621738552680   -0.0786573756390948    0.4704152188591845 H
   0.1713804416434316    0.0733285413031022   -0.0341731751857085 H
   0.0453970517224548    0.3176490675572409    0.8897361880300616 H
   1.0450594418027150    0.0461938415364841    0.8183661154892319 H
   0.2390474799699201    0.0708506816062372   -0.1438428884865594 H
   0.1194784289803271    0.2283369407439913    0.8479649630286499 H
   0.3942091050868543    1.0996851639475529   -0.2404611345911336 H
   1.4559329008929918    0.2565862818027272    0.6976725551076157 H
   0.3982700452918680    1.0054283937417725   -0.1646746128578762 H
   0.8200855700787405    0.2758339984582286   -0.0101195746549203 H
  -0.1923878519238018    0.0690100084355072   -0.0951842850657346 H
   0.9267050329048400    0.0408374873565176    0.7876118430579137 H
   0.6752044857146390    0.0230050542228294    0.7247862089152102 H
   0.1200212592571469    0.5553345152929574    0.7465839572530745 H
   0.1317902311334463    0.4301851954565296    0.7677944834750965 H
   0.3153198816497843    0.5561098353769062    0.7650778877758962 H
   1.0398685283684030    0.6412597591680590    0.8773815418951344 H
   0.5038315429866146   -0.3792980230485143    0.9680403948672742 H
   0.4080014253856439    0.6134344707266665    0.8288426018204530 H
   0.4680894135789250    0.4302738034661237    0.7527375061458075 H
   0.6473072824941096    0.3994429629850152   -0.2341617707600537 H
   0.4936111408650330    0.3647244460829632    0.8547723017264706 H
  -0.0681612222033611    0.3893867450390216    0.9985981341208207 H
   0.7608031230251134    0.3877285094309025   -0.0102402682153019 H
   0.7552466300166164    0.3526587250622451   -0.1804796842186835 H
  -0.1966070516847396    0.5180044355367063    0.7529031328964296 H
  -0.1156620366162149    0.6059391824865326    0.7812039104955647 H
   1.0366875112943277    0.7133344635434747    0.7770957331021419 H
   0.2883184275157856    0.9462667244788191    0.6944765135513513 H
   0.0072860932816926    0.8831968090784093    0.7318471388101556 H
   0.1289929934824870    0.8644467213339322    0.7004985120105760 H
   0.4033177338280688    0.6893351423734868    0.6911180151344289 H
   0.6171865325128458   -0.0780893350061608    0.6675855445137324 H
   0.4763735100337746   -0.1582234125399304   -0.0842687689744911 H
   0.5634985607611374   -0.0951629908548342   -0.1392045469966474 H
  -0.2965867348420414    0.7692065604502452   -0.0322692600260444 H
  -0.2544778234995234    0.7625174468688294   -0.1503475026928122 H
  -0.2107071868198017   -0.0437280191427853   -0.1233091337718643 H
   0.1354009229018558    0.3183326150598244    0.2022845289416620 Cl
   0.8103075034159669    0.1271204860703557    1.0689696913229711 Cl
   0.6725694641085019    0.5161753130529413    0.1123555431337472 Cl
   0.1406385229051655    0.0745934997543531    1.1360921113119593 O
   0.5415321343988654    0.1802544372520782    0.1236371815158397 O
   0.5559582842191313    1.2336177527350012    0.3237491650570359 O
  -0.2261311631401693    0.2634913774075288    1.3088907379778254 O
   0.2595784921599600    0.6192335484974267    1.0846606466450723 O
   0.0722184064818119   -0.3779578269034027    0.0256697113716876 O
   0.0064602949188804    0.4199343563466059    1.0074579765703708 O
   0.3443763361174582    0.4201234395099363    1.1298315786329391 O
   0.4672807072481526    0.6488199211295030    0.2625584016632967 O
  -0.1895676666372334    0.4799805234196153    0.2987942063149671 O
   1.2930205140246724    0.9673902410517110    0.2403992858695294 O
   0.2753269005699721    0.7445861920701555    1.2829451886219876 O
   0.4978335058170892    0.9550484111439539    0.1200147897594092 O
   0.5905601535263872   -0.1979641048429081    1.2358485484809536 O
  -0.0440365311471735    0.9694393012735758    0.1986407404279740 O
   0.9353460046582985    0.7418883946351906    0.1611710561077930 O
   0.7313375676053756    0.7321059121474075    0.0786385330475195 O
   1.2778829875005275    0.2300671703599056    0.5272893845943639 O
   1.0803671487293929    0.2006018425980785    0.6109301011860732 O
   0.3195177163706724    0.0235802705222546    0.4467876515395661 O
   0.5351708915484943    0.0541366793393629    0.4529871638367781 O
   0.6731969632477413    0.2255149338670060    0.6134588809049026 O
   0.8693675957935206    0.1623579927428877    0.4903768084353666 O
   0.1724027983747015    0.5485291036989494    0.3707713127839143 O
   0.2518759995731317    0.4513079208864786    0.5383198091968047 O
   0.4341838863177352    0.4023939261616776    0.3352685451864330 O
   0.4196667372528130    0.5573440183676819    0.5165149286065213 O
   0.6597670573320179    0.5593614328718345    0.4142883546830325 O
   0.9652649737057589    0.6376070522011286    0.3640757127073268 O
   0.2478791544882673    0.8998899251715936    0.6482397060630691 O
   0.4029133806626826    0.7454746455949254    0.6390826864293884 O
   0.5955848944269790    0.8038886847769281    0.6018626309438770 O
   0.6739850958362434    0.8947949646199297    0.4033110257374898 O
   0.7464687637472835    0.6699220768429391    0.5926461758733702 O
   0.8701351546397528   -0.0319326316656236    0.4255493887803585 O
   0.8972450165695596   -0.2134214556594310    0.5184461840671253 O
   0.0799769229514374    0.2933388272107307    0.8253240239603454 O
   0.1667022891703137    0.0903410418022968   -0.1079795459056662 O
   0.3506719012521208    1.0419633748405046   -0.2080632742134498 O
   1.4235925606398918    0.1917260099227499    0.6709052117785950 O
  -0.1974917226023556    0.0268566940827281   -0.1591534570129732 O
   0.9981592224045935    0.0345356382456048    0.7558725273202637 O
   0.1726765874064503    0.4947875547371526    0.7454863828530184 O
   1.0325015460401339    0.6400564307520528    0.8007058660269580 O
   0.5025670491347806    0.3765195962172421   -0.0024635771664714 O
   0.3893521193155422    0.5820086907525687    0.7590566817891627 O
   0.5009235236465083    0.3638541888458778    0.7733798295917717 O
   0.4375326585210902   -0.3418033855601598    0.9552340394124684 O
   0.8139656730511536    0.3467093301323519   -0.0486823955292077 O
   0.7237608913655069    0.3828716829050229   -0.2486798667954523 O
  -0.1925690591153350    0.5932452939692273    0.7782693848613355 O
   0.0526553888655820    0.8232993768786474    0.7045702356694121 O
   0.4948859215880020   -0.0856107309634074   -0.1034466032570592 O
   0.6113815720015481   -0.0028036187687828    0.6871096892748740 O
  -0.2897008615637817    0.8094939325267011   -0.1006150990466618 O
