Li1 Co1 H90 C51 N3 Cl6 O45
1.0
  14.8456027103999997    0.0000000000000000    0.0000000000000000
   0.0000000000000000   14.4882719319000000    0.0000000000000000
   0.0000000000000000    0.0000000000000000   14.9741306164000001
Li Co H C N Cl O
1 1 90 51 3 6 45
direct
   0.7598476177594046    0.5399496573967255    0.5213875521861179 Li
   0.6070670237851983    0.4000828734541734    0.5531049194354615 Co
   0.1968775475617756    0.2811584076449481    0.0807416029132161 H
   0.1103852693398560    0.1446341893463615    1.0594568535968898 H
   0.3031453785670344    0.3175119494942229    0.1932843637032347 H
   0.0843533184963064    0.0402663249725113    1.1181333819716126 H
   0.5244154788169078    0.3687789331270040    0.9986526557890509 H
   0.4570727767722386    0.1700029843087708    0.1056378729906055 H
   0.5067004014886048    0.1059946605860406    0.2885466554878207 H
   0.5476596681389257    0.2811791140481278    0.3018489302644173 H
   0.6332444722580550    1.0676980345627300    0.1497532888983916 H
   0.4633813114829508    0.3657185267370348    0.3005693902035729 H
  -0.0062883365614116    0.1275872978219000    1.0798546989092230 H
   1.0829614780434076    0.5375996186785100    0.1724243880557740 H
   0.3181235511840496    0.5692113941996185    1.0839310624433534 H
   0.3991199258989433    0.3552466084355880    0.1255969616119289 H
   0.6759089576518539    0.4337962108553402    0.1793530039906698 H
   0.9978298720955647    0.5820093317915922   -0.0079319925037862 H
   0.8942173728251626    0.6201098038557999    0.0004130662646435 H
   0.9247294381711303    0.3803731384807940    0.0960960836433485 H
   0.9422470832996649    0.4172003738134779    0.2039440810577221 H
   0.8008900740264822    0.4592282983901356    0.0568557420801155 H
   0.1430952919285526   -0.0832287342319275    1.0321924994611735 H
  -0.0049047618827217   -0.0830851698365478    1.0599062953823533 H
   0.1524307162089634    0.7094420586673831    0.2576707394267150 H
   0.0578377227553374    0.8362556640880990    0.2019219269323376 H
   0.3259177783540210    0.8689503844955092    0.2642834772568199 H
   0.5858183075051234    0.9391374989270813    0.1238426026662931 H
   0.4408184686981747    0.7420767305055720    0.2281451521772102 H
   0.9551653867017660    0.6498138294306127    0.1742555461177966 H
   0.6469852414258234    0.8612151624809883    0.0549130583447313 H
   0.7755108417144080    0.9871156155214765    0.2329294032189059 H
   0.7244122090217404    0.6909678057503964    0.2030932804118371 H
   0.7728582043800939    0.9027183868010706    0.3108123888743616 H
   0.8348071880583201    0.8213995100200566    0.1794411560199138 H
   0.2669966272856834    0.1297386931122776    0.3813206559014746 H
   0.1060493052664738    0.1609743023089537    0.6162665162071732 H
   0.2299849942305243    0.2621830597710111    0.4548677637912527 H
   0.2570785388879081    0.2402936307562417    0.5592088464240438 H
   0.1320462289029680    0.3822236007116257    0.6315969554747846 H
  -0.1613746638000560    1.0299633756213651    0.6199094655975209 H
  -0.0565328442820350    0.1993225609978793    0.5444222784641316 H
   0.2542527863187239    0.5516730707063572    0.6999541794246640 H
   0.1299816444871040    0.3947944580820613    0.4074236738337417 H
   0.0400236935671028    0.3980363906065732    0.5641792184547569 H
   0.2614616549707880    0.6255825062162119    0.3954443473142082 H
   0.1526961146624219    0.7997544165628085    0.3311955421818207 H
   0.0182057851723770    0.7269072195360758    0.5368162275408639 H
   0.1095244083664550    0.9584337960503047    0.5140567960432687 H
   0.2878815994924903    0.8593729828114284    0.4080801393242480 H
   0.3600309100253423    0.6852742350894002    0.4182984287141122 H
  -0.2238847563913049    0.7825805257655111    0.5067453732431969 H
  -0.0476170728861539    0.8018664696871446    0.4746576940110042 H
  -0.2395594315486148    0.8040006096415391    0.6299821705754518 H
   0.7148551702966904    0.9594566923673852    0.4214592132172314 H
   0.1100201780663166    0.1365248716477261    0.8967575916222592 H
   0.1976757637225582    0.0304721962684823    1.0000657595305680 H
   0.0291706481810015    0.1023537846935986    0.7653062205594078 H
   0.4911114756285672    0.2752529414580790    0.8594332210582759 H
   0.5796865254700141    0.1753086550168660    0.7497627472211235 H
   0.5572599519926865    0.3560279300489045    0.8091237894592939 H
   0.6444929209238015    0.3248820485993407    0.7255716933776859 H
   0.6277175831447879    0.0932402064407445    0.8368663015718183 H
   0.6245907313149540    0.2151374215331447    0.9451944604182102 H
  -0.0083125049691347    0.1434228647603453    0.9047019593486708 H
   0.6857152284271060    0.1050704647907838    0.7330552664057768 H
   0.7437667617202787    0.2734273269110630    0.6939691908937207 H
   0.8101379302892543    0.1577033808199901    0.7910753292899932 H
   0.7744290398965034    0.1482108753889463    0.9052575842602691 H
   0.8298582478614678    0.2522916109720372    0.8719688403078113 H
   0.6832707335347177    0.3166409001337941    0.9285116888837879 H
   0.2676264434125457    0.4214795590946082    0.8802544632383417 H
   0.1805124322653920    0.4857127543558706    0.8103539109582893 H
   0.2067222135447616    0.5040527607589085    0.9286946711263095 H
   0.3432926202537912    0.4636567768381921    0.7355489003239358 H
   0.4207997462658544    0.4887703998920827    0.8681348948541017 H
   0.3601231932439307    0.5816490403762643    0.6997191073466801 H
   0.4388448203006277    0.6086156794507122    0.8414508749109084 H
   0.7463264422358686    0.3581793253392822    0.7862389884128351 H
   0.9692847191457872    0.5325609225287459   -0.1564507985013973 H
  -0.0648491115571596    0.6362207659565360    0.7119715715931892 H
   0.3781258304701561    0.6655603588353850    0.9880717410061606 H
  -0.0330679835555678    0.0087063154593522    0.8036176267235622 H
   0.1021592644829128   -0.0416482060066406    0.7321770852053537 H
   0.1491435475468374   -0.0474577325254434    0.9136640823218083 H
   0.1939291997678974    0.6620402702948248    0.8047001603554144 H
  -0.0423757902304156   -0.0705598665531077    0.9422587307170245 H
   0.2376586469762087    0.6621838346902045    0.9076851041564953 H
   0.4622974888646391    0.5701625083190091    1.0019463361544394 H
   0.3165998676771379    0.6994042846192722    0.8197367595255458 H
  -0.0456804724960694    0.8309665585025476    0.7021439559692927 H
  -0.0779964390053923    0.0098403361401641    1.0212716651109710 H
   0.0607712513462306    0.0899603121770696    1.0673878649552342 C
   0.3292379534227954    0.2356188151316900    0.0697326165337696 C
   0.3609369022078340    0.2917897652508790    0.1524506074295766 C
   0.4412751695901668    0.2472951558847598    0.2113915918920313 C
   0.3972176791157785    0.1878180833912016    0.2826224384315836 C
   0.5027359278900511    0.3193893300491883    0.2567812053134349 C
   0.6557602303933470    0.9911533641415307    0.3094507071499034 C
   1.0627642515751317    0.4165732458825067    0.1331306210202720 C
   0.5575559318923049    0.3844005338992584    0.1917490491939021 C
   0.9633489547501612    0.4342449876335897    0.1330945588264904 C
   0.9305351977405697    0.5569697686397412    0.0083340603469374 C
   0.9349149458227711    0.5363258987975787    0.1077915873414526 C
   0.8355777866135399    0.5489501786882180    0.1410162207271876 C
   0.1919488153689936    0.8491032970477042    0.2014170562193948 C
   0.1932273084265172    0.7722928944523644    0.2751188308513919 C
   0.2895204686226034    0.7458121656392016    0.3026917170894620 C
   0.3242688052218725    0.6748554632227817    0.2296931552362066 C
   0.6340568340216870    0.7941139923366405    0.2185619580889447 C
   0.6514000167150802    0.9147425951275605    0.1076259683774184 C
   0.7015832268233566    0.9967123431818584    0.0643466611106434 C
   0.7289064691270078    0.9376176489336866    0.2638480596578269 C
   0.7007324698519908    0.8706483095562499    0.1844224134906017 C
   0.2032956096545495    0.2232522609392948    0.5122938872189602 C
   0.2002623882435754    0.1197595872065094    0.4923281021821607 C
   0.1082344641066248    0.2668206038698392    0.5482930207118665 C
   0.0438625407403520    0.2615908566400698    0.4700661085786787 C
   0.1096705795958978    0.3759405877734456    0.5642164159398243 C
   0.1717596721023458    0.4440542320119399    0.5189395703340126 C
  -0.1232145425135599    0.6592069441263936    0.5965772262208087 C
   0.0360110575588477    0.8663282636395117    0.5672760259548340 C
   0.2450096452569016    0.7538683369030091    0.4656338646173958 C
   0.2911600113528524    0.6924379603761598    0.3964213656383289 C
  -0.1976480311065081    0.8116688809524455    0.5712095431324850 C
  -0.1092562005019665    0.7673827160450026    0.6046938910952880 C
  -0.1844387324457927    0.9153016680134141    0.5555278313847045 C
  -0.0226635558598304    0.7884404378653848    0.5412090702163483 C
   0.0326161128750126    0.0445884415295677    0.8113790122074522 C
   0.0483359192414132    0.0909514586759411    0.9009267819144572 C
   0.6395945007371252    0.2715810059608673    0.8937831284536784 C
   0.5496175542932978    0.3224883883917599    0.8716910278520120 C
   0.6446148425483599    0.1440309428003911    0.7832311343240862 C
   0.7826968079618588    0.1942895245983176    0.8483447642888293 C
   0.7099399101066221    0.3034654157905093    0.7508105542960007 C
   0.2361693170762167    0.4888811791490944    0.8622994976455119 C
   0.3169541813485064    0.5369487474052260    0.7323540570822451 C
   0.3954178195532375    0.5596415848633703    0.8765120089058929 C
   0.8924026940596365    0.4867317854776907   -0.0564663627866283 C
   0.1464356750013975   -0.0262709407919075    0.9826577372100931 C
  -0.0196343760496704   -0.0370099716943731    1.0040199122968831 C
   0.2598975554557354    0.6580363421332974    0.8391061644966993 C
   0.3930750382813370    0.5877242990692074    0.9776584486425142 C
   0.6930439979033214    0.2277131103976556    0.8195384174597469 N
   0.3024482024266040    0.5625411715219768    0.8300385262158304 N
   0.0573864106644307    0.0298592867343612    0.9828881345592534 N
  -0.0486894443021589    0.8117123643991231    0.2624022328145451 Cl
   0.4845603101489825    0.3379981745868434    0.6079121079810965 Cl
   0.8567066020694634    0.1515294216052234    0.6309444968946984 Cl
   0.5843384080070310    0.5297516157880032    0.4799313223786846 Cl
   0.7397265081064607    0.3820448354308404    0.5047937340630235 Cl
   1.0317591109298450    0.6367770779886324    0.8181433448151206 Cl
   0.2447880308122623    0.2525773593359179    0.0425023211366249 O
   0.3724009029169985    0.1722993244214068    0.0304021194860826 O
   0.3222170192085865    0.2032602286692313    0.3139825228351278 O
   0.4974996298753169    0.1901903469821634    0.1577036669904335 O
   0.4435330772449714    0.1121769023620793    0.3089859055411625 O
   0.6007520225131836    1.0419137311098470    0.2693255062022139 O
   0.6679470040480978    1.0758929387278420    0.0950749893046058 O
   1.0933874609434866    0.3391805102084081    0.1093529467685163 O
   1.1198983414835060    0.4790583513702582    0.1638429215725536 O
   0.5264582385883757    0.4109845876642881    0.1174749541902226 O
   0.6388892413950665    0.4007337447274573    0.2233749253219851 O
   0.8370105341021347    0.4293655927456219   -0.0316655907409198 O
   0.9935289352292379    0.6028261691216497    0.1452167984843437 O
   0.7732461980582466    0.4896993581600708    0.1127107377006278 O
   0.8167486420208332    0.6100340680685261    0.1949465637092063 O
   0.2753438801670493    0.6130627246402864    0.2059856019168042 O
   0.2574187069564273    0.8994101937863834    0.1818179217174843 O
   0.1128311114325157    0.8617569800308588    0.1629026332606179 O
   0.4053386023515555    0.6925242370560754    0.1965813831606401 O
   0.5566617277121877    0.8126579568109991    0.2366812070090018 O
   0.3450197310016787    0.8265229643801699    0.3151625579538710 O
   0.6587934518043211    0.7037740259036420    0.2224947406663520 O
   0.7795436857267335    0.8344535167980200    0.1439559573387935 O
   0.0841411344535667    0.2240501476751551    0.6257321742564468 O
   0.2399367626350837    0.0839464824802264    0.4204608247042030 O
   0.1538270892902313    0.0705563417573115    0.5461681561160447 O
   0.0585766621041800    0.2973515051449640    0.3971319244195076 O
  -0.0391775367861996    0.2318281629229143    0.4865626923422434 O
   0.6561172384652583    0.9879928768028591    0.3972735019210207 O
   0.1627913598958815    0.4496947252594520    0.4272318354959050 O
   0.2249302988123699    0.4890879670955163    0.5629417509533245 O
  -0.1617181998692536    0.6266406034186979    0.5295445532921603 O
   0.1994729288845566    0.7177418752752724    0.5243062525180178 O
   0.0476515415035608    0.8852090522722610    0.6459764213360064 O
   0.0701174532288122    0.9063834201638892    0.4980776179440780 O
   0.2567390444195246    0.8473266876548802    0.4637586973225916 O
  -0.2036834883222149    0.9527636926462457    0.4812114634760920 O
  -0.1698283455028596    0.9606376475620712    0.6295066838722569 O
   0.5302805825583007    0.3915980796445448    0.9354109208089356 O
   0.3270029481726039    0.5377399390707248    1.0266990252751058 O
   0.9252669710794041    0.4792391044657488   -0.1362045479666276 O
  -0.0919817250224129    0.6022726179433107    0.6567570138215026 O
   0.1062177053003942   -0.0159584617949450    0.7921752262003328 O
  -0.0962435930808701    0.7868936695478562    0.6941060936664103 O
   0.7573337420530410    0.9963637853949990    0.0041495102314620 O
