Li1 Co1 H90 C51 N3 Cl6 O45
1.0
  14.3711583719000000    0.0000000000000000    0.0000000000000000
   0.0000000000000000   14.0252473766999994    0.0000000000000000
   0.0000000000000000    0.0000000000000000   14.4955787089000001
Li Co H C N Cl O
1 1 90 51 3 6 45
direct
   0.5504666694278531    0.4767367668258007    0.3099882691638316 Li
   0.6845915569364974    0.5232563099380245    0.5027375243753212 Co
   0.1707304046970580    0.1183855901934667    1.0528271868945693 H
   0.2925278238544801    0.1879187666007594    0.2543809687457327 H
   0.5319686476873234    0.1378148375130328    0.2078143560181183 H
   0.5109383318158519    0.2394814934872321    0.0635103553288809 H
   0.4488932289142328    0.0290880565128392    0.0382985298930593 H
   0.5810499382657631    0.3693344615728842    0.0301263828971433 H
  -0.0547482878442441    0.0433872695401383    1.0169279647627549 H
   0.7981001522623684    1.0495898427257293    0.1225373191488669 H
   0.8502935788873672    1.0027001171945753    0.2221118190005898 H
   0.2130999885707272    0.3287811661675644    0.3219429488271971 H
   1.1053593088126143    0.4403727807725292    0.0834695446658588 H
   1.0711943523564922    0.4607282149643198    0.1860649656466645 H
   1.2552136173011288    0.4655874091139516    0.1137132492328818 H
   1.0346899880996920    0.6745518944654809    0.1467122767022927 H
   0.3736493291521681    0.2623787723283530    0.3037477456347876 H
   0.4111911880641766    0.3144156441494134    0.0564875242957538 H
   0.8696260497161100    0.5711120077359142    0.1753072026672358 H
   0.2892907848631792    0.7403796103839740    0.3286311950812410 H
   0.6253193689919578    0.8324207676860949    0.1768483622475900 H
   0.6290692406867385    0.9290985633485508    0.1033438805433990 H
   0.8341877094779413    0.8290939101450637    0.0508306269999146 H
   0.8863435608437977    0.7814263017212255    0.2129441960537110 H
   0.6723162764451951    0.9451153931388896    0.3065899915931848 H
   0.1292459269276310    0.0764932809728756    0.4605454869077524 H
   0.0966848773663816    0.2670211146879015    0.5832895342983943 H
   0.0417540235290489    0.1315304563800179    0.6750995976788159 H
   0.0727327371775256    0.0005259934532246    0.5305631123080301 H
   0.2540918129425099    0.0244535571522088    0.5036244154928249 H
   0.5681141682193140    0.0012126123584996    0.5639673667861698 H
   0.4345901369378812    0.2199103591872405    0.5762624260990190 H
   0.4695174536517140    0.2237192046617771    0.4590248853200100 H
   0.6425469294705963    0.1630364960334853    0.4389358632914373 H
   0.5284230740681759    0.2972722745144905    0.5417838440405366 H
   0.6810768785304224    0.2373410677825225    0.5422961381785719 H
   0.7013939603163215    0.1128641189552018    0.5333911470366353 H
   0.4528808684988089    0.0442057934272158    0.5611792752713974 H
   0.5234161012036436    0.0557663738323330    0.4599673795987387 H
  -0.0314105727261789    0.2422122831104959    0.3819157182804264 H
  -0.0825546754477208   -0.0138694745607952    0.5382938833417658 H
  -0.0153186200793983    0.2922591722060916    0.5335434003577563 H
   0.2683495362726377    0.4909519955946861    0.4541747167677993 H
   0.3054084835208537    0.6090870954969201    0.5569037647005811 H
   0.4806195510520160    0.6713341259094001    0.3070059805040862 H
   0.4727144819504096    0.6696856701368189    0.5273657235779380 H
   0.0203465633898892    0.6721783177929364    0.6038702924723905 H
   0.3014234185373670    0.8203839033466851    0.4161903071034967 H
   0.0956940038660350    0.7401165134202705    0.4556302640366397 H
   0.2592869404380069    0.7207877990868351    0.5423733341306944 H
  -0.2881692768272289    0.8419935043654524    0.6353612739065936 H
   0.3686455571430443    0.9364224983381501    0.3542127884378639 H
  -0.0383626915056473    0.6669063965202439    0.4975496666491699 H
  -0.1873075395552903    0.8059770273342390    0.5050256013583833 H
  -0.2004101715858567    0.6781368579709038    0.4715982363851935 H
   0.0683684404119541    0.2142812249638286    0.8605126849362307 H
   0.1330876492558709    0.2528595106416181    0.9936822560699993 H
  -0.0292423411060385    0.2606411915680675    0.9219114064273259 H
   0.0416677396006479    0.2329318763908088    1.0694205223405229 H
   0.0365428917565097   -0.0112370789239571    0.9106072699529820 H
   0.4953693711092823    0.2678360735754708    0.8016747442697886 H
   0.4487073009652914    0.1112235061815386    0.6842927456500784 H
   0.5129885214552348    0.1081904045999813    0.7906782878190963 H
   0.6468750426532901    0.1104185292925921    0.6823321478312034 H
   0.6152805122577580    0.2349874551072239    0.6709852396943787 H
  -0.1512505992175371    0.2094520766300517    0.8553117887516781 H
  -0.1622413625166766    0.1042475151439373    0.7950906677098509 H
  -0.0761912357281494    0.1826482713278701    0.7577310002639767 H
  -0.1176791926882377    0.1542444942464186    1.0142278311022774 H
  -0.1628481333680125    0.0475804219616564    0.9599657684557502 H
   1.0392832156107790    0.5000602128381282   -0.0581357020939490 H
   0.2822565571841035    0.7219849259216811    0.7262917587440647 H
   0.1789920908414507    0.6213464158056400    0.8164482144637393 H
   0.3542702371685635    0.5178499881838737    0.7451050814458732 H
   0.3429976594258563    0.4885108265314665    0.8907812246621135 H
   0.4431733002993808    0.4388783329787014    0.7689875360171726 H
   0.4686013827505860    0.5417888885812939    0.6890059069092459 H
   0.5767239125974661    0.5182587510274813    0.8496997327148914 H
   0.4599984575861301    0.4949847230383362    0.9478938116533248 H
   0.5751604338980780    0.6271908759993459    0.7780282237076570 H
   0.5735366260326223    0.6284507468255357    0.9006883834505948 H
   0.3758551360314510    0.5948299494638175    0.9594918308408428 H
   0.4431719086231163    0.7176784065158028    0.7528350246409802 H
   0.9293964577633519    0.5567785707133367   -0.0446095087671785 H
   0.0690190490656227    0.0611644960876150    0.8084464642522223 H
   0.2794697254643787    0.7486332972453060    0.8418435441289138 H
   0.4223155522847112    0.7268768182468018    0.8706088668782558 H
   0.5402075799247911    0.8283138882526745    0.0117469856098572 H
  -0.0661391580694365    0.6046893121036325    0.7300287602869380 H
  -0.0352216781765991   -0.0069113085207348    0.8043817765855048 H
   0.9863403713173299    0.7307705107096331    0.0247102486691393 H
  -0.1534877188127719    0.8206084983157003    0.6684168703489630 H
   0.3380697337731494    0.2489002221878364    0.2354517486359120 C
   0.3873587320340705    0.1174458563231112    0.1206374294960937 C
   0.4161114594974287    0.2079469338376993    0.1742268732568353 C
   0.4622369688576294    0.2803499348490747    0.1051044173603480 C
   0.5160266913000103    0.3646422092202212    0.1455201890770232 C
   0.7067240804094781    1.0569037957167058    0.2332559066733929 C
   0.7828647763564071    1.0039592750208637    0.1820064867696619 C
   0.2748187433883135    0.3231627269426771    0.1976353902132272 C
   1.0002828799735413    0.5492806637477382    0.0843801671573841 C
   1.0881240941145209    0.5050776644459269    0.1248462990573028 C
   1.1680786788643991    0.5708610317705385    0.1420315391227478 C
   0.9198773921139548    0.4785918570998748    0.0960292363936695 C
   0.6758810551967932    0.8082201250247842    0.0358764120387067 C
   0.6662840556765822    0.8673192608715437    0.1208485283464018 C
   0.7767462716593933    0.8362552811570902    0.2556247962852935 C
   0.7648390895400595    0.8914428995434777    0.1608745260420832 C
   0.0959667724138832    0.0752305581470792    0.5275101814186390 C
   0.1717532867514888    0.0743321782710186    0.6030748775233536 C
   0.0464996395911021    0.2479733223157103    0.5308102911252373 C
   0.0876675110103481    0.2748491406079571    0.4311231362334644 C
   0.0164658741262424    0.1432899637576915    0.5465103886908673 C
   0.4963395782171006    0.2291593939112556    0.5300258450380301 C
   0.6538494282529910    0.1673437284392651    0.5144502957940819 C
   0.5240114603096102    0.0561250127828556    0.5369429196863460 C
  -0.0712793143524845    0.1168020174119344    0.4838533524842099 C
   0.1931892762540714    0.6033524372880661    0.4570872600230803 C
   0.2761909361851418    0.6557008900661411    0.5036017879036415 C
   0.4035474061812360    0.5872514735093343    0.3921429746719893 C
   0.3662337821766107    0.6820191424353090    0.4373947037110831 C
  -0.1384840570048551    0.5921034378399636    0.6272877776805930 C
   0.0007100112973462    0.8020811958717029    0.5405196654680213 C
   0.3418606599177338    0.7661659648265219    0.3785367569444484 C
   0.4266854157553409    0.8145494251516021    0.3356781714077041 C
  -0.0354526964365114    0.7072008729612700    0.5645737585816627 C
  -0.1311200020510853    0.6953864645911704    0.6072133808011266 C
  -0.3036447168888221    0.7269866202316537    0.5579847149899532 C
  -0.2053575807062671    0.7314820846114652    0.5257206702496869 C
   0.0226950170862865    0.2032518294854298    0.9209338669799839 C
   0.0762682907275686    0.2006850298395422    1.0099403168713459 C
   0.4966424765560759    0.1499436788397535    0.7263228026926395 C
   0.5830409399136155    0.1590600955820644    0.6655670358698031 C
   0.0090732898090497    0.0345703127565143    0.8516713683821485 C
  -0.1100402816722229    0.1579977257286276    0.8218443425915507 C
  -0.0974052528665391    0.0888467172686115    0.9778801963799393 C
   1.0381142075485723    0.6469245742769103   -0.0722013702603959 C
   0.2986887746775621    0.6915355521224373    0.7937537083245659 C
   0.4293393423918030    0.5146267295285503    0.7494367470703334 C
   0.4032391498886422    0.5372989856007151    0.9147699185240910 C
   0.5481992112900514    0.5892207792376515    0.8377871348484827 C
   0.4034548597096446    0.6840134031601833    0.8063485831940947 C
   1.0064500933398137    0.5599877832705978   -0.0242771021817800 C
   0.5614211795603015    0.1511728906701730    0.5602877620548836 N
  -0.0454017900516489    0.1166487224330827    0.8910833857615741 N
   0.4456894509856542    0.5813278703265469    0.8280255376855408 N
   0.4215396927672347    0.8836626446168315    1.0084598654570933 Cl
   0.6422727692464836    0.4087520907348789    0.6010446032865665 Cl
   0.7042002755037498    0.4905322525525933    0.3532787105185266 Cl
   0.2631662380253892    1.0060825887279339    0.3801572510600491 Cl
   0.5784904368638496    0.3485547924396205    0.8867248153816825 Cl
   0.7739510898820812    0.9630402106660050    0.6837939728763111 Cl
   0.3120217291299086    0.0815056702813729    0.1166030959124269 O
   0.4660754903304609    0.0840418109314902    0.0749172817662834 O
   0.4844037275667176    0.1770975670936381    0.2426739508054412 O
   0.6890428334686022    1.1404367251926106    0.2094065656472398 O
   0.5813449040500307    0.4038315358137122    0.0936823138814201 O
   0.2127110150547905    0.3607920097513898    0.2592452105546306 O
   1.2529730185152326    0.5364376104195493    0.1257589911453997 O
   0.2765423344419362    0.3521604329421910    0.1149984687038755 O
   0.5013203179840465    0.3981104246029894    0.2231597247313678 O
   0.9213309979722581    0.3999841883444873    0.0576975484246443 O
   0.9803749510094145    0.6434722287531914    0.1194894932643526 O
   0.8525529653028345    0.5051354174379594    0.1513433439641181 O
   1.1541619162190815    0.6509073917274459    0.1804874028860719 O
   0.6531508067681960    1.0151904494714252    0.2961592248720765 O
   0.7243705354437407    0.8538763607261088    0.3201851714723437 O
   0.7506384249367775    0.7810926177672600   -0.0019309781321676 O
   0.8479346876189858    0.8736827849936400    0.1036798450535300 O
   0.8477384612656869    0.7774420582708865    0.2690550983042443 O
   0.1568637423972636    0.0944779904917283    0.6831027276213806 O
   0.1725256670783040    0.2862457310356982    0.4179363567444442 O
   0.2563971246747067    0.0392654171087837    0.5751807169575708 O
  -0.0173038462707528    0.1346533959491812    0.6389754793862158 O
  -0.0899924892435107    0.1725963987146135    0.4191767349563855 O
  -0.1158143464937651    0.0372804253826306    0.4898637368744866 O
   0.0263252046223176    0.2870328829271038    0.3672774617291568 O
   0.1999876148063090    0.5098974011810024    0.4455600900248650 O
   0.3837932574443401    0.5060732975085708    0.4219072226999137 O
   0.4687413853827979    0.5928585047357955    0.3271555727256557 O
  -0.3581149258825948    0.6579553957551124    0.5349854952488808 O
   0.4458341853171656    0.7205011731263776    0.4930076610264778 O
  -0.1811911223726732    0.5354228689595417    0.5756443065896201 O
   0.1230564467411260    0.6424576298931642    0.4273668184559224 O
   0.0779438689500648    0.8047606495020490    0.4917630056482885 O
   0.4266478404961985    0.9040922307983922    0.3324758156458401 O
   0.4921628794119879    0.7681117415580850    0.3020265311527000 O
  -0.3402249275020391    0.7949797168514138    0.6146673777866806 O
  -0.0367928806792555    0.8759829226763161    0.5683188315511655 O
   0.1103984552770775    0.1084599185627996    1.0236320779238484 O
   0.4605302866706208    0.2400312164113930    0.7492387556649790 O
   0.2480248002672837    0.6056532879706437    0.8094716044207123 O
   1.0643653969264348    0.6433652787679461   -0.1525713936582687 O
  -0.0873796170568524    0.5551279759410506    0.6928546666669883 O
   0.5997271383253512    0.7975921484910061   -0.0098582228671051 O
   1.0194212119633819    0.7339069972769274   -0.0346761350887897 O
  -0.1455405515041633    0.7512856568793900    0.6869632150930288 O
