Li1 Co1 H110 Cl3 O55
1.0
  12.4602550078000007    0.0000000000000000    0.0000000000000000
   0.0000000000000000   12.3799624418000001    0.0000000000000000
   0.0000000000000000    0.0000000000000000   12.5043202943999994
Li Co H Cl O
1 1 110 3 55
direct
   0.6297810116316005    0.4207624413634835    0.4420371133387720 Li
   0.7951355728914008    0.5266036348372083    0.7021368167554031 Co
   0.2315227097835576    1.0658661755262515    0.0108117549788409 H
   0.2534203354604959    1.1017305815846146    0.1315292321755836 H
   0.1989310814624851    1.0344767426562518    0.3000773779667523 H
   0.1482314770318741    0.2322691393062026    0.0373709754867106 H
   0.3286338844138146    0.2172513231477096    0.2362186490474676 H
   0.3232896920230236    1.0153975248387170    0.2993936142915824 H
   0.5648120363182347    0.0435580659905133    0.1561119358142343 H
   0.6271919795467992    0.1240943361680046    1.0140610084083292 H
  -0.0268702362664658    1.2343884961558980    0.0941244001664846 H
   0.7980239567950586    1.2015289457402625    0.0379999580955072 H
  -0.0522901012533160    1.0578047617320518    0.1378838358748815 H
  -0.1127760222499738    1.2110927873558262    0.1884319652508597 H
   0.7996884492141155    0.2839074219750998    0.3062400480028446 H
   0.2916691513716999    0.3405004854269250    0.2659683668443316 H
   0.0885128758046765    0.5573541320046818    1.1025344299101323 H
   0.1481897443386287    0.4644427031205116    0.2423453315217089 H
   0.0608097509662269    0.4337519799631352    1.0922819734005678 H
   0.2187139831643919    0.4999347332511065    0.3313505692153106 H
   0.4096362394513464    0.3688640609749737    1.1430484273184423 H
   0.4390184631514890    0.4786277219221087    1.0831571271623361 H
   0.5962046522602951    0.4003181143964301    1.0969203702613692 H
   0.5137007228177219    0.6277776089819866    1.1093480749539302 H
   0.7016695885057711    0.3563163653959059    1.0440826322280679 H
   0.6722817469430763    0.5390495530477321    0.0580033644471518 H
   0.7158233919303078    0.4111889066652015    0.2370367662868813 H
   0.9679530632759895    0.4931075719897262    0.2384946624036470 H
   0.8342399090141355   -0.3560751334847398    0.2666289385351975 H
   0.7969164353204691    0.4641793743733262    0.3214859786501407 H
   0.7263544765604263   -0.3537277919530821    0.1990179065002438 H
   0.1918694282342872    0.6770451251693231    0.0254096056178514 H
   0.0077719921413630    0.9681922119997364    0.2150467665486993 H
   0.1778986066185957    0.6815726025557448    0.2315450643484118 H
   0.0752645915683857    0.7229346020292706    0.0429041830798483 H
   1.0055606403044421    0.9159707288539441    0.0520426246192237 H
   0.2747208626033076    0.6825806831584664    0.3193219265974979 H
   0.3990208868829440    0.6678900085417220    1.0792784677183900 H
   0.4250372083624861    0.6786945647452506    0.2501626296793526 H
   0.4883176147029994    0.9523924871686197    0.3158679203833942 H
   0.4067831678265887    0.7911254389537530    0.3081953721967514 H
   0.6519226130536657   -0.0260574925422065    0.2247482135001445 H
   0.6793474129302401    0.6740338074714497    0.0372049528680378 H
   0.8539826831263834    0.9165684689549168    0.2345760167798666 H
   0.7767298500665923    0.8194542809553937    0.2340330044577141 H
   0.0496272350455835    1.0468031128465809    0.3838156360525544 H
   0.3093838771025798    0.2299484537520207    0.5343604042350402 H
   0.1300729401593652    0.2532869736674325    0.4925644499012362 H
   0.0170604457025100    1.1527242742527333    0.5569334024752091 H
   0.6391564216795386    1.0891699618952555    0.3355467189271424 H
   0.4894443974206253    0.2970520498982472    0.3513580541572983 H
   0.3718577188909464    0.2349347370537836    0.6427581394247751 H
   0.4833867364856966    0.2749114334554604    0.4788755810966953 H
   0.4311863602018374    1.0790245353165835    0.5787026785007047 H
   0.6356235886859567    1.1861896423382734    0.4166666819573819 H
   0.5304555966039576    1.0057771402406293    0.5988461164541298 H
   0.7870306023320679    0.1614369373409354    0.3402578906352426 H
  -0.0326132166432883    1.2015531784470588    0.4452280104895647 H
   0.7297163660220607    0.0022231263729099   -0.5189371513224952 H
   0.2813362970344970    0.5354485728178181    0.5794424228276429 H
   0.1831689642444141    0.3553866372118253    0.4318886208967773 H
   0.1945676073629611    0.4364846215328524    0.5633903707948833 H
   1.1088731326406072    0.5756255929290101    0.5116322596171133 H
   1.1065136303686556    0.6447873536391264    0.4107623226430204 H
   0.5254436606555435    0.6039657435271558    1.3840051470011072 H
   0.4603839969895483   -0.3757924792479075    0.5480668669587082 H
   0.6047807207222252    0.6350264193416206    1.4769410261724398 H
   0.9782417772645675    0.5308435507696485    0.3682610120969359 H
   0.9143666800453071    0.6401976789719278    0.5594613287643458 H
   0.0936075548429676    0.9334344328850660    0.4102177108736746 H
   0.2417231430748857    0.8568429242712374    0.5937302846061044 H
   0.0734665545309434   -0.2336006100661093    0.5241663275480341 H
   0.0476692494357603   -0.1379323069054256    0.5990676398904129 H
   0.3534760726199332    0.9089674765898448    0.6018530771776838 H
   0.3797508157768796   -0.2827849272934456    0.5995418759832499 H
   0.4292481976213058    0.9499126735064762    0.4251157617564106 H
   0.7922423736769840    0.6717026210776561    0.5379959477055923 H
   0.7063428475974629   -0.0368184298735018   -0.4106289851755895 H
  -0.1223617008677253   -0.1242270956983930    0.6257048334489599 H
   0.7259459776976973    0.8154534610633427    0.4680401260851439 H
   0.7427642530755942    0.7204337866879036    0.3843938362129612 H
   0.1754436006832557    1.0097028387416123   -0.1487674906754506 H
   1.0733281137206292    0.2794922227968338    0.7716160031122243 H
   0.0996626476121581    0.3092629108528480   -0.0431120876711250 H
   0.3514897569318108    0.2784300224822674    0.8191531731466650 H
   0.3488862789147322    0.1912512442691828   -0.0192710476960445 H
   0.4236849085909765    0.2950859696201829   -0.0190464053377343 H
   0.5002467445568389    0.1380362201447466    0.9813603105396795 H
   0.6829155582027220    0.0603660329757302    0.7320688715323125 H
   0.7498708492042102    1.2151800372354502   -0.0816434903108811 H
   0.8209632946995455    0.1846712566171236    0.7389544916998124 H
   0.7104366642944782    0.2400122968844789    0.7367872407527828 H
   1.0732879861309701    0.4013770836834236    0.7960763490405814 H
   0.3212552232273103    0.5949091732405259    0.9217249219345141 H
   0.2607444231250639    0.3348373018486551    0.7515925236983027 H
   0.3714556404425629    0.4476268201177411    0.8040991761625744 H
   0.4000585863515267    0.5582103543114806    0.7511422793133664 H
   0.5790147954021554    0.5579446022936156    0.7874281380659769 H
   0.6532813332395208    0.6506581307389504    0.8133183897852155 H
   0.1317446555445608    0.9312373341355447   -0.0494717296290820 H
   0.2764519668211987    0.8695893280460341   -0.1293358067230796 H
   0.3281419201645948    0.8536038191294798   -0.2372249177053198 H
   0.3341000646771691    0.7076768820734954    0.8970854379204984 H
   0.5999284925806541   -0.0301180864443550    0.7554695836950555 H
   0.5459633049035904    0.9817786829434677    0.9485716430753939 H
   0.4479661130936617    0.9032808680616720    0.8992047054517267 H
   0.6141368695271270    0.8194058155418014    0.9123521613813086 H
   0.9858339172280579    0.8624002916964972   -0.0731880127230788 H
   0.9013653409957781    0.7160363581612881    0.8338273014223279 H
   0.7424159455973537    0.7918233409094833    0.8952540708840786 H
   0.8929867002749705    0.8362612786323389    0.7803385883813210 H
  -0.0538061215906346   -0.0326256869436248    0.6828010996346348 H
   0.7165063635063046    0.3745030118464475    0.6171461915171845 Cl
  -0.0139507574998412    0.1214198530945983   -0.2829019306538598 Cl
  -0.0893174333352988    0.5230155787175855    0.8344590830637129 Cl
   0.2459389476444644    1.1304624942759656    0.0572433071408577 O
   0.2681840782478500    1.0682248256544140    0.2731027010504022 O
   0.0894903838887707    0.2889777119937563    0.0334759217090324 O
   0.5546958709651906    0.0988737426914219    1.0233857855457333 O
   0.3533324158489539    0.2903000100279352    0.2521291500036130 O
   0.5837787428464767    0.0101426334361111    0.2284237431505312 O
  -0.0944722235028991    1.1905030641479954    0.1105804725602919 O
   0.8472171715098692    0.2202965666350976    0.3186389626459247 O
   0.0687323015029699    0.4888385768091305    1.1483346002925623 O
   0.1903381594128982    0.4294635986171026    0.3018527643514038 O
   0.4477791185258506    0.4016856468166285    1.0798462714720400 O
   0.4378122278063382    0.6258373769245049    1.1340435396197142 O
   0.6519194028464930    0.6159383161982607    0.0808992910756642 O
   0.6765505199310051    0.4098730706861683    1.0944412271116304 O
   0.9262043189947241    0.5247401396845812    0.3040871920805554 O
   0.7291072292110364    0.4231954051258210    0.3152809232634239 O
   0.1319268348016129    0.6754708069844638    0.0774141756136493 O
   0.1993885359845982    0.6676799917494884    0.3059113616046051 O
   0.4251736421673268    0.7148126064680804    0.3193059321255641 O
  -0.0355376351224599    0.9780630012347183    0.1500748223828223 O
   0.7687260010332001   -0.3108270155979982    0.2560749862296809 O
   0.7806158058491737    0.8966734166752438    0.2595689786236191 O
   0.0263706163151805    1.1616338327847995    0.4796521127090812 O
   0.1867186508256528    0.3111142896520770    0.4962655707067171 O
   0.3800894926336019    0.2098958888781724    0.5657911410321463 O
   0.5343921131495094    0.2892273088737571    0.4199655417937276 O
   0.4541762588692948    1.0020291482561516    0.5746928643869016 O
   0.6777936726586421    1.1197274051652528    0.3958402800523836 O
   0.2012986092523685    0.5135107033552261    0.5827156915088946 O
   1.0571647206059678    0.6224763004918731    0.4699578632700063 O
   0.4015280586848408   -0.3653441438342829    0.6006918785152899 O
   0.5668144030422209    0.5700585324210317    1.4444322619669956 O
   0.8400744605505600    0.6236919746161488    0.5821862744878858 O
   0.0806219458085849    0.9802116345706474    0.3475481709426677 O
   0.1061512788600249   -0.1637005595556023    0.5483227785096489 O
   0.3114223586572590    0.8476910386712091    0.6241229801747072 O
   0.4183383085448059    0.9332486487996285    0.3476473366686573 O
   0.7187936361168699    0.7368877946025176    0.4612624686031971 O
  -0.0547692639976308   -0.1105784274738849    0.6623713606335948 O
   0.7341279932291754   -0.0668292640538663   -0.4803440899934343 O
   0.3444626134307196    0.3186482381950129    0.7501106358736365 O
   0.6357616275943838    0.0079343472536188    0.6999215823925721 O
   0.4046034371563096    0.2276544241753146   -0.0635209538862914 O
   0.7472127976651953    0.1861131026714970    0.7788862903297321 O
   0.7306970843133276    1.2169167145558439   -0.0033592671821444 O
   1.1122117481002394    0.3341805954944783    0.8081481767326154 O
   0.3007781142243021    0.6650370111949171    0.9500431344933032 O
   0.4150253747425556    0.5130607827657102    0.8124890764154481 O
   0.6379734603363901    0.5994172644615107    0.7533095302603959 O
   0.2001060172877018    0.9729175898249937   -0.0811460622337400 O
   1.0411618378499425    0.8765683476033370   -0.0125741622973634 O
   0.3424875334677016    0.8386360838983656   -0.1575100690344645 O
   0.5283834078739648    0.9200983665782287    0.8956139465025891 O
   0.6731340569474343    0.7636059693591049    0.9134557799447406 O
   0.8941102727854237    0.7938193081925963    0.8522209441461954 O
