Li1 Co1 H110 Cl3 O55
1.0
  12.2876962629000008    0.0000000000000000    0.0000000000000000
   0.0000000000000000   12.2901011225999994    0.0000000000000000
   0.0000000000000000    0.0000000000000000   12.2694817545999992
Li Co H Cl O
1 1 110 3 55
direct
   0.7797848291896681    0.2154250428852367    0.6932532724302748 Li
   0.4775442854342756    0.5730860544709641    0.4412304028546553 Co
   0.1156310427195301    0.1396591894792226    0.1365818386560397 H
   0.0233177257453122    0.0423786229425113    0.1460166299793652 H
   0.2392774909628255    0.3254094918751926    0.2414273427880876 H
   0.2989094988122014    0.2650511601901993    0.3268832749106406 H
   0.3302823446046168    1.0552098336727480    0.3055580058215934 H
   1.1841209955222354    1.0030865847580572    0.2315320593174160 H
   0.4420648928229620    1.1285290025722607    0.2720798191943546 H
   0.6038804160470636    0.0407080101627479    0.2370049881128661 H
   0.6189410096718220    0.1404533245235676    0.1491626471276060 H
   0.5603433698380662    0.0224612115593074    0.0009852394454613 H
  -0.1554392969711335    1.0453238287661997    0.1385754028903913 H
  -0.1106074596426620    1.0220286583567773    0.2567882197810657 H
   0.8392150091335571    0.2342466943665764    0.0639828472873908 H
   0.9454269443960248    0.2987001917054511    0.0820905395635299 H
   0.6803731922265888    0.1988645607565963    0.3066640020055734 H
   0.7590649159892817    0.3026545936680705    0.3044813507301876 H
   0.1485851450456591    0.5105975531690700    0.1029308655947525 H
   0.0918344746937682    0.6240197281450479    0.2473257174258645 H
   0.3113186597108460    0.6181166034045533    1.0901127402863191 H
   0.1337223102153898    0.6271873180299198    0.0586518967787862 H
   0.4937312089832028    0.4901518304290083    0.2498466062962036 H
   0.4403005262943510    0.6166332958370935    1.0723450786719018 H
   0.3957950316678965    0.4201768162756614    0.3166261179648863 H
  -0.1797253790499210    0.3778329824203785    1.1754871693739435 H
  -0.2828480452429201    0.4351661152376725    1.2148286843339402 H
   0.6953939085635696    0.6645271247102831    0.1925255218309757 H
   0.1549183094025093   -0.0206207773289978    1.0262714130268096 H
   0.0005941822896489    0.6680689995545798    0.3296934995549759 H
   1.2847256958298459    0.9238358129146156    0.2097927548109319 H
   0.0022737485450675   -0.2708345851181923    0.0266347335556761 H
   0.4425629520090829    0.8933641352396988    0.0924330301868543 H
   0.4052296724272084    0.7887661350136400    0.1354416111973897 H
   0.5233103906478235   -0.1358601057829835    1.2485627904908545 H
   0.6713967333656202    0.7832787920432891    0.2322566212979305 H
   0.8345924990401481    0.7682121951005272    0.1163038835658240 H
   0.8414367437383118    0.7226373056498614    0.2921963982754118 H
   0.8805002093164166    0.8834699937035976    0.1106549082149283 H
   1.2257805539168849    0.0655662271092467    0.6446774636128770 H
   1.3390157747614158    0.0438753559487332    0.5932743145138089 H
   0.4067791898951399    0.1043746954238751    0.4403811412307000 H
   0.4550600057052782    0.1530773052746045    0.5482658935352325 H
   0.5990316633821813    0.2895131232774809    0.5879937328807902 H
   0.9784844021414958    0.1872723046328436    0.6254215565806650 H
   0.7043410698253547    0.2633807101430269    0.5120720257841754 H
   0.8143258848049075    0.1283728706266520    0.3852475982229536 H
   0.9035557922294937    0.1762382212964071    0.5271199311230279 H
   0.8543439638230772    0.0093164702436376    0.4284409466136719 H
   1.2031481585475705    0.4135218669644959    0.3850666614854122 H
   1.1417859647019644    0.5354256645862238    0.3990770331896248 H
   0.2984317851810692    0.4881673064811012    0.5022183088613174 H
   1.0653110926108289    0.4218895767965078    0.5077548100240117 H
   0.3444998184306478    0.5568437145578349    0.6015444274680058 H
   0.4240704701688480    0.3616264436772813    0.6133216160151770 H
   0.6279483937763732    0.5496973128216854    0.6122465909844698 H
  -0.0948022187053209    0.4378666625862186    0.6590725296419523 H
   0.9696218783884634    0.3340473378083545    0.5550893276194482 H
  -0.1844724039398602    0.4781983079531150    0.3688271817759047 H
   0.6845684456652373    0.5504247275036982    0.5030480097568897 H
  -0.1267374156376210    0.4749892212575244    0.4958545518940985 H
   0.8679917621094275    0.6303980320514210    0.3914996960323204 H
   0.2233192514519702    0.8635352512994465    1.3558941371882220 H
   0.1713298478785105    0.7450024593014084    1.3692117330955422 H
   0.2598240600347090    0.7049718692279624    0.6632397798178474 H
   0.0601181145509254    0.8276445783424217    0.6464281488031417 H
   0.2297167077625844    0.9006057355416148    0.6092415740866552 H
   0.2015665978803627    0.8067521546399160    0.5262005768890343 H
   0.5738878127050745   -0.1068863816087215    1.3612814877969974 H
   0.3465010072193261    0.7356624222378471    0.3984030030907660 H
   0.5676604452341650    0.8964235079515195    0.5521967849098349 H
   0.4754543900258471    0.9708329852110961    0.5025899627005914 H
   0.4600511772550806    0.7868385674726019    0.4471247023406858 H
   0.7299365918232082    0.8673676038187752    0.6001727313901588 H
   0.8976637195047963   -0.1393173596799320    0.5604473371356490 H
   0.8668931021400433   -0.1938433553015394    0.4519830982527749 H
   0.1713892568990772    0.2829908010280248    0.9002106689028680 H
   1.1258350495909049    0.1866962312605114    0.7290836366455508 H
   1.0682082996412050    0.0719886315477956    0.7186357625980638 H
   0.4713283114741598    0.3002567289388854    0.8626540704078062 H
   0.3637874045598370    0.2487754600959039    0.8238121690519215 H
   0.4470926863717439    0.2760933801561885    0.7002951346480990 H
   0.7265291182737182    0.0895223359372361    0.8167336304683795 H
   0.9285482719774852    0.0085004558024254    0.8103331971354428 H
   0.7960726666913386    0.2436892529625019    0.8972032069140057 H
   0.7364007815541851    0.0043636387418637    0.7134497244855621 H
   0.1436688451382147    0.5345184303910961    0.8290096175893131 H
   0.2540499915289455    0.5438682314101206    0.7832538137804421 H
   0.1960480695452559    0.3553352017071222    0.8070192837352492 H
   0.6400824827715721    0.4945602563206692    0.7616465441905422 H
   0.5909772650732958    0.4248724651905331   -0.0566588415471884 H
   0.6612093070717303    0.3467339706069474   -0.1283299208631760 H
   0.7575495790537310    0.5299025204458411    0.7132647125962743 H
  -0.0826640605991244    0.5306795685681253    0.7405560038420893 H
   0.8338926119485403    0.3563482120864352    0.8407297540120343 H
   0.9954363185579942    0.6440691970258923    0.8571689161571167 H
   0.2180448697767265   -0.0552933968419812    0.9091515518345267 H
   0.3255345058924780    0.9696613105555051   -0.2201153786782779 H
   1.0406522799646505   -0.0241440192916188    0.8812775138889728 H
   0.1054769831358215   -0.2138562093493966   -0.0314453886738412 H
   0.3520667372420065    0.6814301589430928    0.7511717741415288 H
   0.3582493444919411    0.8638444432224497   -0.1442784347379888 H
  -0.3613493346109197    0.6878198541308396   -0.1950686810143945 H
   0.3900518884057156   -0.3004519166900740    0.9343441399309321 H
   0.4819397391340119   -0.2423002389397769    0.8761998748129262 H
   0.6564045008056235    0.8630307802671782    0.7017646343678602 H
   0.4571621084467000   -0.0240081375780884   -0.0715108950931077 H
   0.9805596487503326    0.7069051324096873    0.7415022540776093 H
  -0.3172133152630582    0.8020809156137024   -0.1475923481381824 H
  -0.2205450729346413   -0.0533129412088504   -0.0724644806017714 H
  -0.0172548917196266    0.8731364741716500    0.7393791000177214 H
  -0.1634521903478422   -0.1601129574907603   -0.0475117559371606 H
   0.1313150241491391    0.3014544408090450    0.0712099659036075 Cl
   0.7208339905213104    0.1040939817043064    1.0060586603645367 Cl
   0.5697023251328205    0.5179774761733823    0.1088080494434480 Cl
   0.1034912569689345    0.0589710820252938    0.1376544185956990 O
   0.5920653453540859    0.1198969436215890    0.2217484350045965 O
   0.3768427402849194    1.1204818759446258    0.3199090602118072 O
  -0.0990145624101598    1.0058774486946385    0.1785607918263231 O
   0.8661932150484356    0.3053730416016325    0.0769744310549969 O
   0.2823498446958833    0.3381026339774276    0.3062255156776579 O
   0.1675773137164139    0.5821282908928960    0.1196919647278025 O
   0.0772967618322166    0.6390122817588801    0.3234585173829441 O
   0.4536008225014961    0.4771079995930513    0.3183238261824474 O
   0.3740806277396676    0.6631617982713376    1.0692235124341396 O
  -0.2126103064890888    0.4152207952151028    1.2462399539953917 O
   1.2448972373841698    0.9622569776625347    0.2711702453245523 O
   0.4110021132885729    0.8631609663400216    0.1619015714869337 O
   0.5888800452650713   -0.1098733383175231    1.2841144143266747 O
   0.8967522386413072    0.8075243207844686    0.0875681140319710 O
   0.7284668289308321    0.7362726694543007    0.2016717924106542 O
   1.2930022675992068    0.0151839972298390    0.6517600773481654 O
   0.4297574596992604    0.0843807183565801    0.5160819751026585 O
   0.4636604787100576    0.2902657615111070    0.6150584456895037 O
   0.6752127456592814    0.2668355230511096    0.5845176284410888 O
   0.7340878988630815    0.2427120437532209    0.3503700044859921 O
   0.8804432417624485    0.0760129271582728    0.3903912547572925 O
   0.9118893315528227    0.2269627835909862    0.5895537009693220 O
   1.1680968364132169    0.4690283264472055    0.4382465767459222 O
   0.3690862009010670    0.5100816908554279    0.5364218724994200 O
   0.6078665171804293    0.5590316542445598    0.5337379775592238 O
   0.9858901841573449    0.4117008892705984    0.5416486621293860 O
  -0.1765417066053054    0.5200783539238932    0.4413518423766988 O
   0.2291714468888900    0.7940712174820100    1.3956350170193683 O
   0.1900062535358424    0.8274004794558402    0.6071061945715280 O
   0.4292235923363596    0.7233354284654843    0.4053201656651494 O
   0.5035613673314929    0.8964886009879413    0.4955032738135566 O
   0.8866689815889588    0.7061590034797034    0.3573140630619020 O
   0.6790637523075229    0.9101418653773966    0.6435078950616528 O
   0.8517885621165096   -0.1278341343921857    0.4938715830542876 O
   1.1046675341807695    0.1300099604926582    0.6725294957390001 O
   0.2046249417062485    0.2800079126339995    0.8284635472552920 O
   0.4434166514964044    0.2359016848175986    0.8234348100002024 O
   0.7763504995075931    0.0646011414779993    0.7597369280821670 O
   0.7960344170479601    0.2867849113884556    0.8300691570433839 O
   0.2140490027769663    0.5032477356941027    0.8461334052277952 O
   0.3102826640508267    0.6483124493376331    0.6884886050083536 O
   0.6028183780766588    0.4001883721164624   -0.1320146730722944 O
   0.6787097396507212    0.5473661684548327    0.7176096393883137 O
   0.9689138530748601    0.6324134751916285    0.7833149410566385 O
  -0.1303898496691738    0.4604702194836602    0.7280289873735757 O
   0.1521675903680511   -0.0615302861267281    0.9554778768878973 O
   0.3316983952318230    0.9448364537901723   -0.1459533221057699 O
   1.0019468961543450   -0.0198465770270570    0.8110871002085317 O
   0.0694415871977795   -0.2832820010079353   -0.0239998419240161 O
   0.4029395767576920   -0.2560942670204942    0.8664032100145180 O
  -0.3823060700713733    0.7645816309941059   -0.1795537632854015 O
   0.4935188013891219   -0.0219971695841350   -0.0029271507402124 O
  -0.2114611895433329   -0.1262832927994382   -0.1025725167347159 O
  -0.0175466469781631    0.8189961547908412    0.6755051715442405 O
