Li1 Co1 H110 Cl3 O55
1.0
  12.7403344481000005    0.0000000000000000    0.0000000000000000
   0.0000000000000000   11.7892975720000006    0.0000000000000000
   0.0000000000000000    0.0000000000000000   13.0004136934000005
Li Co H Cl O
1 1 110 3 55
direct
   0.2318955782625158    0.8266626341798814    0.5361860407749045 Li
   0.5929167130480268    0.5525411286140703    0.5748648099170958 Co
   0.2702697671028182    0.4399678398413743    0.2688391638240203 H
   1.1383686419835626    0.3372967525600769    0.1996944411098228 H
   1.0673736454483744    0.2457611887650807    0.1248222083520178 H
   1.0478451157215032    0.4847414997457323    0.0776518632797433 H
   0.3988221223547049    0.4095597516740669    0.0073070249101555 H
   0.4703775437381643    0.3429264348710596    0.0841671944067059 H
   0.6089963537226523    0.2768436173628886    0.1442254370452755 H
   0.5537073812965753    0.0859612525522229    0.1557981456950303 H
   0.5174571555366954    0.2664282385627444    0.2297134858266940 H
   0.4013738607044660    0.4965038629529640    0.1421662718039732 H
   0.5854906913540587    0.4971900785608569    0.0557848668360592 H
   0.7101969937256531    0.4012954764358712    0.0810022951219325 H
   0.9864887986495777    0.0566699399959806    0.0476893552252687 H
   0.9521254935272940    0.3602913371266628    0.2158846951251127 H
   0.7410454774606005    0.2727992712337993    0.0530098782202496 H
   0.8239302717571489    0.3529032803346394    0.1918754591606864 H
   0.2501541256301394    0.7484603499157481    1.0045995961905703 H
   0.1911705877127287   -0.2782734250250546    0.1569411862436202 H
   0.2971073671197465   -0.1925346442514921    0.1669570213601677 H
   0.0331069114251473    0.6793917735203299    1.1195805525857405 H
   0.0132451957825303    0.8077912808493489    1.1430951889049827 H
   0.3367421194142835    0.6084494637777729    0.1742606350942601 H
   0.4990777322214055   -0.0367579333165041    0.1659770525452931 H
   0.5840911990508830    0.6906935494901256    0.2624116760555025 H
   0.4665793702916881    0.6250670780846077    0.2655461916917771 H
   0.4380510768249335   -0.1781631349257455    0.2945775755308627 H
   0.3478634915083364   -0.0803277895240492    0.2968398112330181 H
   0.5091904965703206    0.9998536141793470    1.0028996502872163 H
  -0.0368578060342858   -0.0425559038556771    0.1958737934618778 H
   0.6745189664453106    0.5898860168324878    0.0892628014821663 H
   0.7348556870495834    0.8647115507722805    0.0281416080540371 H
   0.6817000966089418    0.9337597697207400    0.1196454500128454 H
   0.9574471748596166    0.6560010669650098    0.2490636392858652 H
  -0.1224208659712697   -0.0656856957991458    0.1123995267505861 H
   0.7489856143865259    0.6656929081711705    0.2285565995648641 H
   0.7002302224044390    0.7580826365114673    0.1581949924981300 H
   0.8921584649447801    0.5341447823792363    0.2709598655686115 H
   0.2562049871922153    0.3379201993731811    0.3532187863399489 H
   0.0942189727428243    0.4500778569371410    0.5522178382942258 H
   0.2440451808204835    0.3593387782543963    0.6158311985690490 H
   0.2665296769039219    0.1755585329286826    0.4154406524341536 H
   0.0161116040505995    0.2592064342542155    0.6473117352390299 H
   0.3134609409484989    0.2579332455923524    0.5015432970421692 H
   0.4322867069570017    0.2663993988462199    0.3846870157092719 H
   0.5476149195706921    0.2445584029406158    0.4102092804483123 H
   0.4128821928128014    0.4213755531795648    0.5617113823391093 H
   0.4864242182452443    0.3990001742913000    0.4645921652298117 H
   0.6198814682826301    0.1728679570223338    0.5518693878443528 H
   0.6869503512449160    0.1164453418548421    0.4624922320550805 H
   0.8248289922771356    0.3262333283650871    0.3593655138122114 H
   0.9102506116571747    1.1230161682782911    0.4788255584405170 H
   0.7986271683485822    0.2888137961744885    0.4714234863011624 H
   0.8882888648019556    1.1704575019611694    0.5853775522977005 H
  -0.2752504488940615    0.4473058512429582    0.4452612419279183 H
   0.8200386941692942    0.0075840638896378    0.5877967060832424 H
   0.1278064740555404    0.5094333864524834    0.3580678627991083 H
   0.0185189976810370    0.5610904081096850    0.3650022575134678 H
   0.0433584240939908    0.9795385785686740    0.3600747220126151 H
   0.1800272381736455    0.7911482197338161    0.3408768713990838 H
   0.0331473185276529    0.7613983556848335    0.5939157421290250 H
   0.1417236911209403    0.6861402671870738    0.4089970113335224 H
  -0.4219302717521413   -0.0286317494268436    0.4960780863438303 H
   0.4303628956081046    0.7862386821089903    0.5887335993458147 H
   0.5094557957281856    0.6676599464835359    0.4334523869467927 H
   0.5621388711006770    0.7588129599211035    0.5076015657909541 H
   0.7775986779983972    0.6477020144215934    0.6019262564446478 H
  -0.3217037035092307   -0.0967698208508669    0.5428412136055910 H
  -0.3302537145347453    0.5650694407631158    0.3988673336858906 H
  -0.0485130730608234    0.8978543226476802    0.3807740633063937 H
   0.9040105870860885    0.6950865168983793    0.4457773793492533 H
   0.8737994492570184    0.7997322765346515    0.5333776686060607 H
   0.0080715482406614    0.1744838293746650    0.7366019707174066 H
   0.1113242536824860    0.4534733094444280    0.6670195696235672 H
   0.3307257938372550    0.2846464571366916    0.6880535156539789 H
   0.2056278219988717    0.4270451021575079   -0.0228682456044403 H
   1.0345880069157616    0.1129956876450281    0.8860264464159148 H
   0.2720130494389670    0.3250678645267128   -0.0845434367875529 H
   1.1397108359479096    0.1040043970823269    0.8258822065139990 H
   0.6346683642442267    0.1615661810525381   -0.2714451814015378 H
   0.6135464697526631    1.0468793166534893    0.8713730665702633 H
   0.4513733330570147    1.0667872033249921    0.9131178919888202 H
   0.5187632436984925    0.1660991059086315   -0.2987520047359541 H
   0.6225062031462417    0.3518387555041010    0.6724563196891351 H
   0.7464181778617431    0.1490276901800134    0.9139409427203082 H
   0.8665233451345066    0.4171963389643754   -0.2002151404321402 H
   0.8037840188431778    0.2658285421044252    0.8964107313459041 H
   0.8772765950243029    0.2929921621627212   -0.2420922693327681 H
   0.9150385550387629    0.1488504107460831   -0.0068736007489797 H
   0.7288346520200484    0.3988814225173754    0.6974770619263715 H
   0.2957000257290600    0.6357589788726049    0.8521813696070607 H
   0.1800217438123880    0.7684589968716077    0.9100564509502009 H
   0.1750556261443047    0.5537998974176712    0.7590958702883457 H
   0.0453907647758998    0.9240475710676208    0.8055751604286866 H
   0.0870857220130091    0.7921601544930450    0.6940548631372216 H
   0.3013050591205225    0.5075375992044727    0.8487430174857977 H
   0.1152661439212850    0.6318902157235327    0.6855012891800749 H
   0.3654901873313405    0.8230466426638772    0.8619502895041617 H
   0.4711663770329998    0.8835320104854165    0.8466892366885331 H
   0.5684079372955531    0.5970399629844885    0.7705955043404450 H
   0.3695709279282056    0.8322897718099942    0.6899726853502992 H
   0.4415572642160079    0.5815733926577656    0.7356766155492009 H
   0.7236259975478814    0.9973598269269303    0.8251514605374441 H
  -0.0299302013972535    0.8225046256386070    0.8210285148170929 H
   0.7325237231501246    0.6854294529974393    0.8758575392474363 H
   0.6810172259955023    0.5691850379565599    0.9126871364657982 H
   0.7034004688500513    0.6726695748892408    0.7051260492851724 H
   0.9960646854127539    0.5375716192839177   -0.0157792404255676 H
   0.9905938714177261    0.5518116534313907    0.8137056709257227 H
   0.8736189202442699    0.5788853614322867    0.8466353922481554 H
   0.8125294721477115   -0.0797094320726846    0.6812321942644126 H
   0.2244758358385563    0.9966388340138167    0.3623054202568350 Cl
   0.3242463720970895    0.1884397074916755    0.8162363596234756 Cl
   0.8134941250027889    0.8610701124475781    0.8674578065485117 Cl
   0.2169830969007464    0.3895407472712489    0.2999150979848771 O
   1.0665180949096971    0.3211957084698142    0.1647655526367943 O
   0.4565505911791386    0.4204119673568623    0.0521752124737658 O
   0.5348428843731179    0.2445736710258347    0.1540758928092343 O
   0.5584199734380597    0.0019543815786551    0.1380464029087864 O
   0.9860570988364837    0.1306042006825680    0.0074698658819835 O
   0.7277389194035406    0.3280934900809203    0.1109874947619949 O
   0.8803612864160474    0.3771948039178734    0.2447814678632541 O
   0.2673200800162596   -0.2630715015087923    0.1332657858095357 O
   0.0486385366588562    0.7374189796216299    1.1750018658602388 O
   1.0566831882586643    0.5506504307277994    0.0353196873214204 O
   0.3732027007194528    0.5402664363250496    0.2032666351257391 O
   0.6603380200395479    0.5239151652825885    0.0406300029489183 O
   0.4061264831922556   -0.1176200876711571    0.2553203632577565 O
   0.5122783275970693    0.6822044941084298    0.3010319855195693 O
  -0.0430446137920488   -0.0634082064206632    0.1263144685567718 O
   0.7384128935094780    0.8748020586480451    0.1036326518889145 O
   0.6844150959789276    0.6813214898466047    0.1971068311465277 O
   0.9017186535329349    0.6163405191550626    0.2945283463282316 O
   0.1126921141629932    0.3966938451962929    0.6063576538877343 O
   0.2973561831938388    0.2510337675273330    0.4264595325543089 O
   0.3211844430591263    0.3403842986821166    0.6265147047462802 O
   0.5029371285504660    0.2981315692927867    0.3676760185813673 O
   0.4668760657995963    0.4555904839281124    0.5184489129081917 O
   0.6174278435267538    0.1403520248678646    0.4805185814872508 O
   0.6653622209552111    0.4157645318616273    0.6577421725464858 O
   0.7783294280456526    0.3399160774020710    0.4169652193031341 O
   0.8545848830305793    1.1371985229927148    0.5234141395173089 O
   0.0807391068335262    0.5482194122701715    0.4089316287987780 O
   0.1041451642816077    0.7664911103322856    0.6229963551707416 O
   0.1825436556296081    0.7600038705681760    0.4086924056422427 O
   0.3676157202292652    0.8311785944968426    0.6102506069270437 O
   0.5154972383852485    0.6898054558665609    0.5156028496310836 O
  -0.3918164626082050   -0.1043198889916017    0.5072008093132856 O
   0.7108335547227791    0.6747367039824855    0.6277115897352479 O
  -0.0342679211192222    0.9718366778027069    0.3568809774919250 O
  -0.3089089059578751    0.5215392815771399    0.4576239254386434 O
   0.7970416526714005   -0.0752961072174725    0.6064976494327164 O
   0.8928727319082630    0.7188156660093845    0.5183050713317541 O
   0.2688953918796771    0.4106412410437374   -0.0660371026297298 O
   1.0667771147975535    0.0910389935825432    0.8161209786798090 O
   0.5016906934537508    1.0120680823544488    0.9258405640437848 O
   0.5848533454481818    0.1975182806082113   -0.3239465875949815 O
   0.7979152561113526    0.2048037019384856    0.9501859431574263 O
   0.8264851497419143    0.3473923497975813   -0.2134424118140733 O
  -0.0368683238115503    0.2194754836068701    0.6904595929325721 O
   0.6736139666553154    1.0641068061421224    0.8264591112323318 O
   0.2500544422187522    0.7534614960518871    0.9251021260043188 O
   0.3106509676196323    0.5747315940257954    0.8039521351544439 O
   0.0467703360949731    0.8393427789541591    0.8081443094409950 O
   0.1002898494780528    0.5629302123785598    0.7293798928501718 O
   0.4251887771209851    0.8246209518953349    0.8174593976263410 O
   0.5164815139591029    0.5870028934069899    0.7122912058868651 O
   0.7022317397196931    0.6088142013691127    0.8479276588172208 O
   0.9285703819073826    0.5262791738106447    0.8473892144134435 O
