Li1 Co1 H110 Cl3 O55
1.0
  12.7989998422000006    0.0000000000000000    0.0000000000000000
   0.0000000000000000   11.8435837284000005    0.0000000000000000
   0.0000000000000000    0.0000000000000000   13.0602766740000007
Li Co H Cl O
1 1 110 3 55
direct
   0.3710860207561039    0.7049230246230442    0.5117274314949938 Li
   0.6197937353624072    0.5533540366236230    0.8034088479831848 Co
   0.1427806815869045    0.2488380993274019    0.2021405750351105 H
   0.1871325846261053    0.1494788152638970    0.0548598513557034 H
   0.1396429364118802    0.2713220033641047    0.0151186565130802 H
   0.3058488920511723    0.3154201422363459    0.0466838377332220 H
   0.0523425212406946    0.2459377947584705    0.2969057956267918 H
   0.0800210902201210    0.4658762913938890    1.0159464587312004 H
   0.3751277428154666    0.4401374603955470    0.1899968813019037 H
   0.6069982043037985    0.3067048747660374    0.2707394280581533 H
   0.6221509507989232    0.0140226867144744    0.1199103109444586 H
   0.4251582145628538    0.3104841362654659    0.0133928890915623 H
   0.3377318520504794    0.4976352596779604    0.0013312763147364 H
   0.6727970956533621    1.0188313892918399    0.2920291761194277 H
   0.6725767659373868    1.1478970534568624    0.2372079791515755 H
   0.6745300435612814    0.3074234072807858    0.0836507421910073 H
   0.7278709302256452    0.3109696312078634    0.2568882666688903 H
   0.8900875116458949    0.1642817671423556    0.1310785276400799 H
  -0.0841659576671137    0.1707933097436944    0.2868347991783133 H
   0.8130885264009196    0.0842998105215304    0.1999652765549061 H
   0.7661043864357584    0.2954101515582950    0.0089584501094774 H
   0.9516313830195664    0.3073330630045483    0.0086792064080587 H
   0.3159418681893607    0.5050949950102773    0.2707348339747737 H
   0.2636948169943778   -0.0446578626815224    1.1043366229532297 H
   0.1378240442885096   -0.0435729714615457    1.1038236169758495 H
   0.1100921898955034    0.6499658414826730    0.1573520904875740 H
   1.0397320169677093   -0.1233389461584313    0.2192175486373620 H
   0.1007432562698090    0.7508221386468229    0.3000810729226057 H
   0.1832674388639426    0.5988368915054851    0.0027996219308884 H
   0.1451863383084932    0.5486763983960016    0.2999363592961506 H
   0.0201218786057686    0.6197038862992466    0.2438556178017458 H
   0.3554176089682708    0.6155303184726882    0.0524801161651103 H
   0.4941182904189285   -0.0100986440036050    0.1087508230072584 H
   0.3471419623313541   -0.0633545684319122    0.2534687372733984 H
   0.3862387672512288   -0.1408665800875278    0.1617379087538923 H
   0.5040995390770300    0.7044898787005227    0.1345340440220447 H
   0.6040917271994433    0.8713194503328014    1.1095202803664586 H
   0.4221298529347676    0.6339512630957963    0.1991191995325106 H
   0.6430025800895232    0.7925476848440431    1.2040971435395795 H
   0.8623119038341134    0.5380790992272511    0.2725035560758902 H
  -0.0376818567736696    0.8154790885667819    1.0028533210995587 H
   0.9687186556733965   -0.0259219796001286    0.1637493515935603 H
   0.8350441482045446    0.6168297562402530    0.1827190875481755 H
   0.7295734070026317    0.7261657502852699    0.0721669119672127 H
   0.8401148569161750    0.7040955723733928    0.0083809738286713 H
  -0.2024619197475186    0.7261547738778765    0.3069392737276708 H
   0.1718259198542175    0.4175057970285493    0.3334034910354151 H
   0.2113165055430693    0.1775547766979892    0.4282889234755273 H
   0.3003015835993116    0.1733778315153098    0.5741771039145445 H
   0.2600484383260914    0.0535376688965799    0.4345606129691399 H
   0.0199574907609416    0.1881309673909832    0.6298558631132412 H
   0.4533994837601718    0.3899541701322465    0.3339670319299700 H
   0.3680670348606124    0.3262293705016908    0.6483026392431538 H
   0.3558895208422038    0.4519370983433829    0.5958718969937803 H
   0.5016071568289404    0.2945632795109476    0.4153956284708950 H
   0.5517751393210498    0.0880409923306943    0.4633111524387603 H
   0.4803297130163316    0.1545651135821627    0.5475582191330229 H
   0.5820040638284429    0.4504485286330405    0.4191336809807005 H
   0.6510625848767619    0.4798534797007566    0.5220250693901953 H
   0.6940604758670789    1.2110536129200555    0.5592593495006689 H
   0.8439823466114864    0.3413067325649827    0.3607520693937177 H
   0.7351144649660960    1.2899655386878364    0.6486900736081603 H
  -0.0776779507115853    0.1765593009813166    0.4115603345295562 H
   0.7591702508709325    0.4396300126383628    0.3817056836877237 H
   0.8775865348529693    1.1188940077675484    0.5720171190456053 H
   0.9316923250348503    1.0440517961256042    0.4916451616819706 H
   0.1687139579438286    0.8318888176198188    0.3649717349778099 H
   0.0633156442762098    0.6533398202475784    0.6121410776017990 H
   0.2448089663044656    0.5246481982729595    0.4707665840831635 H
   0.2297210686264540    0.5840432273563594    0.5712047319679929 H
   0.5112446286252365    0.9039168472739177    0.3687764016966185 H
   0.6121071972568571    0.8906607244988892    0.4363523054871540 H
   0.5458863979405323    0.6034224967788087    0.4896138111476581 H
   0.5734018291728110    0.7179030485351789    0.5487404299226869 H
   0.9925877082373888    0.8938354392526541    0.3869528925877026 H
  -0.1265231735967932    0.7807193393691785    0.6103761839034988 H
  -0.0549582067014927    0.8237814742512949    0.5247317501812978 H
   0.8654527742533360    0.8791591382287339    0.3917093002466358 H
  -0.2707578812114691    0.7479184567217705    0.4000399047748381 H
   0.0300811724233775    0.2917389654547393    0.7124138384849655 H
   0.0196362937884684    0.4222729351933781    0.9183834413613893 H
   1.0248324152526411    0.4864494562051211    0.7400319364015334 H
   0.4572935380311680    0.4534037152389386    0.7590904913014861 H
   0.5769489813378037    0.2473292654803333   -0.0470432731507997 H
   0.4860637548090367    0.1725900632000804   -0.0922781494667132 H
   0.5355207442460483    0.0090664166068682   -0.0627596323921491 H
   0.5891952507285734    0.0449174740010782   -0.1720260771712959 H
   0.3608578778063421    0.1266141143245485    0.6788961718285265 H
   0.4931682161826662    0.3718329658648796    0.8524736584764941 H
   0.7025673905746648    1.1103070798298389    0.6828769450768835 H
   0.6762489278703087    0.4580306931247447    0.9618358133260476 H
   0.8988850740639163    0.2098786077933023   -0.0611317955146713 H
   0.8404039420045114    0.0963446445237527    0.8255829570950175 H
   0.9426150535076689    0.1504920221002049    0.7839682184821685 H
   0.9152457274416576    0.4483891857382447    0.7710749234775361 H
   1.1183084692217420   -0.1098354320475376    0.8324204845248747 H
   0.0675669920901689    0.6738572586828135   -0.0157986823824924 H
   1.1996273232597228   -0.0863028589352561    0.9337965910996902 H
   0.2001890735752665    0.7310882468316658    0.8358813606707823 H
   0.2384240924074789    0.6089140778315976    0.8544873983578519 H
   0.1356887211900680    0.6269668906375138    0.7094307470105284 H
   0.3008242806914658   -0.0343042397569039    0.7635949900551088 H
   0.3380795354675327    0.7082328336216502    0.7118257958123866 H
   0.5009219470384783    0.7191239627729300    0.7203677281760470 H
   0.6222447081248703    0.7319764914914958    0.7059691051840575 H
   0.3896796611134816    0.8367859839953070    0.6968904307455561 H
   0.4206234852312201   -0.0181803194656090    0.7892514143686202 H
   0.6727720936997762    0.9807770291981753    0.6956484968719584 H
  -0.0279838333710328    0.8900781305680122    0.7245069973009975 H
   0.7281193871394045    0.5842196942136830    0.9694619917360565 H
  -0.0375498152062943    0.7887734893787961    0.8844561356036093 H
  -0.0484256650161395    0.9727304782398301    0.8229566727630566 H
   0.3465622295325821    0.8798793594215428    0.4054969101491486 Cl
   0.7091624371439825    0.8243471814015668    0.5807351579388141 Cl
   0.7372466628203392    0.4761476756969604    0.7018405555869925 Cl
   0.1873849480951125    0.2326842050005328    0.0676084327338807 O
   0.1290710166003130    0.2592175590263462    0.2771091246638623 O
   0.3726673943204090    0.3639780798664025    0.0415638390020220 O
   0.3899703088239171    0.4876585496964485    0.2503501203392653 O
   0.6601836100693002    0.2815891659720248    0.2196486267944740 O
   0.6907938143688775    1.0645945647317470    0.2341628675515148 O
   0.8914001142091521    0.1003941789467664    0.1805376636234651 O
   0.6911188397654936    0.3213026522601436    0.0079445359076166 O
   0.8982365858927833    0.2511642533557588    0.0069026743651970 O
   0.8083037775334273    0.4067269649682937    0.3263079292557413 O
   0.1980826589856585   -0.0294042026287128    1.0575918245665796 O
   0.0947980261004085    0.6450931609390622    0.2320626057665093 O
   0.1073055659061503    0.6137116122015155    0.0282860651593574 O
   0.3112079045400896    0.5787770848246491    0.0005290727886153 O
   1.0214962170710293   -0.0886788289663982    0.1539394522171514 O
   0.5649331987066536   -0.0148049897582552    0.0736123637345234 O
   0.3727595890242568   -0.0622408852510038    0.1768800075728013 O
   0.4244800365718376    0.6956065877631932    0.1408011394322778 O
   0.6296179404995477    0.7950199095246344    1.1295275134842828 O
   0.8816180998686879    0.6089596721392314    0.2365043187139452 O
   0.7830486791675194    0.6703920913026405    0.0479319736193821 O
   0.2321939180983046    0.1186452425569868    0.4783070062700878 O
   0.1891733690875504    0.4971463873794418    0.3458794901330740 O
   0.5133869835231242    0.3604554974321720    0.3697664266649057 O
   0.5434502700880109    0.1578580358001634    0.5057597171849929 O
   0.3953722934205600    0.4070807430219712    0.6430416480930364 O
   0.3580123429638524    0.1865267232334957    0.6203698466150886 O
  -0.0715931002576288    0.2220902831879033    0.3474123826207083 O
   0.7403890958616609    1.2123538950266506    0.6183002120526133 O
   0.9367161550835073    1.1168253771434198    0.5256589893433983 O
   0.1123102538340931    0.5986215850527697    0.6426802468671805 O
   0.0977768526079528    0.8273952453007932    0.3357472392395353 O
   0.2875779331572621    0.5666625084185275    0.5223642658797168 O
   0.5805766085409008    0.9321346576650931    0.3765725611916696 O
   0.6353801094900369    0.5026877844350158    0.4518420232817803 O
   0.5189530434401742    0.6810552489157510    0.5074809670911876 O
  -0.2519626626033056    0.7811626173600632    0.3333766922157012 O
  -0.0520103201115109    0.7915167468880997    0.5933106955096961 O
   0.9300906373832567    0.9257345678157480    0.4156965409322537 O
   0.0563325986396815    0.3986812583489786    0.9826929518690838 O
   0.0179559281141843    0.2074789962693130    0.7025595296358880 O
   0.5039948433963892    0.2488938257033988   -0.0678177181930043 O
   0.5233690134922752    0.0454410739639112   -0.1311004510653753 O
   0.4940948510874418    0.4515858533067962    0.8247024244472756 O
   0.9122533061218510    0.1101902003758033    0.8489362142742612 O
   0.6819056198691075    1.0492698113325900    0.7363336992810172 O
   0.9896577918015469    0.4325983571943859    0.7838112539667014 O
   1.1931580677693836   -0.1147604616110243    0.8545256823860147 O
   0.2168216231982539    0.6574365532223834    0.7981677645277119 O
   0.3686264535720958   -0.0131896847594713    0.7288797989977405 O
   0.5740120331025157    0.6958007857401521    0.7515018312390769 O
   0.3922993970626490    0.7505637709035643    0.6680426498444025 O
   0.6753090106776906    0.5343623188160616    0.9338042479053227 O
  -0.0411860368309365    0.7547972868012709    0.9524791968430851 O
  -0.0169589875440369    0.8956338813871006    0.7989326794104025 O
