Li1 Co1 H90 C51 N3 Cl6 O45
1.0
  14.2705282195999992    0.0000000000000000    0.0000000000000000
   0.0000000000000000   13.9270393725999995    0.0000000000000000
   0.0000000000000000    0.0000000000000000   14.3940773368000006
Li Co H C N Cl O
1 1 90 51 3 6 45
direct
   0.5771627007252339    0.6594727666505744    0.3362500113866972 Li
   0.6945439198520303    0.6741901803460693    0.5800215931211655 Co
   0.1561146562844221    0.1528209355455183    0.1270994052340362 H
   0.1234452278774428    0.2938128540334619    0.2450388854992858 H
   0.5313758882158989    0.1281904314719192    0.0175515708640874 H
   0.3604070241027253    0.1477064242632326    0.1030263096203208 H
   0.7356117759945290    1.0653587449096202    0.1561342638235143 H
   0.8751651246410601    1.0674833888636122    0.2941042047604514 H
   0.0600978880951359    0.4828159816600475    1.0326642215821613 H
   1.0271580969138689    0.4460886495749291    0.2566728371643829 H
   0.2967142170802340    0.6173855732192706    0.2525384978380367 H
   0.3769453047023075    0.3549794794165972    0.1370118155026141 H
   0.6616411433903220    0.4428129354206519    0.0959032410414220 H
   0.7148753326445508    0.3471436431645147    0.2614484124507723 H
   0.7642372055311134    0.4511610126314292    0.0355172934282466 H
   0.8619588860842309    0.4386632379541752    0.2733130145370333 H
   0.8709886849828461    0.5598019060417516    0.2653986482782977 H
   0.7456954952364250    0.6385465674633027    0.1823888122157084 H
   0.2804989798837453    0.7807354381213392    0.2953762557277745 H
   0.1344195938988002    0.7016583298763008    0.0467913748579131 H
   0.2043910753067945    0.8514985036684150    0.0659638437520779 H
   0.2879689206147120    0.8798390568499139    0.2141247817614685 H
   0.3760903959132100    0.6696120357530813    0.0732376687809543 H
   0.4037901414248782    0.7833957307369321    0.1201854504405903 H
   0.6608324837652249    0.9601195795143136    0.1431615670934082 H
   0.6765571995253462    0.9322845178311622    0.3195278558523078 H
   0.9014991183248996    0.9954063326319114    0.1573437890742568 H
   0.9445767108666865    0.8370697371069197    0.2196020345339291 H
   0.2252270244338644    0.2173536747699221    0.3941425723686751 H
   0.2127180270615860    0.1061347747180275    0.4407596624606181 H
   0.0166706238437100    0.1499402084270949    0.4152533384768385 H
   0.1990492968647533    0.3195017309317261    0.5629280348302873 H
   0.4118003564807582    0.2861328297915234    0.6555889931391661 H
   0.3544247648137702    0.0684325764293488    0.4929534212143847 H
   0.5617328584228604    0.1942791367146738    0.6514574327335567 H
   0.6083053461242741    0.2323927648734563    0.4199566618240680 H
   0.6514446042180615    0.1383304186021226    0.5744842461877692 H
   0.5061759800929408    0.2380651836759352    0.4911831792319511 H
  -0.0235086877540545    0.2539027205779956    0.4747592018926327 H
   0.7630921883496501    0.2494121753639825    0.4960623387888091 H
   0.7754133860862906    0.3102226590096457    0.6015257849326577 H
   0.5621203002830996    0.3464844937391127    0.4432315124561044 H
   0.4607696720692451    0.4020961696509192    0.5820337401537478 H
   0.6301804999515338    0.4332136231459253    0.5723988745937694 H
   0.7323343920546855    0.3798203656052756    0.5047329188530777 H
   0.1947081821529016    0.8956493086995067    0.3731554682333044 H
   0.3452625251273359    0.8598613722497406    0.6193199091413124 H
   0.4162052389793376    0.7479624999692450    0.6299333021657773 H
  -0.0778234256581099   -0.1152748097243503    0.6408718289164611 H
   0.7827908284892566    0.9089694404975809    0.3713241594676771 H
   0.0742487307894269    0.0085526566783708    0.6705527865772721 H
   0.2628324999805181    1.0286323462605074    0.7772939110029362 H
   0.0685278493515646    0.2719029569019630    0.6700171496052316 H
   0.2353303645332150    0.1775756584106148   -0.1040213482646793 H
   0.1388125637339250    0.2259211812447548   -0.0333749305606274 H
   0.0377027815453268    0.0658462406664971    0.8437573582677460 H
   0.4038314853745149    1.1129804958256719    0.7942494958792266 H
   0.3903918987629567    0.1378787791810138   -0.0125274671922867 H
   0.6730688913678647    0.2070413609925548    0.6815927439348535 H
  -0.0381998047732588    0.0741279721181163    0.7607475222051566 H
   0.7756194050895650    0.2884096956171767   -0.0250131580632484 H
  -0.1400558802900445    0.3050514235393353    0.8010460412715378 H
  -0.1704871294573702    0.0099463484373089    0.7261562116022159 H
   0.2715448614353126    0.3702260795244247   -0.0597343832106400 H
   0.2432557894550943    0.5556603222882456    0.8206686953250829 H
   0.1268361324925599    0.5082439272933976    0.7192380884276645 H
   0.0261888419439652    0.5815653255231612    0.7164855674377496 H
   0.4953301306879117    0.4448550779923139    0.6880419242350503 H
   0.6533485281360761    0.3774171269050355    0.6781190930137090 H
  -0.0312547219792052    0.5694593785598960    0.9516684083236515 H
  -0.0580792370994121    0.4209632090101212    0.8914610063678229 H
  -0.0909133405600291    0.4984992144101265    0.8049302777315616 H
   0.0126840860558611   -0.1163482611306422    0.8471483362969672 H
   0.2847889402172329    0.8579011566382511    0.8182732656498617 H
   0.3027763612888263    0.7518362593919504    0.6776404239167753 H
   0.3086731296988717    0.9877930849657488    0.6740528372454173 H
   0.3914983749744197    0.9292889062812961    0.8647680832293804 H
   0.4936559810255897    0.9532846738711748    0.6938964154975471 H
   0.3577764277139778    0.7248980143017479    0.8351996718584144 H
   0.4690842206391456    0.7868027721569020    0.8811546840847873 H
   0.5457574161342643    0.8892961996407303    0.7978745979805330 H
   0.5446985205021289    0.8404846768315513    0.6830030462088382 H
   0.6533443236666217    0.9600075671936570   -0.0288341740765073 H
   0.4796864911137728    0.7016360710177089    0.7920736009422217 H
  -0.2192309453341099   -0.0329019543523022    0.8300760367497264 H
  -0.0820874584299610   -0.0451134513869551    0.9045087339578257 H
  -0.0156154970979936   -0.2018237141793374    0.7033218199069806 H
  -0.2374923576651598   -0.1004267149880894    0.7166252082047797 H
  -0.2072902520831087   -0.2397434748600605    0.8235942041308708 H
  -0.0833859387465165   -0.2496687717090055    0.8529048706034879 H
  -0.1578421875727272   -0.1689610225651786    0.9227599906277030 H
  -0.1380384356967563   -0.2158008413197239    0.6709619826557830 H
   0.2896654240396342    0.2528522460579922    0.0169221453171760 C
   0.2010506243251324    0.0892180421881031    0.0126676176689583 C
   0.2510789056202456    0.3027724036305925    0.1036890822160752 C
   0.3741731578419225    0.1893821878244326    0.0412342281142662 C
   0.4639575008097060    0.2350760343753378    0.0743791104736424 C
   0.7574624037499703    0.3254943900868513    0.1170841748981925 C
   0.1954937171959986    0.6565266990117679    0.1518957149695339 C
   0.6890346633767150    0.4884913443760820    0.2603938120311128 C
   0.9413581894992070    0.4965274385527230    0.1584887044178661 C
   0.7364975175596267    0.4271880783222997    0.0996249106383362 C
   0.7630354280120133    0.4994686236031931    0.1779967279910134 C
   0.8606821288598575    0.4965376345460136    0.2212839763099473 C
   0.2546386897584549    0.8134179047836723    0.2304745619171113 C
   0.1526718965460319    0.8397206953624580    0.2502521408017394 C
   0.2601472454888610    0.7443960564006484    0.1432095034761200 C
   0.4122411250285798    0.6830319734009711    0.2211304409392327 C
   0.3659989684773140    0.7198962333678153    0.1356702915168681 C
   0.7478299642295323    0.9557166336792756    0.3203295744849079 C
   0.7353602085721634    0.9874046319819335    0.1442481251015422 C
   0.7773516465048510    0.9667103557406369    0.0475152837098796 C
   0.7981203241206476    0.9401849765759311    0.2237530473846968 C
   0.8028608634306842    0.8298370441199108    0.2098501069379081 C
   0.0588274375749443    0.2909371531089140    0.3585786395078138 C
   0.2134636196448645    0.1818910048666778    0.4599520006380518 C
   0.1221089073357961    0.2248757329186270    0.4995313350177192 C
   0.0963565319265065    0.1587238412385789    0.5843958227801259 C
   0.0359046701085856    0.2249848731284975    0.4388102495636718 C
   0.3046403427470224    0.1982627543749463    0.5195410927299167 C
   0.6277482143720605    0.1976158114203851    0.6201674799660717 C
   0.5719755066101393    0.2735939121272590    0.4724060118126126 C
   0.7649064169193005    1.0517190907865963    0.3661567563573825 C
   0.7336349746059683    0.3068479288360191    0.5359123400482521 C
   0.5030538812249531    0.3821094379017697    0.6455272158809789 C
   0.6062605724795311    0.3738887388043544    0.6182215407200465 C
   0.3627965642427438    0.7950371137805511    0.6617199870149860 C
   0.0070367828334538    0.0198314357352490    0.7911509992575657 C
   0.2093796783146512    0.1911133526007334   -0.0321730473419114 C
   0.1194572885997757    0.4662795381390291    0.9077204715995159 C
   0.0907190391328267    0.5641366392456206    0.7571245042944030 C
   0.0449821196610193    0.5195324715269486    0.8462715868044703 C
   0.1556738877366005    0.6456981233206053    0.7696185319275753 C
  -0.0233895611195081    0.3670401906349818    0.7605189559745453 C
  -0.0350604675805073    0.4501056555230895    0.8271199598158324 C
   0.3266030896879192    0.9999801690587203    0.7448687691144211 C
   0.5048941775052219    0.8837322030204254    0.7289427743711578 C
   0.3481881351228129    0.9053512989348352    0.8006576870985539 C
   0.4312229031261807    0.7538445828591066    0.8196898204955043 C
  -0.0432325547103885   -0.0642316568343985    0.8396459450374794 C
  -0.1924975270520854   -0.0545074077404781    0.7649575871215837 C
  -0.0820755457665063   -0.1667810904785551    0.6955380629228801 C
  -0.1440059793426205   -0.2020376864328992    0.8510832880604396 C
   0.6358691471235777    0.2843040132484964    0.5577518086466531 N
   0.4132887386676788    0.8343950839373964    0.7520085112177414 N
  -0.1139384167831158   -0.1193129974895581    0.7874598977887576 N
   0.8267401476979592    0.6328461455806599    0.5238325800239353 Cl
   0.3073774523619526    0.9513984151124264    0.4266872078488776 Cl
   0.5763525695358277    1.7051903531645225    0.4887371731993180 Cl
   0.7553104161341355    0.3305327904333062    0.8596597321847453 Cl
   0.5386821349361006   -0.0093563901281392    0.9835349871440466 Cl
   0.6784295899224515    0.6827174772698970    0.7224942888011453 Cl
   0.1701379634052576    0.0861592442009436    0.1060108704917682 O
   0.1678170962663306    0.2896123920088415    0.1232526842039608 O
   0.1264640369458297    0.2597747510801059    0.3060549533895568 O
   0.5446109974629828    0.1908455282699328    0.0461195707697637 O
   0.4701234954138263    0.3090135003687123    0.1189272940769518 O
   0.7794321581399579    0.2677312159852033    0.0456492384350408 O
   0.7531072741399367    0.2827695880610410    0.1929653845404091 O
   0.1123110920168114    0.4552844302842135    1.0023427226914912 O
   0.3058624418684864    0.3642183417876727    0.1494419279588374 O
   0.2086333849864636    0.5916715653516282    0.2100258736745181 O
   1.0256535975940391    0.4736022502583501    0.1910520976130428 O
   0.1262972596574648    0.6459530231528686    0.0874907532405943 O
   0.6441890914292782    0.5548087414401772    0.2933657065746161 O
   0.3675455124916895    0.6221324543209400    0.2765504571955399 O
   0.6767449991609840    0.4025533378852911    0.2931037932951618 O
   0.9326990846575040    0.5152619299991481    0.0740081245552642 O
   0.7453051803220583    0.5887585269868616    0.1330504639921409 O
   0.0939557798679426    0.8308458730335162    0.1874249113211837 O
   0.2313998863380938    0.7896073883394947    0.0584260212531944 O
   0.1343656365407998    0.8819981661333385    0.3318224959226064 O
   0.4922373930316151    0.7091459226955730    0.2394421391351379 O
   0.8624991604091442    0.9738080595207005    0.0318505075158865 O
   0.8870133195640606    0.9815799913077932    0.2248409948531992 O
   0.7354870434007098    0.7768645508094196    0.2112055255273387 O
   0.8907763197259079    0.7895915917301715    0.1967926531253261 O
   0.0723910560354126    0.1993835956092083    0.6659918829178094 O
   0.0973747142794235    0.0692216888678203    0.5734504876736366 O
   0.3122125922347172    0.2738488119595223    0.5608557241637511 O
   0.1366486634546356    0.3252078970359412    0.5337957750689803 O
   0.3756650437533885    0.1299022095004141    0.5197458436098126 O
   0.8456511505597416    1.0963315876265480    0.3497062403250266 O
   0.7042029876790140    1.0749314901595757    0.4235998269101644 O
   0.0126553555145881    0.3619673249590940    0.3362910004675667 O
   0.2137102818528664    0.0139450446792083   -0.0274474926287864 O
   0.3233691519324397    0.3255417799148213   -0.0450061033049875 O
   0.4652978155973346    0.3004653806416855    0.6880120508371285 O
   0.3979991854961063    1.0718647938677546    0.7385481138983067 O
  -0.0833551059705162    0.2951799787676290    0.7535473385758084 O
   0.1909662043383273    0.4355854840358276    0.8685897939728234 O
   0.0505747647805170    0.3681581597584576    0.7165015462319869 O
   0.2446439651200141    0.6231613880100478    0.7994182884498896 O
   0.0033137251314251    0.5989042583386371    0.8968555862483603 O
   0.0792289248583744   -0.0209941830332756    0.7334355944725662 O
   0.1373662262415502    0.7301159215723320    0.7537071265181811 O
   0.7245841533600802    0.9405396822580102   -0.0237133178885561 O
