Li1 Co1 H90 C51 N3 Cl6 O45
1.0
  14.8711745783999998    0.0000000000000000    0.0000000000000000
   0.0000000000000000   14.4857379975999994    0.0000000000000000
   0.0000000000000000    0.0000000000000000   14.5334029078999993
Li Co H C N Cl O
1 1 90 51 3 6 45
direct
   0.9642868970167694    0.7037743263262844    0.4112897367312930 Li
   0.2453087192250885    0.0986232459013615    0.2718901747127693 Co
   0.1234999145170146    0.1660902952268374    0.9995304986627537 H
   0.1928226162689912    0.3227001966606383    0.2071242003594161 H
   0.0792095327097381    0.3315875588386184    0.1568104503977659 H
   0.4665943333943802    0.1281129412189749    0.9584245027865048 H
   0.5731429447126448    0.0528513287156542    0.2454696589923059 H
   0.3054512449741359   -0.0237840487973123    1.0061476688196289 H
  -0.0282574324297397    0.1976371863880411    0.2479948762612809 H
   0.1506396671890206    0.5773062098724646    0.0264789642342342 H
   0.2159922723162321    0.5172450586805718    0.1172051354107908 H
   0.0585729650746738    0.4587397964605584    0.2470405230318345 H
   0.0415265644246403    0.6682876980243527    0.1119503440529810 H
   0.3045676563960631    0.6685583090212277    0.1910873505261738 H
   0.4213997190445356    0.6168785119598676    0.0500955942950047 H
   0.5199167522671815    0.5791381496745235    0.3050620342597128 H
   0.0690200215046115    0.7318799016216166    0.2118003247626733 H
   0.2646447843411325   -0.1969702544580559    0.2591484925910041 H
   0.6691118268258928    0.6707287196696330    1.1181393345234172 H
   0.3913281199490918    0.0371179225172430    1.0688253504178489 H
   0.5285392722520015   -0.0056082402852695    1.0555242673043461 H
   0.3968865242004992   -0.0827979561413243    1.0650512859163972 H
   0.5401567137048734   -0.0825390808254363   -0.6726050744032164 H
   0.3686809512117159    0.2328469906855166    0.6893732678637809 H
   0.3842439451621844    0.3537265758533631    0.8082236163297333 H
   0.5152615718955819    0.0968401127255247    0.3702140159394680 H
   0.3952195408785492    0.1172332746099205    0.3848678448706286 H
   0.5062696796079191    0.0591692670916736    0.6070649462972080 H
  -0.2400322309432569    0.0263783937458560    0.6696875822873849 H
  -0.0202419256941026    0.2165620074807199    0.3684009512245500 H
  -0.2804258122863541    0.1983392562447295    0.4322162191199896 H
  -0.3026634639430251    0.1778874159553990    0.6119578127821348 H
  -0.3263401411378054    0.0517164193308011    0.4265487921228871 H
  -0.0609414680745081    0.2338590205870948    0.5697901247407555 H
  -0.2218628524200259    0.2673857901642102    0.5818155258878606 H
  -0.0559862441537942    0.1081974905841645    0.5412655594598565 H
  -0.1842666291323188    0.1263084076836914    0.4554873003762698 H
  -0.1688320715733358    0.0036374053298996    0.5767045411810632 H
   0.0090254329604165    0.3573977729997433    0.3651911042055395 H
   0.3129657825387956    0.5818607586300724    0.5991500759307179 H
   0.3941483410270500    0.3474176118216278    0.5761072963337961 H
   0.4081579943265687    0.4310598812179638    0.6674045656937995 H
   0.4170584345239590    0.5020080096578318    0.5235525020546933 H
   0.5300271170677121    0.6006294261322075    0.6132458800103422 H
   0.6943539486247472    0.5688484426520235    0.4056633875191927 H
   0.9139916095761675    0.4154997488976537    0.5851622988568780 H
   0.7058688426969829    0.5996429385951302    0.5222478523370629 H
   0.3074188097986723    0.0126435049861004    0.4420095896679589 H
   1.0489063057504804    0.8563996188979367    0.5359391400045809 H
   0.6491658569607529    0.7322292107145215    0.6222031765791476 H
   0.6075087573998486    0.7942881821075525    0.3659397244749250 H
   0.4996263307937981    0.7446655808897826    0.3741573456856520 H
   0.3414268834268694   -0.1156192041908729    0.4649784017290727 H
   0.5712130366311617    0.8095583740740681    0.5176474844518750 H
   0.8173523029482023    0.8120187250762678    0.4379789438260165 H
  -0.0338871155162123   -0.0115955085911280    0.3568888503724464 H
   1.0943674088016113    1.0064368486448845    0.8397998413135290 H
   0.1583720759099175    0.2665622214925985    0.8060892228778640 H
   0.2776417402292528    0.1698553778211130    0.7423147575393864 H
   0.2994644952704969    0.3021385932373714    0.8822413812549222 H
   0.3711609167185136    0.1141661198672790    0.8989174482115645 H
   0.4741178816796991    0.0835318504863526    0.8394812648569798 H
   0.6041230127342502    0.0796583854264919    0.9298572083523625 H
   0.2874445973762424    0.4165442245054899    0.8452362831778807 H
   0.6091246351419405   -0.0050394049244916    0.7984688465144042 H
   0.4771774248085980   -0.0937335398186106    0.8292854421072057 H
   0.3650921291103656   -0.0503032361568826    0.8354271558246091 H
  -0.1150326897032536    0.1491011711628253    0.7743953379068763 H
  -0.2289100429057202    0.1809476673562834    0.7468195524876095 H
  -0.1419438121495787    0.2662287900857346    0.7313083882111783 H
   0.6708413472389849   -0.0118502419019618    0.9848587799089789 H
  -0.1168254196493281    0.0170333400093858    0.6821368346164215 H
  -0.0103274432016334    0.1485413101463315    0.6494074041441239 H
   0.1246713082027092    0.3045402658346366    0.6917484858508387 H
   0.1488388679408632    0.3833971387250103    0.7790659577493293 H
   0.2626126650999333    0.2183023399376632    0.6319097814874390 H
   1.0155141888479413    0.5671420056031071    0.6561133353439685 H
   0.2261084873607727    0.3677306949416422    0.5915028648333370 H
   0.2404691553008956    0.4589379914024023    0.6710891810821811 H
   0.5204461657280008    0.6181873855569976    0.9009782181626763 H
   0.6228801054258493    0.5633106509279642    0.8787735079482101 H
   0.9036918179092420    0.5485951424716248    0.7992986590556532 H
   1.1896463655867751    0.7132905829383287    0.7404638489689388 H
   0.1522125086533373    0.7820540798457718   -0.0518536882914294 H
   1.2193682949252951    0.8240346817385269    0.6913975700995642 H
   0.3951610384384485   -0.1487531736220142    0.8984378633514896 H
   0.6273585680818343    0.8451720238643288    0.8565887517666595 H
   0.5376691496052809   -0.1091328242759823    0.9871968421106075 H
   1.0100042004090310    0.7590776874759013    0.7620678739856351 H
   0.7558379958450694    0.7045129838942850    0.9380307930766549 H
   0.7726275237121321    0.7630443476494817    0.8260590814057823 H
   0.9734664005778585    0.8596959645869110    0.6860368159462716 H
   0.1406908901626993    0.2037017721215781    0.1280037075686363 C
   0.0919718063956153    0.2704066925170797    0.2952460262054358 C
   0.1254553753884267    0.2824744242425162    0.1893864412376435 C
   0.0403666022502297    0.0948056979097326    0.3146330893581983 C
   0.4406210655826350    0.0777240690661765    0.2510925678539035 C
   0.0208388912097179    0.1951823580592468    0.3034643354862633 C
   0.2937776546276040    0.5817255911984700    0.0204872497987481 C
   0.2050415569479561    0.5803461654485834    0.0738333246934699 C
   0.0572845665087778    0.5913099147602383    0.2346332429789308 C
   0.0836019228101727    0.6697960781982604    0.1706296502969739 C
   0.1818423134597447    0.6690104779063122    0.1342252374177021 C
   0.1881679738508637    0.7499528503414798    0.0694516942932430 C
   0.5983420302337240    0.6864552225262871    0.2695287181277224 C
   0.3764920356279206   -0.0238303011870843    1.0254198242656016 C
   0.1744891619367421    0.2598107532542385    0.3719775396071471 C
   0.4478562708068599    0.0707434098814837    0.3568916026528485 C
  -0.2352780671327742    0.1925873918927852    0.5807779161762491 C
  -0.0640710123989758    0.1604599296898166    0.5954455065094205 C
  -0.2507576782950532    0.1499820375710204    0.4801331319320232 C
  -0.1752424596363247    0.0419399067345175    0.6419101923286603 C
   0.3639550299585232    0.4077742191373790    0.6081637942477675 C
   0.5288111404880097    0.5962630624708960    0.4720933217966773 C
   0.6911759884877824    0.6292810557605194    0.4547430149485177 C
   0.2922330557205773   -0.0875384809258660    0.3273272946430265 C
   1.0946565587929133    0.7809157187900402    0.6426684455794534 C
   1.0489096679596814    0.6904018630087723    0.6107220388815682 C
   1.2527953788035264    0.7054497673707119    0.6120266197921885 C
   0.3356889372041185   -0.0542478056368405    0.4164578312564350 C
   0.5716373474323519    0.7309583054970552    0.3622915768018718 C
   0.4396984753778284   -0.0302890677349469    0.3985060823333950 C
   0.5970751498067156    0.6773296950576900    0.4514843149523691 C
   0.4905605640455669   -0.0257238878310334    0.4917966907746572 C
   0.7736267722867256    0.6891668551684423    0.4308151019742638 C
   0.2938455712534681    0.2304770734603336    0.6962560330794640 C
   0.3125885426664221    0.3482501548375237    0.8202421367758330 C
   0.4362177146802044    0.0823727794053499    0.9046848517942753 C
   0.6178905869712832    0.0040260634708195    0.9353404389835509 C
  -0.1588200850140321    0.1868831605989643    0.7279051934939167 C
   0.1665778836863419    0.3174308758975093    0.7514096681282995 C
   0.2717121480820340    0.3937756227225055    0.6476831004721753 C
   0.5965566971478921    0.6266184368448390    0.9075974525298532 C
   0.5976225174646693    0.6389871542708815    1.0129237831697284 C
   0.7896813212224082    0.6096023897479746    0.8149433089315888 C
   0.7442834277042596    0.7007810373404432    0.8611712986362435 C
   1.0823387691634336    0.8813938580633826    0.7925590124208821 C
   1.0317334860344820    0.8236743272988106    0.7234974164298693 C
   1.1923563062029343    0.7574229564567450    0.6793783615833640 C
   0.6154079316971244    0.6892924959884200    0.7443280506535609 C
   0.6391787507495380    0.7027250183792183    0.8491885578353719 C
   0.4171781291715214   -0.0856731979831208    0.8740079344318830 C
   0.5327183638007127   -0.0332333429943134    0.9848670367501854 C
  -0.1595449773178086    0.1439443748703357    0.6323453298610796 N
   0.2614701864133688    0.3235990117574015    0.7296054147123463 N
   0.4382481528168031   -0.0143292319269056    0.9459828192285742 N
   0.6654907275162111   -0.0094609953198592    0.2985405058468124 Cl
  -0.1087036671029334    1.3928831588658390    0.4965156131381679 Cl
   0.9351943732407122    0.8798053991250935    0.4349020319504301 Cl
   1.1600535450815808    1.0992170715249800    0.8944594420301780 Cl
   0.5512891228583817    2.1136403616904254    0.7035908603512006 Cl
   0.9492416832832843    0.4530128531723570   -0.3020105182533759 Cl
   0.0981488571400416    0.2129833151138838    0.0483712906230561 O
   0.1877517323517564    0.1332041557647729    0.1416976787095463 O
   0.0503570706706458    0.3579210463049249    0.3115237005738665 O
   0.1098231199284137    0.0493520247790237    0.3025829176874739 O
   0.3679614384426612    0.1031987808179105    0.2175360771207592 O
   0.5149845258574037    0.0646546624517972    0.2048384314854284 O
  -0.0356226879058666    0.0517081353206926    0.3323729126902725 O
   0.0767201530171770    0.5058337726261515    0.2053888875658589 O
   0.0328567717784516    0.6091681695514585    0.3139113038227339 O
   0.5283669926525324    0.6277153778500286    1.0595061289761603 O
   0.3564774766950765    0.6277609399056249    0.0735305738492331 O
   0.5573296006650557    0.6074243854236366    0.2520345358215403 O
   0.2404805868121797    0.6736433105594444    0.2109753287121280 O
   0.2661382776683011   -0.0382189364112291    0.2618987087828550 O
   0.2161220535913980    0.8294151463039438    0.0888043539409787 O
   0.6738834741242217    0.6633642346832502    1.0487687950572626 O
   0.6555446402572507    0.7190997450268560    0.2177197918376029 O
   0.2336620265521662    0.1956987280226715    0.3574950401310205 O
   0.1779629964834117    0.3151417277708833    0.4379283018666170 O
   0.4739903194626059    0.0487417693677036    0.5419356021237607 O
  -0.3029122674239132    0.0734702298755043    0.4874858490263737 O
   1.2726324130905478    0.6191731827598992    0.6400152472717783 O
   0.3534824207386564    0.4853912518481930    0.5415408563070819 O
   0.4993351702013935    0.5485765034488809    0.4079821837580063 O
   0.5169879990762088    0.5684655142847619    0.5562599142837736 O
   0.8393545999607900    0.6579886024570633    0.3915139139717265 O
   0.2958877771222709   -0.1776270908549019    0.3191557741290355 O
   1.0258038938872633    0.6810008922040701    0.5288006191325278 O
   1.1016270909088208    0.8472651170850555    0.5740485905929861 O
   0.4761598185717658   -0.0958970471252589    0.3356460621585325 O
   1.2793770047481350    0.7370960666532166    0.5401593491592214 O
   0.5442880618829278   -0.0823416452511857    0.5189484185909624 O
   0.5971827405011536    0.7422832376494370    0.5304019646775102 O
   0.7633639649210132    0.7747089242163087    0.4623340795256946 O
   1.0534459606139273    0.9692278365745776    0.8013725023386751 O
   1.0503715565203589    0.6266577858928539    0.6749134747009721 O
   0.3060382867006636    0.5513711142589554   -0.0561114660735594 O
   0.5508014680358412    0.6417471103053358    0.7207547690091244 O
   0.8768418876703785    0.6016283396844474    0.8361778403042962 O
   0.7478742671311307    0.5550871831267561    0.7662740465102248 O
   1.1452820151770724    0.8525171794937919    0.8374555864809955 O
   0.1619830885919956    0.7238085144393155   -0.0150212958096229 O
   0.6450202530156857   -0.0364130222075942    0.8475557674867948 O
   0.6098744077938059    0.7873178779354951    0.8850810465598432 O
   0.6694164429795207    0.7322209267044131    0.6868631881370180 O
