Li1 Co1 H90 C51 N3 Cl6 O45
1.0
  14.3583723314000000    0.0000000000000000    0.0000000000000000
   0.0000000000000000   14.0127690936999993    0.0000000000000000
   0.0000000000000000    0.0000000000000000   14.4826819714999999
Li Co H C N Cl O
1 1 90 51 3 6 45
direct
   0.6934163869554159    0.2569776196782518    0.2564076869883368 Li
   0.9089561381591127    0.7499023195582653    0.3787248105353455 Co
   0.1086669594984563    0.1465098035279131    1.0301352342790413 H
   0.2595837869762626    0.2527793060111516    0.2756195981901114 H
   0.3892858142685452    0.2990692288424375    0.2128190753456676 H
   0.6032223196816549    0.9746901526366084   -0.0040385485516494 H
   0.0069771602440562    0.0697840691059157    1.0294060875629303 H
   0.7894377164054768    0.9903951141990551    0.1585024783543076 H
  -0.0129561576414324    0.1972249759001964    1.0424368231940362 H
   0.2998529753393158    0.6399311932451357    0.1378129402846565 H
   1.0927833811835761    0.4964902368888594    0.3090229416421043 H
   0.4942740375299918    0.5125214722926453    0.2890590978893401 H
   0.3787330861108665    0.4247957707000406    0.2481640481212441 H
   0.6962948469260921    0.4120336964230584    0.1941381431445458 H
   0.9978694195906105    0.4472216023039655    0.1638612924298170 H
   0.9271093099799875    0.5545783274409227    0.0575764203992691 H
   0.7932543049947112    0.5720195625291309    0.2616829530026251 H
   0.8816403678929882    0.6312120029706788    0.1410685527528985 H
   0.9394937220773900    0.4072167327273997    0.2661172145659444 H
   0.1968280665364554    0.7162116195372216    0.3167404348674577 H
   0.2075771957857699    0.8344395007591304    0.2798073584488364 H
   0.0715910300189139    0.8202139041859577    0.2171456220531978 H
   0.5412012925452754    0.9866956312736348    0.1658781840564841 H
   0.4328151214611983    0.8209546571328300    0.1779816052560207 H
   0.4534038757556884    0.7856475742363856    0.3508874251123025 H
   0.6690257393306754    0.7021294635635876    0.0922164132533027 H
   0.7225220536949586    0.9307109793640631    0.2282485379576161 H
   0.8114917482059688    0.8427483510100310    0.0425785076903220 H
   0.2349653976601572    0.2663504994511048    0.3941646303449660 H
   0.0586334331753544    0.0451087178111131    0.6094279362806349 H
   0.1929682975653720    0.0536337994135572    0.4048988300122600 H
   0.0035122828295596    0.2431002768989844    0.6177157658577949 H
   0.6825885579778926    0.0576801088632357    0.5815153576024930 H
   0.4158661251276932    1.0324988551552416    0.3510966405052776 H
   0.5079476626086957    0.2341313144362757    0.4670924210731227 H
   0.5717553128669662    0.0782848871243582    0.5433744938393437 H
  -0.0415756968562880    0.1418975816631386    0.3887126014904083 H
  -0.0426614745224589    0.3021478494713462    0.4671049187583136 H
  -0.2093147653531394    0.2298916099494080    0.5392298885709188 H
  -0.2108121495624193    0.1308398100718216    0.4612792022117491 H
  -0.0566463465793616    0.0281299180885824    0.4420500980618388 H
   0.3034146603840868    0.4500883447537544    0.4032969167723190 H
   0.1033571654465726    0.6440667070477613    0.6390799027358177 H
   0.4425627444347246    0.3541504190653614    0.4783517306623887 H
   0.5136212026256133    0.4657087691350003    0.6650840641709109 H
   0.3546683807233089    0.7647844601691284    0.4168897029970938 H
   0.4510554201493201   -0.0254490708307132    0.5716841674762313 H
   0.4136360673425237   -0.2807926061501287    0.6051897709932393 H
   0.6036687491133518   -0.1836861748016117    0.5343082172851538 H
   0.5801984007882126   -0.0754056493855348    0.4629197823229989 H
   0.7184923490275663   -0.0569253619941993    0.6815533894291315 H
   0.6886275433168072   -0.0880462630155443    0.5199008029394814 H
   0.1552711277534213    0.3248271641646055    0.7808713198256257 H
   0.1485517031714992    0.2101574661730487    0.7420249237570576 H
   0.1500539625851814    0.2388184679575257    0.9165160853370051 H
   0.0679882539656092    0.0733508159541507    0.7712342926317223 H
   0.0503476750647483    0.3086783217418942    0.9091369272356048 H
   0.0218333009734282    0.3483271589049777    0.7146591360680146 H
   0.1473015614711934    0.0523599612534733    0.8711902264048138 H
   0.6039758869906972    0.0987233884715875    0.6670892176402162 H
   0.4497230964319468    0.3086397854614211    0.7279847065928510 H
   0.6185499623225071    0.2814824122502196    0.8273537324978607 H
   0.4523504833759042    0.2961097852290660    0.8445307995970035 H
   0.6392654022856801    1.0487947063516094   -0.1295346413041271 H
  -0.0704438714956613    0.2055987669200424    0.7983777458107391 H
  -0.1115857214467275    0.1085358672957635    0.8726181387238646 H
   0.0335066296858657    0.0062841288692604    0.8761934433602501 H
  -0.1042346096658208    0.2237614868148864    0.9206955598375925 H
   0.2900496357440489    0.3454633423579654    0.7839577647318913 H
   0.2698502709897487    0.4828149954916288    0.8870968105895206 H
   0.1579699016189840    0.7090838349193400    1.0007981266330881 H
   0.1720418308973564    0.5528870129090466    0.7002142977147540 H
   0.5898433658861817    0.3078918961663130    0.7142828245525975 H
   0.3425151926061301    0.4585005293271088    0.7391918849538345 H
   0.5382478240725808    0.3919844828720901    0.9452669755947213 H
   0.5951601245157830    0.5256081076873901    0.7475598101929916 H
   0.4701532672918076    0.5341131361512917    0.7596687552312866 H
   0.4798719872678061    0.4959159035828450    0.9157848671813598 H
   0.5997922651557462    0.4926150570698746    0.9023246530867869 H
   0.6705140695889225    0.3874578971861447    0.7766683690103152 H
  -0.1492613010677537    0.5259662810053430    0.7250439529338387 H
   0.7876262297411341    0.5500196281879164   -0.0998467698970145 H
  -0.0516819955822698    0.6341307693991065    0.8366945438383440 H
  -0.0452307072424745    0.6610240977255846    0.7234192538590193 H
   0.0605549601676350    0.7942147602934208    0.8380824083263962 H
   0.1766711857062325    0.8064079248890479    0.7323029675422436 H
   0.4864260031289356   -0.1815010249718206    0.7241884484061288 H
   0.4703876253320042   -0.0029060603887570    0.6864585582466058 H
   0.3707071067491262   -0.1392895251572742    0.6741383263758013 H
   0.6402585510682072    0.8620300503082429   -0.0493243596528422 H
   0.6220364299279283   -0.0780824936087700    0.7555735192717652 H
   0.6514311266427506   -0.1641968077697391    0.6693664201683738 H
   0.6574297174309031    1.0595513240473773    0.1785070604179151 C
   0.6629644673430647    0.9218319348891250   -0.0043651455182408 C
   0.0324090122375749    0.1414986597967594    1.0076711630082487 C
   0.4142538253860731    0.3539441786013479    0.2659439041248991 C
   0.5193544917547700    0.3752476053547518    0.2744692587686710 C
   0.3691393803048987    0.6489479692410242    0.2526252383985107 C
   0.7949230178158436    0.5793143376957294    0.0352435402989889 C
   0.9756593812492447    0.5575755936999438    0.2787191622134282 C
   0.8207574224014386    0.3891977388860240    0.1390192085735258 C
   0.9466296284068235    0.4694127194144161    0.2231666062998724 C
   0.8487668646082340    0.4896198603518419    0.1757050932077080 C
   0.8659463884641913    0.5651893636326808    0.1041403096931907 C
   0.2289445202233084    0.7629304368974769    0.2586275796893757 C
   0.1726198908479156    0.7400306090437324    0.1725351002402214 C
   0.3347496884510273    0.7562957739426865    0.2645663968345188 C
   0.6058416973612371    0.8259201282352749    0.1291004656029431 C
   0.3775588583076823    0.8039708619665343    0.3549080892485854 C
   0.6867478037908321    0.8855421768406158    0.0887405377145687 C
   0.7154989735245499    0.9680297988281695    0.1604061312864271 C
   0.2698300737143677    0.3021107404605203    0.3365164681024357 C
   0.0814751587157048    0.0775598341436046    0.4613097904688738 C
   0.6115331502720444    0.0549126330174062    0.6029229256627539 C
   0.3763428430381927    0.3091293389503946    0.3583017976857878 C
   0.4165549218639619    0.2025494053189003    0.3680589683726869 C
  -0.0222552618099466    0.0952501277852409    0.4520235960841143 C
  -0.0845171936895772    0.0882729201151341    0.6126227865225343 C
  -0.0734985352825923    0.1545988542531521    0.5292363666331441 C
  -0.1688317644541563    0.1924379135036457    0.4898859893258549 C
  -0.1626346832010527    0.2681117501956914    0.4174441583124700 C
   0.2186773397520505    0.3989923768396107    0.3161148601280670 C
   0.2353400919413631    0.6939783266086975    0.6821541068941093 C
   0.3545444112399359    0.9084220229193001    0.3638083744480849 C
   0.6134957682728586   -0.1063381508134556    0.5267608582935595 C
   0.1076828646669621    0.2647533847159407    0.7768589414474805 C
   0.0871638257954250    0.2429347136199146    0.8800932735236926 C
   0.0750586932644975    0.0661166997475563    0.8495043259191132 C
  -0.0706353973828947    0.1750951600210910    0.8701206731252153 C
   0.7398694238739093    0.9742398490629316   -0.0545499111183048 C
   0.1392240442343430    0.6519980444769898    0.8758799655107100 C
  -0.0088797903033323    0.6204439671177339    0.7765040348072523 C
  -0.0162030437733687    0.5105978696256950    0.7571181226845874 C
   0.0896536623294602    0.6598394639184478    0.7855686542098147 C
   0.1491757293349945    0.6300123828322468    0.7032455042334352 C
   0.4374883531096951    0.3479425097350700    0.7905552996489758 C
   0.6056975306024832    0.3438662276228014    0.7762547715832787 C
   0.3441462967075875    0.3999350884415552    0.7953154676990416 C
   0.5358762460681901    0.4473998682828949    0.8983909894109492 C
   0.5254220666852152    0.4903237183783354    0.7366460857660491 C
   0.4860107053596363   -0.0548650982585341    0.6326432496225722 C
   0.4472295686717213   -0.1515761759147898    0.6638135812564749 C
   0.6488967168113229   -0.0907395208397218    0.6858060547932677 C
   0.5885730269104951   -0.0509864929923961    0.6148875604134852 N
   0.0325253206854585    0.1542491731895996    0.9002974042624479 N
   0.5252583294630748    0.4082578545715154    0.8019205978944188 N
  -0.0189352476119757    0.8822615975566349    0.3159104780940056 Cl
   0.5414900439374463    1.3158582663786211    0.5598239332780339 Cl
   0.9456329973354377    0.7062714000796253    0.5232936137528856 Cl
   0.7564437259262087    0.7834160381430620    0.3686058284097701 Cl
   0.5265756096925781    0.0606102934488405    0.8353543224595830 Cl
   0.7290144330432877    0.6078918442058479    0.7628394386786180 Cl
   0.5628841123534203    1.0546215346861112    0.1726731962091818 O
   0.5759507048382599    0.3142796414721457    0.2648508745305773 O
   0.6891554583077998    1.1361214860778350    0.2001915799439262 O
   0.2077157908823498    0.6887431015429407    0.1124564489439876 O
   1.0553362397116866    0.5581857514741017    0.3236707810697367 O
   0.3419977244817138    0.5964558461580355    0.1765067403075233 O
   0.4210589142739216    0.6186570255194985    0.3143776128385449 O
   0.5471986297094388    0.4664397952392273    0.2835559735262672 O
   0.8732048713614542    0.3370060560637611    0.0957551224579136 O
   0.7168626378416523    0.6207379846650474    0.0415020496122754 O
   0.7317194750287961    0.3637830619139962    0.1595395790812004 O
   0.7732583059097644    0.5140896848174544    0.2316574369514043 O
   0.9210299300903110    0.6262872090531778    0.2860893440768462 O
   0.0959600874527298    0.7874052568068545    0.1585370023465477 O
   0.3620146172998133    0.8073863182321712    0.1838803745701653 O
   0.6098505082954767    0.7332881872305821    0.1189946025944191 O
   0.5350535205024123    0.8649481031018469    0.1645062006048622 O
   0.7636109728553712    0.8239854642285591    0.0874486499249439 O
  -0.0089132202763767    0.0486947327995847    0.6456981520482462 O
   0.1299625487855038    0.0809767176788886    0.3879275259068683 O
   0.1199405214499047    0.0505601742284135    0.5352029410680483 O
   0.3867771733746725    0.1411846604743857    0.3172969616223683 O
   0.4776026492643095    0.1824720031924007    0.4322038554749604 O
  -0.0080419516039073    0.2314416247862160    0.5509712911878257 O
  -0.1614709022644449    0.0735927381593431    0.6492713852450972 O
  -0.2192671469115626    0.2819584066775451    0.3555854499763363 O
   0.1396203287064733    0.4009024204449130    0.2781805879344825 O
   0.2552580877558730    0.4765490034230464    0.3622803425515377 O
   0.3018706135040991    0.6554827233205135    0.6443420496330547 O
   0.3893951581387112    0.3676873580337829    0.4320229497556222 O
  -0.0888414999944232    0.3264257061694167    0.4223831606423396 O
   0.2758474688623577    0.9401288181308013    0.3763371312320197 O
   0.4307738037321752    0.9630985821972562    0.3545904685199764 O
   0.4553400980069531   -0.2240971739562748    0.5913415072258877 O
   0.0306184193063849    0.2769308493454491    0.7165482889233933 O
   0.7112526704901407    1.0488567925812606   -0.1047602244726265 O
   0.8198631706225012    0.9439902961611734   -0.0508033674804084 O
   0.2009970627581994    0.5904156410112844    0.8890218683968290 O
   0.0523764565538797    0.4544188235901810    0.7642645890782896 O
   0.3295631674247446    0.4449855703112535    0.8861819247951578 O
  -0.0945057910521319    0.4821456060271141    0.7205855245759513 O
   0.8273368589712374    0.5426970212631985   -0.0461723191613205 O
   0.1232918762476047    0.7176574436897873    0.9406559511911327 O
   0.0806756251937265    0.7660154802397977    0.7814886088068789 O
   0.2337939556880601    0.7884899817386907    0.7008384914944551 O
