Li1 Co1 H90 C51 N3 Cl6 O45
1.0
  13.9174587197000008    0.0000000000000000    0.0000000000000000
   0.0000000000000000   13.5824681870999999    0.0000000000000000
   0.0000000000000000    0.0000000000000000   14.0379510877999998
Li Co H C N Cl O
1 1 90 51 3 6 45
direct
   0.9170240138980708    0.8408337451102411    0.4707614738480810 Li
   0.4004570066021462    0.0961082754340479    0.7150000367662629 Co
   0.3487952762186916    1.1715954253965108    0.2090857508722085 H
   0.5211854911509559    0.3320440387913714   -0.0217235730622418 H
   0.6666076074123956    1.1035444653450928    0.1510288453521221 H
   0.6453803125484402    1.2067076004025932    0.3065679255457820 H
   0.3490151439446629    1.0408077087952556    0.0988517152696159 H
  -0.0061574561366364    0.2736444910012757    1.0067285072806733 H
  -0.0795796246934278    0.2230255614717382    1.0971825907903061 H
  -0.1841303210026865    0.3177888977276955    1.0245288257485989 H
   0.7833307845898895    1.1201519034699421    0.1016441455719317 H
   0.9089780047626893    1.1012878799014314    0.3265159933406161 H
   0.1362924005454415    0.4387284778814794    0.2224844298406418 H
   1.0634020302464400    0.4279763820187626    0.0775530230224371 H
   0.4447179605885273    0.5203181407273314    0.0152227018432709 H
   0.4693991187595790    0.4029318175615401    0.2008808497951490 H
   0.5789145863961056    0.5064585831412670    0.2747990443742569 H
   0.4666861953185664    0.6164621538780677    0.2849045077080967 H
   0.7477855022245279    0.5546965021243772    0.0472651272076759 H
   0.8540671179843254    0.4683171796155055    0.3023144558174330 H
   0.7298950234370782    0.6386267557643378    0.3364882463513608 H
   0.8832592289998886    0.6445483599155176    0.1400065815593331 H
   0.2201633157397322    0.8757184209639282    0.2318953473722474 H
   0.2224072598842041    0.7893475210773976    0.1411477737390040 H
   0.0625691712789050    0.9353290888371631    0.2125128891845660 H
   0.4533883653247879    0.9976447142699452    0.1530326990359012 H
   0.3840632090996580    0.8593561518285532    0.2889278868783721 H
   1.0138779027543732    0.7107734368020812    0.3138090107557412 H
   0.8078395693378677    0.7184377286352009    0.2135842706066790 H
   0.8972732817036284    0.8935450778472451    0.2685759139862388 H
   0.1200401518730721    0.2602588531705408    0.3845907077274266 H
   0.1541052789590190    0.2340036840004269    0.6431198888950441 H
   0.1752621586689052    0.0048325232716053    0.4790110395628843 H
   0.2109166563752721    0.1093459283792442    0.4163289576481865 H
   0.0658722168223368    0.2872097721756496    0.5790472194310733 H
   0.0549399048920967    0.0246610254473577    0.5914642024302152 H
   0.6311025622779307    0.3888805422431660    0.5259839913758501 H
   0.7856314919708048    0.9991783088797808    0.3922485204187264 H
   0.7550152703902903    1.1258209761995313    0.3825505239555305 H
   0.1885519412165043    0.4230571730002237    0.6223533255855771 H
   0.0396001791347063    0.6815909646225068    0.5953693307254436 H
   0.4922629192858622    0.6021392784389215    0.6275983930131158 H
   0.6152785527058191    0.6033327286849818    0.5832018855668377 H
   0.4336383516523260    0.4200952665598163    0.5907646701452984 H
   0.4271393203405270    0.3931522253570719    0.4679258748528263 H
   0.3950716843598097    0.5268837368157284    0.3506227876928278 H
   0.4519387472295359    0.6348674979257297    0.4647330299910891 H
   0.5858486827669753    0.4073761497085745    0.4090237605180210 H
   0.3720020991383692    0.5066941073446691    0.5157726151498295 H
   0.5755514724151209    0.6304242701435129    0.4338300871551495 H
   0.9560936465767960    0.5036468703160332    0.3735627450972860 H
   0.6640230838492622    0.4999272223622111    0.4599988633321273 H
   0.1653041625439498    0.7349457739264798    0.5918153932820116 H
   0.3596593285608033    0.0294429251069267    0.4334040990631126 H
   0.6711788442510540    0.9277973207821377    0.4361473768932703 H
  -0.0161326967891190    0.2707797686648042    0.8510391202518633 H
   0.2601311008938303    0.3309735411616542   -0.0344896810846402 H
   0.0927312869678710    0.2016700908750550    0.8857792327476127 H
   0.0468773697511684    0.1941611463595901    0.7665495823854170 H
   0.0137657213330775    0.0976116840722065    1.0150773040008625 H
  -0.0376531486210362   -0.0354782650518313    0.8757820473234544 H
   0.0125823156315261    0.0131969823989900    0.7734102702021526 H
   0.0776265178980382    0.0136490357309338    0.8891572185878122 H
   0.4131877790490731    0.2862614909190638   -0.0818242241275691 H
   0.4835020526322819    0.3205034264489935   -0.2204455932881428 H
  -0.1263654649185774    0.1316180217744130    0.7478395870052320 H
  -0.1596330326063931    0.2046791168810070    0.8470200152096016 H
  -0.1836172963087535    0.0700364308236312    0.8516011680856712 H
  -0.1073619955836455    0.0653922086446379    0.9978967340949306 H
  -0.0038696821513663    0.6058308019020592    0.7665495823854170 H
   0.2748399643525188    0.4552178962195038   -0.0450816826573784 H
   0.5873399751370846   -0.2813577292254963    0.9599068595993944 H
   0.5694891587629474    0.5018774570055109    0.6518989478352840 H
   0.2852556589789243    0.6606279116576249    0.6353402635553526 H
  -0.0453815710411257    0.5770679883531167    0.9354631214887655 H
   0.2010182975746815    0.7266306430942747    0.8340986138693703 H
   0.0044702024739572    0.7308640415611756    0.7988456060119711 H
   0.1668303032301036    0.8414890015685962    0.7405785558645420 H
   0.2937794852312042    0.9136113865803556    0.0025741323412506 H
   0.6101267501070796   -0.3262391154067627    0.8449919414670779 H
   0.5737087509444477   -0.0852483061583537    0.6216758762953980 H
   0.5909493984529155   -0.0040443611310772    0.7253256176928107 H
   0.4018358502823388   -0.1594792917282356    0.8388265118072453 H
   0.5436580061624280   -0.2238159047769554    0.7002379109614438 H
   0.4416707088700818   -0.2884698386498899    0.8354791572178112 H
   0.4376254301210018   -0.2292648407862657    0.9429122142620605 H
   0.5657050627537059   -0.1279754447023762    0.9888669263112176 H
   0.4088730545573813   -0.1016010041319775    0.6701822427687630 H
   0.5021273638489827   -0.0359273734109286    0.9125203146656315 H
   0.6291524936234009   -0.0431440293713743    0.9107209067718433 H
   0.6528737782809720   -0.1845196595991518    0.7420766377333609 H
   0.6806705196107957   -0.2327789296353993    0.8958989431748318 H
   0.3526199687198200    1.0307005619859311    0.2547277392216930 C
   0.3968442780852058    0.3099427538213019    0.1152657915517488 C
  -0.0736273886086359    0.2253859572082399    1.0196719916156425 C
   0.7440527805368777    1.1293277026165485    0.1765126212794297 C
   0.7423312018720827    1.2372543312533271    0.2071623932660216 C
   0.7931371725770020    1.0610742756819307    0.2479375745171842 C
   0.2011124239541006    0.4037417587186597    0.0777296869803388 C
   0.3902978243227072    0.3888849597024358    0.0382566900640316 C
   0.9996806269456571    0.4725458440385556    0.2312734617462470 C
   0.7450091332926549    0.5943004969646442    0.1919920882358896 C
   0.9222383279090962    0.5131109086799945    0.3044479580509626 C
   0.8992837062045035    0.6209245239837872    0.2881236384571184 C
   0.8352784867215027    0.6467600345232690    0.2019301482225243 C
   0.1575175398434561    0.9301680239236022    0.1021947957310363 C
   0.2321770032503213    0.8689648619836008    0.1543355957254256 C
   0.3385434046037941    0.8875999139132928    0.1244487555892879 C
   0.4107189375247678    0.8022082174982369    0.1669770416807564 C
   0.3777445268049139    0.9898375912537682    0.1549439466127159 C
   0.7802332363328230    0.9518275629666908    0.2017762796140293 C
   0.1103695645402360    0.1440973442116254    0.5297376730684580 C
   0.0389549463963983    0.1572709439974095    0.4430682586795329 C
   0.1327148796055358    0.2487837664739985    0.5690600782077473 C
   0.1932625713193406    0.0829567629446128    0.4880757527253763 C
   0.2858664026621779    0.0745054271182553    0.5474235873765486 C
   0.6375793194083405    1.0276841735478626    0.3499952032294756 C
   0.7459554267407078    1.0510878727593143    0.3516913196962649 C
   0.1980191868289159    0.3226407404923698    0.5164099090073195 C
   0.4646408506494490    0.5536318944403530    0.3347244561910205 C
   0.5530884634494483    0.5559275007742307    0.6016373394576062 C
   0.4309812573691825    0.4489938433569843    0.5191069122781817 C
   0.5073581320133570    0.5898344456428666    0.4313197493017411 C
   0.6079057986659773    0.4452264132187271    0.4706686540347157 C
   0.8626843520940441    0.6617565725010613    0.3800045683686742 C
   0.0980928979848577    0.7299356388713039    0.6289753745882118 C
   0.0788731535338559    0.8390917936715129    0.6365434305912229 C
   0.0234463679736378    0.2012334986505554    0.8415576796080307 C
   0.0105294983338135    0.0203149817690766    0.8512506895885439 C
   0.4485079484780072    0.3469831497986560   -0.0430343753387928 C
  -0.1346378084777528    0.1318477296564431    0.8265383937677179 C
  -0.0555299754908602    0.1224495850599230    0.9842786498884584 C
   0.1727724800071713    0.5841381319144471    0.6864745064025041 C
   0.0798733361304313    0.6440690655847434    0.8991764870067079 C
   0.0453354215814481    0.6591576339639899    0.7947616766948342 C
   0.2839853121177567    0.3948153987721553    0.0053480414221735 C
   0.4686652922611003    0.4278393671570774   -0.1264012422469612 C
   0.1273935058194459    0.6795574608719710    0.7243682130177310 C
   0.6125151171695916   -0.2602628887257318    0.8894435851647333 C
   0.5768258429993781   -0.1647183984222299    0.7448070931794774 C
   0.5541043098251942   -0.0681034104890107    0.6957465147736629 C
   0.4496898452834000   -0.2152033316872498    0.8678200591885096 C
   0.5636124393382849   -0.0862172022248653    0.9174911255456213 C
   0.5228178293857979    0.5036168315929984    0.5065473158743142 N
  -0.0371695833282954    0.1187021071127011    0.8747106659013415 N
   0.5485652957312719   -0.1779516339081564    0.8485202341424274 N
   0.0144461616484201    0.8866693024937864    0.3425033691760431 Cl
   0.3620203917880638   -0.2324726524593591    0.5900530278310092 Cl
   0.7717259360860901    0.9167301128248413    0.5411503784553028 Cl
   0.3793762902221716    0.1187278756251084    0.8658048078300271 Cl
   0.5027091510964303    0.2132673939447286    0.6642768225631002 Cl
   0.7975876977229702    0.5409409757041167    0.9305635460756716 Cl
   0.3420426066478473    1.1269216598009255    0.2642846894604351 O
   0.3574412512076222    0.2295420501379191    0.0976207664016562 O
   0.4492652706452417    0.3296740718931184    0.1954042671001990 O
   0.6936527747508272    1.2588925192432783    0.2871356025312736 O
  -0.1505832482645348    0.2757810688014403    0.9724984407278980 O
   0.8915516911745124    1.0911615907686045    0.2562828094640285 O
   0.7856386771906080    1.3023087814333909    0.1653585718728835 O
   0.1189257242816293    0.4016989046793362    0.0370079323293480 O
   0.2159111026603263    0.4109872754130016    0.1641468565809858 O
   1.0821633576740113    0.4554869194890352    0.2725244959162736 O
   0.4241919431773430    0.4778503070424467    0.0710983773670077 O
   0.5184606043189713    0.4767937170469974    0.2942976163729784 O
   0.6911774665286993    0.5783696663512872    0.2664481105900609 O
   0.9818612818342570    0.4499178285875862    0.1442265706182410 O
   0.7105639080791302    0.5662415319260248    0.1112844413069419 O
   0.1718204383832759    0.9568642027774854    0.0199064337916705 O
   0.0731573111805822    0.9533044668492305    0.1406875926228571 O
   0.3506059516090436    0.9756133724049810    0.3255991928816671 O
   0.7158867189091808    0.9290025509195842    0.1462289995926823 O
   0.3516628974420625    0.8813249130205283    0.0247661173433028 O
   0.4489115422743408    0.7423339745552364    0.1146709754031688 O
   0.4050246508309031    0.7953773529806879    0.2608532770200638 O
   0.9944224830938335    0.6620363449214827    0.2650241136068136 O
   0.8391664091568973    0.8842411723818143    0.2227551246148458 O
   0.0648497600443722    0.2127350901027166    0.3703058595508095 O
   0.0634939090675491    0.0942264377851090    0.6020918217364014 O
   0.2836648513145437    0.0997173396574824    0.6326860300588146 O
   0.3651869181552389    0.0424508701700930    0.5045430419012803 O
   0.6140563468173317    0.9468645474770596    0.3936554208899186 O
   0.5790761101372767    1.0820549984838919    0.3090568927591217 O
  -0.0345642226277334    0.1089196435597076    0.4366638340282649 O
   0.2280304129020193    0.3132168273834425    0.4328392018106287 O
   0.2175450216435248    0.4085075346518939    0.5598803197662185 O
   0.7686291063510039    0.6765771483512728    0.3923183311762842 O
   0.1313008283483086    0.8899242337324245    0.6976655982518360 O
   0.0328618800034679    0.8829306594651041    0.5728156120224945 O
   0.9188433115521862    0.6930285029152558    0.4392183378711487 O
   0.1244073284693258    0.5076660220083483    0.6903960188551185 O
   0.0137678768990184    0.6048420272688333    0.9582613203141011 O
   0.1567961437752365    0.6693950958217739    0.9326899247625116 O
   0.2636001250147110    0.5932211644163874    0.6574432042237849 O
   0.4780145565643469    0.3911960271437579   -0.2124529739024327 O
   0.4720418426031165    0.5160813555416570   -0.1127909939418474 O
   0.1982060025437935    0.7408909378604320    0.7662710517098543 O
   0.4491948554911724   -0.0480768588893285    0.6983836517581459 O
