Li1 Co1 H110 Cl3 O55
1.0
  12.6953051823000003    0.0000000000000000    0.0000000000000000
   0.0000000000000000   11.7476296379999994    0.0000000000000000
   0.0000000000000000    0.0000000000000000   12.9544652070000001
Li Co H Cl O
1 1 110 3 55
direct
   0.3735516809640673    0.7686978647836735    0.6525113903530668 Li
   0.5796333751361495    0.3567841299186180    0.7671838199951097 Co
   1.0508437882848169    0.2345526632953255    0.2333725132756844 H
   0.2383379168717095    0.0907725091664998    0.2621764811769122 H
   0.0537800849523419    0.3797342916370207    1.0964818598474158 H
   0.0897566915357571    0.0384876892558366    0.2591335149586928 H
   0.0976525237792983    0.4885187902448240    1.0356225354830273 H
   1.0130266587943526    0.3541470021784152    0.2533810582721958 H
   0.4624585629800784    0.3741076246380726    0.1691622207851440 H
   0.6369758328042773    0.3799717863560383    0.2046125456470185 H
   0.4871196479641953    0.4536862314555715    0.2682986945398494 H
   0.4143754337260395    0.2087602260686795    0.0415058510643464 H
   0.3639008692474006    0.0910852531083173    0.2899769340898891 H
   0.5075177397218512    0.2321675012785247    0.3235429665776707 H
   0.3348783294416069    0.0529734796019622    0.0073050567497657 H
   0.6576685216548188    0.0271196768043702    0.1757800161653559 H
   0.3536679525798185    0.0342789934147565    0.1218982087077367 H
   0.5635384489358027    0.1216583994422995    0.3085195752689476 H
   0.7175867346537903    0.4981454131027824    0.0820796602954665 H
   0.7391387963073748    0.1199662282884100    0.2196722178822399 H
   0.7436688173800610    0.3137975857764269    0.1613926989722625 H
   0.9020013640290763    0.2289379135941058    0.1837741709486842 H
   0.8543695827275063    0.1670284031301873    0.0895946752686353 H
   0.7608617872902539    0.3950063086760720    0.2997527139446660 H
   0.2208928852777643    0.5958978989562184    0.0855581520185868 H
   1.0884167330191461   -0.0015861226114694    0.0645556640229432 H
   0.1682230210721951    0.9051049570549971    0.1953346636133352 H
   0.0513951088083880    0.8631747962328807    0.2060359930611221 H
   0.1132070927451012    0.6565492832742298    0.3251215728476501 H
   0.5200436300188177    0.9498458976699312    0.0541166379543930 H
   0.5534000553996277    0.7687617074500761    0.0994271151235182 H
   0.5242625124506221    0.6501360746252018    0.1545147616297118 H
   0.4078690915141830    0.6116661863221057    0.2648767084299136 H
   0.6547950184600424    0.6049286569277526    0.0271496273971968 H
   0.5131489552754303    0.6631727471046104    0.3238162314283176 H
   0.8254525937517840    0.6150609137036194    0.0372073872443262 H
   0.7484682293772574    0.9354600168405480    0.3067479853473815 H
   0.9209611288038205    0.5456681915017655    0.0616465512654644 H
   0.9024188411927910    0.7317721177719682    0.1666426262300277 H
   0.8751567947094550    0.8123551825408678    0.2606920509289072 H
  -0.0036713106247325    0.7001121138851484    0.3201202085331286 H
   0.0906055880250692    0.1188096545438608    0.3526657434713198 H
   0.1359095009079103    0.4004729433912376    0.5512335700003551 H
   1.1167973032241330    1.1177776473753012    0.5191272658531754 H
   1.0445264923357747    1.2177978247393570    0.4940324437354444 H
   0.0310422778768208    0.3953919183811436    0.4859371655186846 H
   0.3021079474755212    1.0861031724840966    0.5815134768689182 H
   0.4548399985886648    0.1180684837487043    0.4834507641516413 H
   0.6290122589832277    0.4599104658120479    0.5811321411733829 H
   0.5097366702316333    0.4865873367772577    0.6062663319560374 H
  -0.0351138789023769    0.3875418241202813    0.6533543429431976 H
   0.7701085126201551    0.3326813952627606    0.4118615487590309 H
   0.7296242554384867    0.2059630660446941    0.5486599400227946 H
   0.7865539620994700    0.1279881870072282    0.4711723723030877 H
   0.9202600822458844    0.4110010246988006    0.3593723113312615 H
   0.9456868045943988    1.0318283936863757    0.4720824832039706 H
   0.2735777156458062   -0.2212788674058470    0.3466971450950456 H
   0.3029460525739976   -0.0894837693554465    0.3346927900317452 H
   0.2267564701960524    0.5382130705370471    0.4440936782470452 H
   0.1722812141806073    0.5852651156757552    0.5392230394602039 H
   0.2392114681444636    0.9231852001802101    0.6361023764259510 H
   0.0543476963564416    0.7130398282138966    0.5183352609470635 H
   0.1436218007379693    0.7629962890561464    0.6048837970760702 H
   0.2812474800667321    0.8767179538657499    0.5325411735076653 H
   0.4585586961167731   -0.0050073234186513    0.5476355828001723 H
   0.3454830370927238    0.5605222518847678    0.5719399438810041 H
   0.5583128951545125    0.8436185106604397    0.6470754268551721 H
   0.5326987019287073    0.7960736001371037    0.5327063675134235 H
   0.6273872488157870    0.6698106819393755    0.4447559981392908 H
   0.6460642318890717    0.7951908688696439    0.4037531476539632 H
   0.9981077578872628    0.5251508609910776    0.3551289868001727 H
   0.8574573383534722    0.9753148653868041    0.5443733871537503 H
   0.7286349133297589    0.5043304906238651    0.4396365278299983 H
   0.7501247472551671    0.5757406410840409    0.5458161329330127 H
   0.8236818604234241    0.8964564038463262    0.4010984645427362 H
   0.2323798088220142    1.1051112623610273    0.6753344089243190 H
   0.0088144861106621    0.3491008778259545   -0.0552553799066296 H
   0.0883248236334917    0.2799822534718557   -0.1351297694291611 H
   0.2641411563603291    0.0790784053997600    0.8686685188223223 H
   0.6468204169403285    0.2146754619197674    0.8938799030656117 H
   0.4644994749257104    0.1528357527711157    0.6799351391781464 H
   0.5470268332645027    0.2804138298967371    0.9570550312490410 H
   0.3610155506611984    0.3834065218084976    0.7854354418275755 H
   0.3834403758947753    0.3128748464380215   -0.0168684614152903 H
   0.4196647906210295    0.2008692725013195    0.7835318510883240 H
   0.7876953289112110    0.3062930931496906    0.7247714169185927 H
  -0.0476268510380511    0.3414363529154357    0.7669730818475771 H
   0.7161688876826837    0.1864919040274565    0.7538193161554260 H
  -0.0652097288652984    0.1929425670407741    0.9269109848711949 H
   0.8013728260258209    1.0938749530741718    0.8866237177659509 H
  -0.0448289663484004    0.0664301517027447    0.9522999140739442 H
   0.6993162010455564    1.0331307840809885    0.8268914179268287 H
   0.1096775990183595    0.7407415867837559    0.9547701048142542 H
   1.0403202129881579   -0.0916961305551842   -0.0148970948176016 H
   0.1854254432955287   -0.0126888730402108    0.9115649248970188 H
   1.0212738020096237    0.7110734740886968    0.6919904419254657 H
   0.2663600868701111    0.6005677771946797   -0.0231594196831749 H
   0.3457067418370540    0.8908637862694595    0.8158836304403221 H
   0.3971572576474714    0.6752841265389575   -0.1340938331874436 H
   0.4719896453969628    0.8480508941798833    0.8118850091794452 H
   0.4087300397027495    0.5384267306606079    0.6772495786826654 H
   0.4371232129919241    0.6480147956295317   -0.0225130016438200 H
   0.6089702043538718    0.8965926015346517   -0.0169294442491917 H
   0.4084890057176613    0.5006769876345331    0.8429090610085267 H
   0.8507540729511841    0.5076077474991981    0.6798726124750323 H
   0.9897267069024983    0.7303420420445502    0.8103874560431323 H
   0.6854937684627889    0.5058737806797038    0.8899044398429251 H
  -0.0074903602106848    0.7106044432995258    0.9733737288272142 H
   0.7249429973555493    0.5413388074841179    0.7748414112900708 H
   0.8581426310561737    0.6368619074267755    0.7026168937164370 H
  -0.2216266067177960    0.9139918562182374    0.7124961128084644 H
  -0.1247498493386415    0.8514175307881798    0.6769554715976474 H
   0.2478296146505075    0.5902967690238312    0.2544509596365925 Cl
   0.2493301693615955    0.2426232275641647    0.8021493699241983 Cl
   0.6328097257875086    0.8564645063761926    0.8065586603956517 Cl
   0.1079403426323728    0.1162802932245454    0.2794454302554985 O
   0.0314104297197963    0.4400230496098654    1.0462829523966777 O
   1.0180363847589300    0.2982736030139734    0.1917961153778411 O
   0.3071042826631490    0.0460617874136628    0.2580929471093372 O
   0.4927902481558606    0.3717122477946474    0.2376289606950812 O
   0.3885627419242793    0.0613338895762693    0.0613066684582898 O
   0.4441391924206173    0.2823648617820003    0.0231598988229850 O
   0.6784399797815328    0.0703922275796894    0.2398999923069537 O
   0.7156127765929051    0.3873324201744808    0.1931045445355991 O
   0.8325820009381659    0.2049509469733251    0.1541604436453985 O
   0.1984530938817146    0.6026745851859652    0.0157573547219609 O
   0.0957561534554430    0.9305569000608291    0.1980071012205081 O
   0.5820082688127535    0.9007721680951413    0.0557618621809001 O
   0.5428355200793589    0.6869945740282963    0.0865292457533712 O
   0.4874544173879288    0.6046290220134364    0.2704300059879732 O
   0.7054869861409175    0.5398236082014966    0.0162061575020910 O
   0.9010797634978569    0.6268658483392341    0.0546376166202165 O
   0.9377311077009666    0.7733422059555739    0.2265370323364828 O
   0.0640096933103248    0.3641132680216352    0.5498741931585782 O
   1.0628009644078171    1.1406418343029483    0.4690263940974433 O
   0.2326775566859466    1.0644222029737773    0.6134044112609272 O
   0.4995974890026965    0.1523011768444381    0.3388820791403898 O
   0.5645947449292773    0.4274664739818043    0.6156962851071710 O
   0.4386899338949970    0.0757009580999527    0.5478764263973526 O
   0.9965638800742798    0.4374923263136668    0.3590241688237991 O
   0.7870809285570648    0.4076786523392099    0.3770527015550307 O
   0.7463973851066797    0.1936771833221799    0.4781020292642637 O
   0.2880846532385136   -0.1498414774080061    0.3821860666872375 O
   0.2318355131236615    0.5374844129045055    0.5202627816591117 O
   0.0506621606936019    0.6695476501537969    0.3708857159849254 O
   0.0941116085075115    0.6951077000747374    0.5825710272796134 O
   0.2528598206268896    0.8512115317845876    0.5993443943409249 O
   0.4117358752814958    0.5859486578240389    0.6142628025431849 O
   0.5083684479045152    0.8474158724580656    0.5882293079441361 O
   0.5899167041404823    0.7439575546993423    0.4228701081801439 O
  -0.1643960014218334    0.9180437374459216    0.6613539012687705 O
   0.7922852146337883    0.8679808721596676    0.3351366524303946 O
   0.8731954397327573    0.9951231166826473    0.4717266213504447 O
   0.6956715466370502    0.5627082247823925    0.4919057638949587 O
   0.0118333186199769    0.2877140259909852   -0.1120759424106113 O
   0.6132387114296650    0.2906763257120653    0.9092722791161687 O
   0.4208179728241963    0.4413177788845100    0.7884104778004364 O
   0.4831677933786161    0.1860322368293579    0.7445862063289109 O
   0.7321495984325802    1.1021064008623456    0.8522494697453240 O
  -0.0804051099317542    0.3830192096323219    0.7115890896460069 O
   0.7202885208265105    0.2615955655479101    0.7197970703152933 O
  -0.1032521384856162    0.1247160375452075    0.9581588977361170 O
   0.6796569650983995    0.4864460316756199    0.8137067748504239 O
   0.0358205245695096    0.7619330958516551    0.9313496088576897 O
   1.0746951251098795   -0.0115076134646525   -0.0103326454902725 O
   0.2589014241093279   -0.0079360844589813    0.8843156332929737 O
   0.3832710219510042    0.6262333803240725   -0.0764148794012041 O
   0.3993635850730659    0.8363012898551510    0.7854153715278104 O
   0.9582505041439283    0.7197926798481864    0.7398619665380680 O
   0.8060265148620980    0.5793132766959298    0.6759967288165646 O
