Li1 Co1 H110 Cl3 O55
1.0
  12.7044376975999995    0.0000000000000000    0.0000000000000000
   0.0000000000000000   11.7560804318999992    0.0000000000000000
   0.0000000000000000    0.0000000000000000   12.9637841521000006
Li Co H Cl O
1 1 110 3 55
direct
   0.2454117941315095    0.8570758999452980    0.6144244213453453 Li
   0.5647813008013315    0.5267285513968890    0.5591905489205248 Co
   1.1206358902046902    0.3654018225618533    0.2624994011141994 H
   1.0968016987821763    0.3478934360556261    0.1373229880421622 H
   0.0737816085301497    1.1057480672492368    0.2416713776889358 H
   0.0346785240942406    1.2210586087050095    0.2374041051587126 H
   0.2566039463057739    0.4494272769403032    0.2969931874001708 H
   0.4935439881754472    0.3833737989551667    0.1099025993786856 H
   0.6233261980808472    0.2745934952299635    0.1569985701875715 H
   0.5395169004681601    0.1030783366122437    0.1216045837854089 H
   0.5365990224099283    0.2310143445965751    0.2337253953437027 H
   0.4065389568383411    0.4096027790804894    0.0263790936417746 H
   0.7586584371711926    0.3005417695520964    0.0236384355450996 H
   0.7032486648730465    0.4230604957843236    0.0509047796814096 H
   0.9452168710362145    0.4007197163450023    0.2129860805845590 H
   0.8266126450274829    0.4065898701262526    0.1744649208567410 H
  -0.0585512849057871    0.0804025815811159    0.1537657178422777 H
  -0.1564902909142981    0.0067726838431584    0.0989472333888104 H
   0.1809114975024977    0.7248251885788461    1.0468159155443579 H
   0.0126954732384944    0.7647151844594041    1.0314346042188605 H
   0.0144737495020922    0.8135733054400522    1.1909559272937287 H
   0.2754587752798458    0.7961874087388532    1.1009204880804859 H
   0.2962924403581516    0.6087533389598772    0.1727385730760758 H
   0.1232867511401853   -0.2678032701662261    0.3103851104654647 H
   0.3106637965996396   -0.1003843747783265    0.2581395630193292 H
   0.5687562897935274    0.5371248735986628    0.0038079603548477 H
   0.3846473936995380    0.5099806224302122    0.1628811118208837 H
   0.4707983927482218   -0.0138329934829918    0.1427565866869367 H
   0.6398440483781211    0.9559702556563452    0.0914018285245868 H
   0.4002348604346782   -0.1934119792027076    0.2311937271506093 H
   0.5564228041462563    0.6975763107019339    0.2208780663504148 H
   0.4429797668151147    0.6385268678182051    0.2418958491832046 H
   0.6499035254712430    0.6019730178773752    0.0694124158148864 H
   0.6931222820246105    0.8962224507592262    0.0003758606316513 H
  -0.0679047094987109    0.8768716134356987    1.1266845702405468 H
   0.6859791087366542    0.7855512106688992    0.1369318985315289 H
   0.8483373373412670    0.5827455209825222    0.2410712442781416 H
   0.8685743605074767    0.7187917150575581    0.2195366370427398 H
   0.7239768549959157    0.6812536935582719    0.2085977014405894 H
   0.2601224019087672    0.3419526805117554    0.3690886488051341 H
   0.2239200912715254    0.3866435962505045    0.6170116288772268 H
   0.2801831087315608    0.1572397557764280    0.4284231757438132 H
   0.0261417983782738    0.0568698232266132    0.5502417729582832 H
   0.3090092566270463    0.2596029547159839    0.5026615299703528 H
   0.0701815279056731    0.4811470327007469    0.6042823209788638 H
   0.5987072415048246    0.3375490018962601    0.6662997065328929 H
   0.3743171450790271    0.4465904470807944    0.6152158569230765 H
   0.4575337364122838    0.2471864013548898    0.3893342805528274 H
   0.5628024646970977    0.1705834889116943    0.4068098877784616 H
   0.6284133968643251    0.1304621233994162    0.5389210044019643 H
  -0.4156107713604252    0.3604112136305977    0.4181869670532741 H
  -0.0096624623711752    0.0918768991295030    0.6592778370747183 H
   0.8469441233776657    0.3997542585067587    0.3735904207657962 H
  -0.3005021742852268    0.4051514655408165    0.4411069722395582 H
   0.7181363761202535    0.0981504186437005    0.4615855606582797 H
   0.8913065747836393    1.1193325268763297    0.3619680427446693 H
   0.8332481217015842    0.2694268072039797    0.4200328786882749 H
   0.8916214253968825    1.1305522527674601    0.4840805356268933 H
   0.8889530664496460    0.4135726396365095    0.5260443629798717 H
   0.1177823752941602   -0.1348040099912682    0.3343626772278400 H
   0.1598826250439812    0.5357366558083424    0.4055170553922262 H
   0.2576138296477516    0.6823952304912436    0.4969363497969406 H
   0.0830330215243827    0.6391103956393815    0.4346651803198376 H
   0.3023682700672131    0.6385455815384179    0.6059600718380893 H
   0.4343985133511699    0.8969965182771131    0.6521148051304571 H
   0.6144481979139208    0.7366522597532417    0.6233477417773088 H
   0.5158149463032083    0.6740114838359759    0.3772112771029018 H
   0.4620880505328473    0.6805902071143689    0.4869624102062343 H
  -0.3856495870041977   -0.0693349104509541    0.5510656064836410 H
   0.8365540531406384   -0.1706773610152744    0.6297879909376187 H
   0.9196824863021871    0.5419691752628013    0.5335545157915589 H
   0.9058369305848152    0.6545994016099345    0.3926643267410006 H
   0.8863949052170446   -0.0768867471804048    0.5657164212281330 H
   0.9197375851595047    0.7184548680937305    0.5004029301929679 H
   0.3000124003536205    0.2818714311453928    0.6720372287815916 H
   0.3254617754220723    0.2930486258542217   -0.1102559566813262 H
   1.0586654182530879    0.4075349129969914   -0.0296247160083877 H
   1.0723535486638380    0.2761271696637549   -0.0125648824439594 H
   0.2415068594007601    0.3570538020997189   -0.0461597028212680 H
   1.0270544166834659    0.1087955482619379    0.8392684920118433 H
   1.1399834603884877    0.1050818955481019    0.7714773293629620 H
   0.4919036164804499    0.2091141882058970   -0.3233657992694156 H
   0.5938231213668886    0.1596597800493822   -0.2708047575237752 H
   0.3642875787941634    0.4996021633250051    0.8544338170198312 H
   0.5799602488657885    1.0661345240536384    0.8921465708163994 H
   0.6962046695282619    0.4242130908246938    0.6902286763738286 H
   0.7447853320251620    0.2065393504293655    0.8844713427477586 H
   0.8006776128881035    0.3192129585824461    0.8381731328301880 H
   0.9159042789432681    0.1796485851074317   -0.0865560866128917 H
   0.8741157313005580    0.4657958277608507   -0.3137482371026000 H
   0.6849031067658955    1.0466127113772592    0.8166439252527239 H
   0.9600148498586470    0.0841405621312284   -0.0063537330561507 H
   0.2411597365996594    0.6080337113553361    0.7911613966851309 H
   0.1068743757983479    0.9347982331066685    0.7554573156414008 H
   0.1465809737609870    0.7041856564315839    0.7766185750993935 H
   1.0713460267014596    0.5544818490958967    0.8442284635175077 H
   0.0635429027254392    0.8488078381058902    0.6848012487666972 H
   0.0253429436598224    0.6685334675555453    0.9455800430088371 H
   0.1356879296693038    0.5508343749017218    0.6750849499975916 H
   0.4790018254762747    0.9566762732825498    0.9896026827955041 H
   0.3902493732356686    0.7293283901609268    0.9834316451523758 H
   0.4560633840484379    0.8007765233091829    0.8930105160864374 H
   0.3644977415785033    0.9891275653785790    0.7058036040053793 H
   0.3955703485994795    0.6350112402891649    0.8584681328790263 H
   0.6387090119173793    0.6587759637119398    0.7164332163456678 H
  -0.3720267880956954   -0.0825944318452635    0.6745310993691208 H
   0.4129194045157156    0.5327050331338929    0.7012817761723769 H
   0.3927138664108301    0.9712984937577986    0.8889530588360806 H
   0.9509707659932349    0.5025470223875595    0.8649708637954729 H
   0.7983729063991629    0.5365966363144784   -0.2322650846830278 H
   0.6900186421045652    0.6235218667022431    0.9091400657261641 H
   0.7429773023786127    0.7173890366652553    0.8329586060217444 H
   0.1907104357131607    0.9859717516518092    0.4408107624326880 Cl
   0.3161957218743235    0.1509825682362342    0.7638823247836819 Cl
   0.7557759798069507    0.8838654410533542    0.7702971184137137 Cl
   1.0666075249721487    0.3448158797042910    0.2091870355355081 O
   0.0074471496536894    1.1404620182437049    0.2515589227526382 O
   1.1009970832036426    0.3480261333444067    0.0082569699436611 O
   0.4551440202577676    0.4496501403355629    0.0764820336768248 O
   0.5555679847313009    0.2278091946983356    0.1595541511515321 O
   0.5269291729506951    0.0224940801938067    0.0958696597782117 O
   0.7189140571349644    0.3420062698014553    0.0832402455516968 O
   0.8756742418361121    0.4383955388749453    0.2268200042210420 O
  -0.0816314091095835    0.0200521948931495    0.1036280425790938 O
   0.2517780735312880    0.7189533335503038    1.0796689771969625 O
   0.0999880418981449   -0.1932911906449713    0.2810857951155967 O
   0.3561510518214248   -0.1298057454471983    0.2010204385945331 O
   0.3350041103829420    0.5510283170930166    0.2158756689609539 O
   0.6406839123889475    0.5552176385497123    0.0077801801477589 O
   0.4922759273306101    0.7058537294014480    0.2621962488899807 O
   0.6650486270947763    0.7073457232765838    0.1620480217390614 O
  -0.0490742814471654    0.8006838053317658    1.1433695132681549 O
   0.7032628331506424    0.9126139684182166    0.0715339414186234 O
   0.8334134182735370    0.6621061552861457    0.2684313110486566 O
   0.2148964726959739    0.4045747427088084    0.3429033933259297 O
   0.2915665326533704    0.3348703880349130    0.6116135136989003 O
   0.3239662350091669    0.2242170110411526    0.4327105041463767 O
   0.1422439065635613    0.4916250147725395    0.6201881705040271 O
   0.6189379676587695    0.4161678923805458    0.6666159722121034 O
   0.5332379921135566    0.2375530885636046    0.3661882611128637 O
   0.6466479701303077    0.0779811963103280    0.4847763201211561 O
  -0.3776271933787597    0.4263796292511312    0.4474500275569888 O
  -0.0392543269580684    0.0753527692440966    0.5849870290282122 O
   0.8202424299950388    0.3565281166864726    0.4358099078026379 O
   0.8478729326867331    1.1404960431895461    0.4209377070826986 O
   0.9219257969215451    0.4672920747542167    0.5753000426879115 O
   0.1514178663069364    0.6224032966077141    0.4060300228963112 O
   0.2882039281039325    0.7082295212448086    0.5659000095980161 O
   0.6264526646703527    0.6538431971886142    0.6428636483237022 O
   0.4156003574874818    0.5176600527065675    0.6240959800915381 O
   0.5276667105122174    0.6583540543835091    0.4562884962213594 O
  -0.4135933660560691   -0.1130518621149993    0.6104633865581622 O
   0.9422336614757347    0.6570151727646586    0.4603953217728613 O
   0.8732420208488080   -0.1579384212923352    0.5678261447223776 O
   1.0657102007244055    0.0835559284993122    0.7720080386002711 O
   0.3189774270423276    0.3515783376902263   -0.0584470101484420 O
   0.5695221639102417    0.2043600526482376   -0.3317352690729085 O
   0.6414301083423339    1.1046082315635573    0.8552746208987074 O
   0.8003753562993899    0.2642448079523674    0.9004080474611376 O
   0.8257035138817430    0.4578161273374471   -0.2513775596435017 O
   0.9812121673952489    0.1441937409172720   -0.0601401886017753 O
   1.0186400340445401    0.5192328558280761    0.8966745696870448 O
   0.1622329848718420    0.6228422184090654    0.7787360123906918 O
   0.1321883651031051    0.8693427435446908    0.7105661023064636 O
   0.0533965268630623    0.7449798652478715    0.9668932642687916 O
   0.3599371304456748    0.5689730735296570    0.8115759605883048 O
   0.4409001785146430    0.7232481323391072    0.9211041649567793 O
   0.3669976554476547    0.9070764084825639    0.6821577305163222 O
   0.4626760340530792    0.9451843478246899    0.9120095982302189 O
   0.7150177807960791    0.6391478230798069    0.8357972833375836 O
