Li1 Co1 H110 Cl3 O55
1.0
  12.6458398013999993    0.0000000000000000    0.0000000000000000
   0.0000000000000000   12.5643513466000005    0.0000000000000000
   0.0000000000000000    0.0000000000000000   12.6905614026000002
Li Co H Cl O
1 1 110 3 55
direct
   0.5632970615372958    0.3689945899717760    0.3546056047905041 Li
   0.7114003136275726    0.5223952667621113    0.6916474317284117 Co
   0.2134412931991422    0.1935131871378258    0.0830299911778625 H
   0.1210567605506532    0.2744174831065210    0.0500004043296303 H
   0.2856682084807103    1.0452252815226919    0.0323119039647835 H
   0.2774528584816934    1.0319018718708837    0.2190000988238865 H
   0.0136804991615383    1.1272987584220029    0.1288835181842234 H
   0.2103904875107981    0.3051838943072557    0.1958072714411910 H
   0.3808402191103847    1.0750079571003899    0.1240452767501272 H
   0.4911674114448584    0.2620348303369372    0.2158252983779625 H
   0.5439120302661531    0.1180425182714541    0.0861052688398897 H
   0.5379883430159234    0.0963991407107345    0.2087499612710002 H
  -0.1107570253297800    1.1489075142192904    0.1624651688677532 H
   0.7617789369539151    0.3323488462084424    0.2803890299582010 H
   0.7785480881791681    0.1692389535075690    0.3176907682329960 H
   0.8998401513468661    0.1959056703763763    0.3222287865422727 H
   0.1681252043509696    0.5731603227848880    0.2145416672222390 H
   0.2315033597433280    0.5869525190725933    0.3147468480379172 H
   0.2236604642490312    0.4237120983440678    0.2434513417717696 H
   0.0795711013742718    0.6520613318901662    0.0254544689594125 H
   0.3996179360298819    0.3434325859223660    0.2506488168953907 H
   0.4762723943516364    0.4805339732109461    1.0706196337788798 H
   0.4936203920683015    0.3670342818491713    1.1089867307538210 H
   0.5190176772659555    0.6411702006072901    1.1166932456113878 H
   0.4045658082932229    0.6237112810062111    1.0431897991989312 H
   0.6581693688606243    0.4693833776779812    1.0344195016156268 H
   0.3912349419650462    0.6536045870463703    0.2468633263661729 H
   0.6886457947882509    0.5952545791728329    0.0960012061444655 H
   0.7128316143781954    0.4460451255143030    1.1414990828011835 H
   0.8050896232034249    0.6421427935938201    0.3290267521533390 H
   0.7494602612118142    0.4521162706053421    0.3021169891281954 H
   1.0227580456434486    0.8196585234928851    0.0968968324008163 H
   0.0103117232898651    0.8794865225088006    0.2961164665678303 H
   0.3750557080657405    0.9397283908806860    0.3300873829302597 H
   0.3739502061600108    0.7459611256363241    0.3329138930319051 H
   0.6448709242621579    0.7010332193379415    0.0367509510812065 H
  -0.0231826121320582    0.9372133386405597    0.1973666981184021 H
   0.7526976895394660   -0.2579737096795777    0.2041914552944129 H
   0.8376615999537868   -0.1799720705209270    0.2434474018357483 H
   0.2074401101071661    0.2883386156166630    0.3547592622953328 H
   0.1431834049170497    0.2025809055466102    0.4219651149714221 H
   0.3167155731607954    0.2186947497407864    0.5045729655417853 H
   0.2718201760249606    1.0751273424915351    0.3410159774660055 H
   0.0311368408096083    1.0468330047901144    0.4478457667078149 H
   0.0288158877957364    1.1480320213508919    0.5143763143498618 H
   0.4915596352969627    0.2214692662310017    0.4786009072896994 H
   0.6406687517821523    1.1366744911399418    0.3958622508434306 H
   0.6075416517572397    0.2626070843118267    0.5309413813576090 H
   0.4123968421790891    1.0617800557614978    0.5972205610815000 H
   0.3756139944358730    0.2557201390479619    0.6095186773782326 H
   0.6516296687459000    1.0168195174562025    0.3662528436565259 H
   0.1201742568834184    0.3515316908576587    0.5099021230041293 H
   1.0558361176868483    0.5720946091932649    0.4089184108306519 H
   1.0103270800082049    0.6030098541816273    0.5197984543023072 H
   0.0111744576097157    0.4229464400355230    0.5193910649177099 H
   0.4428827573934603    0.5620909093179020    1.3627658897546335 H
   0.5002107017123296    0.5575081021031402    1.4643925994867792 H
   0.8705261630454361    0.5668384683724441    0.3938008763171122 H
   0.7587012449531283    0.5841963083423536    0.4843311502390067 H
   0.0650827792954394   -0.1830187857029534    0.6386308646392554 H
   0.2245358509512077    0.8438221266606807    0.6388428331971987 H
   0.1734969314222298    0.9291826813295236    0.3665916781543535 H
   0.0983051675747444   -0.0532741649875250    0.6339210651194521 H
   0.1128145242391937    0.8749021234888235    0.4602132258785215 H
   0.5589106387396688    0.8523542026145269    0.3647950673286631 H
   0.5060410776429053    0.9980362159160188    0.6388176176066628 H
   0.3483726245142120    0.8940197041242137    0.6478235233640380 H
   0.4036706522436621    0.8975137165717310    0.4419303467655089 H
   0.5011730735429969   -0.2584401086076518    0.5818035914303453 H
   0.3770532029254495   -0.2627785737218696    0.5970141084339865 H
   0.6439132970748627    0.8390865061452530    0.6095076455573731 H
   0.6356536637377049    0.8166420526099488    0.4895901768401724 H
   0.6836196359092682    0.8449761854417512    0.3333961412009062 H
   0.7032656225658835    0.6697940419882717    0.5628595910529668 H
   0.2835947993270457    0.3255701436992160    0.7376745523158690 H
   1.1251237263993197    0.2402008341016890    0.7451698866026967 H
   0.4125826740445016    0.3105474819801072    0.7811312586430620 H
   0.5899659111587076    0.3210685185504330   -0.1741015017859916 H
   0.5515588138343978    0.1574890433110550    0.9111940626149838 H
   0.6584580013324350    0.1288930585213407    0.9606875389139375 H
  -0.1927610690537243    0.0626083791912480    0.8280456528225049 H
   0.8535403397728512    1.1283413908380044   -0.0227531146605415 H
  -0.1216436095473627    0.0233481431159901    0.7374468240138407 H
   0.8394171180015120    1.2250594757177975   -0.0980323690364964 H
   0.1052966368158946    0.3543738590695230    0.8898947684841014 H
   1.1201576663363852    0.3545306518832270    0.6918263048237765 H
   0.0969531814458274    0.4528636231539113    0.9721054735035226 H
   0.1869638108604104    0.6149340670492134   -0.0105728024508444 H
   0.3384270612321218    0.6276533866218267    0.8721414167723449 H
   0.5484257676609350    0.5464944018186884    0.7812943719943418 H
   0.4070314412989919    0.4679101619512490    0.7401598639580740 H
   0.4177669877025586    0.5780392057696900    0.6844940838882285 H
   0.5225587627694301    0.3501515957360198   -0.0702424243042053 H
   0.6267582481886682    0.5968368335568111    0.8590529493097495 H
   0.8623732841841535    0.5260771122250304    0.8341210341672738 H
   0.8892042424541164    0.6187607667867220    0.7606325595116979 H
   0.9363580898351329    0.3770340022114962    0.9304209503986881 H
   0.8218223988294909    0.4073499325363095    0.9679921802973367 H
   0.1589490640690760    0.9234044283980943   -0.0222172833616514 H
   0.2969857644712706    0.8987394065874887   -0.1141506472994338 H
   0.1572789496020509    0.9842830188560877   -0.1303248726538729 H
   0.3358356951769886    0.8441006925733529   -0.2221726611812738 H
   0.3515088337832564    0.7363322958891569    0.9201771167434357 H
   0.4951813797377653    0.8987553246396414    0.8922666099688945 H
   0.5983394159367988   -0.0535094337983418   -0.2428510213952070 H
   0.6302099762419658    0.7987429988668476    0.8962065459901454 H
   0.5891403432119394    0.9771756085699080    0.9220919256497637 H
   0.9865485089743770    0.8025665149939257   -0.0162608880847243 H
   0.9030269701452143    0.7804420143068908    0.8098667880204533 H
   0.8516424824239590    0.8873420812461569    0.8502117328780625 H
   0.7446254696155115    0.7289948697493708    0.8931333958935697 H
   0.6953396958125727   -0.0097725161620243   -0.2975657009095223 H
   0.0570996005121036    0.0818566470348119   -0.2782560744693717 Cl
   0.6934568631676925    0.3428483934083620    0.6900407258189456 Cl
  -0.0082690909296845    0.6808913120465252    0.6745583532298380 Cl
   0.1429105879231465    0.2168769081849483    0.1016743988201851 O
   0.3070997625930751    1.0668977095285903    0.1060088800346041 O
   0.2739710810203717    1.0107945347164062    0.2981991167486635 O
   0.5013770932080028    0.1321100968614010    0.1515176626391055 O
   0.4770283741956118    0.3313173564289476    0.2532988178632841 O
  -0.0604440362367534    1.1013204973087998    0.1207168187993745 O
   0.8316596260879152    0.2127023990079032    0.2841824003594613 O
   0.2527040078782443    0.3492458585685313    0.2419092508130520 O
   0.1191810448708315    0.5859878851121397    0.0207917437951911 O
   0.1715334398400218    0.5493835282844031    0.2866850477201599 O
   0.5117591636803384    0.4097917617365334    1.0451440074654716 O
   0.4454393293971971    0.6063621959649855    1.1118471243052492 O
   0.7065599866140022    0.3874030213837636    0.2765160728493113 O
   0.7283023148672479    0.4610224207847766    1.0652219214297662 O
   1.0493280485279388    0.8023906205176384    0.0258962618653474 O
   0.6604926625652264    0.6710340582509668    0.1078734153573008 O
   0.3563602316313619    0.6714057447687325    0.3155600508327034 O
  -0.0316202486730641    0.8704689459642970    0.2280343721206148 O
   0.7854887106588458   -0.2310260391902753    0.2704564512486274 O
   0.1986925692765640    0.2589435446088832    0.4260256130349232 O
   0.0342263074336971    1.1252373706682284    0.4406545954818278 O
   0.5680116555015020    0.2475884021057562    0.4647181487252198 O
   0.3711303064491152    0.1993200925631301    0.5550159664218605 O
   0.6668235983715725    1.0899311309935442    0.3412634054481400 O
   0.0593812204324197    0.3664055187891397    0.5561853394329678 O
   0.4874373309803899    0.5091028973120009    1.4054353968647810 O
   0.9973900190799234    0.5656470021688146    0.4535980732988413 O
   0.7274103219132687    0.5998158970171885    0.5546779199112372 O
   0.8007514376134156    0.5717714727345652    0.3601932220558420 O
   0.1090275080542584   -0.1264094168323136    0.6034637837007742 O
   0.1103702421285996    0.8902232486857953    0.3856002934824805 O
   0.3037777214586185    0.8323611291107381    0.6593202566740481 O
   0.4182066579883853    0.8835933799641966    0.3666413213482212 O
   0.4355119539147003   -0.3070442890506998    0.5754996937963439 O
   0.4361350837442533    0.9853336102981658    0.6014646601635916 O
   0.6300478675934147    0.8779185943717598    0.3793247633878322 O
   0.6357619997613708    0.7813899343125839    0.5586682871135601 O
   1.1504917529628449    0.3171319842530708    0.7569723589479558 O
   0.5863599821958124    0.1023656246088695    0.9604275031365350 O
   0.5361268612662183    0.2952979880178225   -0.1256331968397674 O
  -0.1836181412754363    0.0002642932618164    0.7774828778873837 O
   0.8012733483843610    1.1584503864848328   -0.0741713285045967 O
   0.0804177829840463    0.3776898259601874    0.9606481395537250 O
   0.3265401480368938    0.6636560410781914    0.9384111406497849 O
   0.4217256018227895    0.5436506418016089    0.7521664249892339 O
   0.6222326491854557    0.5333078874153934    0.8095949324349869 O
   0.3617137709030285    0.3420286137224980    0.7355280751714914 O
   0.8299515544739123    0.5847828885641805    0.7935255093787130 O
   0.8624049151399683    0.3859584581509063    0.9049847234454924 O
   0.1955650585203688    0.9778919209167795   -0.0660259047742626 O
   0.3647574596263144    0.8686622470449659   -0.1452083749677503 O
   0.5720335315333627    0.9011589505146989    0.8988778226125536 O
   0.6650040276383222    0.7273043726107543    0.9000676832909713 O
   0.6246089247410478   -0.0322367876722585   -0.3120173862354707 O
   0.8699647135797219    0.8121332643376972    0.8750175700678581 O
