Li1 Co1 H110 Cl3 O55
1.0
  12.5324585511999995    0.0000000000000000    0.0000000000000000
   0.0000000000000000   12.5349113140000004    0.0000000000000000
   0.0000000000000000    0.0000000000000000   12.5138812226000002
Li Co H Cl O
1 1 110 3 55
direct
   0.5680896726459385    0.1290021617778795    0.6223391426582454 Li
   0.5016533866930696    0.5414007715890570    0.4028357007493337 Co
   0.1444186125496260    0.1393803764090995    1.1688074907555419 H
   0.0786293664386901    0.0387692138401674    1.1781970636554184 H
   0.5534365222485317    0.2239322311012243    0.0973589320313899 H
   0.5728852201240704    1.2186237520595193    0.2569521041635653 H
   0.4649718370895418    1.0471586378548829    0.0996809134760854 H
   0.6147971879836973    0.1192884911383427    0.1447766747320605 H
  -0.0235728466998770    0.2721423847163567    1.2764479562545532 H
  -0.1351139297434870    0.2272884574793889    1.2516115370436456 H
   0.2663930833810999    0.3927535292333062    1.1503719633682947 H
   0.1981790137707805    0.6327440584554901    1.0352837685563601 H
   0.1623049673366152    0.4916245917366209    0.3024967269597840 H
   0.3230363985853643    0.4947893528590784    1.1124141154751765 H
   0.0264274622929662    0.4123196828227675    1.0885526136206813 H
   0.0366787788622677   -0.4292897817944626    0.0355005056782614 H
   0.4523629783125965    0.3738072444091964    0.0804566619652486 H
   0.4094336522109367    0.3943905571696014    0.2772855239454684 H
   0.5765532952916199    0.3943043978045332    0.0533958329565454 H
   0.7124284703854127    0.6487641159548774    0.0746081167618769 H
  -0.1816339319934986    0.4778047891340669    0.2375640345723477 H
   0.7862822953327432    0.3467404394274121    0.0210625933482560 H
  -0.0786836613240249    0.4324865586520096    1.0308087380679083 H
   1.2419590467593966    0.9970585626115424    0.1969123781476989 H
   0.2930039832805508    0.6727674768453491    1.1148833733696972 H
   0.0398195831856325   -0.3109291518039694    0.0764432788184358 H
   0.2437558650858249    0.6736194972332454    1.2894814825521692 H
   0.2653853002754625    0.8009949496799447    1.2708861326474774 H
   1.3608742615124749    0.9517052301659388    0.1860068886698592 H
   0.4031579482316510    0.6968051419274685    0.3069118240041940 H
   0.5383947808990700   -0.1274320418219435    1.1471994863970172 H
   0.5295010750436193    0.7082786973757125    0.2687845642425843 H
   0.4377106258432227    0.9516892747279631    0.0114298760596900 H
   0.6246188841414886   -0.1459818340123599    1.2462095359540144 H
  -0.0752342184375083    0.9927745275150974    0.1760619325218622 H
   0.9907713019813719    0.6868992082603257    0.2889941215734678 H
   0.6901351590723466    0.7644657722067391    0.1032180255209129 H
  -0.0600129432806290    0.9735083361595772    0.2945048019749613 H
   0.9770788569356574    0.8205036636926939    0.1733521417385872 H
   0.8823169237404915    0.7382892806639924    0.1500660009468932 H
   1.1386752421721427    0.2009627825915706    0.5745226427765503 H
   0.2773949150996495    0.1305251083326492    0.4616599765200332 H
   1.2104249308965391    0.3027209815965675    0.5357920530115868 H
   0.3002292216190673    0.0619509494520864    0.3634538342257830 H
   0.5776927365226968    1.2018386313092027    0.3868686321440201 H
   0.4576947334288823    0.0951604385000916    0.4528345771067363 H
   0.5702488659031473    0.0390750795861594    0.4266804212394970 H
   1.3449316594137934    0.2150689853057862    0.6559242464740764 H
   0.7514287988527428    0.2370420167138647    0.6061195544753691 H
   0.9234102174382941    0.1810743291550024    0.5335593324428842 H
   0.8673398145617001    0.2015531337966672    0.4261817749850695 H
   0.8489794905231285    0.0352282234902456    0.4472775481751838 H
   0.1100071681998894    0.5940034572788682    0.3459508712278258 H
   0.1944431147204288    0.5014228261974283    0.4635978245440502 H
   0.2018343220898025    0.4860920436185864    0.5935447188028194 H
   0.5152309301020368    0.3409573909331609    0.3400749963739710 H
   0.3473963435038152    0.5286069036483332    0.5345766027664198 H
   0.4165040925110577    0.6403548023698447    0.5543058934323818 H
  -0.1429080907695091    0.4061433327824181    0.3378710438584085 H
   0.9408609035192833    0.5838350566570271    0.3530917413072553 H
   0.6927603423008081    0.6159310156887161    0.4841310224727591 H
   0.7102812460486982    0.5334437946706321    0.3801201263449173 H
   0.7928747767411168    0.6519216971302457    0.6220602523653044 H
   0.2613884787583306    0.9614938913639609    0.5411037543788616 H
   0.2570469523309570    0.9584065141156849    0.6644819431706535 H
   0.1235958826013181    0.8276836107817076    0.6561983420914941 H
   0.3567017802242768    0.8392672587519833    0.5994669421867331 H
   0.5438956967583448    0.8056667019191963    0.5602241212533594 H
   0.6493187464019834    0.8952868014842662    0.4315550080215606 H
   0.6724570635019617    0.7869796929621898    0.5718895668016487 H
   0.9704321164210420   -0.1891827778750569    0.5723570476651745 H
   0.7197837709933028    0.9750719690811847    0.3687751249441046 H
   0.8358136779791723    0.7309665324050971    0.5333579560709039 H
   0.9627321109029100   -0.2589008618812794    0.4623727849478366 H
   0.8625522463638979   -0.0931884808387405    0.4477330423499012 H
   1.0057404318798335    0.1118588414450109    0.6810195781632445 H
   0.0200206268207426    0.3160094681145345    0.8809111989565160 H
   0.1263934182849005    0.0876643344075917   -0.0209579173667040 H
   1.0245316370562074    0.0150992976702284    0.8389897526307690 H
   1.0156427187689545    0.2353627068669343    0.7040076499599043 H
   0.0946521603046848    0.2083692968998376    0.8508326011734220 H
   0.1940321817834507    0.0620324019629518   -0.1387380827512187 H
   0.3241894045930017    1.0853639340874239   -0.2249831078399067 H
   1.4110559555057720    0.2448857100226629    0.7637429140800386 H
   0.8225042383892820    0.2366981770254908   -0.0211427521081288 H
   0.6838395068922365    0.2992243473642178    0.6933187199932022 H
   0.1851863516099781    0.4146731099241665    0.7796556430294209 H
   0.1404880190592304    0.5283524144126226    0.7892250162614228 H
   0.2985966608636167    0.5361147349877452    0.8243420189069616 H
   1.0482380789156582    0.6496065630799883    0.8969334063303480 H
   0.3325477007383315    0.5694584092691252    0.9358661715798792 H
   0.4345412556962777    0.4309045769767302    0.8471167276428325 H
   0.6221301466066643    0.4030240446581910   -0.2020301969970849 H
   0.4851075510014650    0.3394009379586425    0.8981880130922891 H
   0.4477086640962998   -0.3441539580724313    0.8440481353078940 H
   0.7261161278629293    0.3634649295134215   -0.1464271440654836 H
  -0.1891184969427294    0.5236288069999503    0.7686087106236428 H
  -0.0975075815497504    0.6085763565538698    0.7771368401544924 H
   1.0443920657967571    0.7041254968706673    0.7782627897898903 H
   0.0309142275809006    0.8864474888457915    0.7154621297851665 H
   0.5504786030303229   -0.2675351471417678    0.8059672240763434 H
   0.5217795254685973   -0.0560641655290454   -0.1681334392722367 H
   0.6031849413199279   -0.0616988284501237    0.6712528241221984 H
   0.4191364570918159    0.7630337716484301    0.6781787329156649 H
   0.4497713080615196   -0.1594386504009692   -0.1349982358430125 H
   0.3544125246976944    0.9794756699624464   -0.1730799461871504 H
   0.6721698094100935   -0.0079270080426514    0.7611426017212132 H
   0.9096698967106016   -0.0151159699541214    0.7947213126363464 H
  -0.2137465456802571   -0.0215515958615740   -0.0803549171286666 H
  -0.2487508505584883    0.6927795849262280   -0.1786281848802435 H
  -0.2836609999288294    0.7349944827220339   -0.0745094085531264 H
  -0.2405625130841805   -0.1250881879833299   -0.1498201761108347 H
   0.7922795224285234    0.0790112217302920    1.0554693525096268 Cl
   0.1178069147221422    0.3436075891809058    0.2036928484502906 Cl
   0.7201316676156764    0.4719531322565207    0.1099976967109175 Cl
   0.1411925895123403    0.0666633880581758    1.1357242296444872 O
   0.5472629530574658    0.1607981585756276    0.1415298802901713 O
   0.5913811919282465    1.2554648583451478    0.3267098383526573 O
  -0.0940174443335525    0.2566289123726943    1.3100186760438142 O
   0.2742199594564736    0.6275194502903844    1.0569956575512238 O
   0.0652837009161031   -0.3568744309984673    0.0211072381702790 O
   0.5109412689968060    0.3436099824966021    0.0359351430144523 O
   0.3381938394996062    0.4199248423338307    1.1324798325403598 O
   0.4783881990358496    0.6651591262466909    0.3198678363808494 O
  -0.1652915679503006    0.4781661798042139    0.3141230159912993 O
  -0.0032883192098053    0.4422289490799025    1.0207878662241250 O
   1.2975666513768698    0.9552074488015798    0.2374585517108342 O
   0.2826748048937924    0.7281623641808880    1.2512279630017782 O
   0.4452023721447503    0.9701816273416676    0.0901298399223309 O
   0.5864404215481145   -0.1820036285579419    1.1839666565351725 O
  -0.0222329659469187    0.9657539933034424    0.2254303090479455 O
   0.9581919003953274    0.7444233487937065    0.1705672343721131 O
   0.7487701026468965    0.7193685245406435    0.0676856441525355 O
   1.2122043104100557    0.2274647650690191    0.5494848471936622 O
   1.0211404429160975    0.1772952836704848    0.6460024645911089 O
   0.3250974466945182    0.0655563997714296    0.4408662678878893 O
   0.5344609956965425    0.1023374338330799    0.4671267057292294 O
   0.6832203147386541    0.2397368901879412    0.6433286338742590 O
   0.8571183564593923    0.1678983284747634    0.4970862357368273 O
   0.1809509496109891    0.5573147254259065    0.3455816812125285 O
   0.2346355476690116    0.4669423269602879    0.5233011241606955 O
   0.4608289947423769    0.4065318476971236    0.3371454496292096 O
   0.4180823941602665    0.5656299019268833    0.5367805552819823 O
   0.6560053833182472    0.5590841834973991    0.4312137869468162 O
   0.9900292289107125    0.6483771965839693    0.3573326318076507 O
   0.2435228701001985    0.9127580060675330    0.6033562231487501 O
   0.4151755423361675    0.7830147666252567    0.6013224816142662 O
   0.6144468975772247    0.8372728290050350    0.5485586757050701 O
   0.6419411038091700    0.9446848374566807    0.3700425175074412 O
   0.8440083988777438   -0.0283659240893772    0.4018471984789382 O
   0.7701082941045012    0.6901261955908879    0.5530872467368659 O
   0.9313017256843382   -0.1995027551576660    0.5043733434197187 O
   0.0639101476001537    0.2794013112233496    0.8235748708232269 O
   0.1247313341922302    0.0846671053838778   -0.1020132655801863 O
   0.2904968934009683    1.0173219688405368   -0.2103281821028142 O
   0.6099808943767082    0.0051479149380123    0.7121402187600783 O
   1.4010818550936841    0.1863811078256824    0.7076004601520612 O
   0.8193468371628314    0.3115818340763092   -0.0389491381554549 O
   0.1999911083336486    0.4846736051825568    0.7521118303729999 O
   1.0462751759545594    0.6379231936223653    0.8178851892021953 O
   0.3645494024285076    0.5486676758150376    0.8691242882949689 O
   0.4776118150597727    0.3676484453506202    0.8253249273892465 O
   0.7017697477210388    0.4107249367971076   -0.2059074912702936 O
  -0.1697647525031138    0.5975104625459019    0.7521382010883783 O
   0.0538077403603645    0.8163289233463819    0.6851629769279987 O
   0.4724141118530253   -0.2724398487754630    0.8071618973942426 O
   0.4544463684066735   -0.0793303851850451   -0.1225568519725291 O
   0.9862470500344488   -0.0023446789581331    0.7718634961914043 O
  -0.2997959026834559    0.7435202710042883   -0.1510923633496946 O
  -0.2325473259930266   -0.0454565116997365   -0.1516229741076111 O
