Li1 Co1 H90 C51 N3 Cl6 O45
1.0
  14.1388182235999995    0.0000000000000000    0.0000000000000000
   0.0000000000000000   13.7984996107000004    0.0000000000000000
   0.0000000000000000    0.0000000000000000   14.2612270428999999
Li Co H C N Cl O
1 1 90 51 3 6 45
direct
   0.6085482867399951    0.6864966172086193    0.3478090283941903 Li
   0.6972169420811762    0.6746105422999518    0.5989844699760803 Co
   0.1312347027280442    0.2742119369533433    0.1470317746987925 H
   0.0497399142826618    0.2305202301004838    0.3840850093068958 H
   0.3036882954851882    0.1464226808930210    0.1432999779999597 H
   0.3491786603677656    0.1162744755274597    0.0369066083806608 H
   0.5024063181350766    0.1290889122407735    0.0937600612820828 H
   0.7006033637214290    1.0102963147159731    0.2020726205978690 H
   0.7414483615753557    0.2437593506682259    0.0244764016763749 H
   0.1550917178381879    0.4645334772723762    0.2617252716243831 H
   0.3319410103643735    0.5764346508465420    0.3015149754340919 H
   0.1579809267772925    0.3859422006411783    1.0056668671185791 H
   0.6499053500215622    0.3403937701790263    0.2945338089678048 H
   0.3009016410861497    0.3530610894478880    0.0880088030100371 H
   0.6174535571811862    0.4035810024578095    0.1048397530592827 H
   0.7284508113491805    0.6038021190970152    0.1928434007275123 H
   0.7309870912159196    0.4002684683932685    0.0611212148069658 H
   0.8195913847423008    0.3600879403907842    0.2756883057588924 H
   0.8421646999198923    0.4925357464249133    0.2928642471602285 H
   0.8492317686394844    0.5300949749368390    0.1099325827142287 H
   0.0012224222864080    0.5509463724160903    0.9983301912711744 H
   0.0967799136292731    0.7129321000720705    0.1941890072410524 H
   0.1810641855644544    0.7258335027624004    0.0644442107776100 H
   0.3312188849477699    0.8337010276377729    0.2143001799428985 H
   0.2771648623333249    0.7671619091898489    0.3070166058172265 H
   0.2542273017203259    0.9664089344148276    0.2959551452903403 H
   0.6105512829983901    0.9318993853019119    0.0430028580047970 H
   0.3753357262661512    0.5858334988125508    0.1434325051657018 H
   0.4096023808293527    0.7074807827461150    0.1058228381723536 H
   0.6555833351777756    0.8879185165754740    0.2033102420133970 H
   0.8778883362247232    0.9525885912340282    0.1580932352256787 H
   0.9451492617816160    0.8217098688402110    0.2144909068692575 H
   0.2220860015909088    0.1815707052205295    0.4019544394220886 H
   0.2703113899661466    0.2999741582113954    0.3997063860180191 H
   0.0556760539707658    0.2863089043562747    0.6418643707139658 H
   0.3476650968109275    0.1008300427258858    0.4663431485589480 H
   0.0739788566454655   -0.0581988417115490    0.6222468441744607 H
   0.6126391519795986    1.0310065374258683    0.5552847239356253 H
   0.5366127130650806    0.1915029445122366    0.6505754023542516 H
   0.8546141138112312    1.0545170645956803    0.2913924242983627 H
   0.6629354347914823    0.1893374916845371    0.4695713420279608 H
   0.0057807947741752    0.0339966893890576    0.5178750958303349 H
   0.7411159434110033    0.2040289440684472    0.6088251379338819 H
   0.7742863253045323    0.3062857139933347    0.5433294413020120 H
   0.0240807683581145    0.3531168926164733    0.4312141937717499 H
   0.2080268350568767    0.3589950679462826    0.5765286182435020 H
   0.5261440163423985    0.3243659406149698    0.5392297239478093 H
   0.4434694263226414    0.3716993477553761    0.6241155473316177 H
   0.5378971202703228    0.4445575590365806    0.5781206972372449 H
   0.6961383512287566    0.4118840791134161    0.6256967576953659 H
   0.0297290480613432   -0.1502545025324548    0.5510877498730183 H
   0.3092262406487595    0.9316384873708637    0.6036348412099510 H
   0.4414664300642462    0.9938481495963390    0.5769883262321819 H
   0.5269051832114963    0.8906949053917113    0.5784557315218564 H
   0.4077832754703866    0.7773999788340625    0.6050113006086374 H
   0.7201099445146982    0.8847609268933166    0.3991643569221533 H
   0.8475067305483028    0.8929581949435537    0.4029403293429001 H
  -0.1306407907852495   -0.1412716418231728    0.6460463390551607 H
   0.1934930885477800    0.0793929293914315   -0.0900340815441433 H
   0.2028524280560226    0.2756367295434561   -0.1101543698711463 H
   0.3189943837718864    0.2939553878854102   -0.0877944425632955 H
   0.4779135356037919    0.2465139979902090    0.7456913412506402 H
   0.6029113233998081    0.2143467325249254    0.7648054048007124 H
   0.6040825669746324    0.3829868068555832    0.8144897691172288 H
  -0.1094926300782320    0.0566549499841122    0.6821491230898858 H
  -0.1381201994831763    0.3128994765454047    0.8129338020231457 H
   0.0174182596172662    0.0005169623873068    0.8713593496631591 H
   0.0605265300795489    0.0333560400250394    0.7571742241405475 H
   0.7195130063642443    0.3403785511330485    0.7137543979126015 H
   0.0853426069574835    0.5443942107644067    0.7253550827276130 H
   0.2250240123456311    0.5727313496586088    0.8069574579299191 H
  -0.0021102466293964    0.6221997715347590    0.7700349688330115 H
   0.4805873092814886    0.3971905250517281    0.7696282717106283 H
   0.5757347239186271    0.4818583536534737    0.7349419155848927 H
  -0.0564238383211121    0.4186973561110904    0.9191715048128428 H
  -0.1037983776501461    0.5026426423871276    0.8332483232861834 H
   0.0746069147942844   -0.0859902690999755    0.7981153015277616 H
   0.2281034776383756    0.8906572201350043    0.6832100416177578 H
   0.2933366523927194    1.0006488889989935    0.7104307007400221 H
   0.2880773726690520    0.8302651468291642    0.8270980811130412 H
  -0.0283295525245117   -0.1904436546609932    0.6983707286574918 H
   0.4578402172039365    0.9999872228571965    0.7524067521835078 H
   0.3528324310848805    0.9337474123135027    0.8595924799895186 H
   0.3444809551600465    0.7357316803797762    0.7059801720576674 H
   0.4695880165866849    0.7563049316758712    0.7169070018130060 H
   0.4088017481441468    0.8155360091885473    0.8592699270993527 H
   0.5270535690218816    0.8985037254112765    0.7540237238459484 H
  -0.1418744029222870    0.0666400935785041    0.8066685627326400 H
  -0.1974490618204711   -0.0123757437053214    0.7124487599093646 H
  -0.0728757083657907   -0.1939440352358889    0.8522565053440491 H
  -0.1824145662467756   -0.1415825451910052    0.8189977963582653 H
  -0.1163461024454103   -0.0715198552409812    0.9088603303565600 H
   0.1519358670949113    0.1843260772589877    0.0365588122208297 C
   0.2488937583641967    0.2341771494340084    0.0248157834129842 C
   0.3302520431803877    0.1814750426458118    0.0793587759381089 C
   0.4194787366740667    0.2489823823045144    0.0986909132900107 C
   0.6921274078031354    0.2812148722525600    0.1499992612883192 C
   0.1214036123354974    0.3422157073975124    0.3192701096338564 C
   0.2093006331717671    0.6237071818030370    0.2036776718274121 C
   0.6586861404692939    0.4759148741220902    0.2836785018098508 C
   0.6911379333096698    0.3863842776910099    0.1273953157070385 C
   0.7279889622825378    0.4567019228969858    0.1993456462720965 C
   0.9068157892502747    0.4250737740175541    0.1717680753648441 C
   0.8243463790379189    0.4315236057029488    0.2445261905591873 C
   0.2729473952821914    0.7052537290180292    0.1648486146688496 C
   0.2675105901133060    0.7932843145360426    0.2357836048318201 C
   0.1820069800603727    0.8584080617080304    0.2323140576567309 C
   0.4227060219590445    0.6698868403150304    0.2552994570907295 C
   0.3735562281778312    0.6639006822304262    0.1595398148178794 C
   0.7162036774472136    0.9325965625509904    0.1919472646543992 C
   0.7427702542331736    0.9222570326002582    0.0852755178668484 C
   0.7978866004281656    0.9040702726567784    0.2590333573953678 C
   0.8107306724805866    0.7933205503597993    0.2367680923487614 C
   0.2416477496540066    0.2423447041087650    0.4485523231806847 C
   0.1464806728360830    0.2793603227926930    0.4873442166366844 C
   0.1003905407122912    0.1989566534589865    0.5394130181336558 C
   0.0785923964030614    0.3005242180160219    0.4045706238421084 C
   0.3085550388658438    0.2211945784984636    0.5275837414877877 C
   0.5485333698932923    0.2400538753308674    0.7131632846812757 C
   0.7692081073895334    1.0264256045865485    0.3848338929736289 C
   0.7120866431180759    0.2706057477730781    0.5763235867976660 C
   0.5172060628301973    0.3712181360158873    0.6029546753328620 C
   0.6789466739502216    0.3422932520603517    0.6494639972870494 C
   0.5023930214085025    0.9615707272268351    0.6103453437292727 C
   0.0081749128302019   -0.0889847975752279    0.5933958905529880 C
   0.7815266758332016    0.9204590110254516    0.3672428400266879 C
   0.2642939139186798    0.2364513097329778   -0.0815874030334066 C
   0.3039952518326965    0.1505281997246533   -0.1346894255818117 C
   0.0293188299010787   -0.0242697904952154    0.7996642566024932 C
   0.0622395445349985    0.5882801416326021    0.7839369983991632 C
   0.1258438702840160    0.4676959950265646    0.9030634939587301 C
   0.0410390456489128    0.5287286669662695    0.8716847073610656 C
  -0.0238051291258699    0.3862059974381269    0.7769628439522276 C
   0.1365675388114833    0.6709978306714104    0.7875362679322541 C
   0.5572194565278179    0.4068251957587454    0.7552031455008595 C
  -0.0443414989559411    0.4600523596331764    0.8560864703138020 C
   0.2979409976053439    0.9292519960182485    0.6768676701143862 C
   0.4073935682181352    0.7815366604741255    0.6836651216736658 C
   0.3573243199397773    0.8659190232563160    0.8228312673376940 C
   0.4733572849340950    0.9396763177965715    0.7118744755244824 C
  -0.1347500451147960    0.0200995262618941    0.7432476525066656 C
  -0.0606490853718369   -0.1273715798301088    0.6734170553915458 C
  -0.1086863392115051   -0.1187061449369353    0.8422475489218131 C
   0.5775209410975032    0.3407140948610354    0.6771432424748975 N
   0.3886628655659181    0.8775797113412169    0.7202236869662340 N
  -0.0644089469924685   -0.0590815463782618    0.7645186132092388 N
   0.4982274681728230   -0.0117133528470492    1.0798217765677278 Cl
   0.3467979804928511    1.0110536434324877    0.3564253977732316 Cl
   0.8461452306198387    0.6650558802917892    0.5504348607512064 Cl
   0.5866090415290881    1.6988863982807170    0.4984718005060547 Cl
   0.7541651245435564    0.3119479238135541    0.9075210346604363 Cl
   0.6579307732362549    0.6929096332970772    0.7452096155211966 Cl
   0.1016947515528564    0.2151750834560032    0.1077153821953055 O
   0.2405055042594769    0.3256740538525861    0.0604249212853684 O
   0.1223520650129366    0.1184131138455792   -0.0124467886224680 O
   0.5044125678478463    0.2067690970609276    0.0989068834860349 O
   0.4182777876462577    0.3368615020792248    0.1182565508863153 O
   0.6712381089006987    0.2527204698832539    0.2328301422809964 O
   0.7199550517955637    0.2160411196437879    0.0873251311232724 O
   0.1559220559763785    0.2925291458623471    0.2544713376053253 O
   0.2425353768800963    0.5440999758755025    0.2282442816251589 O
   0.1141936745325030    0.4392710422370704    0.3140440516112331 O
   0.1147092763235941    0.6378333553363428    0.2005790604760136 O
   0.0983634971824322    0.4117966058348675    0.9727412290519885 O
   0.6379220288330067    0.4023954387761383    0.3324744432745406 O
   0.3847650857707148    0.6233897559869284    0.3263347191304255 O
   0.6389970833219759    0.5625360382864282    0.3015395175018219 O
   0.9693231350569296    0.3624621115633221    0.1775109192136681 O
   0.7343077364959920    0.5490208007416602    0.1464890444009916 O
   0.9090175291345911    0.4950609485108691    0.1029282765840819 O
   0.2476588602472624    0.7385856138588528    0.0737169051679456 O
   0.1067298258337586    0.8215605772463335    0.2036671537983849 O
   0.1871085379741454    0.9482315957855245    0.2562706217709030 O
   0.4989961321324360    0.7143837071717634    0.2593243561984523 O
   0.6759443013806992    0.9137604566457910    0.0198162136154122 O
   0.8268345643617303    0.9164237896919072    0.0638348662959705 O
   0.7439174505365341    0.7362070943874640    0.2509821567760520 O
   0.8808320051609664    0.9563303023951434    0.2262942390435253 O
   0.8977443097269073    0.7637637136379472    0.2106539298801531 O
   0.0537784413431972    0.2183623865136411    0.6169555743718690 O
   0.3159913039296740    0.2696230322327968    0.5990041036302644 O
   0.3608316852100391    0.1388805565363047    0.5271585326343168 O
   0.5750729995897590    1.0317957536672890    0.6128850971383619 O
   0.6961036948669410    1.0609655917914198    0.4252154112165987 O
   0.1051999950050479    0.1146482117572598    0.5146401778347639 O
   0.6447740866548047    0.2456225967257946    0.5093908469199132 O
   0.8298305714770418    1.0880728868273200    0.3464430870245310 O
  -0.0390984865041461   -0.0162167410235299    0.5387468061750762 O
   0.1525002707016201    0.3657668186899317    0.5389376733418222 O
   0.2565245234178073    0.0687809060460490   -0.1251439636387054 O
   0.3763061043969839    0.1597378966906521   -0.1844523245150642 O
  -0.0942332217890811    0.3247543886456414    0.7607152939130213 O
   0.2063859624158186    0.4665427971826728    0.8699590493986779 O
   0.0466526689903260    0.3822562926486484    0.7281823289301109 O
   0.0202622031042037    0.5945489391425084    0.9483351944973893 O
   0.2276119231187483    0.6421526655281394    0.7949220279151188 O
   0.1164039016891007    0.7589015908062753    0.7775862124725701 O
