Li1 Co1 H110 Cl3 O55
1.0
  12.7918841562000001    0.0000000000000000    0.0000000000000000
   0.0000000000000000   11.8369992121000003    0.0000000000000000
   0.0000000000000000    0.0000000000000000   13.0530157294000002
Li Co H Cl O
1 1 110 3 55
direct
   0.1093118934650660    0.6733127597028912    0.5064141116302667 Li
   0.5293553315066567    0.3799926421809751    0.7477215661907911 Co
   1.1208100310344804    0.0872607649617941    0.2703705747286510 H
   0.2365978335281510    0.0699539293078230    0.1263931185637080 H
   1.0284702329580966    0.4292813165777434    0.3308378273821710 H
   0.2881625594079034    0.1637815945884530    0.0575969094258157 H
   0.1458723402522053    0.3525693067406739    0.0476817294641082 H
   0.0131975146146219    0.4625524178884050    1.1631267194832282 H
   0.3245825264988495    0.3339032583578928    0.0201815710760741 H
   0.3950506443298805    0.2965407484788760    0.2105583431198650 H
   0.3761589785635930    0.4497400490369337    0.0415137065589753 H
   0.6321259620054345    0.1247303121039970    0.0398590314671991 H
   0.3990359837355138    1.0222119972544421    0.1597639509468252 H
   0.5730900927950353    1.0166362597877594    0.1926483057119237 H
   0.4406615952168311    0.3171718219143092    0.3227829837981563 H
   0.4463706838161524    0.4924932832757842    0.2885908852630452 H
   0.7745725302943469    0.4379389162078290    0.0088163047594282 H
  -0.0151690649735873    1.1049272177639735    0.1234022388459989 H
   0.6954223450959242    0.1447641057835295    0.2547098259608720 H
  -0.0352861170714422    0.4317413995327404    1.0598249210365347 H
   0.7513312316420366    0.3569082442602015    0.3224619851809125 H
   0.7225411022519498    0.4757280544839177    0.2798074744117300 H
   0.9091523919455802    0.4567240826183074    0.2969973717237065 H
   0.1196818279000731    0.8907682105209320    1.0025967666018860 H
   0.0512705610910432    0.7821342588783967    1.0225844847973342 H
   1.1626725114526175   -0.0274699176770760    0.2368978501830196 H
   0.2620889962074155    0.7755667159896101    0.2152170366555691 H
   0.1591354372227769    0.8096125068846578    0.1671155087775466 H
   0.0902325305643546    0.7266886186244793    0.3286168846819562 H
   0.0153993794576793    0.9813823924415972    0.0871426487396323 H
   0.3922011813770493   -0.3141157084896314    0.1255933033932961 H
   0.4270271690548754   -0.3116370397430788    0.2399446556741387 H
   0.4171052530610940    0.8954653469322588    0.2025241844109472 H
   0.5952689990871542    0.5587980946504197    0.2461003212816675 H
   0.6188003253815770    0.5413122440314199    0.1332451749661645 H
   0.6904348077463869    0.9780707423098706    0.1646984428171542 H
   0.7845929462420532    0.8518470285773653    0.0901120774757595 H
   0.8474492065225445    0.9556495192241492    0.1318432000984884 H
   0.8369581796838630    0.8443442824498486    0.2755348985445006 H
   0.2244276169987475    0.3666987323664721    0.3435804765483224 H
   0.1280063247998037    0.2802258027278795    0.3607665433278735 H
   1.1331459776450910    1.1135189223149073    0.4365084270806977 H
   0.2399624668749234    0.0852507960859257    0.5669755953814503 H
   1.0082152027501801    1.1380944076036650    0.4017946100292547 H
   0.2985949553216296    0.0601740013103908    0.4581601285617156 H
   0.2004553861486603    0.4552659427898991    0.4996961238626974 H
   0.4379739536168768    0.0046443025901196    0.3372953389448169 H
   0.6038658561769442    0.2216814041364179    0.3684092216229211 H
   0.5104339594050583    0.1597924078736536    0.4202616068518410 H
  -0.4330455040288274    0.3273737318609245    0.5286488201464221 H
  -0.3680214630163193    0.4490397026187701    0.5625091945734984 H
   0.7485208559725089    0.0669743734788467    0.6555827053380368 H
   0.7595880293670855    0.1436666992730415    0.3600732169588861 H
   0.8578229715113154    0.0678566916925139    0.4788373425937258 H
   0.7413381767926426    0.4798912717923742    0.4562824015668116 H
   0.7711789723579298    0.4871845053605365    0.5739601882058236 H
   0.0125185685036387    0.6300103998044432    0.3440922356803484 H
   0.1952004917813266    0.5119112114078603    0.6134422520203355 H
   0.1903044186747198    0.9026039805070267    0.5049470177113597 H
   0.2539533690606078    0.8137385526100028    0.5522380049281793 H
   0.3493857529919709    0.5520810206204811    0.5216159626134894 H
   0.5044371884006227   -0.0051686574277592    0.4376323052942938 H
   0.6038470942809585   -0.0027784401528371    0.6079553973742720 H
   0.4654499685422972    0.5068533416786134    0.5347815025593988 H
   0.4116658667165675    0.6901092464169194    0.5818403595112425 H
   0.4555194533461890    0.5757779048538828    0.3946292160744050 H
   0.4809426041525052    0.8587803736363145    0.5423713195069767 H
   0.6040988163854335    0.8296547486512610    0.5084159478757518 H
   0.8721445521137482   -0.0143271441402684    0.3850590138629240 H
   0.8459169850170442   -0.0280704921869343    0.6635754942967609 H
   0.9165867932299216    0.7982616570964229    0.3705796012951214 H
   0.7985924476300644    0.7989721412190715    0.6515139137958357 H
  -0.0381568435063905    0.7174286703862506    0.6317246171800204 H
   0.7690330805045631    0.7312159484856843    0.4864761903563480 H
   0.7069100976588469    0.6756478109692413    0.5713086936610000 H
   0.2551713288083474    1.0032206975194380    0.8656399102661146 H
   0.1675220047283936    0.2755337351687953   -0.0512761686015961 H
   0.1676205046823187    0.2284348049407605    0.7726476067889936 H
   0.1599242185998432    0.4021815428722512    0.7694981430288752 H
   0.0520551210415127    0.2648342328937139    0.7783313508017199 H
   0.6191575831509718    0.0636067970107118   -0.0691854399030523 H
   0.5450621654293684    0.1639708317388374    0.6982019752089060 H
   0.3380707662212498    0.4786063177489159    0.7452792187163915 H
   0.4179557923457800    0.1961969046788495    0.7226997622819550 H
   0.5709684350573169    0.2720421407824620   -0.0776271672620268 H
   0.4764006618326290    0.3461639671236453   -0.0453717859211699 H
  -0.1001797629068494    0.2145334776658720    0.8007353688510755 H
  -0.1059123038761529    0.1727357220747212    0.6852180024999579 H
   0.7696811476617365    0.1584761959080337    0.9256796755009661 H
   0.7381642893883917    0.4668279947549022    0.7532382989897725 H
   0.8919305349220217    0.3678426033558492    0.6800605736424740 H
   0.9089569555290623    0.4967544983942611    0.6932981275979798 H
   0.6697412182198041    0.4780124172278435    0.8510532427904023 H
   0.8805326831106970    0.1182011235305115    0.9780813590796805 H
   0.8380526236163633    0.3270501701261154   -0.0280038454620634 H
   0.1885556536197175    0.7267714098777724    0.8141422323397817 H
   0.0894525829133149    0.6535264949745312    0.8637476272479945 H
   0.1788424637187772    0.5432645969534659    0.7666068571542252 H
   0.0624092642140652    0.6638559710359144    0.6829518595171241 H
   1.0345834840667769    0.5949559073131502   -0.0046053445844398 H
   0.2809595548407191    0.9792196821514899    0.9746875073508252 H
   0.4327714362091699    0.5449288701064000    0.8125870361750918 H
   0.3777678111443684    0.8667519885962567    0.8578562683778144 H
   0.4453763033289093    0.7663642147434623    0.8505246293157047 H
   0.5373799507688821    0.9059663191611779    0.8473376263378182 H
   0.5671832225421979    0.5490397092750179   -0.0299885209222829 H
   0.6180185797155054   -0.0020884004008998    0.7339216900752445 H
   0.6518204805707776    0.8815826054489257    0.8660842520274546 H
   0.4010614867563055    0.7820953976778714    0.6718126712242219 H
   0.8444942079047938    0.8061530152291932    0.7586684617559409 H
   0.9444091214854118    0.6871659328814765   -0.0583787418246701 H
   0.6870013807810003    0.5999918120160131   -0.0176203446060332 H
   0.2766927869953000    0.1014232226080389    0.7267654893982157 Cl
   0.4290260927230207    0.6131606901418692   -0.0462719610411259 Cl
   0.8072065031245079    0.7706051544529695    0.9224773503933781 Cl
   1.1467483522347377    0.0432943262829771    0.2106226960646108 O
   0.3015116484017429    0.0904961288672721    0.0867507852725196 O
   0.0234666820332724    0.4750674140749865    1.0862785779659645 O
   0.1949808212491605    0.2997206084522993    0.0168578180906026 O
   0.3834182688187343    0.3432747213454552    0.2700587693892280 O
   0.3912912294217419    0.3684770546948611    0.0322084009868365 O
   0.6437989882912164    1.0446163241660218    0.1711597849122255 O
   0.7177685449605823    0.1912497048902292    0.3153732018745697 O
   0.9852787849076378    0.4799233745232429    0.2893424357248978 O
  -0.0425525993867115    1.0418791439551049    0.0850696412016843 O
   0.7657692923487140    0.4348823983056384    0.3316422391914933 O
   0.0798211636090457    0.8526580449361555    1.0574959573219251 O
   0.1901887203161412    0.7859308292079833    0.2330343751788170 O
   0.4409484958762794    0.9734073982468268    0.2087518640280725 O
   0.3950928585958484   -0.2618921686444909    0.1868297269578252 O
   0.4697448792316949    0.5642640069851830    0.3170693616325123 O
   0.6511755403962685    0.5671169259889689    0.1982247948167404 O
   0.7949659294851580    0.8944093360484172    0.1551328372445836 O
   0.1573780729654479    0.3629089205065420    0.3720880649642221 O
   1.0864835788372740    1.1506398169037011    0.3829591159873501 O
   0.2309043798421511    0.0551200177011964    0.4943548294487969 O
   0.5373533714162357    0.2359333270247418    0.4048835513770526 O
  -0.4243235676324659    0.3856063960394761    0.5816281480148784 O
   0.4453176724039539    0.0346331446639735    0.4059392461134775 O
   0.8603245576427446    0.4417785717814764    0.6637126273575882 O
   0.8238326699505200    0.0473238695097133    0.6366537463049537 O
   0.8893585916806460    0.0665104890177929    0.4099957799519174 O
   0.0350962979822173    0.7006786481511115    0.3791056003674534 O
   0.2151881649714466    0.5263903878383869    0.5368499900690850 O
   0.1904818749409181    0.8213545031042674    0.5118029046462416 O
   0.0127804533017727    0.6531032458122875    0.6263618717845378 O
   0.3788262947762294    0.7624662673690269    0.6039586198416674 O
   0.4234045596382994    0.5708357739175050    0.5146520546642129 O
   0.5518969677878327    0.8914947460090149    0.5232018030375821 O
   0.8685407045931578    0.8577919474490390    0.3407734623870299 O
   0.7207626308616367    0.5177412362953721    0.5227298814427797 O
   0.7306626579767681    0.7507192022971749    0.5467296993005338 O
   0.1999871204946833    0.4679549695701377    0.7340036634691470 O
   0.1205015664055158    0.2797890366263227    0.8141652155343337 O
   0.5431781583741356    0.3469065539771625   -0.0916714313463102 O
   0.4158091187467473    0.4994663343439659    0.7440473194884005 O
   0.6310698236105716    0.1366759072220112   -0.0337311809337901 O
   0.4905510401341919    0.2219078128699135    0.7189481388245725 O
   0.6225644307637120    0.0446566648040032    0.6675086849911047 O
   0.6640712169037866    0.4691554427428886    0.7749888282073641 O
   0.8458309929937763    0.1652414240342754    0.9284836252363183 O
  -0.0785113365346754    0.2352017226844164    0.7318332837969467 O
   0.8448850807378295    0.4070273656160227   -0.0047060875872264 O
   0.1354266546621558    0.6667359239183267    0.7995233883916966 O
   0.2479605067845025    0.9412624269426937    0.9161493108267087 O
   1.0209420221938266    0.6661217479882845   -0.0409842940811802 O
   0.6062759780654431    0.9453766453461399    0.8595953300989209 O
   0.4327128052842146    0.8360102445545722    0.8162796694331240 O
   0.6451795511374988    0.5318309559119380   -0.0074498213528522 O
   0.8600196768329768    0.8256579586580979    0.6899962086473329 O
