Li1 Co1 H90 C51 N3 Cl6 O45
1.0
  14.2520999566000004    0.0000000000000000    0.0000000000000000
   0.0000000000000000   13.9090546743000001    0.0000000000000000
   0.0000000000000000    0.0000000000000000   14.3754895284999993
Li Co H C N Cl O
1 1 90 51 3 6 45
direct
   0.9969909358108212    0.8004239754460736    0.2654229448420136 Li
   0.6924442365021350    0.7851576611657549    0.7277327664883770 Co
   0.0464903049387584    0.0132051272642829    0.9838123937387556 H
   0.0302014772777867    0.1335447218085999    1.0279159353081087 H
   0.1426059653797755    0.0740273772165483    1.0528020443543951 H
   0.1176678860032407    1.0372265531284970    0.3023218621935501 H
   0.0483559949129356    0.2858527002878502    0.2945593439308664 H
   0.3589312795010993    0.2367587815428392    0.2979936617606782 H
   0.5106651297116120    0.1404215371091203    0.2280690864613710 H
   0.8021375451907276    1.2258317503492078    0.0818653696534533 H
   0.7324783368619051    1.0322909193555674    0.2749502725708169 H
  -0.1585454448032832    0.2113501532589198    0.2625819981097974 H
   1.0056352759694760    0.5045009888461849    0.1563671803832165 H
   0.4894218041019152    0.5211295811851995    1.0077267097916762 H
   0.3353452815763280    0.3152012081166573    0.2052636022133359 H
   0.5829729301857989    0.3886281967880782    0.1839648492635330 H
   0.4099960350259840    0.4862277843796282    0.2538901201913251 H
   0.5071526648711716    0.4722632336212729    0.3280858543877447 H
   0.7638400310235444    0.3888604196152678    0.1347755678412826 H
   0.9170448223630021    0.4418480609221772    0.2125482237069128 H
   0.8512860918703781    0.6634793703235217    0.0861309635226868 H
   0.2172377742527851    0.7191790579113116    0.1172220786540292 H
   0.2519442386689947    0.8364868144919806    0.0843814578832344 H
   0.1701050708585093    0.7121440722640987    0.3047301280081761 H
   0.6239308242349266    1.0050403254888010    0.1035028936753888 H
   0.3544063322865567    0.8623627642547643    0.2388868050296114 H
   0.4471244583187882    0.7331109896304421    0.2299966729929506 H
   0.5977964299257208    0.9413242771481828    0.2912787599962113 H
   0.6627145825360341    0.8268096650988803    0.0976484843467082 H
   0.7077521560834152    0.7722710916470381    0.2048476163793826 H
   0.7195041084630670    0.9793103238186470    0.0407126841169261 H
   0.9145420332927163    0.8296394763924347    0.0902400409828242 H
   0.3209873974313155    0.1528522884469139    0.6890043462216279 H
   0.0748538444333577    0.1569625605925568    0.5395064807236001 H
   0.2865636983628282    0.0321345229827773    0.6522306419973682 H
   0.1750678482888798    0.3348488410003603    0.4858838894044136 H
   0.5138962395228139    0.1967531871275592    0.7160983800788971 H
   0.3069396430225146    0.1271222867767601    0.5695823260812721 H
   0.5781188384932997    0.2410236292545680    0.6102237246814185 H
   0.5726465221162396    0.0800831446265099    0.5823045363153944 H
   0.4853307578576739    0.1271222867767601    0.5039853251492005 H
   0.4294640433086169    0.3032435299066987    0.5689901375521009 H
   0.6729895595882533   -0.6999281684389489   -0.6347564872632296 H
  -0.0776366662014322    0.2380083272817105    0.5105338951866497 H
   0.3176384172708238    0.5366471706299230    0.3510137692491172 H
   0.0818794757652254    0.4152538739941848    0.5017576444892473 H
   0.1848306201206593    0.6772531316959595    0.5597149055862150 H
  -0.0779783702320543    0.3637983281818294    0.4849265654835331 H
  -0.1471436162660964    0.6425750021397340    0.5752742365958867 H
   1.0048697747427640    0.6002220159883119    0.3722909577158891 H
   0.1037092412697764    0.7973799152283629    0.4909989152165240 H
   0.4888667981712743   -0.0408668436648163    0.5246869506075895 H
   0.3879740171510214   -0.0874480107657793    0.5893186974540531 H
   0.3680218696874250   -0.0131079478202695    0.4941425994653564 H
   0.2895822009084884    0.8395790447698204    0.3437201045852371 H
   0.0108583628708228    0.8163898340324464    0.6185594408156366 H
   0.2274474977632223    0.0619848621842727    0.8176712689259290 H
   0.0884300893789593    0.1592991679868790    0.7826025501180900 H
   0.1975241881247360   -0.0229310453059997    0.9052056793197643 H
   0.0942229199268371    0.2700773650736299    0.9470804272235882 H
   0.2004072720299237    0.2549994172970996    0.8711964026943849 H
   0.2741550006594345    0.0810939969330997    0.9304194293824253 H
   0.1972996598089267    0.2209891979775895    1.0003495697096114 H
   0.4478867319509605    0.0557558263490706    0.7669147365272626 H
   0.5174213551305482   -0.0290932182219181    0.7112018511738850 H
   0.3999813704899061    0.2178056602723408    0.9475311944817852 H
   0.3941464408828141   -0.0540783813503742    0.7271143527653260 H
  -0.0033079705547650    0.1686995192732672    0.8604016398661454 H
   0.7400947583247458    0.0325874653392152   -0.2207462382069656 H
   0.1706811263187573    0.6195382101000819    0.8302948390408965 H
   0.3522838380511727    0.3708642289422595    0.9157075825558729 H
   0.1213761114690272    0.4245063360064155    0.6507663440367133 H
   0.4800745499845801    0.4473541144817699    0.7333200544788669 H
   0.3885458627053480    0.5252551670962267    0.9341674756589142 H
   0.3968513054373283    0.3438149427894653    0.7934759189651203 H
   0.4073423909935139    0.5421623549322566    0.7761005106699939 H
   0.5194907343862236    0.3663836943941317    0.9582028310682025 H
   0.5576814993722593    0.3375434885431047    0.8403376274769898 H
   0.4891737704780447    0.6231746901617685    0.9201380403760210 H
   0.5267414272886506    0.5709626587185497    0.7492283822993986 H
   0.6234094975516570    0.5875115907193209    0.8629316406656239 H
   0.6629489339656600    0.4709359198366696    0.8166139136289239 H
   0.6449768455871060    0.4829484098234062    0.9382466410942021 H
   0.9647465647076571    0.4634685812984215    0.0026451109108051 H
   0.8496091460116779    0.4650567769391229   -0.0357424513983569 H
   0.2450947217348398    0.6975312890980688    0.6627749785710542 H
   0.1550104531772478    0.7820115091788153    0.7829461905896168 H
   0.1771124592647175    0.7773598630738111   -0.0370356247517335 H
   0.0655352176762883   -0.1023102717059107    0.7651673177732649 H
  -0.0269437856996064   -0.0079458428691209    0.8426415490188849 H
  -0.0170063027720879    0.0445084767869859    0.7290342873835721 H
  -0.0583826614698050    0.7232505064264028    0.6744810147144757 H
   0.0822204781448607    0.0779988908307745    1.0047765493873353 C
   0.4104689477911572    0.1980796611714128    0.1591295210966422 C
   0.3870127552989632    0.2678550717025993    0.2360145550155760 C
   0.5430821069575545    0.2781073859927634    0.3279842926289534 C
   0.7391517393983472    1.1096153691607176    0.1302880684853751 C
   0.4692717208949131    0.3336223018573716    0.2628129467667749 C
   0.4421190205084138    0.4356722997355656    0.3058535680112440 C
   0.8974617433185171    0.3459099809270206    0.0479541766444409 C
   0.8913657995442970    0.4501501348376218    0.0265865564746357 C
   0.9437342226028490    0.5915708169803494    0.2546400076980168 C
   0.9328873999963031    0.5141730336508236    0.1820184807628619 C
   0.7643389048752329    0.5286937904333232    0.1402376427044955 C
   0.8679531094132908    0.5275940032545250    0.1009631540771220 C
   0.2006998604914626    0.7963280824228572    0.1285462147592562 C
   0.1104289527713541    0.8097481173836009    0.0776338615799785 C
   0.1969944416296236    0.8294741164845288    0.2276795345098428 C
   0.1812262390009345    0.9374994305827077    0.2286297630201777 C
   0.2992663878297346    0.8121012607687136    0.2690923850997121 C
   0.3210386179533595    0.7069934706108915    0.2783873729145682 C
   0.5706134182165871    0.8357211262227643    0.2143443364548516 C
   0.7020750979483765    1.0067456894085953    0.1100717134580326 C
   0.6715560866220089    0.8380828970813329    0.1730886979025634 C
   0.7272222693190088    0.9304306539977922    0.1876349851497163 C
   0.8355831427834710    0.8977318106435879    0.1756186987020419 C
   0.0754446345643307    0.1880106806921878    0.4072184639412991 C
   0.1008843943965018    0.2987788123932402    0.6021704337120585 C
   0.1017347953926291    0.3413597076351237    0.5046730234693447 C
   0.0417085534630090    0.2880404837650570    0.4269965730231723 C
   0.3310013603164066    0.0940776255281960    0.6370005519495864 C
   0.5107794637399280    0.2111869502193779    0.6371793284701984 C
   0.5020593803572370    0.1184121333668486    0.5802001905858089 C
  -0.0641095368249138    0.2933643538435048    0.4563009663911217 C
  -0.1377772772419176    0.2675142865010889    0.3858237142605839 C
   0.3800951782190786    0.4187028502994286    0.3924036640989857 C
   0.1938384154905303    0.8307394792580695    0.5839707056623591 C
  -0.0001989550317942    0.7357596239814214    0.6217795050721079 C
   0.1887339045608052    0.7242541691717792    0.6206658038678283 C
   0.4184193551237642   -0.0278602084738374    0.5488119029657293 C
  -0.0249721464264067    0.6921067651626349    0.5336164552164940 C
   0.0534675223525298    0.1222010321262570    0.8362918522089757 C
   0.2130236584254409    0.0550037982461596    0.8940436246515124 C
   0.1591544039059017    0.2249470514255105    0.9332568979722171 C
   0.0212729684694359    0.0272420265771275    0.7943273682306031 C
   0.4480916140391363    0.0010288863934400    0.7163488063334510 C
   0.1009854321386159    0.6017318238431046    0.7091372258307858 C
   0.4045231573281344    0.3281431372567166    0.8679366876142760 C
   0.4792030994588456    0.5124835586613106    0.7757464357711942 C
   0.4701058435881444    0.5423929241603671    0.9396483324912186 C
   0.5048771405555439    0.3728586132228286    0.8862685850761008 C
   0.6206779702596406    0.5081028152228233    0.8702830424937483 C
   0.0948979081762385    0.7104236102657563    0.6781754975976295 C
   0.4239680111281994    0.0477941062614635    0.6223909625103101 N
   0.1255446199822227    0.1167254623062086    0.9144804939085591 N
   0.5186418068571687    0.4788474122117283    0.8699456626785856 N
   0.5907181747698352    0.8092843906853431    0.6040743688751525 Cl
   0.6859202856259036   -0.8864110071894938    0.7866462385006494 Cl
   0.7757540647811709    0.6338943259307970    0.7080388284531732 Cl
   0.2479883304048311    0.7078310544922407   -0.1312007658633661 Cl
   0.5883929033992359    0.7573340592702884    0.8504471962476308 Cl
   0.8082664665613323    0.8961342901419930    0.7686058093739858 Cl
   0.2171037589142865    0.9942552647127313    0.1709579878534013 O
   0.4815914492531675    0.1336137415962476    0.1663097983174883 O
   0.3684540866953576    0.1991458730993450    0.0860641831881391 O
   0.5413443279582899    0.1886764340605393    0.3383568089668759 O
   0.7394864269191004    1.1427398345387492    0.2137294008742250 O
   0.9598518474230162    0.2906855233354297    0.0126023370432592 O
   0.7663351019329743    1.1559571238732778    0.0576561071229471 O
   0.8252429121894697    0.3151616655299842    0.0994494664940411 O
   0.2638561674736605    0.6425843485693112    0.3049819455196996 O
   0.5218353432580218    0.3504020187730897    0.1783817350439525 O
   0.7250955651777035    0.4439586285119532    0.1621596787767435 O
   0.7211221156388672    0.6053603953874566    0.1521050646564074 O
   0.8832210348883176    0.6145242101099272    0.0506107818281661 O
   0.9894755520900946    0.5505759389421195    0.3243948496470153 O
   0.1155278504931841    0.8024090132970655   -0.0081433912610707 O
   0.1170827090801629    0.9617145917052194    0.2945085630514707 O
   0.0325035941658181    0.8224355360567093    0.1171226037806925 O
   0.1254667367226764    0.7686130429017117    0.2817312590413467 O
   0.4053223378022178    0.6808917686260101    0.2631635435231502 O
   0.5096164842456449    0.7835939316018625    0.1766649239432890 O
   0.5449230988169927    0.8999052149983682    0.2767289946066340 O
   0.9331863033167241    0.6804222902787815    0.2497441744214895 O
   0.7211543915842648    0.9619266837610119    0.2802300927709934 O
   0.8954599330528806    0.9217219385001234    0.2305677839790303 O
   0.8452953957441933    0.8461201075616797    0.0978787373752008 O
   0.0959040756914586    0.1678418046205206    0.3265519935786025 O
   0.0873291989805072    0.2124580646418892    0.6192362873314169 O
   0.0766584907716742    0.1212369119675537    0.4723891141749928 O
   0.0512531118378614    0.3400540833187887    0.3382114226135378 O
   0.4351495212554984    0.2743810364159106    0.6288150915681007 O
  -0.1108366859487593    0.2435227207323107    0.3027552387396252 O
  -0.2219852187841903    0.2702319406397158    0.4128356639566383 O
   0.0812269403474049    0.5447056622114611    0.6480227852923791 O
   0.6132145087119448    0.3349092333145521    0.3514102774854941 O
   0.3147602449225443    0.4866030075793502    0.4017765623041475 O
   0.3883178261346042    0.3515415642253976    0.4495632480123510 O
  -0.1022232184335282    0.6381778665016804    0.5225737008333977 O
   0.1413935124744057    0.8566269323187946    0.5103740745422505 O
   0.0235659638946375    0.7047496085562209    0.4633186056722047 O
   0.2482753056584747    0.8857065505582243    0.6248673999164536 O
   0.1338163834668316    0.3570710557545457    0.6690391130773241 O
   0.3979893833380862    0.2268407818490934    0.8805922566395474 O
   0.1303312830148805    0.5734049526627073    0.7888826840795121 O
   0.0959623127233716   -0.0413780214670818    0.7822630834174726 O
   0.0922225129631743    0.7746501174525187    0.7549067976214067 O
