Li1 Co1 H90 C51 N3 Cl6 O45
1.0
  13.3450408640999996    0.0000000000000000    0.0000000000000000
   0.0000000000000000   12.6342847734999992    0.0000000000000000
   0.0000000000000000    0.0000000000000000   13.3337569490999996
Li Co H C N Cl O
1 1 90 51 3 6 45
direct
   0.6550126013937471    0.6220399118503375    0.7178912898323156 Li
   0.3048548126251369    0.4111328405146464    0.7795108321065924 Co
   0.2535855803337195    0.3056618919101808    1.0238800682069948 H
   0.1322303880572648    0.0730638420258020    1.0215123934308223 H
   0.0650046665974375    0.2382635377282285    0.2626580031321474 H
   0.2788136784286222    0.2850718858541487    0.3264682258059175 H
   0.2547215828498888    0.0720071933718156    0.2857572692411482 H
   0.1957333783163473    0.0102039323247173    0.3924353799514241 H
   0.6172989664093897    0.2430940446460406    0.0787743453333981 H
   0.5540162827068731    0.0668260532302462    0.2154957515326501 H
   0.4504968544736972    0.2993718643047650    0.1863006790946246 H
   0.8645885801023456    0.0958534185757880    0.2191383858018519 H
  -0.0123341748876016    0.3172296223056952    0.3493409991108626 H
   0.1988086780039192    0.6107404989781949    0.2568876864619314 H
   0.1750118231846651    0.4178502765643713    0.2132765720386068 H
   0.0821436174878232    0.6290739467476988    0.2139185516421557 H
   0.4712310734856718    0.5470623395553940    0.2604433234951383 H
   0.4703732267307176    0.6103051755626949    0.1037433020401177 H
   0.6784070595433555    0.4369744299558470    1.0096912690019240 H
   0.7264908388689181    0.3912108580271270    0.2654614140644670 H
   0.1867300338362851    0.8624927791445749    0.0678246932167938 H
   0.1347212009621110    0.8249243683869226    0.2466392620664933 H
   0.4586813929185232   -0.0758096426011352    0.2983688685557248 H
   0.4199709831670099    0.8236698454531634    0.0669749702134984 H
   0.6378099564308849   -0.0325535335456953    0.2712024816639606 H
   0.7734970643565839   -0.0809211309962247    0.1581308240842292 H
   0.9185284673856017    0.8339118181742003    0.2306182710723219 H
   0.2816701702436865    0.3164539551289860    0.4534060428413663 H
   0.1317995163905120    0.0867211248157165    0.2996633274292357 H
   0.1766438901241221    0.0661374507366371    0.5269070826264174 H
   0.3011740445780236    0.1148588473994000    0.5190528071660364 H
   0.2045456405789801    0.1952155924151095    0.5764735328416817 H
   0.0542261308503534    0.1672496247062687    0.4508873228640783 H
   0.1087077924206744    0.2894789418132471    0.4883063340178461 H
   0.5512126195048629    0.2310078836375217    0.6487074878835134 H
   0.3508898908430432    0.2005209976043762    0.4087751108188527 H
   0.5344598045620907    0.1147488292998464    0.5285801294717407 H
   0.6792081061725012    0.2158372583559053    0.6297690895788222 H
   0.8588403773968478    0.3104860668510402    0.4793509435411912 H
   0.6586836279944815    0.1136977211256936    0.5099680457996478 H
   0.7628069509689378    0.0800424721248270    0.6641359977015122 H
   0.0907348238518610    0.4429518161992219    0.3501944719950198 H
   0.1805532074901217    0.5736357472329061    0.4523065777726716 H
   0.5839007921708234    0.6142373332503388    0.2882389403955211 H
   0.3521322999273497    0.4477609526948186    0.5817983636655099 H
   0.4188027589435877    0.5461884475862057    0.5186684443776968 H
   0.5740822384972647    0.4372474964619334    0.4750417304499868 H
   0.8281960351153541    0.6427217315721842    0.4400324677356616 H
   0.7422360135851118    0.5163224118932751    0.3402272886642204 H
   0.1894606361904546    0.7542990804504366    0.5988183229212781 H
   0.9787133711396726    0.7314129412519214    0.3814789780492685 H
   0.3404006011192054    0.8882069375496020    0.4380615303546729 H
   0.4856479645210201    0.6820725938420293    0.6109049389151957 H
   0.5941517911293962   -0.0132552507880196    0.5337267659570136 H
   0.9168799149215039    0.6819855291589293    0.5381216263271028 H
   0.6854036660693930    0.8073103914986723    0.4652402918532812 H
   0.7889829667306968    0.9076120724183550    0.5438825682951641 H
   0.8812779257752501    0.9837050224535214    0.4719668281432691 H
   0.0900978831270959    0.2428645104815043    1.0260392496072486 H
   0.2420157394038684    0.1024465895778156    0.9381847908472912 H
   0.0683227531024492    0.3268621422450321    0.9135315741091395 H
   0.2144422007577717    0.1696898103244261    0.7703843720650201 H
   0.1000026860682080    0.2327317643629018    0.7497660271342197 H
   0.2702419549573419    0.2329652560130336    0.9063408025684544 H
   0.1110097711341784    0.0873867738928720    0.7507994942997457 H
   0.4449648369436048    0.0539127777322772    0.6887914643681812 H
   0.5797194636482477    0.2025321917839863    0.8352288118804886 H
   0.5204546020375493    0.0596701277765449    0.7930059033522211 H
   0.6813692085845278    0.0807769814513434   -0.0272632857256737 H
   0.6156039547394855    0.3231698081844728    0.7828414762880883 H
   0.6047624742619538   -0.0245942385161167   -0.0204752513895514 H
  -0.0226578600230005    0.0698218698260055    0.8284362776873320 H
   0.7061619389605027    0.0180508347633850    0.7754459612523462 H
  -0.0355240626632560    0.1111989647207235    0.9614813006896256 H
  -0.0411104074904606    0.2014977050493345    0.8606942528133172 H
   0.7791178789171288    0.2594329196754352    0.8011221454896108 H
   0.2240345280727345    0.4574033663481442    0.9466430221192820 H
   0.0473044585272294    0.5467477194505553    0.6614773321704600 H
   0.9421664616946791    0.5946216601479076    0.8642506398226966 H
   0.8474024206641244    0.6228464474146912    0.7758329489572892 H
   0.9257004199464570    0.3938457519365807    0.6519503848528418 H
   0.8831969907118660    0.4329987399266532    0.9553697448609811 H
   0.1556188514706401    0.7579740015743758   -0.0095435987010840 H
   0.1514592538669092   -0.0021695421380317    0.9148035336974792 H
   0.2836656680672742    0.7093879509189774    0.6770235882475211 H
   0.5333528015824489   -0.0518019519848683    0.7161130963276260 H
   0.7015235118001545   -0.0498936524307400    0.6505659288386466 H
   0.9883491602923251    0.8234553497338898    0.7017615522931506 H
   0.7395863401700890    0.8665705723021315    0.9965854353897554 H
   0.0047710556114729    0.8225759964345798   -0.0707356545571098 H
   0.8224058692562246    0.6787973787632310    0.9972139154222017 H
   0.7015122716697174    0.6247943218247740    1.0050631660422276 H
   0.0622763122693554    0.2883977567485688    0.3287099045851319 C
   0.1991848477025452    0.0780209884826687    0.3435136842515464 C
   0.5302180790719666    0.1232740447695751    0.0190087441572203 C
   0.6220452988219336    0.0473006107993914    0.0220686469404905 C
   0.6691886539009313    0.0231757786094990    0.1221132184061524 C
   0.5945107259613520   -0.0038902568749354    0.2016744406520405 C
   0.7278321611010705    0.1203716248338686    0.1597672720923408 C
   0.1854951181722699    0.5389031123535329    0.1047767692056438 C
   0.1582880077784205    0.6255375376196004    0.1853024608091999 C
   0.5422498893627797    0.3376739928918147    0.2864779963427960 C
   0.5498581088529977    0.5422906408735303    0.2554762313055308 C
   0.5815598476718044    0.5303053878327243    0.1437162820512747 C
   0.2007876903028658    0.7322345152615378    0.1519487704953819 C
   0.1454795044744085    0.7906913264891197    0.0697093833379600 C
   0.0345648946898979    0.8065022729400806    0.0856823758570996 C
   0.3133088893978428    0.7291128506238431    0.1205735173242764 C
   0.5295059044074764   -0.0970249313812493    0.1717316419701620 C
   0.8036828093162466    0.8337614337215732    0.3446491481765148 C
   0.2884112511377889    0.2499270392751529    0.3977684605131483 C
   0.1046021474430413    0.2300818320081853    0.4236823871970544 C
   0.2203694962082330    0.1352992604999240    0.5177012751058081 C
   0.5998040780551648    0.0703695858324164    0.5532553955093602 C
   0.2707005522791728    0.5955387678597983    0.5727511011077396 C
   0.1863283865086685    0.5500444632509930    0.6423904385836395 C
   0.3694840639540099    0.5379733406877368    0.5858992333760299 C
   0.5867640280641500    0.4476548920808605    0.3251782667894408 C
   0.6998764580201148    0.4390030370720772    0.3305120973273373 C
   0.7307718298813688    0.3854091841441902    0.4268947601361675 C
   0.2624443018021586    0.7157484217679922    0.5989908174409233 C
   0.3395238709451169    0.7814141887562546    0.5434760062121223 C
   0.9409697624741498    0.9016243967124319    0.5924832741932675 C
   0.7509568561201899    0.7073862547047963    0.5565708151745570 C
   0.8438992466779163    0.7099451648908174    0.4968354530376491 C
   0.8627294625280607    0.9038390056516483    0.5117040156458330 C
   0.8726634898083092    0.8110715858085926    0.4397303023358137 C
   0.1645922222695369    0.0770316170838050    0.9432561297248584 C
   0.1348950483128705    0.1663259475682896    0.7801685612097611 C
   0.1164792186048380    0.2570972116769978    0.9462050360346178 C
   0.2262585752152084    0.2925285802131046    0.9453283138891170 C
  -0.0112056657917237    0.1290867996121791    0.8847474886135729 C
   0.6203405457056506    0.1973534261337742    0.6798907471544920 C
   0.5190614253369807    0.0304148112607049    0.7165930810779428 C
   0.6301277019481883    0.2359222892499575    0.7813610233238296 C
   0.7033496583251575    0.0260425811748464    0.6918671166510713 C
   0.4245779379621345    0.5678227549411664    0.6809969620087382 C
   0.7056478903285158    0.4846857179952261    0.8691247349669302 C
   0.8766252611163482    0.5666635282605458    0.8275438060422116 C
   0.7987978486283127    0.5456070929522333    0.9092222110227005 C
   0.8975521359640136    0.4638162343064430    0.7821904969704710 C
   0.7089839610422268    0.7396334303308002    0.8939526961532441 C
   0.7593907006581093    0.6508076661408174    0.9540445369644029 C
   0.2045778622862329    0.1772676037426030    0.4167428576741133 N
   0.1023398838570815    0.1591945585252800    0.8868991702521030 N
   0.6097598362542582    0.0812906630816334    0.6643212418160876 N
   0.9988324552799299    1.1097113638128020    1.1747602745644232 Cl
   0.3798864300024680    0.2691833726855168    0.7119664780705913 Cl
   0.4356444458510154   -0.0003601797237897    0.4091905976183458 Cl
   0.9264475139495051    1.2530174577040534    0.6009220060847764 Cl
   0.0267739856129767    0.5644782838644475    0.4062679404746193 Cl
   0.0800911696700213    0.8156179452606511    0.8246391483266219 Cl
   0.5464979093259485    0.2249505561851186    0.0519221984578570 O
   0.4476260502258764    0.0979556349240936   -0.0103258238488660 O
   0.7260966849615929    0.2099975926112523    0.1225752037283324 O
   0.7885393562494486    0.0920771858206050    0.2378390416599018 O
   0.1942744093856207    0.5499499584949735    0.0107575063088038 O
   0.2102106663192439    0.4464249055577931    0.1476169081237719 O
   0.1220625660639261    0.3803404365935318    0.3098255045648513 O
   0.4523176057360905    0.3552642248664920    0.2391335005334127 O
   0.5160044845291227    0.5571229802864472    0.0741342427549439 O
   0.3708636026296482    0.6582113301927942    0.1495383470773843 O
   0.6588012746930559    0.4835160435526336    0.1218319773415135 O
   0.2002953725897239    0.7900581287938468    0.2407152002809414 O
   0.3455305966506666    0.8131840916194464    0.0714928266758562 O
   0.4661310516353760   -0.1350405380111880    0.2391574997709285 O
   0.5245421129380774   -0.1332288011055888    0.0852818885810540 O
  -0.0241850190783786    0.8237648251074543    0.0073676140096907 O
   0.0032813636575517    0.8131278953239910    0.1761902503149025 O
   0.7401490960339697   -0.0600841778390361    0.0963852858129941 O
   0.8433822006778129    0.8529679028134343    0.2554747313531860 O
   0.5834796619504493    0.2532861530485749    0.2992095918449518 O
   0.2528782014582157    0.5614180394031943    0.4705579229058545 O
   0.5387416198507735    0.4780768753502405    0.4204402402038981 O
   0.7463678855337645    0.6400116454364168    0.6237932794373767 O
   0.8276992213500374    0.3506125962975944    0.4192507779945191 O
   0.6871016751074138    0.3940452092105917    0.5088504313075818 O
   0.2938432315069917    0.8457636960354684    0.4805927540874017 O
   0.9965941706389023    0.9777165552504792    0.6027729472781860 O
   0.4306034721526155    0.7718608185288266    0.5471063408720973 O
   0.6695895518865188    0.7744593035708023    0.5343911698481164 O
   0.9723934204659442    0.8061943805607542    0.4086258655605510 O
   0.7120150495500797    0.8318341382365867    0.3538993542865284 O
   0.9307809589039953    0.8177217446031949    0.6535200849816127 O
   0.7276208466488542    0.2119375520501442    0.8257161141101454 O
   0.2317947141264610    0.3931278640495653    0.8952884037162355 O
   0.1958772519859413    0.4644562388769399    0.6877114986799682 O
   0.0991416920767314    0.6006154303816477    0.6434974034140578 O
   0.4100234677302369    0.5260808115344323    0.7624278748523451 O
   0.5056317399710764    0.6301614637893298    0.6714062667164685 O
   0.6636015597316975    0.4170777753761385    0.9375135621730201 O
   0.6722017582000849    0.4891340109542293    0.7824364891550085 O
   0.9051219891423397    0.3804290842708699    0.8344008381861918 O
   0.9291046807848192    0.4671348234273675    0.6857810600122873 O
   0.8442821604548045    0.4898077333019994    0.9892791675185254 O
   0.6616742520327612    0.7189777300138834    0.8170268901770648 O
   0.7195766599660854    0.8419130625510910    0.9229242756919034 O
