Li1 Co1 H90 C51 N3 Cl6 O45
1.0
  13.5349775309000009    0.0000000000000000    0.0000000000000000
   0.0000000000000000   12.7534862720000000    0.0000000000000000
   0.0000000000000000    0.0000000000000000   14.5516968485000007
Li Co H C N Cl O
1 1 90 51 3 6 45
direct
  -0.0261757164865010    0.2878888609509768    0.4786900453412095 Li
   0.2224150175814756    0.2763406460661300    0.4742975679095078 Co
   0.1947644360311481    1.0011165859825533    1.0230568008111429 H
   1.0201599695291002    0.3053585939516821    0.2000806129011766 H
   1.0194846821132819    0.1145213634021466    0.1178688947452065 H
   0.3963916639869920    0.1035322113372954    0.2603581193069273 H
   0.3944322222413775    0.1128825958091720    0.1348552299178967 H
   0.4908579456694693    0.1906260440596176    0.2083889223209446 H
   0.6183425311488856    0.1193443583611833    0.1001699279043361 H
   0.5358680684132410    0.0176341300883160    0.0498823217496332 H
   0.6419775907025256   -0.0153631218806553    0.1076398471262449 H
   0.6481283212678288   -0.0122510316526571    0.2710517175601124 H
   0.6308146611996827    0.1254266168390321    0.2593142547900846 H
   0.7735611116898393    0.2977849785542938    0.3025154021576373 H
   0.8846163385321738    0.1694412484486187    0.0010447183141784 H
   0.9017918380458801    0.3417934941891315    0.1967153696233765 H
   0.8429531736903698    1.0473847190573116    0.2899677245980390 H
   1.0853990878049977    0.7295210452710950    0.1248007323893090 H
   0.2750039486214423    0.4771309198301069    0.1666728251317309 H
   1.0171455574322310    0.4577455537641402    0.0583521243632510 H
   0.3159630118141492    0.3556824023842882    0.1124963254281060 H
   0.3951649164758053    0.6045058168076100    0.0638099071102979 H
   0.6310311373625215    0.5070924528455085    0.2552102660510561 H
   0.5390280293294935    0.4054359353765257    0.2107061778514208 H
   0.9348232929544184    0.6044391683648335    0.1622575324913662 H
   0.8999048751793596    0.6762720758899956    0.2675400996002271 H
   0.8175508411622907    0.6738162767985141    0.1760153781972185 H
   0.9378864675999136    0.6932909517778012    0.0201593276202864 H
   1.0679273188670646    0.8636874969774540    0.1677751020803916 H
   0.4326078304993428   -0.0691836996709789    0.2633275324585250 H
   0.4303156213006817   -0.0763244922399835    0.1391159014152136 H
   0.6185146777220647   -0.1516521304646134    0.1684437526234382 H
   0.5008785755294276   -0.2263360231419553    0.1826936371667226 H
   0.5953982743674449   -0.2554559039399890    0.3132309909733892 H
   1.0634736727592391    0.7528527048388233    0.2476084034537465 H
   0.9826563978503782    0.9397357224833967    0.2860018640801332 H
   0.9131224811629362    0.9382427973652034    0.1472345422328429 H
   0.9751055910783182    0.8319103035609556    0.0263744103657273 H
   0.8113978941175044    0.8714924216762430    0.1638243600742505 H
   0.9033300748070768    0.8398579343372191    0.3388286930062210 H
   0.6512949316225303    0.2589642208853118    0.3269984575503645 H
   0.5736885966580308    1.0389046848381631    0.5439875161374037 H
   0.5617912736198232    0.0518890773774457    0.3469061015190376 H
   0.7116282419760718    0.2130755918847160    0.5588090865869167 H
   0.2145287835809894    0.6522864774837310    0.4139147816854687 H
   0.2824690515201600    0.6019574939955681    0.5674823706247856 H
   0.4371966079729815    0.4073639572111503    0.4267820096073657 H
   0.3827607584624867    0.6442635731720965    0.4118043748841364 H
   0.4627368794075520    0.6075473380961978    0.5737592331069375 H
   0.4567191376112283    0.7345063487907756    0.4841692688867590 H
   0.9251195457778786    0.4921861757738520    0.6546145458755844 H
   0.8197820971751696    0.4893135494802531    0.3633571039342423 H
   0.7638965223174990    0.4930535464491384    0.4672680097029992 H
   0.2752654932004354    0.7080806332795652    0.6480771639475238 H
   0.1497691636999125    0.7182778450243664    0.5072241815538396 H
   0.1910799083039208    0.7949807934681721    0.4126881206172896 H
   0.3953074361065617    0.7758127013256568    0.3829012164154830 H
   0.3120834338924185    0.9163084027978009    0.4783928978645257 H
   0.2250208586269800    0.8609117853606454    0.5610775505566979 H
   0.3538965805125717    0.8695988218020643    0.5905347337610185 H
   0.5975054075292761    0.9263895678422385    0.6177837896016007 H
   0.7732190350229642    0.6626467818885030    0.4900579979396071 H
   0.8004115441468066    0.9963147617053396    0.4182139366672775 H
   0.7557635202679064    0.8137827112250803    0.6123019546767464 H
   1.1556408002740086    0.2732646244071639   -0.0631787196621518 H
   0.1751581973510936    1.0176908775520734    0.8204591222934039 H
   0.4096872900483701    1.1051587256532707    0.7690094523480617 H
   0.4505117907716645    0.2098592164462558   -0.0605027430798048 H
   0.6522812649924619    1.2388061036052997    0.7380975934299474 H
   0.8791039540579723    0.2817815112946710   -0.0658237720158894 H
   0.7746464478100111    1.1622489976362755    0.6846296021640215 H
   0.1016065421874811    0.5591103862835601   -0.1026132959850603 H
   0.3312005694332260    0.4727656820580455   -0.1235668660858167 H
   0.4400075398650472    0.4698554189967610   -0.0487913941028250 H
   0.6164725612917346    0.4216626749194497    0.7128730437556710 H
   0.4076707370147438    0.6252703351794536    0.6922074125835236 H
   0.8381515403037143    0.6725985705440215    0.7927943073792931 H
   0.7187763883087216    0.6110381482990317    0.8027958901167045 H
   0.7686198400957555    0.4093125224481365   -0.0444235186129950 H
   0.9563164945009934    0.4061932185063319    0.7426778152895631 H
   0.8940895718424824    0.5067999837966188    0.8995523037953700 H
   1.0705316822595805    0.6812158221453568    0.6900028586862023 H
   0.2119421520243375    0.8896678440710523    0.8021622870327486 H
   0.0383814649351292    0.8745472726533862    0.7711755227608912 H
   0.2761225319338591    0.8081026957018707    0.9870905485280664 H
   0.6709484551982221    0.9324953492998906    0.7700327007124980 H
   0.3460288171744437    0.6665931538001972    0.9226746931292766 H
   0.3977301959467711    0.8604797466315883    0.9822608712243336 H
   0.4398279385325403    0.7760079420580257    0.7062085288877711 H
   0.7818655214861167    0.9447837539492198    0.7113673774249256 H
   0.7521100232534410    0.9412537387800468    0.9108032253686075 H
   0.8432354054112041    0.7904792792331161    0.0441819556092713 H
   1.0511227102535123    0.2688391678068056    0.0194961747178814 C
   0.4436630686523721    0.1185594749350744    0.1974073851391504 C
   0.5806572081525583    0.0409132550011499    0.1078137100115387 C
   0.5934736313497133    0.0521791941283551    0.2728171474111781 C
   0.8764478728108532    0.2571733380229415    0.0084555378991889 C
   0.7672123756240554    0.2889693498232826    0.0340979082622345 C
   0.9503645082626652    0.2882126939729379    0.1623777933804034 C
   0.9244619901979242    0.1827325161369022    0.1929013814281977 C
   0.9547693918218649    0.3147473992905711    0.0572525962349112 C
   0.3252943904375462    0.4422619443581740    0.1163446738772954 C
   0.4271381501965136    0.4655509489225254    0.1554816904004719 C
   0.3033992672780551    0.4916023354151300    0.0211447797053109 C
   0.8958878755296834    0.6760752669589734    0.1913345538453134 C
   1.0462065587602356    0.7782496820332957    0.1756594059656685 C
   0.4768401905925324   -0.0686309096455975    0.1963057953955699 C
   0.5471167017894263   -0.1648304878498402    0.2100292808474115 C
   0.9232318440848636    0.7709465809036471    0.0510773713841225 C
   0.8884382879873466    0.8737780712138129    0.1866175781747355 C
   0.9121583125878345    0.9012003769693634    0.2879610857638188 C
   0.6309853301198730    0.9947536199457165    0.5835884648102316 C
   0.6695010940958281    1.0609151370402636    0.6689723216164621 C
   0.7584816629405492    0.2761030639701151    0.4456110852026454 C
   0.5715777693637279    0.4345602855407222    0.4162444069073887 C
   0.3912855602020230    0.7221724663804931    0.4425691719150852 C
   0.6696311275588304    0.4191593202037988    0.3601176191861211 C
   0.7092965055599640    0.6103355953022349    0.3777567991850129 C
   0.7135166824955812    0.3081531239523336    0.3544200018660800 C
   0.7456829715792580    0.4995933268841645    0.3978238747322953 C
   0.2081896522596317    0.7266418325431512    0.4507758437034897 C
   0.3156519658600359    0.6765496470516765    0.5901299699687735 C
   0.4180575292852923    0.6558509930232825    0.6238621185360794 C
   0.3004055423230270    0.8587696259998766    0.5343343463756601 C
   0.7231347257987786    0.9676927839798126    0.5272052121530286 C
   0.3627366395172388    0.3294202499926446   -0.0624475334568059 C
   0.3740770351440200    1.0216921364166425    0.8772861719914080 C
   0.5767392112531223    1.1189478964140607    0.7114732070072783 C
   0.7233563737470777    0.9905045856938842    0.7407632619360913 C
   0.7716187368362438    1.0592191301964340    0.8130675444506392 C
   0.1924733350722285    0.5032464456476423   -0.0016848602644253 C
   1.0037609766609354    0.5653322144415761    0.7586752623518276 C
   0.3643132952561406    0.4480300142357812   -0.0571457462629672 C
   0.7757665087754165    0.6574536920472250    0.6620720954060495 C
   0.7506560127125982    0.4339410038924297    0.7338479172139140 C
   0.8329043945409776    0.5067160851686532    0.7698739563389689 C
   0.9291106865002531    0.4874556261254429    0.7285090209457438 C
   0.7910380524132326    0.6154040133505544    0.7621855059015525 C
   0.1963713836563175    0.9437832432082458    0.8558398758481394 C
   0.0935851029385324    0.9156348614760951    0.9021183275648831 C
   0.2824461478988357    0.9549888066872889    0.9215703545653754 C
   0.3305740445660336    0.8485653573611344    0.9389532070693482 C
   0.3622275880626449    0.7907513616995095    0.8566823892764797 C
   0.5225691915152879    0.0329640560262329    0.1900494803453162 N
   0.9421650118285828    0.7713307895737703    0.1504712781606433 N
   0.3063641779998044    0.7450775759144520    0.5007262383253325 N
   0.3104225519331630    0.1359562866983890    0.5023193858627889 Cl
   0.1199316557263661    0.2584694542101123    0.3516780535960325 Cl
   0.1009083511503386    0.3137343429603686    0.5843512624492673 Cl
   0.3161506737437091    0.4220480205335967    0.4875776686435965 Cl
   1.0632394647605363    0.8268497265059039    0.6442233178576926 Cl
   0.6990342055537102   -0.1892332270979528    0.9480291245637132 Cl
   1.0926949994365136    0.1902771198591996    0.0524524687496275 O
   0.9609127341222250    0.0951948831956213    0.1538612608213311 O
   0.7164121435268633    0.2469965128606366    0.0957079053185170 O
   0.8638663964388953    0.1705248737182316    0.2544557148729829 O
   0.1324111740421064    0.4939990134173722    0.0595183113843715 O
   0.4692033105338829    0.5537204875112599    0.1442946788996942 O
   0.6442997223742070    0.4314940651233408    0.2620788808277791 O
   0.6509661538325531    0.6315384251977497    0.3144370358891620 O
   0.4729597999616580    0.3816520857270422    0.1861221033119023 O
   0.3372848056140396    0.6015975924045751    0.0243918237093145 O
   0.9497993059945021    0.4230035082912269    0.0420014538897573 O
   0.7159400333969860    0.3560594757505378   -0.0250670131186522 O
   0.5707465895576058   -0.1803666319107008    0.2987488311129931 O
   0.8366199529809668    0.9740486931227083    0.3175157146485136 O
   0.7340856120977486    1.1436627071942327    0.6322755703331199 O
   0.6826448174299717    0.2481044452093797    0.5023873504452219 O
   0.8456380691707677    0.2757525715710435    0.4655847008590189 O
   0.4917728345173991    0.3975608337879897    0.3792377261328707 O
   0.5731751122444709    0.4792261900511340    0.4894176602458652 O
   0.7936121239194809    0.6084521887193043    0.5919366321246519 O
   0.4664024192938751    0.7511080838367331    0.6430859934499412 O
   0.7395115538721134    1.0336582762426640    0.4558878935746818 O
   0.7545134258394988    0.6883903309854130    0.4249121245841077 O
   0.7742637356859479    0.8864302979507690    0.5342427419384678 O
   1.0920610863043780    0.3210821377516436   -0.0551068087899770 O
   0.2667194871405119    1.0089301357739369    1.0080331233475395 O
   0.2879171580893548    0.2787909564623241   -0.0727274342517032 O
   0.5790761194546905    1.2148675511586422    0.7448727483157614 O
   0.4987382690580009    1.0674090476646729    0.7150865313190352 O
   0.4583511314545554    0.2877234159930259   -0.0512639579814292 O
   0.3455072056694463    1.0800659789975897    0.8072799032650904 O
   0.4569777268842440    1.0188983905153179    0.9146378297161927 O
   0.7715714519406066    1.0202807576284347    0.8997941999836048 O
   0.8062068991683368    1.1460855741139893    0.7919882158202040 O
   0.1758327459404176    0.5303951007381459   -0.0868453754195868 O
   1.0181607050354413    0.5982753635569994    0.8391304843227748 O
   1.0605907717783607    0.6004661370760286    0.6885927138616064 O
   0.6566484684004509    0.4791762429240180    0.7336493149457326 O
   0.7697229080517912    0.3432250243300375    0.7111948889497923 O
   0.8375205824775559    0.4727627024806038    0.8645749396227191 O
   0.0766149971902500    0.9232641479256850    0.9842393346502651 O
   0.0263459813424817    0.8723259192606124    0.8467357829454855 O
   0.3846309499675861    0.8390691304144763    0.7838977504108634 O
   0.3709693831435661    0.6870103161702765    0.8573132435401147 O
   0.7422562942985521    0.7536085765898412    0.6651047314250267 O
