Li1 Co1 H90 C51 N3 Cl6 O45
1.0
  14.0457292054000007    0.0000000000000000    0.0000000000000000
   0.0000000000000000   13.7076512269999995    0.0000000000000000
   0.0000000000000000    0.0000000000000000   14.1673320933000007
Li Co H C N Cl O
1 1 90 51 3 6 45
direct
   0.8051428969136204    0.4443268224904334    0.3578567943005755 Li
   0.5742507194712999    0.5608246800412994    0.4839177201148726 Co
   0.2524496272031766    0.1988895886211331   -0.0187405752580305 H
   0.2824067760166559    0.0614765505442780    0.1209039242829676 H
   0.2007079205696332    0.3044656625986680    0.0381021665296661 H
   0.3904075766740397    0.1266226492603772    0.0445232766865334 H
   0.7036358851273002    1.1815612204662638    0.1959025191491450 H
   0.9822550969013288    0.2575976770217835    0.1439386070200464 H
   0.8317794634121517    1.1104330611737703    0.2532068863125250 H
   1.1662070984112722    0.5363344158493740    0.1411773249563260 H
   1.0790774106532670    0.4186577276051671    0.1724506795358753 H
   0.3157364802387777    0.4422539655487545    0.0056168688766485 H
   1.0335489805768743    0.4595976370547614    0.2761243980826872 H
   0.3010829156576757    0.3834872237736721    0.3357277160849061 H
   0.4721163995636888    0.6986119616639703    1.0551765108809501 H
   0.4017398469800062    0.2981327031030974    0.2306888851885963 H
   0.4355173741601260    0.3544260816857155    0.1249145594276658 H
   0.4180650940815838    0.6484020468797124    0.2329094867664247 H
   0.8285414684789649    0.3781077463724121    0.0548646732907174 H
   0.9058525132898331    0.4799650942782190    0.0334640314476858 H
   0.8696934792822045    0.5509790837560533    0.1805284177611352 H
   0.0639752545816228    0.0357748461336745    0.9482855316883207 H
   0.1759829671747973    0.8556490765097287    0.2424702141572972 H
   0.1074731742029915   -0.2201654270686092    1.0554927313217852 H
   0.1099194694075716   -0.0403264481526336    1.0483777714029963 H
   0.5034004285787910    0.8473493322197729    1.0044563050392430 H
   0.6607317403023867    1.0309402303484798    0.1153347741084395 H
   0.2992439224931151    0.6879048027518070    1.0527667417179793 H
   0.5066552969684238    0.8650073537138734    0.2611371020553417 H
  -0.0164007788368464   -0.1794523982091684    1.0674604044788352 H
   0.7574315969020582    0.9835382364372146    0.0478817071720093 H
   0.9309419903007181    0.9368314746880596    0.2027817254357041 H
   0.8762983339425331    0.8300341849294411    0.2519695326679182 H
   0.1773292838895414    0.0125753938910019    0.5701000720184762 H
   0.1895821187180696    0.1292211980131963    0.4055954931286950 H
   0.0823965124754832    0.1856371358856722    0.4461125076392438 H
   0.3234897266816988    0.1774314996218571    0.4994221918498070 H
   0.5206277078792471    0.2186464379540491    0.6345757964515886 H
   0.5365997728905639    0.3380841135184217    0.6307479762492483 H
   0.5227958758365427    1.0243519389990385    0.3930758458985802 H
   0.7301421629115015    0.0402117842343612    0.6661089035361096 H
   0.6509529671257548    0.1862813016770083    0.6046979057370636 H
   0.7064972531212488    0.3352411757054694    0.6682695079320832 H
   0.7746225875917526    0.1967995150173075    0.6314065335512551 H
   0.2980136552889491    0.2416299524003055    0.6114782931358618 H
   0.1343496712847427    0.3318788199497863    0.5401762305211425 H
   0.0069707382413693    0.5902469343225872    0.5202680362229806 H
  -0.1615117923124872    0.7002322246566742    0.4559862085646392 H
   0.2699866305440426    0.8325896920268936    0.3681269001357320 H
  -0.0215646260774806   -0.0289029010104679    0.3819848374458095 H
   0.2936486273787977    0.7037412138484371    0.3791896746205710 H
   0.0662926849922480    0.8379363410469417    0.5040011061840506 H
   0.4228380751792278    0.8187550826646079    0.4947330944557100 H
   0.5266368868094197    0.8478935538283083    0.4226135172995282 H
   0.8488679318348322    1.0145501138887416    0.3357594792988292 H
   0.7230182892744152    1.0045440232953484    0.4366309765284198 H
  -0.1494960402264285    0.7787256136539576    0.5535066867253359 H
  -0.2809352822196621    0.8549713528175982    0.5778692835591624 H
  -0.0280249528197272    0.0225406313877758    0.8326144943181305 H
  -0.0179877380949980   -0.0252173680797430    1.0228641462815140 H
   0.0725586466032809    0.0884716931746311    0.6822664975342243 H
   0.4496567610937461    0.2858840693131388    0.7186791401265415 H
   0.5860424888823409    0.1360159434044813    0.7960345654658177 H
   0.4973497637284870    0.2193482357924017    0.8565131364739194 H
   0.6267904622791198    0.2175952002356851    0.8931777672300271 H
   0.7415285421917251    0.2824786719020890    0.7757583413956662 H
  -0.0934811485469335   -0.0562285160116877    0.7650859015174830 H
   0.0120491502594920    0.5872245346923430    0.6505216356902155 H
   0.5185244137342452    0.3995457735831697    0.8211006821955826 H
   0.4409168802228544    0.5800971283714440    1.0110919933523910 H
   0.6146451334389187    0.4476030949353830    0.7486840836967593 H
   0.5534640450501704    0.6250953552584140    0.9226385010683612 H
   0.4473708705194315    0.6219015185262855    0.8534702205800802 H
   0.6467509780985629    0.3922648033901571    0.8573234513535591 H
   0.9107237448933653    0.4081368879943709   -0.1075455804428101 H
  -0.1896263881604679    0.4997263207286299    0.7039480673581762 H
  -0.1759994701698793    0.6149703529730753    0.7204719970902046 H
   0.6114569757188636    0.7875374806908195    0.9678114380606874 H
   0.1547473306593697   -0.1009115904390234    0.8321556923392402 H
   0.2094828298817546   -0.1150671884176033    0.9548449882880534 H
   0.1603433377338747   -0.2177302907022672    0.8847245172312757 H
   0.0516163376851429   -0.1084263716582231    0.6851527149060425 H
   0.0231080278534216   -0.2688820152675162    0.9832208319086118 H
   0.3646438733655013    0.8196443670356598    0.9060404571705122 H
   0.3785804940376941    0.7704623453431261    0.7926549595043931 H
   0.4191244908407267    0.8891894688341563    0.8097414510474606 H
   0.5347219066997605    0.7160503977637422    0.7282786892233201 H
   0.5702545581343420    0.8411651947190296    0.7430874054034977 H
   0.5577130946457625    0.8979852864402034    0.9101386176157986 H
   0.0055240351401742   -0.2013766502216536    0.8298313309292630 H
  -0.0892841432410548   -0.1475016290549803    0.8939358492689933 H
   0.6333711102930702    0.7377944584393532    0.7921509831768123 H
   0.2536499920794635    0.1909188576628789    0.1703232500522216 C
   0.3311952717920509    0.2386761276108152    0.1042197667829268 C
   0.2714539804906781    0.2673798051033532    0.0195771543204784 C
   0.7655265842350255    1.1339075422990408    0.0798079722599792 C
   0.9149413970446844    0.3289738729723226    0.2380854789375039 C
   0.6999045017841092    1.0677641903136816    0.3150625691064953 C
   0.8012235560809041    1.0447697330736880    0.2811429858825472 C
   0.2973508203542971    0.4067475179495242    0.1914542575015054 C
   0.3715427675833071    0.3253510787256916    0.1624572665864495 C
   0.9699068594076627    0.3504990777731873    0.0048425523061216 C
   1.0342894191719743    0.5704419366972271    0.1586160352493415 C
   1.0239738280138950    0.4681585055840727    0.1982868777409772 C
   0.9017167365600876    0.4042537282087503    0.0643971667136582 C
   0.9217484483982902    0.4217394371774674    0.1772081031323671 C
   0.0418162057028832   -0.2015086932660838    1.0204783759912854 C
   0.0567018693051415   -0.0276174875061256    0.9960221129688452 C
   0.2803463632337529    0.7590431753184553    0.2341729568313683 C
   0.3017877562433958    0.7705447810559471    0.3364116839580515 C
   0.7395314938655182    1.0310357974137854    0.1062060264269220 C
   0.7971426002856036    0.9822849217945018    0.1907978177470933 C
   0.7500742003234406    0.8769437531225275    0.2104303073484021 C
   0.1088145071964225    0.2071813081956816    0.6250313035922770 C
   0.0845060505113303    0.0330800007959671    0.4537944762190210 C
   0.1345184058492030    0.1281546403836001    0.4609848208321875 C
   0.1834713644279327    0.1530414714205655    0.5564382902006043 C
   0.2726778400531558    0.2185866173482851    0.5432718027651742 C
   0.7049095819029095    0.1791480591994493    0.6607395086846983 C
   0.2578021438935238    0.3069015284845925    0.4800088684245681 C
  -0.0063564445102412    0.6309023311350115    0.5861524239011254 C
  -0.1206573808676626    0.6331302839399271    0.5913164166358337 C
  -0.1590156598947754    0.5310130082068800    0.5672055962110381 C
   0.0349813879019610    0.7329249152262517    0.5846666113387197 C
   0.4639751348185279    0.6975986589638957    0.3514074501757766 C
   0.4140161764947250    0.7946853135600283    0.3451423326917320 C
   0.4491791070038879    0.8589071109651162    0.4293388484608595 C
   0.4011218655371728    0.9583435481364396    0.4260008876021341 C
  -0.1712108259481082    0.7067920647423984    0.5298064587791871 C
  -0.2757094944427071    0.7102375857304849    0.5550814362867266 C
  -0.0237432242515246   -0.0492010538735893    0.7986200910791634 C
   0.3276368947744458    0.3189765366139192   -0.0594553687139409 C
   0.5198878032542879    0.2780614308301295    0.6834149141798462 C
   0.5731337963289992    0.2107121829749192    0.8327097839599000 C
   0.6950560529065801    0.2709325654700654    0.7126243657035882 C
   0.5960900270297902    0.3879584492947356    0.7997600375344058 C
   0.4294557451229332    0.6563713187988015    0.9949358110526730 C
   0.4849321101165304    0.6633214518611562    0.9011573924167242 C
   0.1530863275417081   -0.1414743382644718    0.9002708458236689 C
   0.5654313126474538    0.7719994431034264    0.7762926692387737 C
   0.4106834908565879    0.8205635617095935    0.8457058793988623 C
   0.5456871615290212    0.8262209860717811    0.9408981139789910 C
  -0.0160711412699894   -0.1367995767798944    0.8668905313872163 C
   0.5944297358723163    0.2836743544977853    0.7549936696802964 N
   0.0610725928967937   -0.1258721029538199    0.9447393453160989 N
   0.5006107549757333    0.7709365330717427    0.8659835151674103 N
   0.3312828428951252   -0.0137237870576586    1.0100932167368071 Cl
   0.0111478086619954    0.8481175163401318    0.2940084992198254 Cl
   0.6273393835837563    0.4542479970044251    0.3795616571480712 Cl
   0.4654404200806194    0.5211426082558294    0.5853816365765900 Cl
   0.8039026622668280    0.9629373329473609    0.5544000800556147 Cl
   0.8123386785296538    0.5321393864422401    0.8425048532846056 Cl
   0.2030274868608211    0.2462930415715632    0.2185398087875851 O
   0.2391416673766311    0.0945354599442640    0.1711434468206375 O
   0.4132536671338097    0.1837068270704113    0.0885336800492716 O
   0.6443395689431750    1.1236847843896489    0.2717996600447489 O
   0.8200271365955036    1.1489604493640799    0.0138569524175156 O
   1.0282776273479131    0.2885125283688399    0.0361314355680334 O
   0.7323527992939871    1.2091538396346742    0.1316822415408947 O
   0.9588807319823627    0.2457335000517956    0.2124052734052247 O
   0.8700758019029436    0.3292963206277819    0.3120761211485196 O
   1.1253783175332013    0.5948414486530910    0.1408815741422414 O
   0.2509879729380419    0.4476916586126969    0.1289308413659504 O
   0.2886435472599974    0.4366697120006904    0.2830247798451951 O
   0.4562819778154399    0.6275859351130251    0.2908632351922338 O
   0.9678371911423210    0.6236662263963219    0.1398566811063206 O
   0.8550897519142343    0.4874191065161976    0.2140583722276258 O
   0.2216915231786518    0.8301304815143296    0.1981901764008111 O
   0.3123012723336268    0.6957785076055903    0.1812879114984980 O
   0.4395328296181678    0.8405458325934980    0.2572909297738457 O
   0.6634414607763772    0.8568046355283884    0.2069455298564319 O
   0.8900420134038874    0.9670175359722114    0.1536673265201125 O
   0.8079109981229939    0.8050911808846244    0.2306818266966134 O
   0.2098138913689867    0.0695173153824510    0.6031266854216645 O
   0.0681209987539947    0.1550374369982502    0.6908100962303572 O
   0.0926622664204308    0.2934426217072878    0.6200917709026257 O
   0.0107797252450082    0.0331274195688288    0.3949590515596247 O
   0.6699017875186238    1.0387402537244319    0.4019053135200216 O
   0.4532633378160515    1.0360621873371216    0.4044308419515123 O
   0.3217852939925938    0.3233142600513876    0.4199955226230611 O
   0.1810300529446657    0.3560426970805069    0.4838565935743004 O
   0.5102292374357298    0.6840120862596558    0.4262846389798476 O
  -0.1995439935736809    0.4768724637977689    0.6370215639236724 O
  -0.3241939832179985    0.6343354502901958    0.5518199894810960 O
  -0.1513948380467472    0.4977508546512131    0.4864992929727077 O
   0.1005650245027470   -0.0437347636420134    0.4992215189227324 O
   0.0359895235275970    0.7724145397458617    0.4994790127102695 O
   0.3154880061333067    0.9660399797316787    0.4250910479855350 O
  -0.1433888457372295    0.6668085554654447    0.6851964775563365 O
  -0.3227558236390545    0.7923807611989514    0.5739299391834918 O
   0.3536298492633903    0.2747917240614222   -0.1311957636808000 O
   0.7017171524217289    0.0876050239106364    0.7098023806088146 O
   0.3517645135718886    0.4141921923368470   -0.0481031960578020 O
   0.9612259288403041    0.3609399620377429   -0.0882222527903535 O
   0.0431333320499359   -0.0465558158674911    0.7180346998085004 O
   0.0665247840134043    0.7750014161853609    0.6565340591612713 O
   0.3286870360511500    0.6884599671540796    0.9884652914519254 O
