Li1 Co1 H90 C51 N3 Cl6 O45
1.0
  14.1030449999999998    0.0000000000000000    0.0000000000000000
   0.0000000000000000   13.9046029999999998    0.0000000000000000
   0.0000000000000000    0.0000000000000000   13.2113090000000000
Li Co H C N Cl O
1 1 90 51 3 6 45
direct
   0.6353946612238704    0.2292996168247307    0.6507615271128698 Li
   0.1223365918494907    0.6171562611316554    0.3177563661556928 Co
   1.0251249953467496    0.0707285767166456    0.9066066685746280 H
   1.0708997234285220    0.0658348958255047    0.7797305490318939 H
   0.9878862238615845   -0.0234658939920831    0.8217765756595353 H
   0.8676290900298481    0.1162122881178269    0.9395511269927908 H
   0.8257469376294267    0.0210719198527279    0.8595537126563310 H
   0.7851936152795371    0.1416548922684092    0.8391213020602274 H
   0.9892315304957191    0.2306277345710626    0.8705748877722865 H
   0.8954144477309687    0.2624976318993070    0.7848356638997694 H
   1.0103275930836213    0.2290017607838210    0.7369136010670858 H
   0.8827369557425364    0.0058352690831950    0.6900734022646809 H
   0.9707882340303104    0.0836909158787202    0.6435345104712940 H
   0.8354653736125779    0.1233785020687034    0.5490109640157534 H
   0.8435101377043042    0.2197366332573465    0.6372066136671242 H
   0.7052352325331160    0.0712247304004293    0.6224157553199309 H
   0.1339386068753237    0.6353021830252903    0.6183148558556916 H
   0.0549156107776725    0.7342161671210606    0.6422013125270176 H
   0.0301909381980984    0.6166256994176678    0.6950848307310047 H
   0.2291683342143487    0.5732208700960395    0.7515207493822148 H
   0.1294578950857776    0.5569332500899163    0.8349791296229617 H
   0.2299599561654947    0.6265145031469077    0.8748124587805794 H
   0.2588391492759188    0.7330231104045186    0.6751750965782422 H
   0.2640768982868593    0.7799729204782043    0.8010758176952790 H
   0.1832577624193924    0.8320494810243774    0.7100306245202500 H
   0.0130754797988661    0.6921132829178942    0.8506079556537508 H
   0.0440822737217388    0.8055089044973094    0.7965414418813457 H
   0.0553883235854385    0.8172557986732883    0.9776136104302759 H
   0.1745156425438620    0.8219236579426252    0.9314437388452574 H
   0.1588564994297331    0.7129026524525728    1.0635523557885143 H
   0.1781963015788434    1.0194928643413983    0.3972650779722131 H
   0.1629796125588481    0.9183316344954259    0.4802361582792439 H
   0.1517970012858925    0.9025655576070745    0.3455707848480419 H
   0.3056014910255196    1.0335911402864217    0.2894306764000448 H
   0.2987310492166763    0.9134755375611948    0.2365671274511859 H
   0.4058865039429428    0.9541761465609627    0.2955482110061917 H
   0.3269438550327252    1.0506553484482801    0.4715536393857717 H
   0.4205696188305433    0.9633828927010719    0.4739830534582152 H
   0.3183932994612156    0.9488043520552152    0.5546767076600811 H
   0.2696962946654428    0.7832565000237692    0.3396123593808910 H
   0.2684833289548463    0.7922717944554046    0.4737869442006087 H
   0.4028014354346880    0.6987698555650961    0.4165787114660629 H
   0.4453931296397338    0.8045660332768940    0.4785329523365171 H
   0.5278186923462274    0.7959458691485115    0.3335451127515071 H
   0.1627110868610289    0.4554902121261571    0.0327366569050803 H
   0.0474569888984967    0.4091464056902596    0.0591064329810165 H
  -0.0063488771396532    0.4416491416547456    0.2301928007285274 H
   0.1231168190982869    0.3431262927823254    0.2922392512354378 H
   0.1520530736447342    0.2283453558508647    0.2523416453282563 H
   0.0159606489236899    0.1367380485440685    0.2327918194934355 H
   0.2956171153109133    0.2306718480204002    0.1070340251673774 H
   0.2899072186183905    0.3983084292302341    0.1294836401146927 H
   0.4790569306132115    0.3026595236124326    0.4011491866551604 H
   0.5163904178140252    0.3572611307205247    0.2872712227077574 H
   0.3744994949672216    0.2057249329592510    0.2849346101888919 H
   0.7190429825615673    0.2118066211599138    0.2954221871579871 H
   0.7773600772031855    0.3182941943757762    0.3324372210202637 H
   0.8338633720590127    0.3211627696238433    0.1724382406012909 H
   0.5506024316025369    0.3861345023658713    0.5309516619435667 H
   0.6390474801718351    0.1786606104467708    0.4437360552235967 H
   0.4120350959668639    0.9819926768135704    0.9593269637399292 H
   0.4908653358193212    0.9349287340314572    0.8674251907967636 H
   0.5035561873340119    0.7751273747261969    0.8659074396034487 H
   0.6035665177272000    0.8054114331779196    1.0449807108440201 H
   0.6878448172008244    0.8982953911017812    1.0627478193114703 H
   0.8030994292367356    0.8689585894685380    0.9516309307427447 H
   0.5772451459950669    1.0830276117915774    1.1415726057122726 H
   0.4594249958076430    0.9030644600209011    1.1234859551010425 H
   0.8204649471089399    0.6677596253557185    0.2439557480640260 H
   0.8152244561369547    0.7947706669510809    0.2303071913615827 H
   0.9568754010215524    0.8162364319211416    0.1472341991244017 H
   0.9027854403073946    0.8220047404445852    0.4779080551367014 H
   0.7819650352104811    0.8482607478976567    0.5034725711131274 H
   0.7261438178776285    0.9810164346295972    0.4255000151763917 H
   0.6944243728925207    0.5937485277357434    0.4111870708648174 H
   0.9018657772133606    0.6485357208688375    0.4245071657925796 H
   0.1668714408838659    0.3723624680258761    0.7029950892829773 H
   0.2646658611668615    0.3927719727057292    0.6213563561339759 H
   0.1706126981797194    0.4534372595895043    0.4883852016480729 H
   0.3090779920222902    0.2210915471660716    0.5302150937503619 H
   0.3411861679516728    0.1349427452189753    0.6257259314728011 H
   0.4544538608506177    0.1954417763671498    0.7451004105649183 H
   0.3331612882182535    0.1173623274249542    0.7918180545167779 H
   0.1347673059257770    0.1869438559302988    0.6340898384861031 H
   0.7645520566657767    0.4833645570463249    0.7087038551592427 H
   0.6405324140992246    0.5020394152929070    0.7203696280209629 H
   0.6669508804658852    0.7404437192489424    0.7545002414219514 H
   0.6167954544568212    0.5618534078247326    0.9213246711586263 H
   0.6565468280077105    0.4752783304924276    1.0101530242007055 H
   0.5540066545912602    0.3692264331459159    1.0476852127219187 H
   0.7431922510351487    0.3269019000398646    0.9799803819591230 H
   0.8197090046865765    0.5374760991018587    0.8945063619358233 H
   1.0092601817550748    0.0518580818165035    0.8279897457549438 C
   0.8449685234642590    0.0972240674544969    0.8628286197832479 C
   0.9575745266359144    0.2167147102294111    0.7963229896447052 C
   0.9036099211198715    0.0817623120919022    0.6853325730251257 C
   0.8295020968875870    0.1421258420682705    0.6301223065784020 C
   0.0856500394063835    0.6678766477547040    0.6736222428829725 C
   0.1855568006767333    0.6064476569377781    0.8105847376667974 C
   0.2175141403859946    0.7658516154686330    0.7365319394164499 C
   0.0713905677816386    0.7434200178171215    0.8389339966236502 C
   0.1119009008338270    0.7749253107046639    0.9399970055957362 C
   0.1887685411200205    0.9418343716825285    0.4056731380667881 C
   0.3285718112648722    0.9586658108829141    0.2966683528483059 C
   0.3439564711025172    0.9742897456331547    0.4810127338630865 C
   0.3065203486197484    0.8142348127451032    0.4052489605685553 C
   0.4084696496394927    0.7780821185617455    0.4098745324933358 C
   0.1161232705419291    0.4279437528709019    0.0931192071883263 C
   0.1072896356779688    0.5048187459936829    0.1716519407728636 C
   0.1625585382447549    0.3368842274748873    0.1376349860562644 C
   0.1106448359201860    0.2921982662863514    0.2293072351876714 C
   0.0065822111465999    0.2755236859333561    0.2217442858993004 C
   0.1706238532175144    0.2575207375571960    0.0553519094890597 C
   0.5310943310469476    0.2973324387614663    0.3394946836835017 C
   0.5158798238252802    0.2028505222335366    0.2824440356364384 C
   0.6323615538346505    0.3085211666956619    0.3806637131869370 C
   0.7102856567500139    0.2902493138423298    0.3019289920476464 C
   0.6953486995184373    0.3266325446328817    0.1947472033240612 C
   0.6460317264817633    0.4114268965464171    0.4235097112632821 C
   0.4674187148945493    0.9271782905272450    0.9463051390289940 C
   0.4239690577460399    0.8291412419326176    0.9689627000624995 C
   0.5487052384786406    0.9467753088671429    1.0200212863085709 C
   0.6306042553221662    0.8733167361916051    1.0123880850867994 C
   0.6685287049711605    0.8495096472729212    0.9081089640701009 C
   0.5892379596037594    1.0479593613711948    0.9969343333048980 C
   0.8449833663581162    0.7365709132436217    0.2771129817643354 C
   0.9517535390406824    0.7343774460874576    0.2716571946050160 C
   0.8054097537092166    0.7410629515995532    0.3860731544466941 C
   0.8331206742940975    0.8347838812801776    0.4419853256024819 C
   0.8485815978038784    0.9259873999998419    0.3772858571395158 C
   0.6956964882406601    0.7341705800589921    0.3778979350191567 C
   0.2078159404582486    0.3412371255763290    0.6396491664830487 C
   0.1363809964443849    0.3284330563051674    0.5533859703077114 C
   0.2518547178995741    0.2464419552287829    0.6788979449349039 C
   0.3337088678366977    0.2125527323577667    0.6096095579930800 C
   0.4282454696840292    0.2601191727660258    0.6175539698602160 C
   0.2908479353217691    0.2594966911317065    0.7891159505844576 C
   0.7088003491444578    0.5119915865271378    0.7589660237301239 C
   0.7291733395163952    0.6180684310080626    0.7744722305715505 C
   0.7121562605806051    0.4561510580345229    0.8586880807950218 C
   0.6306921803057425    0.4844011231388627    0.9320202562819475 C
   0.5367447661125664    0.4301731865339845    0.9145810441645108 C
   0.7062821085800973    0.3478570973942945    0.8386278664740943 C
   0.9275280806379048    0.1131820031107684    0.7927654928062011 N
   0.1409287866556478    0.6952617762621487    0.7667017030636404 N
   0.2934691040126441    0.9217225770487658    0.3970200984626126 N
   0.3402239126373063   -0.0065062015794338    0.7457485083423603 Cl
   0.6300884979094939    0.9948886278881893    0.5311280698982970 Cl
   0.2650874325367323    0.1950724641329206    0.3649854560210499 Cl
   1.0381533725518142    0.8995360637049473    0.6171366713169755 Cl
   0.2258843356168827    0.5856635374630977    0.4445498814689748 Cl
   0.8998502245437067   -0.1046798754340559    0.0478785425426050 Cl
   0.7351975491817547    0.1255840299791371    0.6639969990861617 O
   0.1335259782550506    0.6917970034815090    0.9987817021008288 O
   0.4583975382621270    0.8027314436809163    0.3213090625614767 O
   0.1660595389151775    0.5716351937556219    0.1822272789168734 O
   0.0341113972195366    0.5044406791046102    0.2354430056855078 O
  -0.0516593976690849    0.3437441061783642    0.2172029819301025 O
  -0.0307563288637312    0.1878433976144447    0.2222173147263454 O
   0.1053632637490698    0.2393503604525782   -0.0018488167977904 O
   0.2516365777745161    0.2064381377878966    0.0548747296728886 O
   0.2544340261269818    0.3598254038608654    0.1782290959964679 O
   0.5782309295616656    0.1412920181899476    0.2744162126553849 O
   0.4313286563291828    0.1920974428396122    0.2376167123182116 O
   0.6186284777507268    0.3509968526249905    0.1586836913738071 O
   0.7721737071674947    0.3260134402974325    0.1349273504994850 O
   0.6999553429773498    0.4689676735107072    0.3822748018383341 O
   0.5981139966581684    0.4351265987241779    0.5065844716825562 O
   0.6466074808667206    0.2452678735236094    0.4677083050589461 O
   0.3718578243209179    0.8166324072682982    1.0425083161706383 O
   0.4442090881791840    0.7575329809847863    0.9042087055870088 O
   0.6161224820597253    0.8155400790659036    0.8405562105920011 O
   0.7595670318005792    0.8601430849913515    0.8895287696321386 O
   0.6109810377829752    1.0701799929131384    0.9106673517363040 O
   0.6009174316610348    1.1073016281011405    1.0753981070308778 O
   0.5151171949036537    0.9456963855782147    1.1215624999763461 O
   0.9984647173713194    0.6861033213246003    0.3355839478131955 O
   0.9967014350447013    0.7733834400018469    0.1956386358081550 O
   0.9223667902924509    0.9375298525243764    0.3289940103588524 O
   0.7814680631026846    0.9937346855570059    0.3774135076244148 O
   0.6499943522834962    0.8038789471371459    0.3478851671700359 O
   0.6538695161222274    0.6526099652036094    0.4030855935623033 O
   0.8352527776802811    0.6597695238044553    0.4436517138460693 O
   0.0822246940288427    0.2586266188254350    0.5497994354685065 O
   0.1267548426598653    0.3971663829596574    0.4840421392005894 O
   0.4557340694864123    0.3232078542623619    0.5589425816926998 O
   0.4898027908157423    0.2263471614399922    0.6880485075324481 O
   0.2751814554941858    0.3309923828821291    0.8395880642864382 O
   0.3465219298385561    0.1864344224714650    0.8228796457640950 O
   0.1843375242722405    0.1711824472802280    0.6856418096041808 O
   0.7939522209565381    0.6461980316877800    0.8304473356879322 O
   0.6724228675438531    0.6752943187230876    0.7211799913240996 O
   0.4920861891882214    0.4370757259304707    0.8357278555819109 O
   0.5062079246006802    0.3750967956438598    0.9922270139923304 O
   0.6897181076852552    0.3135942629933411    0.7547356836480018 O
   0.7220054137244828    0.2914932551472344    0.9190781958093630 O
   0.8015434844035455    0.4694770839555794    0.9087349194542341 O
