Li1 Co1 H90 C51 N3 Cl6 O45
1.0
  14.4648497686000006    0.0000000000000000    0.0000000000000000
   0.0000000000000000   14.1166836395999997    0.0000000000000000
   0.0000000000000000    0.0000000000000000   14.5900812520999992
Li Co H C N Cl O
1 1 90 51 3 6 45
direct
   0.7323193501528670    0.3256101388364218    0.2879148205905556 Li
   0.4315792754482379    0.9038621000195161    0.7196437391045201 Co
   0.3072371613735835    0.1177978739379839    0.9923509249830986 H
   0.1869123721194152    0.0766727758043510    1.0118532152776811 H
   1.0177858476317174    0.2495242799037331    0.1615083963813315 H
   0.1169199410747622    0.2063342491879016    0.3250845930290706 H
   0.5578278732016834    0.1060918667610261    0.1493604174264858 H
   0.4583720874165512    0.1617069120537919    0.1088801767893754 H
   0.6490595846339499    0.1659883708966078    0.2506799354234969 H
   0.8447256333850341    0.2696125674392350    0.0506981841512044 H
   0.2565211144228240    0.5937375614402800    0.1540183764073666 H
   1.0703373785608610    0.5423349786151993    0.0855876402964011 H
   1.0339298106687147    0.4188233207418913    0.1651965184054809 H
   0.3410750516959918    0.4469683164181745    0.1201248023103187 H
   0.6047991871710064    0.3649543654394725    0.1239664532944030 H
   0.5452860215473500    0.3875467821955823    0.2324723603312222 H
   0.4670107530092804    0.6468173087187443    0.3181168456777412 H
   0.8623981294074206    0.3854400550945672    0.0166730138027838 H
   0.9534160121411882    0.4735704072199091    0.2488135990042887 H
   0.8028703766982863    0.4657845133934244    0.1600875681047915 H
   0.0330836054473808    0.9071822849295554    0.1263639724991001 H
   0.0766471411964969    0.8352723359701295    0.2420254257043118 H
   0.1481266253626205    0.9257957218180118    0.2843343059177891 H
   0.3196230487395841    0.8548357126845647    0.2094395893552805 H
   0.0569988209894694    0.6852788917549273    0.2983191492147126 H
   0.5961610055100230    0.8751584745544432    0.1955582410268845 H
   0.7678987034287781    0.6311797832463485    0.1623370415266942 H
   0.6972349899197141    0.8327972503981905    0.3337055182882699 H
   0.7693110927951957    0.8099448575674094    0.0509140842511128 H
   0.8008544553118574    0.8967853670877274    0.3073609083194477 H
   0.7195725879707773    0.9078460385588935    0.0944936907669080 H
   0.8968665136613868    0.7894775858358608    0.2098755019379526 H
   0.0551965209022199    0.2214631566177526    0.4923086788886904 H
   0.2616950361155650    0.1871541069595622    0.5171019678189994 H
   0.3218989106065675    0.2156204245635591    0.4135960946229445 H
   0.2377943385258478    0.3470542688975937    0.5906759857735255 H
   0.6941737759625445    0.0321127349293524    0.6112262482990919 H
   0.5409573212150506    0.3190944441911173    0.3619939145534102 H
   0.7597285528990060    0.2447639550487161    0.5588662931487363 H
   0.7580562230520337    0.0811114953789844    0.5253901259115114 H
   0.9085818098940419    0.1697541278801302    0.6090980901714235 H
   0.0668309314002342    0.3456736330133038    0.5037285604589878 H
   0.2107473932579285    0.3627548403390516    0.3023924644329843 H
   0.5280098656247029    0.5275866846592473    0.4167955284844442 H
   0.4126416435763438    0.5617215432635911    0.4590230520570989 H
   0.3837730409513463    0.6402640698446727    0.5932928320638438 H
   0.4193924914290451    0.4882626469339300    0.6049130552189134 H
   0.5212141918657271    0.4468099931138447    0.5500612016773294 H
   0.6513651737367412    0.5682089026419015    0.5182579243697946 H
  -0.1230680336040777    0.6655214184615820    0.5341039910232427 H
   0.2238246116892339    0.7021341253263966    0.4021561309163698 H
   0.3489527691851399    0.0415682135252999    0.4471872029609778 H
   0.2198148915104661    0.8349500223080710    0.4235734208272827 H
   0.3989671151046150    0.7697952010000502    0.3639952742097040 H
   0.6124128161932081    0.6901993108684612    0.5280034081366882 H
   0.4628308962553410    0.7262049346379262    0.5547283449799206 H
   0.5524750350292414    0.7139520568079815    0.3882103552565726 H
   0.4735318715489809    0.6675828091354065    0.6659785136358610 H
   0.6279456425684762    0.6179521722318049    0.6327545725471005 H
  -0.0258903910784444    0.8548753820583564    0.4888214467670271 H
  -0.0179366271721128    0.7300471968423328    0.5685096253255019 H
   0.8084086298624429    0.0049356719735893    0.6202536140638332 H
   0.1114577343277891    0.1666209557322522    0.7907146250086510 H
   0.0793419496890550    0.1213135721902829    0.9062040435310784 H
   0.2231823651295658    0.2864812602625267    0.8459007467366646 H
   0.1576614634153042    0.2667797491214949    0.9579624941491178 H
   0.2701147571599121    0.2724638036805213    0.9563072600498203 H
   0.2796364599223550    0.1729326364551989    0.7504023066714695 H
   0.2995170673673249    0.0553653634064258    0.7873006618415280 H
   0.2623103207636863    0.0104964681211910    0.9376308733120301 H
   0.3640134164428048    0.1476880387084367    0.8365628960663408 H
   0.6567409641005514    0.1016141861942757    0.7499725626630803 H
   0.5158353174740348    0.2902229322691041   -0.0014996060352200 H
   0.6471570415422310    0.2041892694764446    0.6073887096978631 H
   0.7251813569035950    0.1804740677656916    0.7983321288511332 H
   0.7190222884427946    0.0798186988223764    0.9140922792448745 H
   0.9431476718282161    0.3382377505723643   -0.1072015533618003 H
   0.8506510319457615    0.0265916081555424    0.8000236889989869 H
   0.8678299175875204    0.2553967639882705    0.6996404234987215 H
   0.9083827065472341    0.1362044633773830    0.7292440968804467 H
   0.7343829733828018    0.2853003880105455    0.6704493591968212 H
   0.0455441565684344    0.6957395639474923    0.7361727765946496 H
   0.5283259421877602    0.5026088634512351    0.6632643409512984 H
  -0.1427917088972234    0.5460386813640046    0.6827453839344613 H
  -0.1131778513838273    0.5943255182304087    0.7882554200611229 H
  -0.0278302660476896    0.4298072744776707    0.7470383774957539 H
   0.1419108677544651   -0.0328529484714826    0.8461235008079987 H
   0.1134045226076874    0.0187717828468322    0.7385826329479130 H
  -0.0166811699575193   -0.0541277753123645    0.8031621225147981 H
   0.8285609304160776    0.9727472592273166   -0.0116647310566214 H
   0.7436938201703267   -0.0268515389221218    0.7749374681839165 H
  -0.2355973737658691    0.7467982983075988    0.6591019241044930 H
   0.5936839663030360    0.1818589539400306    0.0380861913308412 C
   0.5314523486643881    0.1693524754704881    0.1244770741656150 C
   0.5522101169650167    0.2452810736713593    0.1957542646096584 C
   0.4761417154536129    0.2312572416542802    0.2721554840915278 C
   0.9834197803754161    0.2938987247799201    0.0243652259338058 C
   0.9079844998536185    0.2751237768695970    0.2345326641417766 C
   0.8904025682007871    0.3288339838386811    0.0588468707791755 C
   0.6697435187768038    0.9604362941000338    0.2647970603689356 C
   0.5390276088124654    0.3510070386432775    0.1634117442462382 C
   0.4556342089986247    0.3772724143835039    0.1132317632475291 C
   0.8905657223321990    0.3640575542391076    0.1578298699171780 C
   0.9622422358519345    0.4436499024623223    0.1789469558796468 C
   0.9439323325873370    0.5330334313571976    0.1160987794948841 C
   0.1996425423559376    0.6965967057740653    0.2256862432226729 C
   0.1697659790377258    0.9009541932442414    0.1492062030694083 C
   0.1463146466404567    0.8654416031204746    0.2428951946782284 C
   0.2148414558266635    0.7916643600661343    0.2773761541264556 C
   0.6808642702932967    0.7388013775801752    0.1795692964850970 C
   0.7348821144119518    0.8735214045038562    0.2808442636678413 C
   0.7640618160163365    0.8034263293954055    0.2048940355057805 C
   0.7760363613984808    0.8561525942181178    0.1096820914461780 C
   0.8680546001837444    0.9034271536711558    0.0970269186058332 C
   0.2297202830141532    0.1038661315386357    0.4016352290880194 C
   0.2528722690601453    0.1988424045946486    0.4427988106762684 C
   0.1311675829996287    0.2659481090352167    0.6078719146833723 C
   0.1046909858605858    0.2784460869246609    0.5068757533502811 C
   0.1783419409028317    0.2775747774645909    0.4250696427895049 C
   0.7187346947196279    0.2267193486451672    0.6225448967114323 C
   0.8710383850615998    0.1838693411332655    0.6750099917834577 C
   0.7601163896266421    0.0613419795971667    0.6027472002484038 C
   0.2364904881366830    0.3738310962070645    0.4287913492736402 C
   0.4876706288310618    0.6738038170039717    0.3892425633532775 C
   0.4876028092535554    0.5837954246337080    0.4513540748892099 C
   0.4943130068396167    0.5004353359582814    0.5970638871422437 C
   0.1911260349624479    0.7737366366389362    0.3804537157941493 C
   0.0941592484117326    0.7657588422167335    0.4047202016267105 C
   0.4544763677304522    0.6628125669369413    0.5947698629060743 C
   0.6134657134056672    0.6186293851129651    0.5604966473317589 C
  -0.1440188215381394    0.8140810981668803    0.5395506364960746 C
  -0.0935765416892406    0.7195574810010988    0.5771239707721326 C
   0.1242521983533848    0.1147482908277386    0.8455984865967928 C
   0.2174401693011442    0.2494803602398922    0.9119367052315033 C
   0.2961101878775029    0.1299813303637931    0.8098529694205308 C
   0.0982809642230798    0.0208515914442027    0.8108104692286959 C
   0.2467214965721286    0.0801920159650243    0.9642174284721782 C
   0.7338914369953701    0.1191260895783346    0.7593200088934000 C
   0.7771037765633113    0.0326433128038178    0.8060277679678680 C
   0.0033300990587932    0.5572721979638349    0.6976959518052608 C
  -0.0943501411513167    0.5941470060483455    0.7155190191005557 C
  -0.1157627382370019    0.6991759234522077    0.6845445514336980 C
  -0.0620138219027504    0.7722610776102160    0.7442549796997919 C
   0.5147474188610703    0.5890686178213191    0.5536608389303735 N
   0.2205435544532974    0.1421045743472397    0.8824283020525948 N
   0.7702575250235980    0.1479607656532554    0.6660936603558122 N
   0.2069602816821889   -0.5168795211739088    1.0898685450302943 Cl
   0.4242884980335336    1.0076888937211514    0.6063510184240176 Cl
   0.6417128094029558    1.4054487460598912    0.3944940762596207 Cl
   0.8489074949990629    0.3698407822326135    0.8310564154229629 Cl
   0.3319557036135563    0.7934983602223306    0.7199151563729762 Cl
  -0.4552747330771196    0.9120956202263408    0.8146863900699086 Cl
   1.0423944682323067    0.2472865021928702    0.0661237322418023 O
   0.9843848785425816    0.2305701114296720    0.2246704846573896 O
   0.6590382572305592    0.1248122692823854    0.0257394472046513 O
   0.4063408522471559    0.1795297949931116    0.2633940524181024 O
   0.6427760765813945    0.2352723489873511    0.2317060863258330 O
   0.7001572463327576    1.0419093956699852    0.2839833825807951 O
   0.8533299398238177    0.2598680691199472    0.2954391104216488 O
   1.0089257486987711    0.5649390128307767    0.0630106584202660 O
   0.1195919356421652    0.6616628634786539    0.2182126727801295 O
   0.4375821030882794    0.3427600591846304    0.0377393803767027 O
   0.4020877835334009    0.4383418568963083    0.1575844977401392 O
   0.8616203819589527    0.5658089055274972    0.1135162030616941 O
   0.7966497797726737    0.3970100529899531    0.1718119716255312 O
   0.2719094526054434    0.6573608615672671    0.1912073399658734 O
   0.2481304292832198    0.9027676503318670    0.1161899373148454 O
   0.0955681811228238    0.9205487387523704    0.0938665523814599 O
   0.3109343999108335    0.8224130834265099    0.2685228792359263 O
   0.5915767892159870    0.9407758690961435    0.2239946830748192 O
   0.6010300502029646    0.7682941402310350    0.1743712445558739 O
   0.8835279720873962    0.9622419589892359    0.0299841117085646 O
   0.7020425061478437    0.6502125820863183    0.1598209486163332 O
   0.9331123100842518    0.8821827872422927    0.1504611652374473 O
   0.8462603883500109    0.7471510723816760    0.2294970513353417 O
   0.1586652761221267    0.0920623676905481    0.3552077974448610 O
   0.0837837517836383    0.2159696567292619    0.6579216702249937 O
   0.1995741005804725    0.3186594978427571    0.6429923496656138 O
   0.1337130639820809    0.2740172846934755    0.3393196062830307 O
   0.4819280182040010    0.2787769011668176    0.3487232550790408 O
   0.0648316019593727    0.6115937383183179    0.6740483795924370 O
   0.2772043572346128    0.4052886971094661    0.4958745946023203 O
   0.2463447211415375    0.4079466159916848    0.3447239627521663 O
   0.4176945823326565    0.7301130763380942    0.4180175915896400 O
   0.0311257558704376    0.7165737773866151    0.3580549371750815 O
   0.0645467735604672    0.8074471037818751    0.4745703952199308 O
   0.2882483710028568    0.0317975050840425    0.4147578427795944 O
  -0.0907268750380542    0.8841280033214410    0.5091902983768991 O
   0.5763964034178114    0.2552862564469933   -0.0169039068143984 O
   0.9983711973247629    0.3114998842550105   -0.0612950235469923 O
   0.7627946061736328    0.0277916067127447    0.9032074872237785 O
   0.0189756123977059    0.4651128188055113    0.7087431829491450 O
   0.0047611543639741    0.0110539644993009    0.8168008402547257 O
   0.0228850895720045    0.7505853067413668    0.7778956422512329 O
  -0.2284835771038828    0.8268291347875479    0.5481621718144208 O
  -0.2065822089550270    0.7089161714814463    0.7097973237544120 O
  -0.0937189558886934    0.8472347773133844    0.7747387030125723 O
