Li1 Co1 H90 C51 N3 Cl6 O45
1.0
  14.3008010886000001    0.0000000000000000    0.0000000000000000
   0.0000000000000000   13.9565835795000002    0.0000000000000000
   0.0000000000000000    0.0000000000000000   14.4246122973999995
Li Co H C N Cl O
1 1 90 51 3 6 45
direct
   0.6199362527996614    0.7379961744240131    0.3361273113436769 Li
   0.7022777938577138    0.7026035586605430    0.5849319187747475 Co
   0.1760513291040028    0.1955725965564551    0.1478525803486876 H
   0.3353556915579404    0.1267527457291504    0.1436479612747363 H
   0.3487954980980939    0.2958937096730335    0.0836692261682167 H
   0.3570348966653483    0.0610174606736034    0.0437860051749081 H
   0.5174344984630793    0.0557425307754200    0.0724938824794954 H
   0.6425909277365963    0.2838714264943294    0.2299726384533697 H
   0.9316789287784123    1.0395377355107538    0.2345980660644831 H
   0.7423042228985528    1.0293898365501490    0.1679959293697474 H
   0.1955271611412741    0.3495665871170732    1.0227204617041301 H
   0.1823719540424236    0.5626853624288862    0.1793286429726957 H
  -0.0340858500219669    0.5507970661954362    1.0564614032258461 H
   0.6064314149375394    0.3421636292648549    0.0410878390684253 H
   0.5574942962639650    0.5455278683590820    0.1469804598548655 H
   0.3885422225283157    0.6884439329273319    0.1520308555603453 H
   0.3398869062499381    0.7185609022848900    0.3897460834849156 H
   0.7066943296593585    0.4121195747466774    0.0223150641461621 H
   0.7705823590319454    0.3989010102642505    0.2354840517489859 H
   0.7364535017059689    0.5086527264543008    0.2706572674680282 H
   0.7247129006753145    0.5926697778566475    0.0835749428715873 H
   0.1553426989954365    0.7473630799604097    0.1412250192032673 H
   0.2522079019597839    0.8927575447619953    0.2466656347735135 H
   0.2568489007114488    0.8247889051163045    0.3509214698000858 H
   0.6320362742549586    0.9120380512317342    0.0316144475357717 H
   0.3818146273814469    0.8117370003315574    0.1688472520775482 H
   0.6813859572291933    0.9242065019870790    0.1799546563319336 H
   0.9452439031318169    0.7898097143122548    0.2575761533202315 H
   0.9300706272673638    0.9250999871246821    0.1376297752597370 H
   0.1179531851711906    0.1670770841887896    0.4346907923362485 H
   0.2361018112189226    0.1512257837082800    0.4735832068035074 H
   0.2361871211251609    0.0353650509731467    0.3635970271204691 H
   0.0850151702249165    0.0029817676699279    0.6606323935942212 H
   0.5788389746570746    0.1497110863699536    0.5652762085099312 H
   0.6456935511298669    0.2039012823940650    0.4715335849911188 H
   0.6751800111811256    0.2020183000832220    0.5931976521991038 H
   0.7449474314688846    0.3506456477563919    0.6565269106336377 H
  -0.1587033444517467    0.0227151070241617    0.5982383422711069 H
  -0.0132541498847290    0.0581370996045057    0.6085845475571167 H
   0.8569173826680841    0.3138816362003216    0.5174131265937231 H
  -0.0786763590465509    0.2370935029229085    0.3840516496723128 H
   0.1125269157252181    0.3492420091160032    0.3282435639225765 H
   0.1716250036409866    0.3873924631269751    0.6642539814000451 H
   0.2820216164054646    0.3357193587535454    0.3537645271491829 H
   0.1344054103676907    0.4291165710852683    0.4246745785884418 H
   0.4913800978954762    0.2468795654805544    0.6653181347847961 H
   0.5147761438880825    0.3141560586603873    0.4229747062109762 H
   0.4740370834403132    0.3960091850714947    0.5141775387638573 H
   0.4393757384618743    0.2635111428775433    0.5152437649946151 H
   0.6453467174127017    0.3897547891082724    0.4640650307049549 H
   0.6105116059449168    0.4449154948508149    0.5693979137436113 H
   0.3125241034547900    0.8562371458336596    0.6186201725718765 H
   0.1359053263421250    0.8764462463197045    0.4119893156345819 H
   0.5927063096945563    0.8691586462117958    0.7273107888377012 H
   0.4439831726602651    0.7542164763847679    0.6218930508320784 H
   0.4295182487221998    0.9290214339234810    0.6461342569588473 H
   0.8739695742543580    0.9158240780698218    0.3751474242171059 H
   0.7570810174774562    0.9458006119125681    0.3741311057402036 H
  -0.1746653873181402   -0.1011497335475116    0.6062281584009155 H
   0.2530400231763699    0.2305732825923640   -0.1248826529379022 H
   0.2436503393979526    0.0493161729573261   -0.1087428777259221 H
   0.0669259737947797    0.1623889741203552    0.6921361865995909 H
   0.3690118480919740    0.2585342801944706   -0.0922814300901475 H
   0.5308590750871847    1.0518516373350106    0.7880077408214862 H
   0.3963264018417906    0.9671324800093782    0.7458963836857737 H
   0.5922063377030783    0.3008791704488499    0.7164529580155703 H
  -0.1428028365996890    0.1191068917569262    0.7308179888204086 H
  -0.2696775472371492   -0.0239331286483770    0.6479242530757381 H
   0.7797727532752979    0.4262505401707432    0.5758331646942889 H
   0.8056985736334005    0.2823646107410179   -0.0201207384514809 H
  -0.1101466240486116    0.0732826399723134    0.8359397050049965 H
  -0.2303790494454413    0.0611263698483553    0.8067236684619580 H
   0.1776896988606927    0.5792431395298262    0.8537738065181698 H
   0.1719424683740370    0.6536460185786258    0.9520627567352616 H
   0.4928892441220609    0.3680897449176487    0.6812631040677111 H
  -0.0679126263684769    0.3646483582970327    0.7887162520652748 H
  -0.0200747468146279    0.4183433041791143    0.9204736928072051 H
  -0.0370716967403048    0.5329924223451321    0.8648333758647064 H
   0.2540602457435959    0.8876144522858801    0.7291319816336237 H
  -0.0243849948642380   -0.0472167637979787    0.7998014720145707 H
   0.2489598321689924    0.7699495530900532    0.6921639169809526 H
   0.3372674725715086    0.8772938749626753    0.8609996506414664 H
   0.3252261890844408    0.7476238887736315    0.8600796952397957 H
   0.5386357723023256    0.8905320717568667    0.8293738439581056 H
   0.4375821326462919    0.7984730092591353    0.8797079524270639 H
   0.3753863161679386    0.6700547620720103    0.6897569198787664 H
   0.4887054924826024    0.7034433057184989    0.7289961027649521 H
  -0.0238360745659019   -0.1090112563460538    0.6982937177809323 H
  -0.0184923179800614    0.6660043438820579    0.9371431183031916 H
  -0.1779281416009891   -0.1806878234874114    0.7582793854827923 H
  -0.1703033939155660   -0.0957243370263156    0.8552837257833085 H
  -0.2688384334052977   -0.1062878104695264    0.7813267986919448 H
   0.2919203625752052    0.1951649036588640    0.0128215680870214 C
   0.1961306238386805    0.1434058183579984    0.0188057843848528 C
   0.3571810423243957    0.1350671014121877    0.0699738840732608 C
   0.4529366570984250    0.1800795499402612    0.0752884116612098 C
   0.7326586094014208    0.2801126269499298    0.1000662006673255 C
   0.2371276278783610    0.6422850720334484    0.2825438954386743 C
   0.5773038858278551    0.4071657836124665    0.2263940327386563 C
   0.6729913226030465    0.3662576346555386    0.0723885070303214 C
   0.6462613514894198    0.4407833231290255    0.1529029760541674 C
   0.8198145660697208    0.5066845513745236    0.1422863995498821 C
   0.7424587596959188    0.4671339911062652    0.2064850054401019 C
   0.2311013920426147    0.8245309623339973    0.2796516166626603 C
   0.1293658325458964    0.8257633556272431    0.2842832836095801 C
   0.2610130031020114    0.7328910568575154    0.2234220291162278 C
   0.3614465376363070    0.7397150764649996    0.2055733691528396 C
   0.4302154124641630    0.7329376298598763    0.2860358437116327 C
   0.8247380664781091    0.9592136365925454    0.3337979593093033 C
   0.7482633296277509    0.9490571395391972    0.1667667802158949 C
   0.7715480392001011    0.9172778722512146    0.0658240325024987 C
   0.8224885421472207    0.9081359501416082    0.2365447388360668 C
   0.8066313885098086    0.8015762042318373    0.2532204036678596 C
   0.2323831384207678    0.1601964604707435    0.3287531096800957 C
   0.1938608209235225    0.1875140341325393    0.4231944694832669 C
   0.1782414162051350    0.3024210950808644    0.5542112317390291 C
   0.2022470644113508    0.2939054007260817    0.4459414933363199 C
   0.0179014474303874    0.0351601297627582    0.6777046028794849 C
   0.6232374664664700    0.2084869318573051    0.5409436307765758 C
   0.0170679276907483    0.3272187110610640    0.4234454294345893 C
   0.8530120070423424    1.0673604471212346    0.3403437158297068 C
   0.7411951941174558    0.3668494700393880    0.5821394693716352 C
   0.1194614922839435    0.3553165616393392    0.4049575841808164 C
   0.5388903734241399    0.3048364426340804    0.6643441051394702 C
   0.4930486757501127    0.3210811058576085    0.4978243436043230 C
   0.6438279213770506    0.3819384062966339    0.5426730360101915 C
   0.2872548896701113    0.8316380024942909    0.6886144281666687 C
   0.4411861265540937    0.9090022079855234    0.7164169085198001 C
   0.4245311155148962    0.7291387058826734    0.6952967568152784 C
   0.3152127640243473    0.2026674560853620   -0.0855394811216107 C
   0.3577068869923559    0.1137574450549652   -0.1368316742666118 C
  -0.1616612207090229    0.0614624119730834    0.7783319175048928 C
   0.1278819995865725    0.6164986753877377    0.8999878735763296 C
   0.1479480083522459    0.4751856678909089    1.0079117447975063 C
   0.0707886944674023    0.5370437003443590    0.9529813256178643 C
   0.0580908044069108    0.4354251350327752    0.7987712883469877 C
   0.0139925754970129    0.4790401068869262    0.8878731632189845 C
   0.0742570316390548    0.6838790621882220    0.8407141834159285 C
   0.5402574996346838    0.9139052703725472    0.7582877045972007 C
   0.3706348340950800    0.8079051169988374    0.8420182045994572 C
  -0.1953670248114411   -0.0347151369488204    0.6392751471290578 C
  -0.0419084887194017   -0.0415835800354797    0.7276705905358679 C
  -0.1931014174654423   -0.1082804184628499    0.7840776525230146 C
   0.5709020067000500    0.3026661407240563    0.5628356576462976 N
   0.3792308560408711    0.8183002111258199    0.7390740166112884 N
  -0.1461774727267847   -0.0270678499611388    0.7303632105660784 N
   0.5039158292079624   -0.0713193672814060    1.0748612045187960 Cl
   0.8387288911011783    0.6780294930916764    0.5308979534985724 Cl
   0.2429615667943079    0.9471411978728372    0.4661223476981713 Cl
   0.5914014876860275    0.7652227516042727    0.5042039258144172 Cl
   0.8301867122929308    0.3103592842063702    0.8418032941439049 Cl
   0.6584152160822608    1.6516452725263457    0.7252601271360116 Cl
   0.1439489316819474    0.1641437015477732    0.0954172022320548 O
   0.2369996630190036    0.2216076213840009    0.2627277649176812 O
   0.2853829665635561    0.2883431512287172    0.0556067734898204 O
   0.2510107662263426    0.0718317118218351    0.3049008221519231 O
   0.5350233173300527    0.1292361615165864    0.0704439140373398 O
   0.4571732029831374    0.2680846117093967    0.0861393098880004 O
   0.5890673527104274    0.3192482790877697    0.2603942533261033 O
   0.7237276411844156    0.2364006399493221    0.1758249092876586 O
   0.7917874648243571    0.2435313248646604    0.0395557354981974 O
   0.9144435306721843    1.0991268172701019    0.2779371858349799 O
   0.1409595886559767    0.3777683313159999    0.9868810235728757 O
   0.0143645826291337    0.5857812725535866    1.0234823539320399 O
   0.1928888474016279    0.5690837764455635    0.2495170112370191 O
   0.2578040919567063    0.6356172511108057    0.3675430603882235 O
   0.5211157957326406    0.4652784367112743    0.2573175675140347 O
   0.6121164111483326    0.5239705869308444    0.1111410217236110 O
   0.9008540821653507    0.4819130879264191    0.1472168613559731 O
   0.7960068088755167    0.5786269428832034    0.0810195882291166 O
   0.2177112330708458    0.7267118942057994    0.1338605231731627 O
   0.0785777686115631    0.8103168820134101    0.2171348584020210 O
   0.0873192369548752    0.8438824030688706    0.3681850187167444 O
   0.5114334150644428    0.7140898940582309    0.2629087056560656 O
   0.8530329848881386    0.9105405500788948    0.0379411340434188 O
   0.9205977313672880    0.9236540745283043    0.2062839601752304 O
   0.8859591123884616    0.7538754187059393    0.2722524576558537 O
   0.7291825803529762    0.7656483571950797    0.2622092067862195 O
   0.1342473772626920    0.2345742617490410    0.5860834228607876 O
  -0.0174112596600262    0.2704727319689248    0.3591442211333316 O
   0.7910217734527928    0.2912514560992315    0.5281126446686607 O
   0.8195446511204754    1.1198790306144493    0.4015619989830896 O
  -0.0311342671184295    0.3470108040490455    0.4946610696764528 O
   0.2873520870223008    0.3394881894061458    0.4230461119429823 O
   0.2029742963989554    0.3800855173103934    0.6024956490696453 O
   0.4034644635047400    0.7512838102514799    0.3765686062618874 O
   0.1666644423716917    0.0833115986499653   -0.0374473739857371 O
   0.3026246580235230    0.0339227209154120   -0.1419569420017679 O
   0.0317824879937894    0.1158539466689402    0.7329185652085490 O
   0.4383086653723699    0.1152162547904584   -0.1643443721345145 O
   0.5750065320085513    1.0118533098918989    0.7523936120387945 O
   0.1376583749891679    0.4386456939714270    0.7665728492885101 O
   0.1997709793458626    0.5149463870410521    1.0616109350446936 O
  -0.0036770640171982    0.3785299790315350    0.7517807706107034 O
   0.1022177030393970    0.7324109966793324    0.7732364599297006 O
  -0.0085502175956753    0.7042909343614697    0.8816463060842392 O
   0.7008317210208233    0.8977473045841835    0.0102703730017550 O
