Li1 Co1 H90 C51 N3 Cl6 O45
1.0
  13.4402738055000004    0.0000000000000000    0.0000000000000000
   0.0000000000000000   13.0919238380999996    0.0000000000000000
   0.0000000000000000    0.0000000000000000   13.1350024423999994
Li Co H C N Cl O
1 1 90 51 3 6 45
direct
   0.8934429890696173    0.8186759681039730    0.5157719803181208 Li
   0.1505221122706688    0.3589116069271246    0.7160789853253664 Co
   0.0158500046786863    1.0537651756231232    0.1996375130266721 H
   0.1074738821249976    0.2834253749400446    0.2189112056742498 H
   0.3079556609186224    0.1867718948519996    0.1306333385718412 H
   0.0228803674054734    0.3313617980174247    0.1199138887188670 H
   0.5542851663967912    0.0455955465279144    1.1280362745400994 H
   0.6657445028417803    0.0489319545715422    1.1928912301242833 H
  -0.0233366969928580    0.2579776253105791    0.2277768302152927 H
   0.6708225243901264    0.0753062296032331    1.0584953662680563 H
   0.2968948743489942    0.5392333861548452    0.0506013778158504 H
   0.1745476644783820    0.4420001593394390    0.2276161907324108 H
   0.0871617959316134    0.5439883022977910    0.2710269173387025 H
   0.0800034596214834    0.4851912905278453    0.1476101150115763 H
   0.3595305030707471    0.4210208897228003    0.0878628859233869 H
   0.5990516651085795    0.5429273428718298    1.0148067561961156 H
   0.5661670671907056    0.5773216767809207    0.2921650938420994 H
  -0.1277385879294690    0.3681829715868212    0.2646394042515965 H
   0.8212123177269895   -0.4370837050584660    1.0169278064298080 H
  -0.0882572494032514    0.4723018938213877    0.1796557885351125 H
  -0.1109472633429380    0.4904046572449179    0.3236572844080280 H
   0.2693969226444120    0.8832417271515505    0.3068335342055406 H
   0.0647775793335195    0.7494844565123915    0.1768038667205357 H
   0.5700013640767492   -0.1905614948843200    1.0046864687745543 H
   0.3884078909585723    0.7452314528523822    0.1333634484562705 H
   0.4620041594806630   -0.0165229022239251    1.0291836092517666 H
   0.5180891032034266   -0.1151485905465504    1.1900370243360161 H
   0.6048781833129895   -0.2225384606211415    1.1846970938481780 H
   0.6372547558662904   -0.1130091036119805    1.2589460332204196 H
   0.7957053968888358   -0.0861436860958453    1.0327968556297649 H
   0.7770108372663094   -0.0664185484313202    1.1691508462631117 H
   0.7605267980862936   -0.1902933906665285    1.1128813477806316 H
  -0.0297978748867536    0.8530444845698694    0.2017547566375472 H
   1.0121042621269685    0.1318861493430887    0.6925890772455606 H
   0.2307377399879266    0.0484744205930319    0.3692492058885223 H
   0.2640011992350925    0.1829634400659354    0.3836344335143708 H
   0.2510386656943914    0.0472202122579502   -0.3842055455208508 H
   0.0019737992755136    0.3037409529474553    0.5055799761226850 H
   0.4926503357387275    0.0516427861069899    0.3517935562983950 H
   0.3859860652970535    0.2399879086797359    0.4908320077953487 H
   0.4307643197217304    0.1576386670150010    0.5825129652432687 H
   0.6704452999322492    0.0798976098116230    0.4334144014182464 H
   0.0100443193831926    0.1470619174316414    0.3807307416294813 H
   0.7075390382901675    0.1935653960287455    0.5186306779213120 H
   0.8863092058307100    0.1679725187600196    0.6070763409574987 H
   0.8740847524916147    0.0992393049766286    0.5014458314783937 H
  -0.0791547562717546    0.2785735288106664    0.4085449732295209 H
   0.1303826416083053    0.3721113476326953    0.3845898958414647 H
   0.0259881909963073    0.4477695940637830    0.4222367864430052 H
   0.6634804120620562    0.4948352513056009    0.3110710667255445 H
   0.5763506394884658    0.3180879658328633    0.3419884572460900 H
   0.3502725071548394    0.5346524704130756    0.4010109053499022 H
   0.4505187535853732    0.4978377130129938    0.5505054340803600 H
   0.5510053969041516    0.5824786728675859    0.5589447929983432 H
   0.6278181921596716    0.3613894704100754    0.4621817352392334 H
   0.9265129998768462    0.4625596281637752    0.6430786182371361 H
   0.0004128191717143    0.6252872781520891    0.4333370508426028 H
   0.1179625077318891    0.8305962940950116    0.6812803621804981 H
   0.2375478691061701    0.8717048436600315    0.7033854208794403 H
   0.2215943250710586    0.7405659811650017    0.6839457594770367 H
   0.0454766332550367    0.9730864294692433    0.3363219185205441 H
   0.2067925432860334    0.7779539163571938    0.3413999533585652 H
   0.4049194593396560   -0.1637021880056273    0.4764656305656905 H
   0.6502001766603817    0.7667622838811785    0.4723013374686877 H
   0.3172873160481984    0.1147389368496360   -0.1008245551995513 H
   0.1315827659683760    1.0638232848535472    0.8485898095625619 H
   0.3826431274484500    0.3485655339072209   -0.1959642405920776 H
   0.4801868247698178    0.3666110101047274   -0.1055219277558617 H
   0.6502046408551494   -0.0236509608006501    0.6836138219673850 H
   0.4753622950810353    0.0757171699712441    0.8914973006324319 H
   0.6930177567430511    0.1875517649556040    0.6922670369552334 H
   0.7680467341726136    0.1342196490164594    0.9403857574725411 H
   0.0915389389014185    0.4684435609571987   -0.0697861140734218 H
   0.1504945830696009    0.6462536390471305    0.8194942687222839 H
   0.1311876847314277    0.6952357449568656    0.9462578538302108 H
   0.3202545175038473    0.5143585240622116   -0.2037739079636549 H
   0.6863534579872217    0.4604129612302102    0.5789141840319755 H
   0.9980256798943232    0.5544893563598312    0.7252034602179726 H
   0.7617403150306677    0.4968632191068444    0.8663058321533792 H
   0.8367506916486979    0.3998987075729741    0.8102121996450495 H
   0.2225258537126013    0.9924938139867562    0.7754333709388302 H
   0.0383629388925845    0.7116863447818685    0.8562357921530036 H
   0.0507525674380875    0.9055669410478772    0.8249308874296766 H
   0.1101337981741313    0.8841682525537760    0.9485562926871802 H
   0.2648962702860317    0.8112339755286374    0.9568592983758546 H
   0.3028806155001215    0.7163029313697089    0.8782776609131817 H
   0.2220318161583007    1.0115024794111431    0.9938056181141347 H
   0.3338658473507986    0.8416672414815367    0.8443378118758530 H
   0.4472075859228671   -0.0931884872374157    0.9303636809196609 H
   0.6551152550997039   -0.1106565081966019    0.9438170472798816 H
   0.8676198544354128    0.7120904106827566    0.7372658866008222 H
   0.7841810780958202   -0.0437809281957436    0.7132598004670166 H
   0.0326896913752015    0.3115113922853275    0.2013291762065946 C
   0.3342460479385209    0.1107357054950908    0.2559542136320844 C
   0.6330933823102611    0.0364150776001756    1.1219350194888398 C
   0.0976824149343406    0.4711096320733797    0.2270627077748034 C
   0.3594233623963206    0.4877062761332595    0.0357608781010759 C
   0.4604152781595652    0.5437584659469835    0.0373208321315264 C
  -0.0864180011589274    0.4413204273069243    0.2597973800282360 C
   0.2641023876498288    0.7550986046627267    0.1996611140881382 C
   0.1347210948901230    0.9716557764780082    0.1620120917778201 C
   0.1219795389904269    0.8822869400511534    0.2487695937270761 C
   0.2203488147308489    0.8251906714474030    0.2789789524036397 C
   0.0344069182958730    0.8067510591348527    0.2275651819866616 C
   0.5983195371666643   -0.1099614231875127    1.0035048930521242 C
   0.5949646947986800   -0.1369414151556956    1.1882517182347929 C
   0.7534651859961321   -0.1078509617807948    1.1029947870000405 C
   0.0056686644783101    0.7600627337551117    0.3327817593006343 C
   0.2750664499994885    0.1871324224611096    0.5926835000860160 C
   0.2965116976314267    0.1040728191936792    0.3633969039695015 C
   0.3782258067257349    0.0792032886322142    0.4462283312776494 C
   0.3674276636149442    0.1678709294125373    0.5244114153313711 C
   0.0012714326320500    0.2903265761017153    0.4267935423524516 C
   0.9421629786677489    0.0159192357882099    0.6243964747753370 C
   0.8677448518889106    0.0932577547500605    0.5823370992691184 C
   0.7529830529612123    0.0639656503395558    0.5929278852708743 C
   0.0488128748114885    0.3811932825316731    0.3791806848183552 C
   0.6093862759959827    0.5448010170776492    0.3514243138851356 C
   0.4672905101181721    0.4102302678289517    0.3745594447183870 C
   0.5402772672479690    0.4861036086980168    0.4272488905738341 C
   0.4879972311290277    0.5550170862859628    0.5050382936958107 C
   0.4142778996378386    0.6372847509408397    0.4777094369579347 C
   0.6747458075585409    0.6346457193953419    0.4011890552977428 C
   0.9483488645509649    0.6189658237177795    0.5922997925060516 C
   0.1877668892182302    0.8091219864625590    0.7160157953866024 C
   0.3553706175796405   -0.0250197435877795    0.4899864883484584 C
   0.7309924295351440   -0.0289465919742930    0.5189610927818369 C
   0.3728442199331800    0.2573619785882430   -0.0622771699043959 C
   0.3961547569455876    0.3544516054237494   -0.1122954323966225 C
   0.7282901036357164    0.0904911636479496    0.7881688082357445 C
   0.7258087553772938    0.0162094910667307    0.6943172840045273 C
   0.2261299469551197    0.4069633682862328   -0.0761561166955692 C
   0.3350503470291821    0.4448759017028673   -0.0693978385460768 C
   0.8288632035264976    0.4818024837681477    0.8287968935627307 C
   0.8385244650364279    0.5614295892181662    0.7422122122893714 C
   0.9096867057646343    0.5008327655724877    0.9064146941281120 C
   0.7424014232966587    0.5457463326900104    0.6777630426974911 C
   0.9311297212991886    0.5432311179356921    0.6749354832689437 C
   0.1823547970947622    1.0000969746246389    0.8459685690907017 C
   0.1196849428797896    0.7072439113611406    0.8621086498352367 C
   0.1211380382767009    0.8983120867442194    0.8654676138090521 C
   0.2782851344270555    0.7929280334101426    0.8774645662794477 C
   0.5076259904696330   -0.0468415937247767    0.9653198982491573 C
   0.0229183130609995    0.4051752430046089    0.2707985199696761 N
   0.6486496130110405   -0.0809817251162580    1.1011630401004486 N
   0.1733825096439922    0.7993938516540322    0.8292194286954296 N
   0.7734491538740849    0.2209318858151691    0.0216360234759175 Cl
   0.9157617308111171    1.0661048441086562    0.3101620451968193 Cl
   1.6990195834667741    1.6358507494654138    1.0448014213457943 Cl
   0.6905542652636996    1.2372515775993682    0.3771098820058489 Cl
   0.1918203780673715    0.5079243054521968    0.6696625493426868 Cl
  -0.0002434174591489    1.2867958621538171    0.7040256948372777 Cl
   0.2807635065556329    0.1728961648793477    0.2022503789283346 O
   0.3611740707777503    0.2420701083882820    0.0292249067241026 O
   0.4110874884438008    0.0742498531553537    0.2184665921292117 O
   0.2234871436525959    0.6874454460473051    0.1464894452542199 O
   0.5368119360594823    0.4917610659912262    0.0097692575058672 O
   0.4671446797557580    0.6325765047913612    0.0677494522823554 O
   0.5059378328972244    0.3350434570765562    0.3200265275650712 O
   0.8940211022920445    0.5389732257657290    0.9963111372523548 O
   0.0715787800622274    1.0499674144525835    0.1468350866060133 O
   0.2080499581456239    0.9637295158853512    0.1081986263369376 O
   0.1103384071009877    0.9424904677944363    0.3400288078198432 O
   0.3650095581157318    0.7720518044173789    0.2001864280368990 O
   1.0128148131275063    0.0499990246349461    0.6876214344692355 O
   0.2471615125385773    0.2731778359489019    0.6137584866506489 O
   0.2291678314945918    0.1135993029666019    0.6405152384320961 O
   0.0588178793185375    0.2015222098086153    0.4145919458394086 O
   0.4762965766426848    0.0872112790006653    0.4154742448759577 O
   0.6887001363701497    0.1524430975294798    0.5828433801037937 O
   0.0398785330162447    0.6722887737007602    0.3524886456247988 O
   0.3753724422366643    0.4151539139482798    0.3772301712868694 O
   0.3478744905320821    0.6110617141858516    0.4009682711743506 O
   0.6031460757430922    0.4218252023761748    0.4975304153811735 O
   0.9722985254476258    0.5787795984917432    0.5002302245479786 O
   0.7628221382293923    0.6245074080484846    0.4204013090530525 O
   0.3114035073442686   -0.0420928646022414    0.5714326475472328 O
   0.4152875516878174    0.7233439133628777    0.5190226078065613 O
   0.4046590479782023   -0.0973521228248276    0.4388900760757426 O
   0.6835640802898225    0.0025002759643880    0.4372808643460386 O
   0.6159300414930822    0.7126579361352328    0.4360203392663817 O
  -0.0553977997825693    0.8109620521624443    0.3887391147121117 O
   0.9516426962571228    0.7113999086517494    0.6120424610846968 O
   0.7536028320014719   -0.1161469159387257    0.5361080252614967 O
   0.9343112041036910   -0.0743822366783128    0.6098627888596212 O
   0.2539954506955822    1.0151421278378572    0.9246788704045930 O
   0.3565060111155784    0.1809033914181185   -0.1264781476886009 O
   0.5356696974249004    0.0344176629861447    0.9001048361464750 O
   0.7093782865344915    0.1848218376781484    0.7716549171305696 O
   0.7536958360591339    0.0589732595489991    0.8750740071503043 O
   0.2032792220037931    0.3389389884461766   -0.1450719775010432 O
   0.1628142725637421    0.4607713501162153   -0.0267187448452332 O
   0.9976105097809200    0.4764240534571583    0.8867900308567971 O
   0.3528245384970852    0.5263414688104425   -0.1386989295806421 O
   0.6800715919164986    0.6143981222294795    0.6689507108758876 O
   0.7483454986299536    0.4588533737889375    0.6244611873632278 O
   0.8394961714308805    0.6600461115846277    0.7869544955570873 O
