Li1 Co1 H90 C51 N3 Cl6 O45
1.0
  13.6294919803999992    0.0000000000000000    0.0000000000000000
   0.0000000000000000   12.8425435851999996    0.0000000000000000
   0.0000000000000000    0.0000000000000000   14.6533110265000008
Li Co H C N Cl O
1 1 90 51 3 6 45
direct
  -0.0182479662600528    0.3268048315161423    0.4735598323580700 Li
   0.2266430395675939    0.2581829113993513    0.5228089746641944 Co
   0.2402026058570614    0.9801255653985755    1.0692593288209487 H
   1.0429031038457561    0.1546675920873712    0.1028026710465457 H
   0.9859567406859149    0.3266561070841535    0.1687010880154950 H
   0.3553125455566595    0.1618219380617843    0.2503966172945138 H
   0.3894602599886644    0.1489272962097729    0.1342262857618325 H
   0.5841149106400042    0.1629073928167181    0.1384826616680837 H
   0.4511345396469830    0.2425637313927393    0.2102766745091036 H
   0.5334057572105221    0.0526815648404485    0.0929113912028379 H
   0.5555430459982400    0.1961072022759095    0.3214495007088560 H
   0.5963948987892829    0.0618222774431515    0.3311121632800619 H
   0.6344462069925383    0.0427178065591479    0.1786797201304870 H
   0.8517529124999198    0.3275554616336144    0.1526378242538562 H
   1.0156489699034066    0.5860284018247928    0.1602538504064557 H
   0.3756421367401357    0.4828112321725430    0.0907432805319769 H
   0.3579898280300249    0.3663002006877549    0.0319381409671602 H
   0.6058545323680992    0.3465529443660198    0.0643233131061937 H
   0.5821727986347978    0.5285070864327768    0.2936264374255688 H
   0.9041605885180128    0.6097869351695131    0.0182163275397122 H
   0.8179952346156927    0.5768830172504043    0.1293372883283895 H
   0.7762035082021831    0.3705829971318632    0.3014690335318120 H
   0.8002476912481298    0.6808102487326568    0.2184475240722824 H
   0.7527404179813681    0.6967720399962065    0.1133108763061988 H
   0.9649720994086539    0.4520962887204856   -0.0305583144990374 H
   0.9795096918798141    0.6711330380480678    0.2456632160942960 H
   1.0590342993676560    0.7199154304023345    0.1692361206771113 H
   0.5280592629974735   -0.1643284053037640    0.1866137631457310 H
   0.5872801056496229   -0.0918925989677006    0.2673020115465028 H
   0.5190372099248548   -0.2442619475331255    0.3177131437925941 H
   0.4121993320278633   -0.0313212647269934    0.1641662767445251 H
   0.3888991238868200   -0.0353936667128641    0.2941109695553489 H
   0.4555988219612100    0.8973545790322135    1.0061534547746194 H
   0.9997246786450005    0.7067716167270960    0.0097383801477996 H
   0.9722276889891173    0.8586862267151311    0.1017087203366337 H
   0.8431025533985279    0.8595513201388983    0.1025849728079543 H
   0.8515364700966195    1.0025050884341224    0.2305512731621127 H
   0.8964574400697081    0.7878895037787347    0.2816127703655004 H
   0.9862737004087140    0.8768197061504959    0.2567385286776776 H
   0.4808136282426335    0.1162491902554637    0.3707932973901923 H
   0.6209908265378797    1.0592033581475409    0.5196673365786623 H
   0.6811662168737366    0.2867847220580519    0.3198996803331791 H
   0.7477593078932130    0.1966390283861102    0.5348212768450240 H
   0.3557828492194238    0.6077507341765778    0.6068607632171451 H
   0.5644201193458006    0.4288983919780265    0.7059523608345077 H
   0.4800976074243936    0.3278856142993906    0.4984536600629699 H
   0.4996466119201708    0.7136947001030762    0.5356548085961697 H
   0.7870718516601065    0.5395235956672125    0.3583346796982695 H
   0.7491225281824738    0.5255232538496302    0.4799455563647999 H
   0.1896299211971177    0.6351627493793682    0.5802137481299847 H
   0.3380573169437220    0.7159037640483755    0.6808474545553247 H
   0.1460266819234439    0.7483373701511431    0.5161590919295839 H
   0.1801600157754329    0.7547340780505556    0.6280812231826545 H
   0.3247736230055796    0.6117803097553314    0.4532002017284827 H
   0.2340013475767421    0.8947312669307989    0.5043584006259405 H
   0.2499982754382897    0.7176744413171843    0.4057826591168889 H
   0.3769818785314115    0.7308657533712257    0.4106818931446230 H
   0.3281427874664440    0.8933911897190047    0.6030199930391138 H
   0.3681428110024643    0.8840783928258854    0.4925970997371294 H
   0.6040019321364609    0.9371932602565164    0.5846466711657770 H
   0.7172702771503513    0.6768344008282867    0.5245739000079088 H
   0.7732885059367183    0.9469094040384850    0.3726324721644984 H
   0.8021531181002345    0.8045419681897923    0.6300923727410516 H
   1.1198098588082575    0.3283099850608245   -0.1181548991670821 H
   0.1806640697790509    0.9983532629295981    0.9057270052616935 H
   0.4869919949874172    1.0978802757460469    0.8503818345672783 H
   0.3523256403911153    0.1982461866459261   -0.1857334824790153 H
   0.6464459205721196    1.2510781206237023    0.6474481771418502 H
   0.7207597689133896    0.2314600120201739   -0.1282584177324259 H
   0.8743729779024566    0.1917521460030653   -0.0386759337719023 H
   0.8691042562139839    0.3111981101006916   -0.0983559609288008 H
   0.8020371930164329    1.1532291243042998    0.6711445280465738 H
   0.1146586749122645    0.5611018755586944   -0.1189745091499918 H
   0.3226987107461448    0.4901326011347131   -0.2075579015077012 H
   0.4603283452693934    0.6086936937951035   -0.0503067522054825 H
   0.4364584900709862    0.4409896882987142   -0.1576626936138828 H
   0.6605711719224161    0.6336817343550610    0.7905816980373640 H
   0.4999110385037283    0.6609925235046653    0.6507088736433843 H
   0.8942438579315486    0.4222010738471292    0.7740557402137661 H
   0.8609286029937286    0.5038523131863858    0.6798333492808837 H
   0.7023188761522037    0.5068236871783710    0.9069724575671142 H
   1.0165206091411039    0.7031819851487280    0.7159391822249326 H
   0.2386258779767483    0.8826277456175341    0.8457931105663752 H
   0.1198628307312783    0.7890917578258062    0.8794346540447399 H
   0.3637824137047908    0.8022931924851662    0.9979955715642093 H
   0.5676506139279404    0.8034113510418985    0.9173414451444079 H
   0.4463440360762047    0.8387618248003204    0.6953656750186226 H
   0.7582285168853894    0.9268526295925846    0.8811673682384181 H
   0.8141763101778009    0.9421868193263805    0.6947576213177296 H
   0.6937624310427523    0.9242020643230046    0.7341077722124468 H
   0.7838817107463786    0.6661488229215746    0.8314216146212501 H
   0.8626594085170690    0.7361232788413212   -0.0134072419840614 H
   1.0419676324416616    0.2828633804900128   -0.0020623657510134 C
   0.4156255785869540    0.1657144691377629    0.2040930891176426 C
   0.5684364099073798    0.0820931839246377    0.1546987919044700 C
   0.5347645752814107    0.1154884375326730    0.3189306160736190 C
   0.9366643678692221    0.3190711610527258    0.0331986069442078 C
   0.9207217340342652    0.2862466666522706    0.1350206454788241 C
   0.9166893020053213    0.1687356774943935    0.1644529013846767 C
   0.5013948062060815    0.4380701731924382    0.0140193238803495 C
   0.3954303284341364    0.4456069200493104    0.0257709341265650 C
   0.8118424007374677    0.6577182500150694    0.1505304507091225 C
   0.9979505846409998    0.6673417330252752    0.1735921327677962 C
   0.5142888304479771   -0.1137418532169421    0.2479985244719121 C
   0.4455823591175235   -0.0258106741239327    0.2340446815738651 C
   0.9224679473219084    0.6907272872971024    0.0229162891985790 C
   0.9043352098467772    0.8264753179293730    0.1384546816436880 C
   0.9097044488547487    0.8538865544702157    0.2371020110688155 C
   0.6510895272517387    0.9997976808423686    0.5608730680961362 C
   0.7711915825854224    0.3019250249668991    0.4404280712754036 C
   0.5825286446198847    0.4189722391754846    0.4588793959972388 C
   0.4726819972061004    0.7228751244651060    0.6085272807677408 C
   0.6607678043430414    0.4413577618013377    0.3779009060263326 C
   0.7225404662449483    0.3440318705783231    0.3548794879052040 C
   0.6678326311273758    0.6395894425513902    0.4035544937595200 C
   0.7195029355681237    0.5353281650936235    0.4062303395072209 C
   0.3639232846927014    0.6952458625789394    0.6128437113605000 C
   0.1972215467799931    0.7149911722458057    0.5675644568083992 C
   0.3116909637064347    0.6948830061113648    0.4457538983092300 C
   0.3066672988406816    0.8633558624147997    0.5351171826639995 C
   0.7351564903966389    0.9437028741383290    0.5009675628889851 C
   0.6042066352907688    1.1155372140694892    0.6933879650015766 C
   0.3634779269340462    1.0414638816576542    0.8968150262718371 C
   0.3224954749979611    0.3390010136011697   -0.1548660560535465 C
   0.7478444174484089    0.9822886882889673    0.7203299987362074 C
   0.8603819942125126    0.2754403961436828   -0.0321436217349235 C
   0.7571580441178803    0.2941438561246799   -0.0082998638724076 C
   0.7626894315025616    1.0486369155188093    0.8047191171930318 C
   0.6972101017312544    1.0537511671905491    0.6469752464856000 C
   0.2252013130506952    0.5179390864801501   -0.0414036449306784 C
   0.3411330001797724    0.5045227411232567   -0.0525321878043738 C
   0.3603787652000107    0.4533579546741580   -0.1470623590056095 C
   0.7402645311145262    0.6288026385914920    0.7792538827948011 C
   0.9526231431715440    0.5780891646072137    0.7747252134804059 C
   0.6983003844814383    0.4481167032387670    0.7328732389409368 C
   0.7683242710189899    0.5164401622310485    0.7887193203159980 C
   0.8764229442577823    0.4975949857755909    0.7534133066058958 C
   0.1670245298558216    0.8538600799639978    0.9813501868072150 C
   0.2233413757884366    0.9201257690273958    0.9141278369766130 C
   0.3208534475451270    0.9582731965015437    0.9522427721602008 C
   0.4320322062383419    0.8364305109292501    0.8726218593241840 C
   0.3960636609172850    0.8731833548552729    0.9671179085444493 C
   0.7665531118272376    0.6758221402964260    0.6899116175803094 C
   0.4917406679455197    0.0852000450955028    0.2307798904346146 N
   0.9062685174152392    0.7074436019878620    0.1227340025709922 N
   0.2966302409520438    0.7420333230234930    0.5394290409113086 N
   0.1540394530639273    0.3352089299164296    0.4039571331349710 Cl
   0.2681985135951282    0.1150827546579810    0.4534365305686838 Cl
   0.0884808833619203    0.2529721056461111    0.6093898844466733 Cl
   0.3591740247721493    0.3520480395963235    0.5604707699404949 Cl
   1.0965272595407030    0.8159524803697062    0.7461077904801271 Cl
   0.6953692407486087   -0.1898545012695029    0.9691133619915999 Cl
   0.3023237767134349    1.0132498446488512    1.0440404551253246 O
   1.1031570004092506    0.2271641340553462    0.0359235883445062 O
   0.7265875723351329    0.3252023452280119    0.0666415604933246 O
   0.9877528457817765    0.1112579671714424    0.1349592259130773 O
   0.8500345799286341    0.1327988712894402    0.2117323182173021 O
   0.1783022796223604    0.5072301487150105    0.0295523320577079 O
   0.6038207074801384    0.4584465105016274    0.2939396772108773 O
   0.5332993702665270    0.3507072615887765    0.0541870374391183 O
   0.6184015884319585    0.6589127174426652    0.3326108006842831 O
   0.9391978445424288    0.4308206747280302    0.0318221262318607 O
   0.1615048817201327    0.8727597627557865    1.0656342095626505 O
   0.4733925152513750   -0.1813304889292874    0.3125655017433953 O
   0.8380297304276185    0.9322931406203626    0.2626784831250097 O
   0.7120785942833922    0.2358290842080746    0.4807079779076031 O
   0.7717286532268320    1.1233978064303622    0.6154390292331108 O
   0.8530163491727439    0.3269457693286552    0.4734684536930312 O
   0.5301862681743128    0.3313856997537861    0.4472843373997156 O
   0.5716625022711473    0.4902087542731869    0.5130621993625776 O
   0.7411743229114495    0.6295415887797504    0.6176596877546663 O
   0.7185050994037562    0.9693909317891656    0.4154808085483040 O
   0.6796371796924557    0.7115160039737328    0.4675927850578473 O
   0.7993408342634546    0.8798074320433804    0.5294229747236164 O
   1.0532549203480068    0.3146218866842238   -0.0881698671695085 O
   0.3111230775364197    1.0863895613855317    0.8388472401200346 O
   0.2349771726492486    0.3256617557770872   -0.1460489361707878 O
   0.5869081181971711    1.2117790521290759    0.6662043476416752 O
   0.5497035033275040    1.0739683459976519    0.7489590232100161 O
   0.4607764177293782    1.0630491695066644    0.9037847821048568 O
   0.3868967748602205    0.2696152261137977   -0.1753331026792287 O
   0.7728086641341475    1.0011284141107919    0.8848859817245754 O
   0.7600121490291962    1.1460124853740798    0.7994929945876009 O
   0.6945555640528120    0.2760352938716379   -0.0769723978942528 O
   0.1892542652293558    0.5607849601460273   -0.1180620873788425 O
   0.5568607766976547    0.5027045654756451   -0.0231012967777600 O
   0.3861004135566878    0.6079251544528369   -0.0550913363771560 O
   0.6074598746678317    0.4700772282803184    0.7504781338028196 O
   0.9919892472619661    0.5821934917329354    0.8482485283170070 O
   0.9813050632726135    0.6332674861989457    0.7002362465823415 O
   0.7238295825249437    0.3864018260618362    0.6733099089589573 O
   0.7677901351898285    0.4802853306807712    0.8802740547766124 O
   0.1283620470018909    0.7673904493466058    0.9466815717016404 O
   0.3885605199236910    0.8534925515247377    0.8024745732847971 O
   0.5133047879011760    0.7815831206652419    0.8724109854817867 O
   0.4881420011668507    0.8239399946280355    0.6405760101744059 O
   0.8076602932838686    0.7660379135436504    0.6917965158091158 O
