Li1 Co1 H110 Cl3 O55
1.0
  12.7486639895000007    0.0000000000000000    0.0000000000000000
   0.0000000000000000   11.7970053320999995    0.0000000000000000
   0.0000000000000000    0.0000000000000000   13.0089132727999992
Li Co H Cl O
1 1 110 3 55
direct
   0.3789700629633965    0.7543681990110476    0.2398947606888223 Li
   0.5073756748258049    0.2552830639065165    0.6716126053870975 Co
   0.1501437324237669    0.1850601576113193    0.1956666235697130 H
   0.1593784255725520    0.2726450972560038    0.0998746097505769 H
   1.0119069735797432    0.3175887066784147    0.1961801176533400 H
   0.0501079952633573    0.1451135790743312    1.0404758531752951 H
   0.1019674685810732    0.4652982270986966    0.2715991768342017 H
   1.2642785164057131    0.0436021389852534    0.2921743005503112 H
   0.3015243007397485    0.2914964916344458    0.0661508089379996 H
   1.1340217301755877    0.0342641081122615    0.2914609435000031 H
   0.2866788235857599    0.4665544781202736    0.0169313248371432 H
   0.6134754199531411    0.2831545440613424    0.0917696283590524 H
   0.3916757080516511    1.1621021844244253    0.1982248695432321 H
   0.5631972103675782    0.4043047817501461    0.2305281058849370 H
   0.5446752695434667    0.3777268502180777    0.0343717139951198 H
   0.4367549414892358    1.2689598118063397    0.1459276494962291 H
   0.3706319343494844    0.3203427954564873    0.3133789926114666 H
   0.4929616154270045    0.4214548969111083    0.3221352966632564 H
   0.6692577356989883    0.1280762043896644    0.0906979785057823 H
   0.9584974554874317    0.4459534871773681    0.1669147984051891 H
   0.7589753720679470    0.2004360936979491    0.0336969297286774 H
   0.7957266740385605    1.1452334966178244    0.2389615543751648 H
   0.7571132161573706    1.0639077725894182    0.3277206978782773 H
   0.9563168348339346    1.0177858980388077    0.3058480022861761 H
   0.0608342956908081    0.7853455521368977    0.0210203673946965 H
   0.2373662053759002    0.6032840933566913    0.2281743351004070 H
   0.2071285271127115    0.6830645099543722    0.1343694203923128 H
   1.0089733328444628    0.6024025136924267    1.0523907608043657 H
   0.3326679562888326    0.5719651281109385    0.0664197014985576 H
   0.5779077714235807    0.9894481978692266    0.3040346302154033 H
   0.6219798405017802   -0.0739335373127902    0.0684990450557599 H
   0.5107266141897401   -0.0255436295413082    0.1065966162830394 H
   0.5741371802432350    0.7267586497372387    0.2203889038444571 H
   0.5312369986673104    0.5971994983277575    0.2481221965826249 H
   0.6668292459352374    0.8835645464817736    0.2759392780260553 H
   0.9870729987992676    0.9301958723575986    0.2149065089276486 H
   0.7911607053968311    0.7162127530034739    0.0300158612953806 H
  -0.0334246792880383    0.9389692853625392    0.0373544604541289 H
   0.7322572782911764    0.8053184175690147    0.1983609301013189 H
  -0.0777672080789450    0.8143325696361200    0.0823852933696530 H
   0.8737513204500793    0.6498213275568111    0.0950837406984854 H
   0.8047731121669000    0.6405087946802626    0.2458199289472013 H
   0.2148171759060856    0.1085699828086797    0.4474962676991551 H
   0.1744545151265868    0.1753119209391631    0.5330383861424186 H
   0.2926535672971586    0.4123313950587242    0.3576071297305760 H
   1.0410472819529166    0.2983448398148241    0.6342451489511788 H
   0.3800752768125971    0.3212481099578667    0.5177757738214385 H
  -0.4246059045605376    1.0921183218458843    0.5759989308305384 H
   0.4048770913604131    0.4377785311368225    0.5864632945437342 H
   0.6038634323675458    1.0135814411784689    0.4199482325570263 H
   0.9072999338853585    0.3820126836628100    0.3607887944193968 H
  -0.3237545525240467    1.1317470231000848    0.6466958430716981 H
   0.6669680840128162    0.4766333071665291    0.3963567154514669 H
   0.9962818068827415    0.2796739997330056    0.5134487405927908 H
   0.8681821094285576    0.2551966012855983    0.3964420415641654 H
   0.9764679659808208    1.1199813252731692    0.6135224341212122 H
   0.7777334160635343    0.4361043774474739    0.4423697826037828 H
   0.2423330003319953    0.5634646657328182    0.6536387750527152 H
   0.2829717684748146   -0.0128216720804918    0.5518770081595560 H
   0.1444184266144589    0.5406453151924316    0.3709295338673127 H
   0.2619758429236778    0.7045055445965912    0.4031966411342713 H
   0.0674845611672398    0.6722660067398852    0.4384086523449054 H
   0.1329889936856430    0.5920448003100721    0.5400189846056178 H
   0.3164733181549823   -0.1224483920482266    0.5035816596684846 H
   0.4678295701974897   -0.0563248311918596    0.5294031862599751 H
   0.5894101531728193   -0.0986457411130833    0.5553623108169885 H
   0.3758301261015441    0.7043919564475418    0.4561587898973483 H
   0.6646447033021476    0.7595796911032576    0.6040358615373181 H
   0.5783313452195837    0.5761382210793755    0.6292862412663314 H
  -0.0401609145571402    0.7355439301607367    0.6585546353293543 H
   0.6698311291154294    0.5511259411241307    0.5501935470171260 H
  -0.0104956884352905    0.8537366376104837    0.3630910620548203 H
   0.9145634400908923    0.9216767611788881    0.6139383028326527 H
   0.7771129588919816    0.8349386466155500    0.5859167462002330 H
   0.8062940558529182    0.6033925954692161    0.3609286984960735 H
  -0.0888193465709507    0.7441291598142670    0.3750251872768409 H
   0.9253959477257113    0.8215666089196139    0.5186059738368833 H
   1.0059377206397742    1.0334339370795038    0.6959182482466831 H
   0.0587124262916083    0.0705294812265621    0.9381460142345306 H
   0.0356165473632354    0.3700248955743202    0.7868159254932843 H
   0.2361449009307580    0.2823280631260943   -0.0352090796513869 H
   0.1181101012655252    0.4251151478633144    0.7105497548151816 H
   0.2181712528536950    0.1386093860321178   -0.1734403032970922 H
   0.1725037224772172    0.2531342134748716   -0.2092196178516136 H
   0.4607794196817944    0.4935867622485399    0.9584244183154903 H
   0.3537784036440739    0.2183948886663231    0.7997509029561466 H
   0.6163086580108506    0.4484007184184564    0.7002183768452005 H
   0.5561235279743271    0.4122508661470846    0.8060673414069901 H
   0.4427987120414646    0.1468275733831225    0.8370230401310330 H
   0.8930631479641445    0.1579609073354790    0.9416205550399110 H
   0.8042099158973994    0.1984483010895833    0.8604915646417116 H
  -0.1076542613665534    0.3543514263510011    0.9053838617731770 H
   0.7553687196345727    0.0489623976458082    0.7780457847745704 H
   0.8470818592202571    0.0898364997103331    0.7026390248531967 H
  -0.1247446796393582    0.4651405599664339    0.8403976494530728 H
   0.1414392909159040    0.6283090884032475    0.6951741430476547 H
   0.2704175117988351    0.6057296292522713    0.8922313411581192 H
   0.2808672342254142    0.7132280972362858    0.8186663953450846 H
   0.2595638254742160   -0.0752389533541050    0.7724111865215972 H
   0.1474650203620068    0.7126694808913336   -0.0524140525270210 H
   0.0100219124847302    0.7118082453731673    0.7657657428794479 H
   0.3273442611898090   -0.1123644769654465    0.6859435488018563 H
   0.5084220589811161    0.9685445877531071    0.9264924658695817 H
   0.4348292495092589    0.9580080154196373    0.8243009935980578 H
   0.6131546020224647   -0.0574954672652725   -0.1900750517547105 H
   0.5829184925511132    0.5396196311599699    0.9502530977931020 H
   0.9398053007490006    0.5123983160075392    0.9868433947701183 H
   0.7018737023871422   -0.1187542341858564   -0.2603084356539135 H
   0.6988114207212238    0.7779140051016982    0.8999645005612449 H
   0.7463599325103226    0.6562441440146309    0.8770186945788093 H
  -0.2484650946804217    0.5710665949915920    0.7299664420282583 H
  -0.1352469565924785    0.6087888802218202    0.7678281749548541 H
   0.4179835627630337    0.9535662101881505    0.2283365315849060 Cl
   0.3845180952951180   -0.4064577576185971    0.6153865406373732 Cl
   1.1246089791532976    1.0002136418463035    0.7885116858952023 Cl
   0.1153848745257967    0.2156238464331685    0.1355939654150940 O
   1.1968518432493747    0.0773612150209600    0.3180327249202661 O
   0.2485179621495585    0.3341412125477359    0.0252347855286564 O
   0.5520454535939199    0.3333350757585863    0.0979338634737308 O
   0.3739585574399455    1.2384012090210150    0.1832851127838138 O
   0.5642192782494152    0.4414353913980122    0.2982239988110070 O
   0.9809233347980381    0.3987423531377384    0.2215557960883879 O
   0.7149378164101624    0.1948219570475412    0.0988647636762343 O
   0.8214203467457386    1.1024514527183700    0.2988643290081048 O
   0.1096566664515901    0.7180301633882654    0.0150145621162988 O
   0.2652459895080052    0.6654091818319660    0.1810143620008284 O
   0.1681158117089929    0.5015396280275113    0.3036195302076809 O
   1.0085497590484598    0.9627041224773544    0.2796252123538871 O
   0.5135371047658124    0.6749090503871708    0.2269682389668579 O
   0.5644271431678241   -0.0229750963291082    0.0499971921374804 O
   0.6650721990777433    0.8340740204063675    0.2170681037826775 O
  -0.0190950208900711    0.8720675609179078    0.0801140813644367 O
   0.9435547132395461    0.5583184444426738    1.0549351701109606 O
   0.8254403758281750    0.7236849883308700    0.0995644378003621 O
   0.8503371022821324    0.6310140121615823    0.3048194767114860 O
   0.2410560037766379    0.1391264664121191    0.5108789640635016 O
   1.0259633484396966    0.2426001841596642    0.5766146625086601 O
   0.3615549047803226    0.3738445090042972    0.3703376320044492 O
  -0.3856982982099012    1.1613816625834397    0.5999586570170221 O
   0.4245638601235330    0.3511099257393206    0.5748128209936575 O
   0.9516104593227894    1.0511248674575819    0.6436571572744263 O
   0.9002717464553818    0.3302554806429390    0.4216778159225365 O
   0.7253318467265263    0.4991669919887838    0.4424512651978913 O
   0.1612923516137510    0.5569706447636540    0.6615994707563703 O
   0.1125940722872795    0.6084345530106061    0.4623499296421569 O
   0.3306544119659810    0.7414301697652109    0.4026869905692343 O
   0.3328703304358119   -0.0763248221521078    0.5634636793010384 O
   0.6345301751981672    0.9975095657607228    0.3533708035406529 O
   0.5411603914325599   -0.0346254258941906    0.5300773394206652 O
   0.6518865036873517    0.5630425247012761    0.6286751218105178 O
   0.6992138158274267    0.8390159525627735    0.6001100916494689 O
  -0.0301412764126879    0.7875105083508704    0.4091517888376525 O
   0.9074097493139519    0.8362567777481764    0.5950912250746173 O
   0.0117646048969153    0.0895005669978831    0.9921243893128094 O
   0.0967379794318643    0.3502241077112855    0.7426239174489211 O
   0.2348984958162231    0.2199249379874746   -0.1689272437686875 O
   0.4312390693901738    0.2098164403948257    0.7918985944767303 O
   0.5329556101247970    0.4748387839460982    0.9410517142885876 O
   0.4885964521404175    1.0012478026063061    0.8611987720622759 O
   0.5761679812762940    0.3840301448175693    0.7347716089695047 O
  -0.0705507656285226    0.4267435272239416    0.8842368224908720 O
   0.7774298548430654    0.1184867368243512    0.7343987876662725 O
   0.8436618930154918    0.2187915995152422    0.9235944528527045 O
   0.2279777706270843    0.6619065980120225    0.8470930588368925 O
   0.3301053348230141   -0.1154042314616511    0.7640815130332999 O
   0.3245831875566038    0.5385600402173443   -0.0009604079401562 O
   0.6908803935890259   -0.0795561506907391   -0.1932275057022471 O
   0.7012352041094635    0.7012445475115664    0.9261772973451998 O
  -0.0300415012518516    0.6701747980555193    0.7165210452966408 O
  -0.1987720444500778    0.5656940450761027    0.7875638742109028 O
