Li1 Co1 H110 Cl3 O55
1.0
  12.7045331793000003    0.0000000000000000    0.0000000000000000
   0.0000000000000000   11.7561687861999999    0.0000000000000000
   0.0000000000000000    0.0000000000000000   12.9638815829999992
Li Co H Cl O
1 1 110 3 55
direct
   0.4162849996186480    0.7364446317973026    0.5953852819530187 Li
   0.5563476036424853    0.3683204513176794    0.7667321108929633 Co
   0.1236532320809411    0.1026590732957743    0.2718409813401332 H
   1.0519628231185725    0.2843347568319893    0.2517513192792329 H
   0.0345139237712755    0.4391122215904002    1.1353115343787386 H
   0.2113675923232905    0.3845459754207284    0.2886476760484306 H
   0.2649602738009042    0.4963153812447089    0.2428936326932508 H
   0.3604789349648765    0.1685904165842317    0.2885088287449841 H
   0.3384340478330668    0.3232147702370830    0.1878159929116347 H
   0.4089120407953658    0.2346536055469210    0.1181624717637626 H
   0.5251925824847691    0.2734638683372598    0.2225725584599395 H
   0.6349762305980677    0.1952257946308253    0.2106548315807769 H
   0.6418359867787984    0.3786784176087845    0.1417194595412867 H
   0.6474930226561260    0.0266032581521903    0.1189083903328338 H
   0.4897178433787052    0.0102599235595858    0.0401782589701398 H
   0.9749666843234989    0.3778031324553355    0.2962179395819000 H
   0.7439208081332072    0.3272356379925280    0.1022255011367763 H
   0.7481995958094495    0.1041938420055584    0.1516732684505886 H
   0.8978760910543361    0.2350465907178572    0.1797597638161024 H
   0.8898002335197065    0.1702942029422085    0.0723909953582611 H
   0.1318133115216335    0.5064360253221966    1.0858201844391222 H
   1.1304387486743772   -0.0218873692254271    0.0838523002960386 H
   0.1769586145332001    0.8900184731425645    0.2235583743144100 H
   0.2550220888854820    0.6738306957959692    0.0822311037535185 H
   0.0536730141970924    0.9096677316893761    0.2076256462439179 H
   0.0318616657524683    0.7165861214062261    0.3148952160171856 H
   0.5239158728433296    0.7883671595443124    0.0692339933648405 H
   0.4365092767623876    0.6425705117442235    0.2769297350114495 H
   0.5147734668721091    0.6636870850526476    0.1145424140133477 H
   0.5575180520005744    0.6675327256539522    0.3088522728216284 H
   0.7260909519076296    0.5229354481807466    0.0389853369351006 H
   0.6814415348850313    0.6487349349775025    0.0204249236468824 H
   0.8476026972203415    0.6297840331954931    0.0231110790068376 H
   0.7303351062767058    0.9776745810754188    0.2681090743730530 H
   0.9687641738583059    0.6071099796966268    0.0710656207094730 H
   0.8973565914468452    0.7725669440678178    0.1624323917198804 H
   0.8806538919453991    0.8468947302617115    0.2693401871302792 H
   0.2657914731728895    0.1520850394049100    0.3622244048925759 H
   0.0975052425946951    0.1375811646221531    0.3776379983229595 H
   0.0841384389818955    0.3611931293538815    0.5437140293492914 H
   1.0890362041985966    1.0842994537525978    0.5452135802265141 H
   1.0189194995996889    1.1944884127203024    0.5167352269157178 H
   0.2043755998788350    0.4058267178590026    0.6577979162261529 H
   0.5687069715770615    0.3673243785142891    0.5627376526692854 H
   0.6277055974550491    0.3191275543358956    0.3493694587151491 H
   0.6600916752583951    0.0825389130376417    0.5761788430168200 H
   0.4776961501889979    0.4599327800947425    0.5941094295091264 H
   0.3524888735775447    0.0103869207154749    0.3601208682453606 H
  -0.0142211766264957    0.3716106388527040    0.4726095538804028 H
   0.6702644221178055    0.2635150489449001    0.4566066307842793 H
   0.7166596726698196    0.2503959790502042    0.6444315491476980 H
   0.7854288267717209    0.1112483511324903    0.5317754753746118 H
   0.7119463944127669    0.4617148232400053    0.4269257055508542 H
   0.8707833994030741    0.4916735628944946    0.4160254208563917 H
   0.9417816790934815    1.0146764315856485    0.4932276070683081 H
   0.3253591872572646   -0.1311203194623626    0.3436412360740707 H
   0.1352853005650303    0.6762583574363416    0.3557903751256442 H
   0.1635051489404236    0.5365759464515981    0.6083551628427428 H
   0.2479340677257025    0.8852192906005252    0.6066180288018448 H
   0.0640756002767866    0.6862437533705849    0.5337301368575761 H
   0.1714054785773706    0.7264932605531836    0.5845737052579801 H
   0.3007561581188715    0.8682120492418692    0.4940784324888722 H
   0.3129549534474960    0.5399622537362240    0.5354402728116928 H
   0.5444471270278594   -0.0516233322213272    0.5856420581206107 H
   0.3925407190738494    0.5805145806609294    0.4568712120347358 H
   0.4621158846879789    0.8816177771508629    0.4570964532158825 H
   0.5659182032295770    0.7970783308333987    0.4606918270012402 H
   0.7024497841637118    0.8023487553336606    0.3453536861499115 H
   0.6956773983715138    0.6770783524683383    0.4053187510128463 H
   0.7941414648858353    0.6660101207708875    0.6584327569524668 H
   0.9981395153000575    0.5304523528464684    0.3805229367390158 H
   0.7469252475298623    0.5455380498303516    0.5133874641548398 H
   0.8459969711608245    0.9403665083540701    0.5377019411100555 H
   0.7956125933197751    0.9737532355385876    0.3762973504707923 H
   0.0053722233423897    0.0904788296633345    0.9946129335528967 H
   0.2236923269507007    1.0587213929516184    0.6884492298358877 H
   0.2052138833363769    0.0381595995479924    0.9497806820178203 H
   0.0469752474394248    0.4017956426965203   -0.0403568719098813 H
   0.0904062804583336    0.3432740262998930   -0.1405085118093523 H
   0.2363193158951964    0.1217375676657500    0.8702674595774268 H
   0.6477999996969162    0.3486422717842622    0.9520330938292867 H
   0.4053597654489932    0.2189801320411396    0.7360453140834586 H
   0.3497992824278538    0.3937930355792734    0.8080175851988882 H
   0.3610952504083087    0.1252812391422009   -0.0042043510002031 H
   0.5016033647016004    0.1369321436580312    0.7055166489251016 H
   0.4630305188454096    0.1496003864085794   -0.0578696822935952 H
   0.8372127050705258    1.1126250082811184    0.9083501894171846 H
   0.7840671081036011    0.3311944106884960    0.7128285021993787 H
  -0.0602779653130234    0.4133010916620690    0.8011053036089738 H
   0.7340841617774310    1.0581769979096287    0.8578791946143619 H
   0.6932727448853254    0.2466226409154139    0.8810821217680973 H
  -0.0654068432560688    0.3897058196780860    0.6828490552635434 H
  -0.0217632089583975    0.2010150956554833    0.9223120571526436 H
   1.0500107639873950    0.8056525527447349    0.8101774321413902 H
   0.1418750743739891    0.9570641250325943    0.7087664471996589 H
   1.0924995349152018   -0.0878928012766303   -0.0172915578613397 H
   0.1227378108028930    0.7364769552529207    0.9473894229029075 H
   1.0497824990083460    0.7413059093988190    0.7008822344856187 H
   0.2792520228512227    0.6457671313814061   -0.0230096755042228 H
   0.4069159029096133    0.5006620354080945    0.8586428547833180 H
   0.4129082521699578    0.6660705145958583   -0.1521732280466789 H
   0.5183588012844129    0.6403597575033939    0.7441809946915187 H
   0.5099791151914632    0.7667606306980975    0.7722320068572629 H
   0.4427755439975909    0.6523917385486168   -0.0300312607769058 H
   0.5883983680628145   -0.0293158096968256    0.7005204601227496 H
   0.5607444594113391   -0.0762487016988249   -0.0249224513839807 H
   0.6300748305134539    0.5519074718216298    0.8585040074798715 H
  -0.0109619462859849    0.7358304861405581    0.9709163270980181 H
   0.6731909365733368    0.5501985817601344    0.7430493891684292 H
  -0.2168480629251892    0.8344467973797183    0.7390675570551453 H
  -0.0974993250691207    0.8193721584201255    0.7143010549898202 H
   0.8251910118808187    0.5346739662736469    0.6906013630393094 H
   0.2768410724000950    0.7131674906659823    0.2626631745823160 Cl
   0.2234160476139896    0.2868066505695233    0.7597797178598311 Cl
   0.6409347336718636    0.8927149298349192    0.8313207909606684 Cl
   0.0586661925456962    0.4839023236700933    1.0715883358358504 O
   0.1299824689655372    0.1691399153297400    0.3128356476827284 O
   0.2344892604597175    0.4236998875813232    0.2223002634704026 O
   0.4327956416894459    0.1455914272946780    0.0117360136719786 O
   0.3954766789767898    0.2682929660556118    0.1883266424387548 O
   0.6055442164718626    0.2742277226305515    0.2253309915550777 O
   0.6918134232606468    0.3910038616063299    0.0840388956443926 O
   0.9986590149075483    0.3414188300708629    0.2320072327291328 O
   0.6839587466195095    0.0661577259772739    0.1751091505245509 O
   0.8510738991431208    0.1894058713850554    0.1354458755472265 O
   1.0983950683396049   -0.0081099215768250    0.0110443226886424 O
   0.2194395142548329    0.6421418006486567    0.0245324897071763 O
   0.1246993153814794    0.9444920020316475    0.2091815074164273 O
   0.5182667081721760    0.7059219329040021    0.0480378725702527 O
   0.5390317371800766   -0.0557403197263735    0.0469822473771049 O
   0.5113589376337834    0.6070121587125193    0.2838960127749263 O
   0.9149093812150946    0.6669789738221784    0.0527975581324006 O
   0.9361301530604758    0.8058720119960369    0.2248211134018656 O
   0.7663521714881654    0.9322090888967574    0.3216840777818142 O
   0.1834130035959644    1.0002924938355799    0.6506179678901499 O
   0.0142029295491156    0.3238067998452467    0.5323640336664436 O
   1.0452014570150181    1.1186473784331281    0.4921793099272866 O
   0.2020236834740131    0.4620703812518047    0.5956984597596814 O
   0.3419154823238724    0.1346337758401314    0.3533914022716509 O
   0.5224652095454424    0.3965294712825242    0.6164792728421824 O
   0.6443406045833979    0.3380376264897557    0.4291287494322062 O
   0.5590718280993423    0.0146507247584077    0.6385683360727131 O
   0.7133734440921317    0.1429706755378500    0.5507759574773647 O
   0.9474017203017908    0.4626181787628068    0.3940566919555146 O
   0.0628161285768684    0.6607771234297627    0.3719861416987767 O
   0.1127773503739981    0.6737711525882516    0.5897959066153867 O
   0.2900096003293690    0.8297471370562927    0.5641700940165091 O
   0.3605403303730345   -0.0749055770561662    0.3863622372228513 O
   0.3706540431861392    0.5985306540817723    0.5245824136821723 O
   0.5119280258401709    0.8376519231894320    0.5076492136529569 O
   0.6562599720928417    0.7311138134720702    0.3644814449474904 O
   0.8666903721925407    0.9967284075450543    0.4876089195221708 O
   0.7565832175054864    0.5308283256723424    0.4432016950104226 O
   0.0275207742595123    0.3546025468767951   -0.1044899785475000 O
   0.2712241796742552    0.0657948526570977    0.9146908829412439 O
   0.4188242507304135    0.4339566304193082    0.8159550227125829 O
   0.6398681852352727    0.3069228979882916    0.8866591551232006 O
   0.4831697869624690    0.2048369189737008    0.7453002582320795 O
   0.7610831860752210    1.1250355140039747    0.8905005971852219 O
  -0.0456186309343743    0.1267298403242451    0.9456461178707452 O
  -0.1052414434619682    0.4231580443910929    0.7395704928431850 O
   0.7111962684643749    0.3191581765570075    0.6899102120177089 O
   0.0573923952505412    0.7815647733712019    0.9421363665891794 O
   1.0308916041904992    0.8111713574829041    0.7369956467381595 O
   0.3884799638086298    0.6222458630984435   -0.0842028447661423 O
   0.4668582864078758    0.7066330489276010    0.7397471374681254 O
   0.6087863662949756    0.5370225205094802    0.7858421280906573 O
   0.7292984684235765    0.5908189580650884   -0.0067536646288726 O
  -0.1666179607251522    0.8239450767728380    0.6811528040397713 O
   0.7676619401955360    0.5892385112088124    0.6670721447224747 O
