Li1 Co1 H110 Cl3 O55
1.0
  12.7212117391999993    0.0000000000000000    0.0000000000000000
   0.0000000000000000   11.7716023297000003    0.0000000000000000
   0.0000000000000000    0.0000000000000000   12.9809006164999996
Li Co H Cl O
1 1 110 3 55
direct
   0.2755866297623994    0.7533999124761480    0.7618226269855211 Li
   0.7049152276954344    0.3361601975727673    0.6345779889747760 Co
   0.3203889655527667    0.4862578606192074    1.0231380857671941 H
   0.1714314575065115    0.1909276326154384    0.1443315732591411 H
   0.2944448961695811    0.2663013986626824    0.2529380591764582 H
   0.2671070916325842    0.1157692153311749    0.1579839387795069 H
   0.3334380369308082    0.2127139615124778    0.0366297241114079 H
   0.5772269199067496    0.1843941125519926    0.0729072532222479 H
   0.5255808964406455    1.1073364355855029    0.2137273745685641 H
   0.6449712525747157    1.1160863064285000    0.2602611257962865 H
   0.5498490248492538    0.2335734837017784    0.3124385532344932 H
  -0.0057114158454035    0.2786293720290489    0.1925431741710616 H
  -0.0220034958963432    0.2808881979097799    0.0690502018912826 H
   0.9866069464927628    0.0857614908000149    0.1006970045389994 H
   0.9095309556122225    0.4397425278154060    0.2777190824277350 H
   0.8085059883097901    0.0952161934719863    0.3321459685793751 H
   1.1551836547470395    0.8686560995269873    1.1133321358249997 H
   0.2278451085574240    0.7069211082593611    0.2788022122055047 H
   0.2451862238947490    0.8960652823181821    0.2646876291412827 H
   0.1272171160167934    0.8580908428595742    0.2771128070827103 H
   0.0113246971006757    0.7815549580440564    1.0289158050653966 H
   0.3103482553894098    0.6120342807302097    0.2434256221238977 H
   1.0278530172882951   -0.0206769501961423    0.0421096212388524 H
   0.4904851831428119    0.8291635999522206    0.0148596629770677 H
   0.6498245638209823    0.5265539891082921    0.0077170152718579 H
   0.3634666228730482    0.6655512092124560    0.0758455701485418 H
   0.4125350616976703    0.8855093701730282    0.0987300377811193 H
   0.4678568356314683    0.5968528300665977    0.0823171550163297 H
   0.5009126489156865    0.8518843810752114    0.2887483633867169 H
   0.5858275156866984    0.7524136406267578    0.2681927788488588 H
  -0.0082988265948507    0.6491006025255978    1.0025308869369387 H
   0.6692959793652045    0.6474049964865082    1.1279921355909719 H
   0.8057279510658143   -0.0643222404132383    0.2427107256560668 H
   0.8633010828566432   -0.0863812594598508    0.1427099600427790 H
   0.8136556549722931    0.6008760716503292    0.2237528730948050 H
   0.7324291160871711    0.7434896218689242    1.1782891079882569 H
   0.9290259538155617    0.5985221015429559    0.1839605647442251 H
   0.9402198560097371    0.8798754727525664    0.2935384778662133 H
   1.0159359135478667    0.4064411989885775    0.3428963782868971 H
   0.0289749024901601    0.4798407223329937    0.6661543804833119 H
   0.1956964415605708    0.3904212898276803    0.3686218660527867 H
   0.2774496598326379    0.2200026888748969    0.3706687194094966 H
   0.1853483707400564    0.1970754787601734    0.5224316870340935 H
   0.1339672591446995    0.0978676591880215    0.4679300757128634 H
   0.2938238861461683    0.0680367160279709    0.5699715317822763 H
   1.0062355797644311    1.0181811982095266    0.5637708834314454 H
   0.4459155295890651    0.2896983833964522    0.3536267585675187 H
   0.5197677709683193    0.1747701041267192   -0.5244440576832299 H
   0.5786324463901192    0.3319967881551431    0.4602796049994702 H
   0.4542850153096680    0.0890432870175553   -0.4428711351809154 H
   0.5699139373145857    0.4451130796085544    0.5434464076655154 H
   0.9299535384074947    0.3472776305555153    0.6508249356413213 H
   0.9130919371388809    0.2555713386026923    0.3860405341930074 H
   0.9373506324838424    0.1398173433660280    0.4509736251164989 H
   0.8785590633053050    0.2751115841493546    0.5479383918292245 H
   0.7340720413389847    0.0145184283424868    0.3837094170468260 H
   0.1788922247624748    0.5169953923388354    0.3534611306143035 H
   0.1116851836780565    0.5165502532784731    0.5078502642505768 H
   0.0316996193418725    0.6101840653228263    0.5302231340983627 H
   1.0010788383041931    0.9659538137990927    0.4372380604382389 H
   0.3376994234332397    0.8760858442253227    0.6308887226122304 H
   0.3380932538404926    0.7602834273733137    0.5728380509167578 H
   0.6215340198556610   -0.0158783681154784    0.5123045006482043 H
   0.3603812249719149    0.6669392955190053    0.4090897823799697 H
   0.4567462588328395    0.7369085296921573    0.4088278591051179 H
   0.4695233435423989    0.5949023734204306    0.5218901221452087 H
   0.5570472385003818    0.5979308481345359    0.6032673725539573 H
   0.6189438577959835   -0.1169454927666660    0.4397602275025475 H
   0.7137021264824071    0.6962224797742439    0.6565556628225649 H
   0.9810178562820475    0.8005209402227705    0.3841076944971155 H
   0.9254649722889033    0.6133739454214142    0.3650612502399479 H
   0.8534278095730166    0.7604703178185039    0.6326412974660185 H
   0.7686025569066491    0.8118176181324964    0.5553839460981748 H
   0.8749744991195296    0.6772573470975534    0.4565025173035920 H
   0.2689740521460088    1.3387237967714813    0.6692951486938148 H
   0.3059453729322767    0.0818823247594845    0.6890464747053632 H
   0.3259489704839045    0.3717339443127042    0.9607849391009934 H
   0.0854838274839050    0.0210729311059153    0.7289219822138371 H
   0.1354553249349786    0.4918790155093154    0.9649603042471611 H
   0.0794886438831959    0.3604924840345118    0.6830800165767528 H
   0.2069500864911757    1.2430443838543186    0.7167171279683143 H
   0.6556526249774161    0.1619528175947637    0.7491632588218730 H
   0.6493725628545743    0.0116336044205708   -0.1277435395809310 H
   0.6600083421163153    0.3232511648222638   -0.0181013782203468 H
   1.3572634607201195    1.4513422800390676    0.7684593005527229 H
   0.3635444456481341    0.1905708417655297   -0.0834076327742448 H
   0.4952535968162576    0.2504462928943620   -0.0007297021970848 H
   1.4242539343849807    1.4537208857051254    0.6696256342376720 H
   0.5625121267064147    0.1683504173344348    0.6677120536061073 H
   0.6303783031131516    0.1290150756340326   -0.0882809464116353 H
  -0.1761226977612510    1.1035731416209904    0.8649210205052185 H
  -0.0646734090404928    1.0647508991428378    0.9154953234288171 H
  -0.0386462500883518    0.0570874844458941    0.7437021585412120 H
   0.7855867880026710    0.3747989476138240   -0.0388517104166830 H
  -0.0385592300762103    0.4205259425397322   -0.0700241237918887 H
  -0.0828524948651065    0.2934506338346579   -0.1037020643998241 H
   0.6974796152758623    0.4335717451160340    0.8277356191019876 H
   0.2816568062191004   -0.0571108177349662    0.8635343678736498 H
   0.0675637578652591    0.7125074335665017    0.7354300052313323 H
   0.3330387039030946   -0.1530595227936075    0.9391916761771781 H
   0.3286295327368636    0.5390697024218725    0.8795964275226527 H
   1.1798039508651275    0.8578563803010628    0.9832101936037498 H
   0.1310634477187667    0.6300114425534628    0.6740713966469956 H
   0.0857370266339573    0.5395581660854378    0.8636884403882686 H
   0.4341414939806130    0.6120767558313892    0.8507232382831023 H
   0.6284948347383451    0.7080322569062192    0.7529372650674588 H
   0.6138130572607741    0.6546359577113229   -0.0373659891582146 H
   0.6876857369445962    0.5389405781142865    0.7384028344009007 H
  -0.0295522264708127   -0.1200827037397911    0.7016457545883099 H
  -0.0923319377414801   -0.1927261702832105    0.7837456050906204 H
  -0.2403351341821363    0.8059687967000657   -0.1073135241424872 H
  -0.1290422771001871    0.7643423480420359   -0.0616279421077409 H
   0.3865752705417401    0.9941233009014021    0.2508211028255968 Cl
   0.2252478717000114    0.1195706519365466    0.8242073585172187 Cl
   0.5877699407092972    0.8038144595682365    0.8913598640137927 Cl
   0.2471349376264456    0.1928942298000537    0.1422200094462914 O
   0.0126097948048216    0.2401154987854601    0.1281208336335313 O
   0.3072565687791787    0.2854831543553888    0.3256849376788386 O
   0.5724750140946856    0.2183623004673408    0.0026443318005508 O
   0.5872102455995885    1.1538551663973986    0.2225357002293170 O
   0.9526793609098551    0.3729929063116676    0.3033159196439180 O
   0.9619552068291856    0.0187068980698070    0.0601145352971973 O
   0.7515853100878634    0.0440343506671288    0.3146818490473419 O
   1.1311765077659923    0.8905180341041266    1.0445695725506596 O
   0.1894368177422970    0.8381445353456349    0.2382410820069774 O
   0.2598884396768881    0.6321581341670797    0.2998315697258154 O
   0.4165464720134622    0.8327000768764341    0.0424793952739373 O
   0.6000557200205870    0.5911662635206731    0.0174920689255860 O
   0.3879517117455323    0.5936799400084817    0.1060385445483162 O
   0.5484600062272659    0.7957518358623252    0.3220141600180473 O
   0.6973231836370534    0.6725528048909010    1.1945206474033403 O
  -0.0382590228256516    0.7151154047789290    1.0396777702115150 O
   0.8864042279048744    0.5783515254947883    0.2422477377496375 O
   0.8305919346614440   -0.1278242156807846    0.2025008807908702 O
   0.1466374357995955    0.4489069556459160    0.3842887297017925 O
   0.2000380091039999    0.1459125203853003    0.4620113800637848 O
   1.0180504919820195    1.0358168602192956    0.4913252166951447 O
   0.1982771705566015    1.3016430334416922    0.6613450069394883 O
   0.3379651213926239    0.0480261861610481    0.6267349276181094 O
   0.5241171993981206    0.1048828468988439   -0.4742503138707395 O
   0.5171972611245725    0.2705259722260052    0.3755435737720333 O
   0.6211724190825345    0.3823858501865239    0.5154606761101690 O
   0.8577198535323001    0.3215564082851979    0.6087107544954371 O
   0.8800211881705553    0.1945949328512849    0.4286569917365486 O
   0.0861293634727995    0.5646813389311465    0.5629666249051356 O
   0.3121311044186507    0.8020143647802451    0.6332005806940846 O
   0.4105258191409069    0.7008811488716221    0.4558484794790355 O
   0.5063798953876311    0.5455046802505815    0.5732039731389773 O
   0.9894290047004236    0.8759252883428638    0.3525074217488136 O
   0.6689563890739205   -0.0702568615500518    0.4807951306835275 O
   0.8007582987012374    0.7396073976211089    0.5780510944488826 O
   0.9429161400354409    0.6679094268299474    0.4231735509412680 O
   0.0190067483080197    0.4065686242921163    0.7056239069157656 O
   0.0127126151985715    0.0096768614594291    0.7055276115941288 O
   0.2811922278344967    0.4367004610689232    0.9745744291593699 O
   0.3785343698715000    0.2418654729540596   -0.0206612930507371 O
   1.3836367344992335    1.3991064006083980    0.7155477175823580 O
   0.6358156782168812    0.1961495215544582    0.6847201184948691 O
   0.6827373089732244    0.0864534951484329   -0.1290331265282898 O
   0.7001648940606449    0.4529318962336948    0.7542106744007826 O
  -0.0983738150072407    1.1227294122529892    0.8681257288092882 O
   0.7027731361589786    0.3897399892047595   -0.0488445455698247 O
  -0.0862601891075046    0.3527212395226926   -0.0549342617101301 O
   0.2747242905273566   -0.1381116851864833    0.8864911725518408 O
   0.1322150675723107    0.6670879583731339    0.7423124244593510 O
   0.0720054731010715    0.5260298463597359    0.9351857907970911 O
   0.3613355365775139    0.5940409783685083    0.8286215360610453 O
   0.6592151786813488    0.6578317843240760    0.6997637588222421 O
  -0.1660804154206197    0.7888521804267112   -0.1203334219903432 O
  -0.0518129989353868   -0.2024512694492913    0.7147295925297327 O
