Li1 Co1 H90 C51 N3 Cl6 O45
1.0
  14.6728459455000007    0.0000000000000000    0.0000000000000000
   0.0000000000000000   14.3196733888000001    0.0000000000000000
   0.0000000000000000    0.0000000000000000   14.7998781853000008
Li Co H C N Cl O
1 1 90 51 3 6 45
direct
   0.7687504873490052    0.5439879795367865    0.3430872220112853 Li
   0.6997154818863698    0.5960771564158763    0.5318174240459436 Co
   0.1234584945639372    0.1635484365328990    1.0716898405592175 H
   0.3038720291865004    0.1603311843827185    0.1405179871524628 H
   0.1931416360483998    0.0285628158753889    1.0169684442166176 H
   0.0791310340006732    0.1162917721086061    1.1680568499455917 H
   0.1536741733522755   -0.0474682478534493    1.1181010333676993 H
   0.4144511224330704    0.1151793165680726    0.1529174135330307 H
   0.5088483378842956    0.1492324675555382    0.2728015083739123 H
   0.5354658190089971    0.3108904842677470    0.1400963620605618 H
   0.3964668812722116    0.3750071701076703    0.0646376328725579 H
   0.0002792553956621    0.1669926491668670    1.0846940016469191 H
   1.1385212884705129    0.3736139819071905    0.1510444251440091 H
   0.0922123408386875    0.5603249443297805    0.1774993726170828 H
   0.1962562329145937    0.5714976851916731    0.2903327337496528 H
   0.3845441772071797    0.4029996381700715    0.1826676583990546 H
   0.8702686253798099    0.3291995610798663    0.1299847923485462 H
   0.8688128750721095    0.3496001660425804    0.2417613880264158 H
   0.7151835104367279    0.3842860130248504    0.0770309781219926 H
   0.7742299969341692    0.5855755202460445    0.0844445526545843 H
   0.8988459035409424    0.5670262144910856    0.0967189780063034 H
   0.9222878452935911    0.5120569439897308    0.2513688995356139 H
   0.1639523430107153    0.6848948246313232    0.3062078644134555 H
   0.3110362835097893    0.7688778853721226    0.2096827456176184 H
   0.1294634645832007   -0.0733864367620234    0.9967243586742387 H
  -0.0267339090219442   -0.0942451527320131    1.0417632428903312 H
   0.4746726366016286    0.6884242347392052    0.2512675473500608 H
   0.4981648753452456    0.8929952413859905    0.2312342743536324 H
   0.5436264717170509    0.9536488594132928    0.0674531965872234 H
   0.0065466148664540   -0.0495548876243934    1.1528925359431348 H
   0.6785600767827540    0.9033390527270964    0.2737589486867707 H
  -0.0826835184603077    0.0048597612885800    1.0898318817732247 H
   0.6923719848987901    0.7287470817988048    0.0899912199292877 H
   0.7151848734988139    1.0026848940304791    0.1978258912703782 H
   0.7635054244426096    0.8952075823479554    0.0592382641075251 H
   0.1602652600684596    0.0798454101120958    0.4157033602351430 H
   0.1174105880889690    0.1757288819428077    0.5597121806669847 H
   0.1553561919662288    0.2928495699964718    0.5881230226168623 H
   0.2262824460729972    0.0532861451293159    0.5745045321484616 H
   0.3053775312603346    0.2857341842447484    0.4027073073222857 H
   0.3794224714195545    0.2155440358586735    0.5946237517982391 H
   0.6929778659959556    0.1829001348905403    0.6610472714848015 H
   0.6961633420906143    0.2835169549031328    0.5795691684286745 H
   0.7668285698079402    0.1858792531177316    0.5602523878159827 H
   0.3158881030044138    0.5128429954375805    0.3739611247744747 H
   0.2227105418769968    0.5610463294982496    0.6726595292242401 H
   0.3949000414045136    0.4429666111910923    0.6548769504283278 H
   0.4534244069699655    0.5814504261607143    0.6614499775020658 H
   0.8461642354534322    0.3739603585224476    0.5675492721989410 H
   0.0603085096570095    0.8646915232078231    0.4834001336447473 H
   0.2661431521808926    0.7500024548604599    0.4211081344500719 H
   0.0002887968302632    0.8508273801781867    0.3812719957590393 H
   0.3700357443652682    0.6925556138840865    0.4303365887853015 H
  -0.0918099006561944    0.6799177558068524    0.6138468829914795 H
  -0.1589011795843911    1.0027763765639444    0.4012167545134179 H
  -0.1495648858272817    0.8023709677195958    0.5064079581509121 H
  -0.1779738258208103    0.8940308795320113    0.5880622113055305 H
  -0.0046802460037455    0.9709215997394413    0.6360950390828619 H
   0.0689932597370771    0.1116422247207393    0.9273170306449927 H
   0.2946222898718432    0.2493255326055444   -0.0135359835257954 H
   0.2166299219119679    0.2694244547098089    0.7732502220232311 H
  -0.0152024037755546    0.0112181465343786    0.8243803725910657 H
   0.5706152373233202    1.1013722007609035    0.0128757203481089 H
   0.3615370522599208    0.1797240847974165    0.7140152750173324 H
  -0.0484815646018670    0.0897094619074724    0.9596889187106572 H
   0.8928913668188557    0.2555742784791748    0.5569706040477730 H
   0.7774965752229366    0.2272384366633020    0.8699692613340931 H
   0.8670368051742318    0.1467407906135273    0.6939252447969944 H
   0.8006624969031984    0.0681482159476668    0.9050884693094839 H
   0.7142457237216551    0.1554455980917128    0.7966679823358964 H
   0.9147957745386526    0.2343405539559732    0.7622447260346370 H
   0.0894773567634061    0.5156951554618407    0.8028099247804151 H
   0.1907215193149525    0.5964598467085395    0.9099932394090176 H
   0.2362498375758606    0.5113413550428478    0.7761549756611833 H
   0.0255851845507267    0.6258243432709321    0.8069471209946932 H
   0.1177827040384093    0.6949711717715349    0.9014310067734905 H
   0.0567584144543829    0.5750040500812013    0.7037361363585357 H
   0.2407349933693884    0.7083653320147436    0.8885004949406243 H
   0.6067069404575997    0.5775117888420648    0.7642792022393065 H
   0.3703424333345871    0.6101668632493999    0.8114958070823168 H
   0.7057729297959390    0.3241303113819803    0.7599676802658770 H
   0.7374627602301367    0.4134974334701776    0.6860751801852872 H
   0.9363996270685169    0.3391453186494063    0.6418795461529967 H
   0.8092082146505080    0.3867029675921990    0.7771428216297077 H
   0.8696770564345458    0.5871837971511598   -0.0765763672585949 H
   0.1239151203627009   -0.0062396538785503    0.7988646220374509 H
   0.1590425933774417    0.7094023668406646    0.6474012132219302 H
   0.1099069313063006    0.7672835752660097    0.7455466156241430 H
   0.2340628044590956    0.7670642965216735    0.7265619999075710 H
  -0.0230829472249638   -0.0811847989849594    0.8951127115261094 H
   0.3434342246975921    0.6897880926617801    0.7178517930811364 H
   0.5978368139338549    0.8771485112379773   -0.0055001065739076 H
   0.0634680875720369    0.1255210328893280    1.0971745097759293 C
   0.1417017175211096   -0.0204641403224461    1.0481477548989404 C
   0.2659789031995463    0.3452117977960568    0.1145218272393262 C
   0.3724170138292685    0.1675736680053628    0.1194387596011263 C
   0.4129156329933472    0.2572502943594512    0.1555998680440031 C
   0.4025181954023945    0.2443240218828196    0.2619520947510700 C
   0.3695654879456460    0.3496246079408344    0.1293165436051327 C
   0.5737320832419558    1.0067059354632424    0.2323754999629605 C
   0.3909928239353913    0.1535167831494947    0.0152061449345935 C
   0.1894784066926466    0.6527146213900664    0.1603390962404667 C
   0.2099795419950489    0.6438240554851503    0.2627331822610660 C
   0.3048064082463586    0.6762717229273011    0.2987902357934416 C
   0.3745556582419855    0.5976149009860301    0.2813150919603739 C
   0.9960983387740429    0.4059802927451530    0.1795703356085514 C
   0.8907247796333786    0.3827259215762931    0.1797034448122445 C
   0.7259960004328255    0.4407917012504536    0.1944278903294008 C
   0.8293113358238388    0.4667186263918037    0.1735912323421547 C
   0.8339355239501244    0.5291622223958417    0.0857236172362646 C
   0.6039808162858763    0.7924314952096068    0.1557823019779987 C
   0.6565929682070075    0.8824572915387527    0.1311868292692062 C
   0.6621488092689797    0.9493009948838758    0.2135753452240950 C
   0.6109440189515006    0.9284799892711922    0.0501922437062912 C
  -0.0187818048130273   -0.0309099092962687    1.0885751146723661 C
   0.2191338669636958    0.2288229700101133    0.4682147383876954 C
   0.1769750381790376    0.2233235429029564    0.5608779335052166 C
   0.2435872007840539    0.1768560026222936    0.6310443218361318 C
   0.0696829691525231    0.9792646671234670    0.3936552057899186 C
   0.3348339844668480    0.2219883169183362    0.6539823484705124 C
   0.3276233860326398    0.3283524747203765    0.6763879382901207 C
   0.7337968047502118    0.2283858092013412    0.6104292872946285 C
  -0.0817573177729647    1.0214276399516200    0.5366462475744360 C
   0.2566010360488181    0.6052114429633827    0.4572492427283329 C
   0.3015384668955052    0.6800511387373245    0.4028620383255635 C
   0.0158767748441771    0.9031155839430595    0.4336521566153623 C
  -0.0806164348070985    0.9294842021194579    0.4775130581628328 C
  -0.1217400179375447    0.8595866581724811    0.5481430313904679 C
  -0.0504832212749548    0.8176345840092629    0.6137036385692312 C
   0.0202903698781971    0.0612032251437715    0.9506543848904526 C
   0.1870412516831260    0.1424711401585232    0.7165382687563679 C
   0.7845810904142024    0.1757421504018599    0.8175999113775625 C
   0.8477515212524181    0.2068315466410368    0.7343742263700049 C
   0.2426207897651780    0.5782352690303841    0.7418506392576395 C
   0.0796040165444672    0.5855399049085888    0.7713461522973065 C
   0.1834938826046710    0.6633566238898714    0.8756382269126972 C
   0.3418510280848638    0.6143932166274969    0.7422351018815043 C
   0.7628395686136662    0.3559466795092270    0.7255207751213218 C
   0.8789186173766879    0.3130727966118568    0.6063968216720886 C
   0.8169878915055634    0.4788330577262279   -0.0087751335297472 C
   0.0231282651409611   -0.0183928640304045    0.8821443615439701 C
   0.1690270231563783    0.7281772363995108    0.7193213997716564 C
   0.6681197027360966    1.0041067141689137    0.0100088048594298 C
   0.0529915923801042    0.0336746643102318    1.0485741097595005 N
   0.8047353264157531    0.2793038699840880    0.6730845327223262 N
   0.1671930231198515    0.6409887952876826    0.7738745514862383 N
   0.5882783410567500    0.6365236096466463    0.6218050566011100 Cl
   0.7006662176912584    1.4421746665362047    0.4920725023219087 Cl
   0.7063808554862334    0.6869926378414691    0.4051755708811225 Cl
  -0.1654888586453605    0.5859568138588075    0.6088529229686591 Cl
   0.6096825049910356   -0.4832882439213194    0.8322675996708090 Cl
   0.9238383284162588    0.7124157037254116    0.9227784797759242 Cl
   0.2337329434343171    0.2926742866689929    0.0535976771408758 O
   0.0723116343851073    1.0006750716540478    0.3142363088717361 O
   0.3420507166804425    0.2936282190408502    0.3000132188324492 O
   0.5751656156376566    1.0946527737608955    0.2294660165563491 O
   0.4978579137635096    0.2573292067738143    0.1194326784699931 O
   0.4565897778988577    0.1866823440603640    0.3079788249356868 O
   1.0474482952036661    0.3528579219098676    0.1321895402249450 O
   0.2122688047682535    0.3887951940827440    0.1705276936135026 O
   0.1246818427859981    0.5949926344733475    0.1266807110995147 O
   1.0218227279894672    0.4690299360914988    0.2308748119355374 O
   0.4599540195860772    0.6280639194909513    0.2766758645869893 O
   0.3613264591676552    0.5099057077734011    0.2828583479057292 O
   0.6919385311554861    0.4586706006533020    0.2662838871616101 O
   0.6845923080437347    0.3835339008985764    0.1374497186551515 O
   0.8547324437251586    0.5217877525226255    0.2584149034752664 O
   0.2241369863498510    0.7140651826875836    0.1127414071797766 O
   0.3375689685421294    0.7626186643992404    0.2690001257344335 O
   0.4958278372459315    0.9624633062636463    0.2444343830000699 O
   0.5427428667198910    0.7879914498067746    0.2108253225894205 O
   0.6301154871891448    0.7126950397054577    0.1127792453290497 O
   0.7508534821616416    0.8511528065949404    0.1109488248579605 O
   0.2063197202945103    0.1706254135873661    0.4065039601931053 O
   0.2777094155104717    0.0924078474747174    0.5901142552223625 O
   0.2731608773299514    0.2991548814060616    0.4611017744374542 O
   0.1206614911637491    1.0294306157799398    0.4511206112041836 O
  -0.1298107085479316    1.0878181206691184    0.5112872077701235 O
  -0.0294525363521953    1.0332323784683668    0.6084252167456250 O
   0.2680432607285838    0.5187721809500382    0.4301953714067641 O
   0.2190820706044330    0.6200043781266722    0.5286719251832408 O
   0.3997702622372973    0.3727794656668029    0.6456282256559878 O
   0.3893714615842588    0.5552347444333912    0.6787825525941221 O
  -0.1432791250183306    0.9370088150819487    0.4069431529971689 O
  -0.0431247306044307    0.7288993199079298    0.6370281548711877 O
   0.0030721696095927    0.8715757584360583    0.6531181521683629 O
   0.1501711037916111    0.0658234422537334    0.7251538802096197 O
   0.1814499710069215    0.2077980491319961    0.7830131402169439 O
   0.3387302974392835    0.2017776604220533   -0.0423112203667984 O
   0.4540407836451921    0.0999492205960110   -0.0128711131885670 O
   0.6367774531337936    1.0904683207798054   -0.0050413190139705 O
   0.8313477505801160    0.0904538922942952    0.8519312750305870 O
   0.2710426788485224    0.3583517622974237    0.7336931396830879 O
   0.7776485566455101    0.4018520561300472   -0.0101785234590393 O
   0.8465302176234860    0.5164756201900895   -0.0814622182834920 O
   0.1138080149960367   -0.0462447562608475    0.8552826539662099 O
   0.7457392732154887    0.9867676315475044   -0.0181529134183583 O
