Li1 Co1 H110 Cl3 O55
1.0
  12.5338025224000003    0.0000000000000000    0.0000000000000000
   0.0000000000000000   11.5981827830000004    0.0000000000000000
   0.0000000000000000    0.0000000000000000   12.7896656565000004
Li Co H Cl O
1 1 110 3 55
direct
   0.4514066063501871    0.8288560864543842    0.4402989475677229 Li
   0.6269383331400491    0.5025653156668310    0.7058555376474552 Co
   1.1394093082109147    1.1712795569502277    0.1767283359085517 H
   0.0632696470111732    0.3020252790492688    0.1228887736796484 H
   0.1195113181832047    0.4280148437370941    0.1148643262268065 H
   1.0174989783434056    1.1398780859772211    0.1717579166882735 H
   0.1412772586878874    0.0956829541543879    0.0206034024170192 H
   0.3070673288829700    0.4122546161721410    0.1865792580032954 H
   0.2766280428547946    0.2376789918797057    0.2689183924485180 H
   0.1887632469932172    0.1695148652409369    0.3278519111380337 H
   0.3263424051870875    0.0428362270879379    0.0171219744269630 H
   0.4600823454010988    0.2866082086904458    0.0256954432685251 H
   0.4195806701040162    0.1097449846510149    0.0617941351655536 H
   0.4482551285820153    0.3031047585017181    0.1441223232730251 H
   0.3773492723255673    0.4085850757970417    0.2912129549224858 H
   0.6266024414589352    0.2760074100739407    0.1220326136912569 H
  -0.0094656620357604    0.4590653976676511    0.1951158376866362 H
   0.9847954153769841    0.3969841204993536    0.0026853968838931 H
   0.7131819130965823    0.3152368314852759    0.0400249187155129 H
   0.7597160753316768    1.1485087483726026    0.1183350971751808 H
   0.7325048599490770    0.3907193459773913    0.2048948267047297 H
   0.8823285065753861    1.0655560981168923    0.2036258334068672 H
   0.7704295040585153    1.0217302669922925    0.0765365064725138 H
   0.7293613606056347    1.0021409913056722    0.2619713773828940 H
   0.2776891733438246    0.5295272980610345    0.0490221828419225 H
   0.1981418852628021    0.7848250507693348    0.1054997342807200 H
   0.2361933863254402    0.6048847929680019    0.1368781933255848 H
   0.1732021274007048    0.7451058974658340    0.2204104785856800 H
   0.0511833707411213   -0.1464423901811170    0.0429241344570249 H
   1.0216158455038529    0.6088742110402727    0.3106317580929798 H
   0.3088872075637801   -0.1404604185827996    0.2233573890845361 H
   1.0160788187415459   -0.2324334474579387    0.2449928256496327 H
   0.3790949516563926   -0.0446314408200856    0.1666537957711780 H
   0.5689998105965371    0.6468206728467800    1.0471373285269274 H
   0.4888868522021896    0.8543126606026002    0.2601808692793173 H
   0.6036445242996579    0.7122774788140704    0.2167254721698909 H
   0.5931887986915839    0.8810668518242475    0.3065808312437960 H
  -0.1162160275061587    0.5111537300644730    0.2461226440818023 H
   0.6862666972714486    0.5074747054449831    0.2198217219909231 H
   0.8358940746494109    0.6815493891927914    0.0424840916794298 H
   0.7083621467174617    0.6908861966932497    0.1461958723955952 H
   0.9656152823271483    0.9751195168330190    0.2559352539944170 H
   0.8056430794448528    0.8094289051264385    0.0456907431354947 H
   0.9238881209916070   -0.2222620264511139    0.1651650938370251 H
   0.1762841928737296    0.0981904159304367    0.5480515688647157 H
   0.2025156576995408    0.2621293739184899    0.4853837852395309 H
   0.0746432106001345    0.2627786135572235    0.4616998197524382 H
   0.3268969057057911    0.3989628787608321    0.5680560011048948 H
   0.3107126711419010    1.0035636279642517    0.4794711990913880 H
   0.5025347455445561    0.1282446068775669    0.6421236136166074 H
   0.3543554522550071    0.2722456138670427    0.5604342225050408 H
   0.3972753880876160    0.4391605553040369    0.4449597418058979 H
   0.5632489620514782    0.4368015650629016    0.4315567331109145 H
   0.5504794932718350    0.1816434894083528    0.5385470201716683 H
   0.6472003405832119    0.2428082436869110    0.4323440875477275 H
   0.9931647829182811    0.3966099239479454    0.3876720831853905 H
   0.6723499310156963    1.0485534345367800    0.3663540904150765 H
   0.6768968352690662    0.4275414937216032    0.3714941778704972 H
   0.9718544104656556    0.4042662957832089    0.5128966232957131 H
   0.8968971101315427    1.1095629920889478    0.3821434007398049 H
   0.7290509998836553    0.1518940013673692    0.4720652197214847 H
   0.9049074485600098    1.2270555360068944    0.4516901757603033 H
   0.8679354283632796    0.0764969312951722    0.5776090264365543 H
   0.7231246259945463    0.4627754616324191    0.5322012718010882 H
   0.8217738585630551    0.4899072982216166    0.6162253603787160 H
   1.1378694722381115    0.6441073167470531    0.3696168809461794 H
   0.1802686181836664   -0.0291876421361620    0.5862425593971194 H
   0.2996761162135158    0.5923000628658053    0.5651012717933593 H
   0.0166966298476456    0.6804923270452652    0.4661471604044664 H
   0.3486006144975833    0.9907771421177471    0.3550269764864670 H
   0.4302238886932346    0.5739273570732791    0.6635244858013227 H
   0.4026033801220088    0.5634145032683954    0.4075482868976278 H
   0.5141345772588475    0.6765675742756571    0.6404308406715228 H
   0.5626864831080450   -0.1379643379000194    0.6232435266397224 H
   0.6506557963335796   -0.2063069407741373    0.5566632091497786 H
  -0.0157455599246358    0.7421511242361665    0.5764322951283085 H
  -0.0053292477347257    0.9424764720488885    0.6269504257310137 H
   0.8200928044725391   -0.0453651764542983    0.5993461075664828 H
  -0.0407177101911350    0.5706509817383690    0.5822315084926004 H
   0.7578834311712994    0.8612827180256036    0.4289483772010753 H
   0.8109439448351652    0.7530209305117483    0.4783194879837162 H
   0.1789824961172631    0.0899611957339852   -0.0892543794622064 H
   0.0303127052321907    0.3993439729445243    0.8445362543789808 H
   0.0006631077268966    0.4695368656788309    0.6786085392223716 H
   0.1034377443703134    0.3144177376515484    0.7835088576539287 H
   0.2671656311255495    0.1757451516014791    0.7972926425263978 H
   0.2019252542695542    0.0942378139704819    0.7306544658226265 H
   0.5270324986766364    0.3266420664669051    0.7946741221600753 H
   0.5532136994266516    0.2980375853850690    0.6684425189766492 H
   0.3809419569812832    0.4555010461848832   -0.0984156822786292 H
  -0.3028696783690121    0.0763997609003710    0.7851875567361903 H
   0.6833473916629066    0.3286604861140168    0.8550525574327393 H
   0.7464623161709500    0.2160988870751098    0.8990881104429753 H
   0.8679832989116569    0.3607034368894373   -0.0526208964155341 H
  -0.1839720016793808    0.0782268574720047    0.7606396124480269 H
   0.0975467946870035    0.6756639844464504    0.8129091570909118 H
   0.2509598548148895    0.5675608424751276    0.8663585605671145 H
   0.0209920541535402    0.8456138840884140    0.7007623630681107 H
   0.0626849880469918    0.7615024316089880    0.9012851968058794 H
   0.1641673592369635    0.5213130802148007    0.7992176342080597 H
   0.2656457412145704    0.5732522513134806    0.6937144853189228 H
   0.1379821692745836   -0.0798931717008447   -0.0218792796634042 H
   0.5488846061683982    0.9040739043076004    0.8733485791024752 H
   0.5466418709769220    0.7450722715084495    0.9651179835202911 H
   0.6383881704694250    0.6210433587973572    0.8851940803117271 H
   0.4280593420641079    0.5758802492136926   -0.0471539825901156 H
   0.5026855377719447    0.9372687596744526    0.9842975310227962 H
   0.6863081850800422    0.9041601247111506    0.9786914423316848 H
   0.7743118055319139    0.9714982598839079    0.9155779863837756 H
   0.8885038073160572    0.5372897209926649    0.9270169093337002 H
   0.9275821316413881    0.6503039771502108    0.8939355128872676 H
   0.7558170191663462    0.6173048420994177    0.8391647300682508 H
   0.2839777677156551    0.7034036748806772    0.4492569612544820 Cl
   0.4122836028463706    0.2948017336398275    0.8754440209005475 Cl
   0.5464368254613725    0.9847503359095836    0.7286856887899601 Cl
   0.0527264778680633    0.3877783680122917    0.1117047440230714 O
   1.0769621778527345    1.1701155815022992    0.1254033038373351 O
   0.2259945659936577    0.1721290678765810    0.2635320123936971 O
   0.3474636889736226    0.3587134699754973    0.2326602124104556 O
   0.4946329136924108    0.2651039778409742    0.0924986907455832 O
   0.3968333833575989    0.0335639383154564    0.0464198474178464 O
   0.7051971056272496    0.2967054801502174    0.1129127505820347 O
   0.7768401683287079    1.0721002267463575    0.1411449194047194 O
   0.9442490609014160    1.0551061852066002    0.2526153861307547 O
   0.7276906784672671    0.4507796168864707    0.2612278082970855 O
  -0.0387827028414775    0.4979628705253178    0.2614631545587346 O
   0.2481059722891298    0.5200232229776888    0.1192287874644333 O
   0.2336698105834839    0.7488995952220457    0.1679884670955472 O
   0.3633239994934931   -0.0761124070051656    0.2367009748031563 O
   0.6424970592051427    0.6568946647975931    0.1716429801418867 O
   0.5482997876357223    0.8112705729462723    0.3001803511844602 O
   0.9851943366134617   -0.1807356934891996    0.1998743670833034 O
   0.8189718357980373    0.7444695908876331    0.0924937648935952 O
   0.6971987348358767    0.9751884931558592    0.3313242458489439 O
   0.1418788319124954    0.2128501022693358    0.4651455705002385 O
   0.2161188718634219    0.0421904362653465    0.5928353822483678 O
   0.3325847246954867    0.3378265772154455    0.5118590668531601 O
   0.4966873580602696    0.2009628952318607    0.5924413140893274 O
   0.4347795692138070    0.4877104023391558    0.3924556327826317 O
   0.6362292087376090    0.3975893877322764    0.4335458390565473 O
   0.6499241747858798    0.1588562989540531    0.4510443418329870 O
   0.9797929430715570    0.3505113229857605    0.4550397551121473 O
   0.8647919290198375    1.1509315417123651    0.4433490663939468 O
   0.8594144707521213    0.0193414257817013    0.6323571346988011 O
  -0.0534601321109450    0.4880268312201853    0.6195342819046272 O
   1.0695342644295243    0.6713486532487595    0.3398123488936726 O
   0.0372723569295989    0.8714696587050675    0.6334580235240569 O
   0.3149436297759808    0.5506280174218909    0.6325197660025320 O
   0.3676499013818545    0.9824310070540815    0.4297193121312615 O
   0.5709553224977496   -0.1968640821773122    0.5656087127362507 O
   0.7392155129891007    0.5014927338466657    0.6004125936159495 O
  -0.0408150469728355    0.6826478371340218    0.5278993610648965 O
   0.7711228291675131    0.8236328544073092    0.4950368913734864 O
   0.0951789577957680    0.3965090460757916    0.7983497460006491 O
   0.1911033189663939    0.1508791872175826    0.7876543921365331 O
   0.1888358506582561    0.0439029459206618   -0.0253720996635343 O
   0.5831016763060151    0.3470831997406020    0.7334715840310051 O
   0.7367940610836825    0.3026538257911502    0.9058826586613515 O
   0.9370605002200924    0.4030893872747478   -0.0643381690968444 O
  -0.2362346728702916    0.0870932464506927    0.8218851540468336 O
   0.2060844070810681    0.5929182631592606    0.8050012099469928 O
   0.0306392940700701    0.7182982495939856    0.8360293861838216 O
   0.1108537699406765   -0.1629760147659159   -0.0079533487764243 O
   0.3645446984771141    0.5317569576968444   -0.0674234725801255 O
   0.5526368593187051    0.8783095233187099    0.9479947837524614 O
   0.5542508946414929    0.6574275068915336    0.9710446435312567 O
   0.5044663221715799    0.6032759202377540    0.6785209685203627 O
   0.6819216471637362    0.5936088885916982    0.8279760091240661 O
   0.8627813659879910    0.6162003587299387    0.9203709185562321 O
   0.7635824199556164    0.9255082966301963    0.9807947029424365 O
