Li1 Co1 H90 C51 N3 Cl6 O45
1.0
  14.2207546767000004    0.0000000000000000    0.0000000000000000
   0.0000000000000000   13.8784638692000009    0.0000000000000000
   0.0000000000000000    0.0000000000000000   14.3438728725000004
Li Co H C N Cl O
1 1 90 51 3 6 45
direct
   1.0057435177145573    0.8065060758950697    0.2965667971274053 Li
   0.6402319736249584    0.6390992200717729    0.6198267730917524 Co
   0.1966169796657259    0.2577356880640270    0.9597921397222003 H
   0.1360365098112304    0.1146888769248027    1.0353470480536706 H
   0.2668917310920620    0.0768633650419620    0.9983138140922616 H
   0.0406322903556400    0.2708826762119680    0.2971252237163188 H
   0.1342707807363071    1.0432462534079139    0.3100004075416069 H
   0.3699776807007633    0.1837325411970818    0.9638301007746192 H
   0.5111258859566176    0.1467241226256389    0.2289741735299948 H
   0.6340628214249181    1.0275766517827207    0.1199241272904693 H
   0.3667823509849326    0.2694495204832464    0.2915751187545949 H
   0.3704101472005952    0.3575644596815203    0.2014090937558956 H
   0.8250034614775108    1.1954612261822581    0.0887895791827403 H
  -0.1674635573878439    0.1406737412007644    0.3121288424678905 H
   0.6971642545345309    1.0306627281960514    0.3033006827982120 H
   0.3214261083196399    0.5210148978120884    1.0242705416308757 H
   0.6095985782880881    0.4096050894519989    0.2236380972359318 H
   0.4489291868286041    0.4900155016213630    0.3182178534885785 H
   0.4925374913172592    0.4640236336884465    1.1189576607982448 H
   1.0160397363983591    0.4593245689638027    0.1850013911715251 H
   0.7746369361922150    0.3910105243450699    0.1186329836666642 H
   0.9071010734919331    0.4556829555636222    0.2415614295385272 H
   0.9305660728950054    0.6471166779870497    0.1158687371934528 H
   0.3103282444166376    0.8183978819015161    0.3508241101221458 H
   0.1939652216643178    0.7148093281862502    0.1315451170664996 H
   0.2503975291082310    0.8219688822994771    0.0925173032413182 H
   0.1735288941551902    0.7093879789138011    0.3195759246436392 H
   0.5615867803545597    0.9386763230699637    0.2710053603202694 H
   0.4422016957653661    0.6967943661301930    0.2094459748008339 H
   0.3661459571924970    0.8369172225448559    0.2403616141084145 H
   0.6956270646668359    0.8150927610731370    0.1130919418081311 H
   0.7250368962480844    0.9718075113868813    0.0628997791753818 H
   0.6860656874339679    0.7775489806583354    0.2252806103988287 H
   0.9315231247751210    0.8781660239536677    0.1363687794493872 H
   0.1575297432540935    0.1974141706475424    0.5455278017139997 H
   0.3526424544343325    0.2750128163009737    0.6214602231514583 H
   0.4886459256965771    0.3515111960932899    0.6534041760903093 H
   0.4479947075901869    0.0879618555846966    0.6064447526495602 H
   0.4955995650953370    0.2633169974027286    0.5607109396249288 H
   0.5898401332274774    0.1274482141013751    0.5287483724664473 H
   0.6954090734230182    0.1600663773409422    0.5932656062864865 H
  -0.0365724730314164    0.1698397932808015    0.5239754634614285 H
   0.7056363787458712   -0.7081212054894730   -0.6237606567856173 H
   0.1706809440343462    0.3523909764576785    0.4474244503731048 H
   0.0878752120762967    0.4902571710187553    0.6057740830134368 H
   0.0746325956131526    0.4235943177866179    0.4616571476240264 H
   0.5474070828220238    0.4489857446275997    0.3801767127101956 H
   0.4756085726014020    0.5068033105745616    0.5096441805626439 H
  -0.0682205824483802    0.2874543949675580    0.5362211799120224 H
  -0.1280767588153524    0.6598140486514702    0.4949388843100262 H
   0.9787512793470029    0.6145042790741942    0.3812168780917924 H
   0.1404111018363589    0.8043379685105935    0.5342164214862049 H
   0.1959313620440412    0.8148463361062074    0.6516787006751269 H
   0.0879427190421241    0.9254745738182607    0.4839706471122728 H
   0.5067745697707483   -0.0226188264319843    0.6523626163851446 H
   0.6630275289502421    0.0343197517455119    0.5790775273897353 H
  -0.0443554636332685    0.8657640750332272    0.5899750026664216 H
  -0.1072944581063592    0.7625357917374489    0.6153509944390370 H
   0.1720402249191836    0.2742533662566938    0.8413094945463447 H
   0.2086782242268902    0.1072773938551041    0.7886019721972407 H
   0.0695252717297725    0.1686155943953826    0.7558242137648310 H
   0.1635575527444328    0.0100396870945654    0.8555336864235026 H
   0.0201481454123846    0.0644116988036320    0.8192011000549252 H
   0.0776809570387967    0.2845383661922255    0.9283320170613845 H
   0.0205363104658922    0.1483662351976633    1.0186235311811880 H
  -0.0237250535973870    0.1849834000935427    0.8495652843914313 H
   0.0655029816825558    0.0245391303972629    0.9814529563483483 H
   0.6308899940310296    0.2497139069037163    0.7119664631007068 H
   0.5132275043783858    0.2189734730905185    0.7629819738002561 H
   0.6075768853010692    0.0862332781119952    0.8228716568472222 H
   0.7028503100103689    0.1250711498735960    0.7488700249703081 H
   0.2479053969531023    0.4843550048444579    0.9247276906385591 H
   0.2625537053400901    0.6105578768991273    0.9653812857438234 H
   0.3038489820923275    0.4657292907570601    0.7769684335091001 H
   0.2921927793261275    0.5934810590154157    0.7758613405962477 H
   0.3953251399738353    0.5440375466449393    0.7334076737649223 H
   0.5646456194238582    0.5233043442738482    0.9866642406830910 H
   0.5387364459392974    0.4010277713048384    0.9973789201400355 H
   0.4908335029881656    0.4521737055155614    0.8396683757070157 H
   0.4021545946833751    0.3991563105837681    0.9003228452309333 H
   0.4418782248874430    0.6406743223457726    0.9698654303379459 H
   0.4841175443649231    0.6442208243552084    0.8531005917976494 H
   0.8390849926305725    0.4425709857004554   -0.0260225092008184 H
   0.9689578469191031    0.4529440357265098   -0.0148016902887536 H
   0.3160417245973430    0.0049490660672058    0.9114767366117424 H
   0.1497741773571088    0.6871319134795359    0.7844113327141453 H
   0.0761838494320617    0.8069636193278191    0.7817432945671138 H
   0.1383753448981259    0.8363631266396840   -0.0315224185141006 H
   0.4428830942016865    0.0612975212975813    0.7266528732405984 H
   0.3730696403751710    0.7003617638239591    0.8865009157030926 H
   0.6540230841854503    0.0040555954268766    0.7522198873420056 H
   0.6238186393606082   -0.1798862315692226   -0.2036370225645278 H
   0.4367659786211380    0.2359342838991552    0.1482128609962693 C
   0.4126927133280585    0.3016447262503351    0.2339553944760465 C
   0.4975467894606775    0.3493157081569325    0.2799032361683391 C
   0.7598726002077113    1.0922949093986318    0.1521560080460759 C
   0.7022483728984079    1.0018706368114425    0.1305126204645258 C
   0.9101592796834271    0.3362861681657444    0.0633159847603774 C
   0.9005901672773915    0.4397918596845282    0.0241145776510018 C
   0.9490278216536812    0.5004936065017399    0.1921821575458194 C
   0.9691223951483076    0.5877297020387159    0.2518222566741450 C
   0.7804847271070144    0.5323806369519989    0.1345136319423972 C
   0.8883067122870452    0.5197833494101121    0.1015608859022255 C
   0.1888649297565447    0.7912291690271183    0.1331011821681913 C
   0.0955822573415929    0.8339255369814310    0.0996994639391803 C
   0.2103869942993966    0.8218824173988000    0.2432485610555944 C
   0.1941480530301004    0.9343927077822564    0.2487463788835249 C
   0.3103985641727078    0.7980108994035525    0.2747958289393993 C
   0.3318861720350852    0.6866527538216174    0.2898482490158447 C
   0.5623727442681565    0.8362860287699138    0.1835959130151584 C
   0.6625071627553224    0.8387401908674631    0.1794687152543989 C
   0.7145184671351008    0.9262981519972093    0.2089231034628999 C
   0.8234747099805442    0.9026788232956031    0.2130900394453423 C
   0.1127459034032124    0.1882395241448715    0.4097063943913590 C
   0.0453162893074774    0.2711665693025242    0.4285402199837435 C
   0.4871844702061697    0.2722841281437747    0.6398625055996013 C
   0.5700446296554177    0.2778820099217728    0.3259702925256806 C
   0.6346999184149142    0.1080555779611973    0.5906484609496806 C
  -0.0494557555410417    0.2310194748365055    0.4834643682247958 C
  -0.1339076729886951    0.2114596732216854    0.4246570288473533 C
   0.1222320384970853    0.3426514259372512    0.5837514394214386 C
   0.1042639344260224    0.3531115172966537    0.4790456871221828 C
   0.4034210534901998    0.4117561200185914    0.4332509421576373 C
   0.4779867867516969    0.4281363910732657    0.3537431265113856 C
   0.1350668003750220    0.8265515220353591    0.6069223084715401 C
   0.0747549519887148    0.6610382475368890    0.6590672212610270 C
   0.0483316004477685    0.7729771490350380    0.6502341814588610 C
   0.1204852957563010    0.9366054886987492    0.6095680374414864 C
   0.4869909502374645    0.0581343470144803    0.6661231956760011 C
  -0.0390821851255626    0.7904445000534742    0.5864139002741988 C
  -0.0336028697325710    0.7658070471463960    0.4878016208310480 C
   0.1445740313957159    0.2508357889900007    0.9063707237063705 C
   0.1950889313663200    0.0844023838401592    0.8594224548541641 C
   0.2828332197931812    0.0768648061236400    0.9249598455126018 C
   0.0366669593108402    0.1442822097223521    0.8202356881422507 C
   0.0775635230461594    0.1044082002343049    0.9885500633085731 C
   0.6394000909106478    0.0796842824265498    0.7542339877357276 C
   0.5583463053553317    0.2200996784218367    0.6987622189134122 C
   0.2923727979016674    0.5376928242873434    0.9564485518065581 C
   0.3379182007107889    0.5352589814414531    0.7841868466197256 C
   0.5071473347976766    0.4682687648899442    0.9881443151503363 C
   0.4227955526826672    0.6386416766390237    0.8958742558877905 C
   0.4455088338933486    0.4627534066542339    0.9005577887521117 C
   0.1137599142857450    0.1466369371841229    0.8956665016761846 N
   0.5761305935840271    0.1150923797946288    0.6790687928414642 N
   0.3764913997055480    0.5452732741837817    0.8833504416015940 N
   0.5630619481974007    0.6177885042182432    0.4870188475800715 Cl
   0.7856750283025575    0.5995523361246206    0.5862981714180693 Cl
   0.5767681828123158    0.5160939641523076    0.7044210811134265 Cl
   0.2027523783828526    0.7811603313432791   -0.1343698163621605 Cl
   0.6152916657395332    0.7962059446019197    0.6773565635001761 Cl
   0.6518755188350657   -1.1820713531421729    0.8911300699482688 Cl
   0.1072799487638742    0.1449220499873620    0.3339827729081820 O
   0.2356690561993232    0.9903131617542806    0.1913936675682149 O
   0.1340134104290901    0.9652102394652247    0.3158454119379257 O
   0.4125260555061721    0.2525758951161257    0.0678356846054793 O
   0.4875277009355485    0.1544086906733091    0.1611431206024864 O
   0.7613310319486076    1.1247300552650992    0.2350332065939746 O
   0.9842446586912086    0.2934925271981700    0.0585948051597248 O
   0.7994366045654998    1.1282779983562130    0.0799488706009514 O
   0.8311494081580481    0.3038394936458534    0.1009243771935138 O
  -0.1183037191167130    0.1407710142140260    0.3649939233801586 O
   0.0133440058150300    0.3109036760311660    0.3435478325834556 O
   0.5465934129245353    0.3907021328659886    0.2047966028639243 O
   0.4563443347864528    0.4953549254004206    1.0696404362043053 O
   0.9216924228765040    0.6056401856731218    0.0537216442901795 O
   0.7335624634740380    0.4507081254490859    0.1429959993672553 O
   0.7503759171504280    0.6084668673844214    0.1612191112369328 O
   0.9855631541175253    0.5585802223979752    0.3413880253768959 O
   0.0866214108255646    0.8574562391598433    0.0119755966695249 O
   0.2804451608770364    0.6361831912964404    0.3383741949850441 O
   0.1416100536773561    0.7695286405797028    0.2983382852203258 O
   0.0310906026544717    0.8484235392024506    0.1566729192440422 O
   0.4090571819392280    0.6484741769276788    0.2536306943416128 O
   0.5220002244509994    0.7690300263191321    0.1468087771634703 O
   0.5148351194817852    0.9031723937703011    0.2325547964521672 O
   0.9693572631335821    0.6756717114356358    0.2283104755117105 O
   0.6818134517844017    0.9589487395745304    0.2973831735763663 O
   0.8703006355477044    0.8844433757428194    0.2849743909845155 O
   0.8597990831761776    0.8962926698397662    0.1304198979472655 O
   0.1349367088262921    0.9860951156829201    0.6809176658923989 O
   0.1483480927040047    0.2658280822265571    0.6210070679919155 O
   0.1636187309322139    0.1603243309612953    0.4791915333673771 O
   0.3923344407481688    0.2461313778523318    0.6703563620279152 O
   0.5575536610649081    0.1912189605140338    0.3407138699318530 O
   0.6441269849136880    0.3279199684844037    0.3500042478642652 O
  -0.2055677236096146    0.2615293355812313    0.4278430581998314 O
   0.1184010181863796    0.4230542724278060    0.6352716952525402 O
   0.0653145247362876    0.6019719122618992    0.5965401751855215 O
   0.3356053839336393    0.3573482974298278    0.4211035952347534 O
   0.4150210004515435    0.4599903486990158    0.5122817311277031 O
   0.0951905763002818    0.9783593892356826    0.5297244686801026 O
   0.0177832920157431    0.8120131695273570    0.4364976245853158 O
  -0.0795547207317784    0.6892748019346481    0.4515139316813546 O
   0.3420347192311396    0.1566978489187333    0.9078535868207515 O
   0.1202159710905520    0.6389543913631388    0.7374491206262607 O
   0.0210236263754589    0.7968710037962938    0.7397169879093266 O
