Li1 Co1 H90 C51 N3 Cl6 O45
1.0
  14.0811810000000008    0.0000000000000000    0.0000000000000000
   0.0000000000000000   14.0082280000000008    0.0000000000000000
   0.0000000000000000    0.0000000000000000   13.1683059999999994
Li Co H C N Cl O
1 1 90 51 3 6 45
direct
   0.1615444492901554    0.5227739411437335    0.5273106495246997 Li
   0.1519938838936876    0.2746742707214646    0.5766200269039922 Co
   0.3574279437214818    0.9188159258972656    1.0643724454762824 H
   0.4155321425099215    0.8073135260219922    1.0363476463867107 H
   0.3135297451257817    0.8095856021189831    1.1186815494718911 H
   0.2001846634880980    0.9468102510895740    1.0048520903144262 H
   0.1582652165326189    0.8339127725505323    1.0519661184969427 H
   0.1413521493687213    0.8640429803112856    0.9206005715541544 H
   0.3312915933684824    0.9535038007662354    0.8855698872732758 H
   0.2842316784366311    0.8635272284260365    0.8037528669215311 H
   0.3991405713767900    0.8486064097471856    0.8597397356956924 H
   0.2677467010757123    0.6874819299057667    1.0168360873448719 H
   0.3470076686039331    0.7000315571676874    0.9124414127375230 H
   0.2205317224457238    0.6187435177382892    0.8409904903485688 H
   0.1889845070523559    0.7375994101466652    0.8050341152461069 H
   0.1155567462700749    0.6330415945542862    0.9729877799012265 H
   0.7197636299114399    0.1513960566604141    0.6066767038979806 H
   0.8284843799678450    0.0859485475250688    0.6163553611223798 H
   0.8305998324998449    0.2143361472985734    0.6185927536920847 H
   0.6623450618240047    0.2419597368061114    0.7422211277593337 H
   0.7735992016578722    0.3002420520282794    0.7659696585118846 H
   0.7155781109553239    0.2366612486604301    0.8666042116579005 H
   0.6566290512138151    0.0645765574346734    0.7496106955594745 H
   0.7172075140572370    0.0623066336441697    0.8688791527171377 H
   0.7658379847542617   -0.0006526064538641    0.7608088314472645 H
   0.9184804662336206    0.2105500538683408    0.7698471192877808 H
   0.9156047024748847    0.0834200299995117    0.7627907856940749 H
   0.9643132617924589    0.1255740504794753    0.9298874752758632 H
   0.8462550094342227    0.0803772025983586    0.9436215789639154 H
   0.9051622239640268    0.2764926870122331    0.9422877483254111 H
   0.9340342021027923    0.6328775473957163    0.8886474615641526 H
   0.8337729662021957    0.6298846370861467    0.8038699510779899 H
   0.8711999504871074    0.5234869713713969    0.8701635844428282 H
   0.9101829320992323    0.6124878942575749    1.0679998581442443 H
   0.8392229955711810    0.5074020918277458    1.0505220405722651 H
   0.7922541362120122    0.6060383533163509    1.1209462242144130 H
   0.8645178710507306    0.7608182862243533    0.9818121503251824 H
   0.7468741279584432    0.7543350108236387    1.0321802736054282 H
   0.7647839779916187    0.7607726923062645    0.8964499268167068 H
   0.7144275533422941    0.5071544709295137    0.9225003899514486 H
   0.6805185424432794    0.6163913501407886    0.8635630573894623 H
   0.5572735390589753    0.5727463245172765    0.9793513356995198 H
   0.6153500562204263    0.6721705921691166    1.0371277953291791 H
   0.5837547908801115    0.5256238219423613    1.1366186675795658 H
   0.6543437833801014    0.6325161305198631    0.4643548593114407 H
   0.7143199260062063    0.7438470269044736    0.4569156989517103 H
   0.7581907476368636    0.8103475521671977    0.6000709309154876 H
   0.5480010788867780    0.8195730980392379    0.6338175229220827 H
   0.4879390457377119    0.8802905242547452    0.5388634407493265 H
   0.5431625656967267    1.0042860189026048    0.6308041072253333 H
   0.4095575278806515    0.7920654839427228    0.3979660664021630 H
   0.4788020550264924    0.6410752816130634    0.4852371375634801 H
   0.2032627646786161    0.8244591164564140    0.6030176911138001 H
   0.1581846082370506    0.9068273760250046    0.5133667709422913 H
   0.0490126140698000    0.9788141405179870    0.6138000233287410 H
   0.0148961475603502    0.8319149274269378    0.4262059015032003 H
   0.0176444376363034    0.7104039668686146    0.3892887634901558 H
   0.0686091045914402    0.6779501218855090    0.2330815755648449 H
   0.2041624981597779    0.6888899559601686    0.2994948446671880 H
   0.0801756471989104    0.6838969397128601    0.5767448349089094 H
  -0.0408555440058614    0.3538509760120980    0.1908015237495241 H
   0.0321069702889268    0.4117415971527591    0.0986429780717429 H
   0.0613406254773659    0.2823423533654649    0.0020571590605504 H
   0.2210585049648889    0.3983309023810863    0.2009377751397940 H
   0.2152020579807901    0.4925951340883372    0.2876350769795295 H
   0.3223458039492568    0.5483378211719570    0.1643260325208117 H
  -0.0176747653481622    0.4218631143068202    0.4024169479354445 H
   0.1053091953011612    0.2985675061827948    0.3141893178970780 H
   0.3924913918797010    0.1200915554772524    0.8319459898638444 H
   0.4540814822279466    0.2156674862802062    0.8903976920038159 H
   0.5163399888120179    0.0885456040549883    1.0037536042980777 H
   0.3702388514145227    0.3238183680334158    0.9934890729301097 H
   0.2463044861080899    0.3127725241193961    1.0086693223866456 H
   0.1541098882259947    0.4017247277814153    0.8721737192316158 H
   0.1885355738272237    0.1942344256532660    0.7594024440197548 H
   0.2223139145786138    0.1487400412100660    0.9515652924529550 H
   0.8911212099326042    0.1010515184361648    0.2258279918464836 H
   0.8114112466844933    0.0842258649702161    0.1224203302991288 H
   0.8131909077796811    0.2415652065343311    0.0723176610567829 H
   0.6272624291953920    0.1016072846615575    0.2227775508861960 H
   0.6136195678473275   -0.0072697510348918    0.2899621014274729 H
   0.6124666375639940   -0.1423663870976400    0.1998015090171811 H
   0.7946047316627773   -0.0681704009957576    0.4121402396025731 H
   0.7582312513417729    0.1393417639975591    0.3683049437034650 H
   0.4181367202083404    0.3473897505094863    0.3780695861715243 H
   0.4461717607351258    0.2972522084877545    0.4971671511886191 H
   0.3179696525454789    0.1609163664383532    0.4456602580468589 H
   0.4209628333021214    0.4629656970174957    0.6288559864875558 H
   0.5174766953141217    0.5390158933735230    0.6060416366387598 H
   0.6280102066722955    0.5107473414910151    0.7058587095409236 H
   0.5417510711637041    0.4253791414588626    0.2993320705032219 H
   0.4400952540841567    0.5246370740110741    0.3667160346972496 H
   0.3475014659636858    0.8421803150262831    1.0523132405945004 C
   0.1883706913503917    0.8714032388678996    0.9863260809704757 C
   0.3274633185952229    0.8768748552636350    0.8713065598566742 C
   0.2773200912622314    0.7213191111680934    0.9424271086956819 C
   0.1986627705446013    0.6893670498509875    0.8700947714914887 C
   0.7907529077284071    0.1503557587726299    0.6402847002492197 C
   0.7291757417222319    0.2385716608838748    0.7850597328160509 C
   0.7263964372022488    0.0624783348757602    0.7861914167243684 C
   0.8814846822862371    0.1462413304523598    0.7969483963996585 C
   0.8888469894677157    0.1393261660218552    0.9121124919180950 C
   0.8640696465729685    0.6013008897342332    0.8742977646479357 C
   0.8379938202626611    0.5852760099278795    1.0576559384327795 C
   0.7926149177402093    0.7334999351809522    0.9686415709051719 C
   0.7020732231195664    0.5836543051697902    0.9358554820946599 C
   0.6243089219576113    0.5964629537725969    1.0153399351442776 C
   0.6606173083067393    0.7036020009097510    0.4997426965928647 C
   0.6916700026794628    0.6902041478765193    0.6102949696035315 C
   0.5650423902654188    0.7568899563884882    0.4888261284329207 C
   0.5567993096601769    0.8465561261567129    0.5554520604244768 C
   0.6339245657022660    0.9209454036584783    0.5573775275270790 C
   0.5498882274150158    0.7872450712538374    0.3751652042411530 C
   0.1434207485863579    0.8379617000808381    0.5506020022620982 C
   0.0528142554236040    0.8379954695197707    0.6126870236763940 C
   0.1429718295645798    0.7577156382663104    0.4719155121395265 C
   0.0611043420292659    0.7755967214411416    0.3948565639346474 C
   0.0917701768054824    0.8081666824669044    0.2892689902558461 C
   0.2433520476727059    0.7528056810611591    0.4239556955921286 C
   0.0334926381530072    0.3686017503427271    0.1684359856157656 C
   0.0806241486420777    0.2712282531380843    0.1515699923741140 C
   0.0814922356299518    0.4244778697205671    0.2548698534192629 C
   0.1787944817980821    0.4620584109567605    0.2210174657241410 C
   0.1851573955337979    0.5320681223920684    0.1335584789721624 C
   0.0126082719908224    0.5043146970480491    0.2907707847919087 C
   0.3879343884578999    0.1737386977139435    0.8944310999455816 C
   0.3777721549066090    0.1195423932277516    0.9944096666647936 C
   0.3007406189864330    0.2384222244241027    0.8764216247708704 C
   0.3024804183683172    0.3243308611196219    0.9516702900130055 C
   0.2924189924126392    0.4242479469922962    0.9055393374060415 C
   0.3000757954890289    0.2722172133406167    0.7649015279565952 C
   0.8158241102078014    0.1067269407665266    0.2021857838054492 C
   0.7866658130450848    0.2110349531718073    0.2175819699208083 C
   0.7579967184570667    0.0370742716352132    0.2681520614724476 C
   0.6550236730853753    0.0281309527514829    0.2297284411525674 C
   0.6391313065289055   -0.0210250839720770    0.1274837424039204 C
   0.8099917854901516   -0.0615497549011909    0.2657800479423853 C
   0.4191611733419235    0.3621624519532378    0.4602822952322038 C
   0.3149492602928689    0.3750180079878768    0.4914299956273799 C
   0.4873179941369974    0.4449274297934042    0.4842793522568506 C
   0.4937221991536078    0.4645337154706505    0.5978809081441455 C
   0.5565349504420118    0.3985177318644442    0.6620524059814528 C
   0.5905249559678268    0.4223769644526060    0.4405163458382574 C
   0.2834625291728016    0.8281521688539050    0.9618110666626369 N
   0.7813985985976603    0.1495049502335342    0.7540972005055169 N
   0.7983549639763879    0.6263093918802578    0.9608803622880575 N
   1.0583869975110751    0.4028123535682029    0.6007103449752763 Cl
   0.4413452870181840    0.4897117536921872    0.2139093213660132 Cl
   0.0945012794026296    0.1252258315612796    0.5642386317571904 Cl
   0.4464356270969033    0.0000386608498948    0.7232865229589895 Cl
   0.0151589351773832    0.3613900516182346    0.8957557023659688 Cl
   0.3712720800904413    0.0924504084313876    0.4096107874467680 Cl
   0.1092655885894798    0.6824375952475931    0.9192605252338457 O
   0.8586894416029450    0.2254192464600091    0.9613992232562033 O
   0.6441271879112981    0.5396716786734196    1.1019126780620074 O
   0.6645594847477637    0.6240814862522225    0.6643535546637510 O
   0.7534970532656315    0.7538795949066506    0.6475069192650900 O
   0.7186502971590237    0.9044312149973572    0.5348182887001564 O
   0.6076437132652438    1.0060555660573198    0.5891422488207672 O
   0.6175874438372747    0.7995590434421826    0.3171820992009147 O
   0.4615465052256625    0.8026465403047408    0.3453789583869026 O
   0.4873192262779663    0.7023355844864888    0.5231165618417434 O
   0.0157003911816772    0.7627578249011937    0.6410468324475450 O
   0.0147064667374136    0.9218094337128150    0.6403511241309248 O
   0.1024491454232425    0.8901235495310327    0.2626211108702972 O
   0.1134800049796959    0.7334840780718302    0.2237934590827400 O
   0.3093399772362844    0.7999251982477726    0.4588312855123507 O
   0.2582628665876818    0.6905939630622803    0.3483018787686131 O
   0.1293027985365716    0.6664805520012952    0.5238674830308470 O
   0.1108712777713744    0.2226085519167735    0.2230785934044971 O
   0.0850362998671773    0.2368489362109183    0.0578967416158160 O
   0.1208808295270120    0.5484202084660530    0.0726919620488771 O
   0.2676831360949057    0.5785863529634154    0.1260547757623494 O
   0.0031576207989941    0.5818469159696715    0.2479905813245835 O
  -0.0401513949717712    0.4826601094728041    0.3718431163431348 O
   0.0948544656872176    0.3651543835522951    0.3419273314274440 O
   0.3003611337713790    0.1046957452434384    1.0357450031917546 O
   0.4546931162947198    0.0817284084753618    1.0381978107130865 O
   0.3543149150628772    0.4848500224296748    0.9122805097329908 O
   0.2099436169451980    0.4442282078789694    0.8567212950549601 O
   0.3585793443035779    0.3234630532855404    0.7263553922577437 O
   0.2241151079586293    0.2361859972581828    0.7115698442912856 O
   0.2145604328216504    0.1844678948686443    0.8861634974156890 O
   0.7674838800807972    0.2423246566232360    0.3026644194021615 O
   0.7848213974381835    0.2687226421500278    0.1369748857597932 O
   0.6430728708053677    0.0231107360616917    0.0465022235965659 O
   0.6156598292430158   -0.1139956831085274    0.1295844476882600 O
   0.8342170837801175   -0.0982583450240816    0.1858333813020445 O
   0.8289914674060364   -0.1009827745522132    0.3563824716709955 O
   0.7542167627843147    0.0679553588076950    0.3708089734549000 O
   0.2783419061227890    0.4559130562409464    0.5024298592392978 O
   0.2689478204988630    0.2950089218993294    0.4991546125978543 O
   0.5538232112775199    0.3116001438583095    0.6594058377744261 O
   0.6149991722995393    0.4441325683733874    0.7278314963215465 O
   0.6604321867604712    0.4216069976873592    0.4954585829035261 O
   0.5973747486095093    0.4037733473498575    0.3410220411038443 O
   0.4554779190751116    0.5320972102966913    0.4402170188025704 O
