Li1 Co1 H90 C51 N3 Cl6 O45
1.0
  14.7186475943000001    0.0000000000000000    0.0000000000000000
   0.0000000000000000   14.3371642642000001    0.0000000000000000
   0.0000000000000000    0.0000000000000000   14.3843402966999996
Li Co H C N Cl O
1 1 90 51 3 6 45
direct
   0.9854326088231750    0.6594298188315795    0.3726773726098399 Li
   0.2133895303272510    0.1020852942973286    0.2228088381109330 Co
   0.0262847041293266    0.2964954264989860    0.0845146960809109 H
   0.1327584810140249    0.3153820065095213    0.1297374860443293 H
   0.6195599995703064    0.0481290177460698    0.9517995171207774 H
   0.4140526674176301   -0.0018983089123112    1.0621521622375065 H
   0.5360998859878789    0.2384930220711811    0.1931814800806332 H
   0.5576153138130983    0.0421661928509496   -0.6376915216337299 H
  -0.0685514546316567    0.1745891716920823    0.1714363048728582 H
  -0.0870456809697761    0.1957614198721472    0.2875785794256417 H
   0.2031406267487443    0.5622075945259993    0.0368482764984084 H
   0.0423595505772860    0.4723905305466564    0.1624223357004418 H
   0.2512856750937041    0.6668559735465572    0.0043622541740336 H
   0.3547924674290264    0.5328692963626511    0.1869170287299742 H
   0.5127686663360824    0.5228405349318409    1.0103173206931184 H
   0.6830916517828459    0.3074599378279473    1.1437158610794449 H
  -0.0107091838288894    0.3543109041433201    0.3036815076950139 H
   0.1794020327127467    0.6992807955987679    0.2464539961775861 H
   0.1372092975432126    0.6997739196133720    0.1331891563313143 H
   0.4165039795894068   -0.1034358217128754    0.9804132728794913 H
   0.5701990107059928   -0.0073331353929261    1.1188603590108501 H
   0.3496568053706948   -0.1549725123989837    0.2977889885907874 H
   0.6000079314773488   -0.1055164284109856    1.0301465234314209 H
   0.4417765460814569    0.7804851382808921    0.1381563636224538 H
   0.5628553332853946   -0.1587145355083906    1.1927504351684501 H
  -0.0448026694419517   -0.0373704560278954    0.3122429013675658 H
   0.1336260878996565    0.4390898728153250    0.7070569757608757 H
   0.1168976487939229    0.3030943604483056    0.6541918471338469 H
   0.2906439107120596    0.0918684901022507    0.4107187418150398 H
   0.1952669413943317    0.2841938306778098    0.4534397138808202 H
   0.2017029946657400    0.2141311612761455    0.6512469779826549 H
   0.3521495615675487    0.2174665488827036    0.3586774257338472 H
   0.4707275755337159    0.2433691606653776    0.3562782889442429 H
   0.4782841801257759    0.1838608796498356    0.5883876475337335 H
  -0.0622818568708043    0.1087051528865889    0.6943640057508512 H
  -0.0646890073765152    0.1990570506628178    0.6001128985025731 H
  -0.1135712158396506    0.0864573782135686    0.5793416991401287 H
  -0.2446301319283160    0.1824087096379464    0.5436291124379180 H
  -0.1778508987343205    0.2833805596721120    0.5749028441990613 H
  -0.2925761130708560    0.2621294953482702    0.6159419177904605 H
  -0.2772622060997231    0.0716859773913840    0.6204002383444253 H
   0.1806922327721159    0.4154645593462043    0.5558941170443841 H
   0.2891763845781799    0.4142251231737129    0.5003277175075649 H
   0.3688209302125203    0.6789511129203180    0.5193774614894188 H
   0.6659589635800484    0.6052817330808636    0.3655960607179508 H
   0.3473719487094738    0.3286719428238997    0.6344849996766135 H
   0.5069642200068500    0.6690286486604068    0.3664977357153767 H
   1.0062422652836378    0.5089221479814815    0.6085734881083349 H
   0.7162883158696484    0.5740641930044352    0.4793683273804302 H
   1.1978461461382988    0.8322513025183507    0.6072588640372999 H
   1.1588031568746284    0.7814093098782758    0.4963315662198213 H
   0.3648144479849794    0.0080346176675704    0.4711988182075306 H
   0.5367665233223987    0.8027412828098885    0.4756417053112694 H
   0.6518727509255452    0.8318195574475729    0.4653474549705728 H
  -0.1660903073558684   -0.0433765251788933    0.6716615395088006 H
  -0.2439235452712628   -0.0465270784659746    0.7606617976780057 H
   1.0175707517448922    0.8013993159016874    0.5200144041514402 H
   0.7038394819108166    0.6629953774774858    0.6202938726739501 H
   0.8602125443986587    0.7885299648501185    0.4162469758779007 H
   0.1359591826884263    0.3883824953588691    0.8181673893796820 H
   0.1266077800464266    0.2340737381156914    0.7498945329439023 H
   0.3751204220242481    0.1114100113429319    0.9814532927685808 H
   0.0897687976245645    0.1355772729865184    0.9415126359049634 H
   0.2519854676482856    0.2956612308533475    0.8593107430401744 H
   0.3327320167035300    0.2533523063811170    0.7710105517348150 H
   0.5575178863836546    0.1358611506017148    0.8798254134326496 H
   0.5028236399970669    0.0029310979860176    0.7875695315063548 H
   0.4070975447173866    0.1188536032578603    0.8548913537120045 H
   0.5536079483522361   -0.0880032022685626    0.8594706391461173 H
   0.5505424493170208    0.1347395899008898    1.0064533965329849 H
  -0.1348625741653545    0.1756367986651166    0.8064706416297279 H
  -0.1206683352815519    0.2780949956230746    0.7396723053709261 H
  -0.2353901525668516    0.2491220416730922    0.7737899631763792 H
  -0.3012521819271722    0.1123969568601380    0.7331054418198968 H
   0.2147137008989785    0.4768066060573552    0.7916865086341544 H
   0.3123483504680407    0.4440739825516158    0.6565861175202268 H
   0.3442453027520136    0.3609251828285961    0.8216315732749582 H
   0.4061613173967912    0.5122623412803459   -0.1031595346670453 H
   0.6404457499784518    0.4218779614880490    0.7977507422521544 H
   0.7079682579828473    0.4592154007567530    0.8976899796692362 H
   0.6088980145615225    0.5590918458900194    0.6167629495344543 H
   0.6977139191223635    0.6419382148170952    0.9261841609487232 H
   0.7911926162095080    0.5799456907989856    0.9049297972661470 H
   0.8697439907561575    0.4663145033494566    0.6908017985906275 H
   1.1417723802089059    0.7056586258527133    0.7482448222508479 H
   1.1110752664214292    0.9446208039282514    0.8051289047407287 H
   0.4342848251680014   -0.0863124913613487    0.8396344844032085 H
   0.3394676898939387    0.0198228623221998    0.9017617687670956 H
   0.6298415148406771    0.6892425483311845    0.7714095967992116 H
   1.0225467523951397    0.6818136036642146    0.7414839977713052 H
   0.8957586091201628    0.7711673961152691    0.8012177069492731 H
  -0.0845420542089675   -0.0323478449541136    0.7969783745404040 H
   0.1051744249790649    0.1797652301254297    0.0710910703867733 C
   0.0798643550413712    0.2659970662973218    0.1260459715984300 C
   0.0375282643096850    0.2644765424616262    0.2275528860542130 C
   0.1096605708411053    0.2687082021456470    0.3066312432494303 C
   0.0065396835261737    0.0824719317928508    0.2525502090167747 C
   0.4153401498360106    0.1862623308270375    0.2198486745496073 C
   0.4197794163909965    0.1954873070889231    0.3312712331752325 C
  -0.0280918950026444    0.1819727796391805    0.2384911701016293 C
   0.1015293890030166    0.5786310654203073    0.2051201575908835 C
   0.2639546379726179    0.6036914604453654    0.0451503603991485 C
   0.2659425923558271    0.6285520251589892    0.1488992963404354 C
   0.3463691391846561    0.5500632124995780    0.0099655698866417 C
   0.1699147480213137    0.6555489956105653    0.1870956952483539 C
   0.3287826049367512    0.7140521964209526    0.1762603008691097 C
   0.4628313337590974   -0.0441437619767213    1.0195030043793081 C
   0.5419361558930886   -0.0725998773201668    1.0826758702359696 C
   0.5889362620895235    0.7678082939167780    0.3405132280987327 C
   0.3296549676941129   -0.0265510222025234    0.3297397065604837 C
   0.1637803528996474    0.2668026649350413    0.6933267666636042 C
   0.4440372157378787    0.0998052060317832    0.3801493871605980 C
   0.3522331290279501    0.0445425344602226    0.4021239785203781 C
   0.4960798164654512    0.1231912811175811    0.4661436680581225 C
  -0.2491346218670299    0.0901666193870684    0.6865110213476725 C
  -0.0961531753330430    0.1414445420259092    0.6329048090296213 C
  -0.2278351106183601    0.2330881875744814    0.5986126559085522 C
   0.2915529616227683    0.3726890154032947    0.6408384366862321 C
   0.2433739427654502    0.3772394271024133    0.5472840593395887 C
   1.0518422428427119    0.6374136101739036    0.5733963448008949 C
   0.5461392594461596    0.6217201302183293    0.5153698393940750 C
   0.6977302249682954    0.6288359027741857    0.4339737533831922 C
   0.7867343261676014    0.6792998569193306    0.4094903226011218 C
   1.0783847629687657    0.7373496905310013    0.6157681176753053 C
   1.2468112426515887    0.6905315061515357    0.5647779446905721 C
   1.1723669030490607    0.7688259289058973    0.5710013792140544 C
   0.6304849163447437    0.6913684917491664    0.4970010442633996 C
   0.6004882745220955    0.7778353813763931    0.4435703700616553 C
  -0.1938034513377900    0.0014035992703417    0.7269132913171426 C
   0.2958794460767246    0.3099318352929498    0.7991049927494447 C
   0.1792844947399869    0.4197938673499487    0.7616072703044507 C
   0.5579209125422738    0.0897613788602156    0.9421459635245895 C
   0.3906891078380684    0.0709431526734868    0.9175490760273456 C
  -0.1671101021368653    0.2198484703959608    0.7523346865606831 C
   0.6547357857071048    0.4713356496984425    0.8495570805776570 C
   0.5703879546957297    0.4879814797665210    0.8985853978625166 C
   0.6924185956559478    0.5630961942354837    0.7978223478995984 C
   0.7555147459000535    0.5288597866060013    0.7249750724329302 C
   0.7410134135845318    0.6201668244467264    0.8698284308089147 C
   1.0593775818940356    0.8283049154255222    0.7602356397956448 C
   1.0775864559283450    0.7318151232666686    0.7229610766985103 C
   0.4928728845990833   -0.0417430082875175    0.8494632285154731 C
   0.7794530865487180    0.7113668676285543    0.8308666161938520 C
  -0.1876887591132915    0.1736447729427557    0.6671823629410173 N
   0.2333118770049143    0.3430157835032947    0.7235506066891171 N
   0.4776101372195620    0.0188749761328831    0.9354741247040063 N
  -0.3947050614249246    1.3192674147236894    1.2755627140376646 Cl
   0.7444607411786545    0.3277296365385672    0.0793611750663249 Cl
   0.9424531165874221    0.3962982866484608   -0.3914932305092871 Cl
   0.9985764794648582    0.8313843249368049    0.3721358114510158 Cl
   1.1294139078129473    1.0873610252361776    0.8415824360938695 Cl
   0.5086356031853920    2.2027545371826851    0.7192584390452409 Cl
   0.1683704485295043    0.1242347231626273    0.0905928337081233 O
   0.1786288638514713    0.2183021395043382    0.3052276335194358 O
   0.0804044861878686    0.0493775212625355    0.2347579436280926 O
   0.3441590176506235    0.1524034734508863    0.1904368286621001 O
   0.4851109622303296    0.2054809151246329    0.1668389442267692 O
   0.4973383695955074    0.0394376198026737    0.3257826255386271 O
  -0.0607457103019608    0.0314318525613367    0.2913799355443192 O
  -0.0244638442827753    0.3465401903573177    0.2370507147472218 O
   0.0974033305719745    0.5081244449078997    0.1420195925821266 O
   0.2925768328652483    0.5525023280286733    0.2061219414546389 O
   0.0455256023290819    0.5890309602148668    0.2666843295816672 O
   0.4114233497610957    0.5242226771487283    0.0582583650841640 O
   0.2801918634696501   -0.0158117994969244    0.2570752688149590 O
   0.3058871590174872    0.7650825108204943    0.2429668706671095 O
   0.4013014958988092    0.7258536933475446    0.1245811842279008 O
   0.5109709468220799   -0.1391304674998299    1.1478717694330394 O
   0.6326862055455632    0.8186342443328982    0.2860102071864800 O
   0.5310020670803145    0.7027717230288857    0.3133239380838320 O
   0.3613202410838021   -0.1087471928178398    0.3477822441149895 O
   0.0859403208817813    0.3173649648879078    0.3764425783045650 O
   0.4507978912253832    0.1710159406781975    0.5248028058841078 O
   0.5787029849467017    0.1076142816576770    0.4720200585116626 O
   1.0487930496534288    0.5649318431486873    0.6300371071295583 O
   0.2323090674800966    0.2858503646731205    0.5134421875568641 O
   0.5489013338649903    0.5568222199444444    0.5815072485749642 O
   0.4776529400651335    0.6284236873673527    0.4671101357384783 O
   1.0426022634812475    0.6275846093057278    0.4894696456892951 O
   0.7382801461601809    0.5442499987800342    0.6407431942231270 O
   0.8536487620007831    0.6410447326916244    0.3817135881969960 O
   1.3224024267513337    0.7264619028818228    0.5247736769848078 O
   0.6747559674603602    0.7169983857246124    0.5799423523381054 O
   1.0125770864282182    0.8089844978802151    0.5895090058767158 O
   0.7942411299885441    0.7692520940726908    0.4286308597631329 O
   0.0645674333264175    0.1798614834691572   -0.0070876974123999 O
   0.3431670786897603    0.5382954739920904   -0.0784201310753741 O
   0.4969989430301255    0.4623245930055513    0.8615910005510125 O
   0.5736671961947035    0.5236426461295702    0.9815638296418197 O
   0.6198005107978034    0.6205260307657096    0.7600667060837139 O
   0.8328166850021638    0.4868133268674278    0.7500572098516877 O
   1.2345478876902332    0.6102638898507600    0.5872266627644959 O
   1.1313862357604716    0.8889549842938320    0.7633181586380398 O
   0.9787281885041360    0.8536858061856731    0.7785965791611151 O
   0.8695299765283001    0.7088133640677828    0.8258945424994882 O
  -0.1233927703726896    0.0234086481200491    0.7964062245613127 O
   0.7323257947540137    0.7752602556876828    0.8025775190502484 O
