Li1 Co1 H90 C51 N3 Cl6 O45
1.0
  12.9284619083999992    0.0000000000000000    0.0000000000000000
   0.0000000000000000   13.1705508447999993    0.0000000000000000
   0.0000000000000000    0.0000000000000000   13.1384695574000006
Li Co H C N Cl O
1 1 90 51 3 6 45
direct
   0.3333094829633370    0.3148199320787759    0.7267292234446138 Li
   0.4756109425673342    0.2536850555281948    0.9366486503573623 Co
   0.1034971494428602    1.1783320307006997    0.2024862764325242 H
   0.6102519394881679    0.1635111505795719    1.0769930026385952 H
   0.4168368203721567    0.2321544450517196    0.2659000550587218 H
  -0.0402794276294888    1.0599186083330432    0.1360554036290467 H
   0.8941820795162704    0.2615693119441668    0.1772557883188386 H
   0.7405458609101377    0.1266448109919832    1.0741266109454479 H
   0.2378704424384689    0.6054888680338334    0.0547498911922242 H
   1.0599024888874693    0.5472433922720602    0.2428524695939865 H
   0.3627515003275747    0.5309897061109746    0.1907276770518995 H
   1.1412478188618493    0.4222386738361548    0.3450888826047736 H
   0.3040167486316574    0.3945379341860707    0.0909968831207302 H
   0.3219515966934633    0.3600610162992778    0.3652213644622986 H
   0.5019819913754282    0.3810646936138998    0.2688730040638820 H
   0.4452528069452621    0.4983248840340865    0.0812270998564608 H
   0.5528055854468221    0.5581562236102230    0.1998177768902580 H
   0.4715886543501865    0.6521254899365924    0.2647035686695483 H
   0.9344242988681304    0.4031146445553715    0.1135329934878036 H
   0.8407457152453486    0.5045306761048313    0.0993783768342029 H
   0.9134334028185642    0.6722734703154669    0.2242795301101361 H
   0.8829487246880646    0.3604117988940562    0.3425680410520111 H
   0.1146786806276390    0.8393758205462419    0.0991119835541706 H
   0.3247462060024427    0.7703156870166629    0.0573856624172293 H
   0.3225116014373607    0.7125428566342177    0.1828135132639692 H
   0.1445468894475225    0.9421148795229773    0.3362438645840448 H
   0.3516906331483871   -0.0020141965140717    1.0842061715382121 H
   0.5438910679414475    0.7212364945351113   -0.0041587965067990 H
   0.5781043411934349    0.6976406705136203    0.1898592349589943 H
   0.4182484345401299    0.8048055124881121    0.1502008867987606 H
  -0.0246781904963268    0.8668818834489209    0.1267978565860965 H
   0.7259594390034859   -0.0772950265783253    1.0618139135423561 H
   0.1310843444647419    0.0322372182760779    0.6083333940670688 H
   0.2513608329610013    0.1081520385278639    0.4629660823222786 H
   0.5304415175438845    0.1712898685092361    0.3179890747889187 H
   0.4276316079492716    0.0928322540801494    0.4461043010446242 H
   0.3728060606396210    0.0558383571853686    0.3189085121668587 H
   0.4795671749762929    0.2132296481364555    0.5374603752628703 H
   0.6049396292932965    0.2492494020245248    0.4801821666623760 H
   0.6971864880805065    1.0616246873167381    0.3847875703188407 H
   0.7057250134505103    1.0910198131973581    0.5165847322664209 H
   0.8804658307268624    1.0472494343579941    0.3546759961913066 H
   0.9126637830393131    1.0550478932994858    0.4890048837599478 H
   0.9148883322705958    1.2076360442190395    0.4671205235805649 H
   0.2209009064213920    0.6223590811796811    0.6074375515225030 H
   0.3414171759544031    0.3029320466102788    0.4938897753920826 H
   0.3872872882849883    0.4272478796603780    0.4636454612987266 H
   0.5347614436414904    0.3406016935253037    0.5377471666569165 H
   0.5580124693342443    0.4326118922087137    0.3806790248170857 H
   0.6175312276716179    0.3233396972216517    0.3300665849819249 H
   0.9722478236976605    0.4597257163917768    0.3855098766695568 H
   0.7501618539710931    0.5906907018601726    0.4614686476390343 H
   0.1727134263936847    0.7042577058242132    0.3350884788723619 H
   0.0058768749707677    0.9501183412795993    0.3441907566892362 H
   0.1226502398688075    0.8442032572077163    0.6188726733488028 H
   0.4776121860395519    0.7721386935319506    0.6300535798735861 H
   0.3662515299769331    0.7710650861964167    0.4671336910198350 H
   0.5961752456564171    0.9378781546769523    0.3697698394379354 H
   0.5566723253849674    0.9591263168303592    0.5037200375421559 H
   0.7435222397147192    0.9011203906544142    0.3163663591516935 H
   0.8267626133666524    0.9056221006207371    0.5894971057978150 H
   0.7139874038846421    0.8334709802008053    0.5987805310451113 H
   0.5797891510458620    0.8364457988292509    0.4532573411753195 H
   0.8611634572683567    0.8770902643727214    0.3966869775760539 H
   0.7067282263687906    0.9702298767135618    0.6249357844023374 H
   0.7414477470032100    0.7966532338730994    0.3993897276828957 H
   0.0985205326994410    0.0660027004674003    0.7678222896987356 H
   0.2096018051798834    0.1134350370007388    0.8303310922964806 H
   0.0089584480366337    0.1708046951800945    0.9119319207123104 H
   0.6064200838234339    0.1713156836785488    0.8400369411735423 H
   0.5346711776834615    0.0232140573316046    0.8481261634026368 H
  -0.0889619394750059    0.1927217739265745    0.7435492951458517 H
   0.7293968161884027    0.1156224929651471    0.7758445330459932 H
   0.1791867408987632    0.3618460593302823    1.0024356125468188 H
   0.1389793284715929    0.3223587207877691    0.6732473474216766 H
   0.3079731357380591    0.5243692540867962   -0.0325136972334345 H
   0.1988518798612575    0.6454879543444865    0.7391888177135519 H
   0.5511889971667869    0.5899511731863324    0.0089386193869022 H
   0.4061193815165745    0.4915307794400992    0.8175449759785887 H
   0.7751230598969369    0.7033754344494674    0.6986429993689822 H
   0.0223188927069910    0.3576799465650244    0.7459689072522020 H
   0.9911309670854582    0.6715901275983661    0.8264562117574968 H
   0.8617574954497285    0.4056513645751869    0.8768174807857700 H
   0.9095953592561077    0.4698205105706013    0.6847113919469513 H
   0.9573156530057569    0.5886444700572985    0.9219231909608352 H
   0.1441477700444133    0.8695567905515278   -0.0670390274492748 H
   0.2904056941035339    0.7664160779110741    0.8154671083943369 H
   0.4488605833637156    0.6448828164050094   -0.0642091696916748 H
   0.5691447293834068   -0.0594711707072791    0.9584761545995497 H
   0.4784460826063968    0.6376120498950568    0.6652715326175103 H
   0.8225587103513456    0.8651226555872291    0.8742844612544918 H
   0.9060442794505377    0.6718733351911201    0.6620938413485539 H
   0.1693564918791620    1.0426740752321613    0.1776013384592234 C
   0.6562226051567458    0.0997803309736933    1.0651872135912219 C
   0.6527457801238473    0.0169766568638455    1.1462171992641252 C
   0.7783840819967590    0.3603647241735449    0.1552448532752575 C
   0.2872444518544891    0.5334829959047698    0.0512045771968232 C
   1.0304821291652606    0.3381781046886529    0.2832582411856249 C
   0.3838328943813342    0.5494147517191323    0.1096512628359047 C
   0.5170357465227090    0.6369021327389577    0.1980359864086707 C
   0.9136577141110093    0.4885342305132498    0.2385323317155202 C
   0.8676182080802674    0.4387868807083108    0.1477287571600611 C
   0.8328801237526799    0.5642596889054303    0.2841457113699610 C
   0.9455748905642961    0.4155522412762919    0.3218669998225314 C
   0.0666489919918586    0.9741955422818035    0.1949907306560731 C
   0.0514368189280065    0.8974796925116383    0.0997315382111600 C
   0.0716828467892120    0.9185175369621151    0.2991231026970329 C
   0.0812307729752185    0.8078858696028653    0.3013813565880493 C
   0.0456217420431720    0.9611740671726047    0.0044799570028191 C
   0.4997097875968091    0.6516091865503384    0.0054024388753880 C
   0.3703602940647545    0.7410458406341781    0.1216853889804485 C
   0.2190963607480323    0.1331297333772699    0.6742010353641922 C
   0.4528823301398126    0.2026332804032789    0.3326780002498984 C
   0.3817282356684273    0.1152641176735120    0.3795464728151199 C
   0.8572148050341082    1.0753682278970067    0.4275161390876292 C
   0.7429297485077780    1.0464066450069029    0.4536795364679878 C
  -0.0048181327555699    0.2446034308179250    0.6289271168608781 C
   0.5407961135467563    0.3614588317905918    0.3417597277280274 C
   0.5264159033317108    0.2705560279437281    0.4993085952697677 C
   0.3699441579429081    0.3458459692442096    0.4315033614784209 C
   0.8050678439511378    0.5767489918919447    0.5983078732539683 C
   0.2660300179996932    0.7973472063657995    0.6215777068266163 C
   0.4462882742804215    0.6555247403193261    0.5130511395753413 C
   0.4365257053921615    0.6981205289549621    0.6205304006742608 C
   0.7448673339821743    0.9071907517913264    0.5814406118859818 C
   0.6032619355232505    0.9176534880598254    0.4503671263117007 C
   0.7744942147908754    0.8711626459367147    0.3873822408663550 C
   0.1542611153848245    0.1267465531298626    0.7718592895767104 C
   0.0920812516318370    0.2265069971297242    0.8011785339770627 C
   0.1688282001110931    0.2846837589849445    0.8781129132503842 C
   0.0711220685580993    0.2934016935157795    0.7114686941170506 C
   0.4445213200857266    0.0442351978489968    0.9810944663216046 C
   0.6350924814084207    0.0806573646704700    0.9514015102055496 C
   0.3101930440460500    0.5343323149751575    0.7078099726967215 C
   0.2550101456429179    0.6272039810439258    0.6815854570866869 C
   0.8322180186963594    0.6409968741537628    0.6921513756964243 C
   0.9243534953245623    0.6395223724241964    0.8644789051783324 C
   0.7694255530688323    0.5170858837000616    0.8433417400932570 C
   0.8665322320299471    0.5732419252138462    0.7877416569322347 C
   0.3325491450306697    0.7224247515931810    0.6724131558933470 C
   0.5415047825334397    0.0150222966929372    0.9314166863375284 C
   0.8670164350267423    0.7259340960803364    0.9142754204529372 C
   0.7301463253000554    0.0336198483736786    0.9006779463164325 C
   0.4402888753921744    0.6490177991131550    0.1064020259431682 N
   0.4695013217509029    0.2959065242087968    0.4028962243717776 N
   0.7181866659766568    0.9313962693704084    0.4695039823131965 N
   0.4292675334096899    0.3082112487347254    0.0987108713868077 Cl
   1.1721300694210275    0.5518526907528423    0.3729140412659735 Cl
   1.0249037393683165   -0.0608963199072771    0.5790719950646662 Cl
  -0.3820200021311919    0.1421999690422546    0.6898847494451782 Cl
   0.5001016362200942    0.3632286894278829    0.8114080359303021 Cl
   0.1983305494781265    0.7465475087765252   -0.0685178907152826 Cl
   0.1724148603285682    1.1391316960993689    0.1900479936259886 O
   0.2468722866504540    0.9857432749311215    0.1575411633491357 O
   1.0079287889407325    0.2626277338859873    0.2314287646225452 O
  -0.0231652495031456    1.0366811596031871    0.2059136162610537 O
  -0.0025580031123821    1.0416558945836811   -0.0007306955546122 O
   0.6156160733264663    0.0396241530479377    1.2278507559972163 O
   0.8141362080636412    0.2623733785412887    0.1666145184670350 O
   0.6843326775361891    0.3763845552714448    0.1569756484718100 O
   0.2396084682113105    0.4407433668343391    0.0821670875731461 O
   1.1286593144323891    0.3499035064444171    0.3098663631189060 O
   0.9994018658789585    0.5431755290041277    0.1955265617107667 O
   0.8423437398322158    0.6597531131988087    0.2515422183886393 O
   0.7621656020657654    0.5404334265343392    0.3446946205503258 O
   0.0078152339323792    0.7460129829178153    0.2967065350853115 O
   0.6843319040489738   -0.0766762217845062    1.1252048584588366 O
   0.8348393668691053    0.7302399144677573    0.9995167033213223 O
   0.2030704791336554    0.0636406124752885    0.6055263700191857 O
   0.2791158747086092    0.1448475424361774    0.4034678282383611 O
   0.2894697745729872    0.1957391116574174    0.6642272709597838 O
   0.0180979729729472    0.2543144900976131    0.5404607247196909 O
   0.8519837109968462    1.1867933320777790    0.4256835055457385 O
   0.4934978344217898    0.5817214490633816    0.4886526357313794 O
   0.8268848243466741    0.4867469096731884    0.5859776700067600 O
   0.7604724385514129    0.6344155245183963    0.5274288415728776 O
   0.1802835457700980    0.7798703367411035    0.3268729101161665 O
   0.2972703931395682    0.8517154714777113    0.5510871526601784 O
   0.4078311087240949    0.7171888278408175    0.4391667350212922 O
   0.2609791464836027    0.2989109543549834    0.8539198366815102 O
   0.3927063397155749    0.1203375577131427    0.9559644465306740 O
   0.6180378617976576    0.1794413878545631    0.9146643546417843 O
  -0.0039711642547860    0.2087180676642188    0.8522514536248509 O
  -0.0888033745958637    0.1967246437094139    0.6657304901828232 O
   0.7791846412646234    0.0843261557916157    0.8303851320761443 O
   0.1312119698552710    0.3119347072732391    0.9717440621924717 O
   0.3059025104626266    0.4465130571757269    0.6663850565280452 O
   0.3735849622654561    0.5512204468855869    0.7895607424730265 O
   0.6848787595102105    0.5629903418449312    0.8447079570579941 O
   0.7869705635741131    0.4266486640244491    0.8896789483457285 O
   0.9411551846159131    0.4997665777205352    0.7520814913434568 O
   0.1716289973177952    0.7952159363581306    0.6540685535066673 O
   0.1128238582852829    0.9391005788708772   -0.0680246825853942 O
   0.3533807027138783    0.7656568082254066    0.7684281441298947 O
   0.4168437817570946   -0.0233899159746707    1.0548793159012873 O
   0.8484233493446923    0.7994845505309537    0.8453473009300715 O
   0.7640219713825522   -0.0419183741140163    0.9456892771580004 O
