Li1 Co1 H90 C51 N3 Cl6 O45
1.0
  13.3267037121000005    0.0000000000000000    0.0000000000000000
   0.0000000000000000   12.6169242571000009    0.0000000000000000
   0.0000000000000000    0.0000000000000000   13.3154353020999991
Li Co H C N Cl O
1 1 90 51 3 6 45
direct
   0.6154658746298129    0.6435735812577797    0.7565691186536880 Li
   0.3425019010481735    0.4401151196160334    0.7720038374846666 Co
   0.0397818821182795    0.2542639603146326    0.1576266267967210 H
   0.1830873867094863    0.0294326193161561    0.2751173407317937 H
   0.1155710661370516    0.1070941777144799    0.1788756504734292 H
   0.2381925361796609    0.1438519477184506    0.2271391871449376 H
   0.2016171000830785    0.1360481440343163    1.0228473078046516 H
  -0.0135156185498790    0.0812534899718606    0.3053416624208135 H
   0.5301588831516587    0.0144543253873760   -0.0337377516249244 H
   0.4971653380486203    0.2221459899010461    0.1331069627682751 H
   0.5709403105579380    0.0801303953323707    0.2266675540471440 H
   0.7745494744306464    0.0512659912526630    0.0143222618467399 H
   0.8038267817400110    0.1753524934854861    0.0925345002281433 H
  -0.0588321509082648    0.2753110867448769    0.2602969465409349 H
   0.2152071073281230    0.5642643946755662    0.2237468834781640 H
   0.0886589348442726    0.4325578102388020    0.1301014282820170 H
   0.0947759763694011    0.6165273699113043    0.1792181101750119 H
   0.5317826905437560    0.5416418446638722    0.3614029163763842 H
   0.4718940626248096    0.4377547979248541    0.2844523716323905 H
   0.5103921046825897    0.6411015049129886    0.2051256372046084 H
   0.7252191963512213    0.5164624115844333    0.3923797481991447 H
   0.0154607891457003    0.4539363962161421    0.2562084583492334 H
   0.6723238956655786    0.4538820248031082    1.0493256010035525 H
   0.7579617266442761    0.4128335101693966    0.3083674741262442 H
   0.7545362734349763    0.6490035892854056    1.0567140188635744 H
   0.8605519867367744    0.6930230340155634    0.9949068018009668 H
   0.1365042245554164    0.7950669215561808    0.2622705958737400 H
   0.2158104073018967    0.8616417842472457    0.0725576843024898 H
   0.5129040536778694   -0.0630471305993904    0.3102292232495410 H
   0.4580963521052122    0.8080930756846335    0.1012078929772175 H
   0.7115796644814641    0.9000925183655075    0.9663414570435174 H
   0.6955141763738830    0.0214528614965478    0.2133026135880113 H
   0.8937469920101594    0.7942180617404476    0.2605027227651314 H
   0.0538221132243491    0.0358906116397724    0.4148063526041020 H
   0.1445062033120370    0.1840653935362365    0.4924335030914003 H
   0.2288616466599144    0.0992356855828334    0.4228271192990637 H
   0.2435321911714193    0.2369435741771772    0.4145878092419079 H
  -0.0154073091392864    0.1588294490610349    0.4245810987574984 H
   0.0793723173375270    0.3298053506391133    0.3728062236325918 H
   0.4694804125058537    0.1900486267285511    0.3449340593676001 H
   0.5705000666591656    0.2037849380884669    0.5817997666045677 H
   0.5536127699305933    0.0725065087146896    0.5579011862892990 H
   0.6831487780308270    0.1301782506680053    0.5416841423023148 H
   0.7344307765477961    0.2423133456539200    0.7050281825573845 H
   0.1700976779458088    0.3106636014236424    0.2817600075311323 H
   0.1926478903983556    0.6443130641784884    0.4424061262248744 H
   0.0988865202205608    0.5282312307494086    0.5320043235749711 H
   0.6251764529390239    0.4073068066258796    0.5254297732118903 H
   0.3668972809578218    0.4787422834214868    0.5513107896549390 H
   0.4346590485718254    0.5938838163654209    0.4976905073433724 H
   0.8692908318792727    0.3357655988317489    0.6964486658229986 H
   0.7979918805011248    0.6344041515582318    0.4622524169397054 H
   0.8815504276149878    0.2806039773606243    0.4888067872609096 H
   0.9682095163851107    0.6727629456777774    0.3978140429374165 H
   0.2129935066780826    0.7659480973076119    0.5756970746417157 H
   0.4985958568334486    0.7101341773973199    0.5873722468364605 H
   0.3570921556377954    0.9290742252021980    0.4491532582533579 H
   0.8219580469965958    0.9051809217427309    0.5395322036424136 H
   0.7796947827890623    0.0490499202491246    0.6768571170616255 H
   0.8816764902960748    0.6492207579030629    0.5652688012244659 H
   0.6632691434472610    0.7933287800287273    0.4838764940702960 H
   0.9146298754307097    0.9440319118898866    0.4526264454943869 H
   0.1535294398600829    0.0171816144872242    0.9957749671848035 H
   0.1979095065875363    0.2443391959704594    0.7775244981564516 H
   0.2673888031940408    0.0603561623326280    0.7562844865771533 H
   0.0591497622464802    0.1304009673890333    0.7447046924133319 H
   0.3064629817193128    0.0733918274954308    0.8858957205206517 H
   0.1045405815419352    0.2791812851391109    0.8789639155960735 H
   0.0605777222590317    0.0102155744120814    0.7977866971667573 H
   0.3432875416856624    0.2645406329297540    0.9032612812217377 H
   0.2684873494149422    0.2865491664155391    0.9996343979006658 H
   0.0612763196167224    0.1239025531694297    0.9922166907240613 H
   0.5378790968085876    0.1489348029923032   -0.0412560938892747 H
   0.5369642419229845    0.0900900334691603    0.8121039159188872 H
   0.5951847904368328    0.3465344674744802    0.8870725502407832 H
   0.5271538639912462    0.2798985756463363    0.7021976329625053 H
   0.4760818198681351    0.1112996400695496    0.6902002782853506 H
  -0.0084528512326511    0.1166186860297594    0.8533808240732395 H
   0.7032850402151772    0.1807706127201745    0.8214975254526494 H
   0.2684310714323140    0.4593427851751322    0.9402536880657194 H
   0.6329713287195728    0.3654939218649104    0.7319893739758417 H
   0.9522558338696840    0.5664067551628925    0.8763511583552709 H
   0.8502125957683315    0.5951090753655531    0.7839921800644113 H
   0.8781519878373495    0.4224927581379671    0.9938230970874059 H
   0.2129905051856758   -0.0381195021543663    0.8398491598120205 H
   0.0310302806330521    0.7939485824338658   -0.0530213870581201 H
   0.3053044056502747    0.7503872525248974    0.6651023380064253 H
   0.1846609191037693    0.7384065195887431    0.0120744945510451 H
   0.6785272300974036   -0.0406098079816616    0.6490570495759144 H
   0.5259679743413060   -0.0188763019058292    0.7160387125681366 H
   0.7143005173482595   -0.0182905807071115    0.7741171743273280 H
   0.9983197378373716    0.8272134250728171    0.7201842773767685 H
   0.0172819446635471    0.3001340938120515    0.2290527558283423 C
   0.1671922332959931    0.1088727411379206    0.2458888558065866 C
   0.4330138555463293    0.0932976298036811    0.0707657789341211 C
   0.5356325547793822    0.0850539407808616    0.0155501601188618 C
   0.6362497088009377    0.0906773398402698    0.0734273517025615 C
   0.6224578511915335    0.0364882216314276    0.1818030801154667 C
   0.6599870115003875    0.2113343216037400    0.0968265116196888 C
   0.1877126865084182    0.5447327723103669    0.0695498967918792 C
   0.1753675482391083    0.6090944965668180    0.1651705033370664 C
   0.5444125203678543    0.4748200913728065    0.3088864207354407 C
   0.6003428551379777    0.5199371887255680    0.2200526745481531 C
   0.2252290904745431    0.7206034484580277    0.1669203522508549 C
   0.1730879147561175    0.7823356094925763    0.0827375993352805 C
   0.0607893274737135    0.7967202563606804    0.0977690268071585 C
   0.3434923935424288    0.7134337137305568    0.1549582949552230 C
   0.5671919718029731   -0.0738017326905967    0.1721503727811650 C
   0.0975043329672136    0.2861544584900161    0.3052770757227080 C
   0.0269782658838256    0.1035639987982567    0.3695536074756743 C
   0.1928077198690196    0.1722019633570651    0.4202556675047239 C
   0.5831638133474609    0.2850202676437846    0.3480499920471316 C
   0.6088956077512524    0.1288871277549995    0.5799943430900838 C
   0.2836613942776935    0.6194226872846683    0.5566382159380896 C
   0.2093234318376259    0.5641653214010875    0.6322066804434374 C
   0.3864257409297881    0.5630941411574244    0.5589210553128718 C
   0.6027553046599710    0.4038035756403145    0.3810913451849155 C
   0.7766700288160751    0.3719986767740806    0.4613371633469011 C
   0.7189108096851571    0.4286590787415182    0.3809306294477692 C
   0.2878229634997694    0.7360826568625719    0.5852085924499264 C
   0.3606219107082327    0.8022303155940851    0.5315898421949197 C
   0.8924015730387960    0.8807240894980295    0.5031970190222236 C
   0.8739318895133404    0.7765568635387856    0.4479119920367444 C
   0.7963868324365702    0.8046691033186515    0.3645992069244888 C
   0.9793262938869236    0.8792958491731453    0.5771029618376865 C
   0.7379860443036915    0.7044029866152790    0.5873241823169402 C
   0.8232194241805680    0.6839701144868023    0.5184345832021946 C
   0.1385654994658100    0.1010150415924700    0.9806226274060070 C
   0.1788177637607644    0.2396558041393047    0.8596637579842927 C
   0.2425169363648075    0.0505891226414249    0.8345695727459549 C
   0.2709230605030883    0.2914576527263093    0.9210038479978115 C
   0.0621137359982292    0.0947480625420485    0.8160557206332026 C
   0.5901370305816390    0.2923627861619462    0.7521832312474543 C
   0.5358057408912567    0.0693512230690936    0.7306075190396312 C
   0.6718984341169100    0.2073642573488316    0.7473700202223598 C
   0.4471622904536653    0.5753070225903369    0.6492065001912981 C
   0.8778293274036149    0.5430622383854177    0.8454922348069588 C
   0.8074698431488061    0.5483240596222886    0.9391677303278060 C
   0.8938400382747712    0.4294334354548434    0.8137035632091745 C
   0.7022420216038023    0.5073642353838903    0.9147441953384010 C
   0.7860121739323470    0.6568573258998771    0.9833900923190159 C
   0.7079456075498894    0.0189974294618689    0.6987812970359716 C
   0.7160623933910713    0.7465019949929426    0.9320143780085636 C
   0.1167896720542264    0.1695261923599457    0.3305372337550145 N
   0.1576504889346665    0.1208447556259206    0.8695868282408964 N
   0.6350213480334407    0.1056064934249085    0.6887365634643318 N
   0.9140018131445796    1.0842966835519752    1.0581146490027225 Cl
   0.4473734454444861    0.0412984272539150    0.3926245768454516 Cl
   0.9391265557090887    1.2148609927633105    0.6095194762217057 Cl
   0.0345067592132680    0.5370452410211608    0.3820158361775651 Cl
   0.3372830561257901    0.2836697007660916    0.6702317234489896 Cl
   0.0881194165841441    0.7752744590739341    0.8231227070189319 Cl
   0.3621564237012268    0.0354824297489204    0.0447531107680737 O
   0.7009941511356609    0.0441580782484668   -0.0012055819908094 O
   0.4268590702541848    0.1741731252260923    0.1313886561954219 O
   0.5906127671281223    0.2689521676957393    0.1227918662743333 O
   0.7513494388720199    0.2376695831325567    0.0976188251836574 O
   0.1456985461706519    0.4478222277842765    0.0719396046217826 O
   0.5847906222319653    0.6215095667382866    0.1907152934459077 O
   0.3942768946929652    0.6527604478536361    0.2053622047616228 O
   0.0161924029198662    0.4079266090310181    0.1972475620519729 O
   0.6671898429036883    0.4677178849892202    0.1794246374073260 O
   0.8474444693961285    0.4894687487027412    1.0198252511398083 O
   0.2090735575947569    0.7783219529968973    0.2603495171091603 O
   0.0290658038527790    0.8168424347003921    0.1840838917683318 O
   0.3797939434568875    0.7887357430238970    0.0983878574959833 O
   0.5403046028225506   -0.1160497472730762    0.2575790481636815 O
   0.5505898918903601   -0.1201283958368133    0.0910061987090191 O
   0.0004540774846300    0.8062415943311765    0.0218413551192076 O
   0.7427591676036598    0.8308204848500357    0.9853367053595908 O
   0.8217884626756097    0.8129048664795127    0.2681847847990980 O
   0.4860640332401646    0.2666639713483804    0.3274355702297158 O
   0.6451093640128112    0.2129282124435525    0.3531816305140486 O
   0.2601642109707904    0.6100860218978005    0.4533763270997164 O
   0.1214674979702778    0.5218364630266336    0.6017457911974033 O
   0.5637633670266462    0.4151050622066431    0.4815314712233842 O
   0.7521328283902038    0.3796431706328532    0.5498460234225556 O
   0.8561195328249817    0.3209529554178970    0.4271081659720936 O
   0.3109952352536328    0.8797175050293264    0.4882062060693403 O
   1.0643848368311020    0.9050342932965026    0.5598487756404268 O
   0.4557341775810335    0.7933057950290483    0.5290712613720523 O
   0.7432431582542619    0.6672425828238271    0.6747467842514343 O
   0.7129866140471677    0.8299549807241904    0.3929587754577417 O
   0.6606375849795688    0.7636527676844905    0.5613652863321061 O
   0.9681292264632279    0.7551609991823764    0.4039783175659039 O
   0.5452452093988203    0.3029271675661536    0.8482371694764423 O
   0.2309431816440541    0.5518839605208554    0.7237778512190335 O
   0.2724388141685397    0.3987143796768953    0.8886549243443680 O
   0.2498540845533142    0.5629744606418542    0.0010812377269956 O
   0.4507051020160723    0.5098157837462096    0.7160319534950790 O
   0.5109449045466185    0.6527041742337321    0.6478922359856630 O
   0.6457051602555677    0.4465643934914956    0.9791866998853360 O
   0.6588164294617221    0.5353365837001922    0.8357141091170337 O
   0.9255838219694519    0.3600393436652139    0.8704151901945053 O
   0.8612648411833974    0.4099992219331114    0.7249344037199925 O
   0.6535368043181004    0.7478826801460770    0.8669800790650338 O
   0.9448721625488714    0.8394327264539158    0.6655514408606937 O
