Li1 Co1 H110 Cl3 O55
1.0
  12.6470536136000007    0.0000000000000000    0.0000000000000000
   0.0000000000000000   11.7029799388000004    0.0000000000000000
   0.0000000000000000    0.0000000000000000   12.9052286382000005
Li Co H Cl O
1 1 110 3 55
direct
   0.4025583319521320    0.7144721270245437    0.5675325888779882 Li
   0.5263476387608313    0.2348985458213028    0.6923773355437643 Co
   0.0742643176423325    0.0676633621129830    0.2298283821427662 H
   0.0962344150649612    0.0965977020649253    1.0251517574775237 H
   0.1577028822472327    0.0092745582721327    0.3075410696213418 H
   0.0643504670467146    0.4072743005905494    0.0047279921038664 H
   0.2684472534495400    0.2637937504416976    0.3265457697220452 H
   0.3929806070763757    0.4670462564221447    0.2392788152516376 H
   0.4831280860729062    0.0868250629082246    0.1337502703354468 H
   0.4212022000975507    0.2221094954441604    0.2374307271108817 H
   0.6369836843371188    0.1643771910624374    0.1609067051282891 H
   0.6374391263852022    0.1341156677707626    0.0316780531799257 H
   0.3847866037008732    0.0299132931296724    0.1582085739307580 H
   0.5874472453260352    0.4737530952281974    0.0785620966139978 H
   0.4305569481372661    0.3184054820982704    0.3255763951878374 H
  -0.0100108054467210    0.0260580015512929    1.0507382859503782 H
   0.6891120313926775    0.4639931878714980    0.2369456524039160 H
   0.6859690068421013    0.3832223068699772    0.0774589003515265 H
   0.8647671735208875    0.4071008404965719    0.0243960899823246 H
  -0.0840988917811066    0.4154064174101701    1.2008324884092483 H
   0.7797141617392913    0.4405299330905831    0.3244481703102942 H
   0.2183897444563609    0.5008051795396794    0.0266474255312353 H
   0.2028469938675108    0.8090412030878735    1.0207659382420193 H
   0.2539632474828840    0.6301021626937970    0.0280930953851405 H
   0.1237534729130074    0.9183740402533792    0.1142845167992089 H
   0.2009366674991605    0.8506767525417814    0.1853882551153080 H
   1.0247965417702323    0.7118411731853495    0.1642999034378782 H
   0.3248651371558854    0.5537848482430657    0.1685811139106983 H
   0.4036455417023314    0.7940398956501029    0.2512739533727698 H
   0.4248797364962251    0.6619137185493882    0.2485680733780027 H
   0.5208775899958282    0.7505578079543960    0.1281393662569508 H
   0.6180543742136476    0.7905194247772609    0.0577508419257229 H
   0.6782264920246814    0.9641914305936193    0.1172833013294920 H
  -0.0390741755588504    0.5319451115831216    1.1586712826488603 H
   0.7748735085824038    0.9063001923326854    0.0637639085807607 H
   0.7794540220972436    0.8287669482576693    0.2179835706880099 H
   0.9068164931685981    0.7085727748628686    0.2278501142084477 H
   0.8546146111990259    0.8506673532263442    0.3159043464780201 H
   0.1339495236248771    0.2461179105204329    0.3563112245442062 H
   0.2271830969159733    0.2757607879596958    0.5005814310005937 H
   0.2235174209873012    0.4356815952914312    0.3718808828302468 H
   0.1989646666867989    0.2242995359410280    0.6146499253504407 H
   0.6026871585808298    0.4018278245363029    0.3765495331648606 H
   0.5633040725896080    0.3861027698098680    0.5448572835266515 H
   0.5725481229093031    0.2770604569396940    0.3946623467037150 H
   0.4551634699017783    0.0548947338848360    0.5813494692292743 H
   0.3615938499606203    0.1572977975717830    0.6074822879072578 H
   0.6031876704149216    0.0870630364854300    0.4189703236326502 H
   0.5675785859783918    0.4537316988637407    0.6537100624570320 H
  -0.1577049686146038    0.3357472190799036    0.6434669273909307 H
  -0.1033104810906295    0.2127349600203862    0.6552636963028247 H
   0.9491425571163595    0.4146262742288825    0.3701350788130045 H
   0.8618099630003453    0.3059838595064003    0.3477681755916556 H
   0.7091261791723474    0.1315804160523834    0.3744271376019548 H
   0.8215357603629602    0.2215105027058444    0.4969945127601079 H
   0.8731327583624215    0.1143185732519663    0.4299085258108093 H
   1.0179807250089823    0.6030218804360034    0.3338761319071815 H
   0.2537900846208523    0.5612197067538905    0.3418868384896276 H
   1.0961412223233147    0.5434088584836189    0.4253607567130752 H
   0.2387146365500879    0.8947133998482831    0.6111017510961343 H
   0.0396918778188930    0.8827267092161889    0.6325976895081710 H
   0.3023484302057565    0.5287066201733956    0.5217038773858614 H
   0.2852574929326225    0.8754012245577242    0.4967899445130809 H
   0.3280065803104614    0.5229952543204646    0.6403178161942717 H
   1.0037797889263784    0.9849297383809680    0.3785216020613905 H
   0.5659995620721023    0.8272177701769743    0.6564678593932793 H
   0.5867031985078988   -0.0379424755850287    0.5575513631584595 H
   0.4741908265772673    0.7596665990962640    0.3775839975958498 H
   0.5674204463783629    0.7361930905166904    0.4562203417049415 H
   0.5113994930680903   -0.0874655033122238    0.4803206508679552 H
   0.7240585109050857    0.7207662504345812    0.3465996569684859 H
  -0.1261521649188179    0.5190612135683856    0.6379854282262739 H
   0.6987917563104525    0.5953212776432723    0.3712571046527590 H
   0.9439397642754055    0.9212878280389111    0.4663937375959198 H
   0.8523453079386097    0.8506007035350622    0.5945363723652838 H
   0.9295490606727667    0.6027005947446955    0.4723649607458839 H
   0.9111020763293840    0.7501579098067043    0.5406008692049862 H
   0.8093669181407288    0.6340746551908462    0.4764826715970271 H
   0.0869580251970602    1.0017886923424177    0.6727411084683373 H
   0.2736753486264986    0.3617166731496645    0.6746449879491915 H
   0.3011125692315298    0.1595262898136209   -0.0775013143075551 H
   0.2053495530379697    0.4313587646735410    0.7516238643295298 H
   0.1445527838068214    0.1664664025391604   -0.1414381900601948 H
   0.1086063876034299    0.4370368056808310   -0.1055519603014173 H
   0.1504917164859104    0.2565896024006948   -0.0527284095444675 H
   0.4178464777849354    0.2385454802109363    0.8679131639671781 H
   0.3761252978072850    0.3471306445575739    0.7949078708093957 H
   0.3875026513313712    0.1203986486150021   -0.0078547373116621 H
   0.6816122608613022    0.0872670016304173    0.7088303567146947 H
   0.7818664416956859    0.4612366249987338   -0.0449088657898304 H
   0.7274648378897103    0.2504774839168504    0.9526695081331628 H
   0.6727991409516862    0.1865330865143600    0.8527022749931585 H
   0.7383614470297084    0.2135116852687876    0.6826572442910847 H
   0.8045001719498364    1.0409923825477558    0.9221779910100004 H
  -0.1506155703453038    0.4780220934031291    0.7507397265649166 H
   0.1159785394775817    0.7766135648295349    0.8781570739130030 H
   0.1053366932332303    0.8063999954500204    0.7612687922490216 H
   1.0964337805833684    0.5929808480994095    0.7874442293118024 H
   0.2794569324035588    0.7835006995953375    0.9200238253784276 H
   1.0158458404085910    0.5052852350703374    0.7443655659586871 H
   0.4126096849299751    0.9843059656292265    0.9101286113082171 H
   0.5507596488173078    0.5372258178923847    0.8277201527047022 H
   0.4733938029931212    0.8466529910514385    0.7319209975978742 H
   0.4800230150263368    0.8726899492957030    0.9319647219189088 H
   0.5675311440983831    0.6505584910180295    0.7619754825569333 H
   0.4215754095536192    0.5190842846153679   -0.0191293922658028 H
   0.5125333540002982    0.6022331924225002   -0.0252652773570293 H
   0.7105929239626165    0.5767849731178931    0.8196769011738654 H
   0.8655578715210325    0.9215441730053802    0.9302599865270166 H
   0.9264099896121910    0.7930145157842265   -0.1729548730576631 H
   0.8147199436017104    0.6501654287361103    0.8667043515983819 H
   0.8169639445261218    0.8531351007702198   -0.2204844455430642 H
   0.3072895020086625    0.9051722744802215    0.3043439158818204 Cl
   0.7039138979553918    0.9128882579709409    0.6554667147904045 Cl
   0.0535751509799387    0.1772790332248262    0.6827905236035418 Cl
   0.0962900802041714    0.0619826722077060    0.3032939538563595 O
   0.0623319731919445    0.0410596080581910    1.0729075948422122 O
   0.3865980928192054    0.2879850249273846    0.2687955336825270 O
   0.4066335894448793    0.1018607205715020    0.1314899461817425 O
   0.6231361902605794    0.1047176852227999    0.1054364751874544 O
   0.6331440548484147    0.4223012425249668    0.1222897992235899 O
  -0.0504586453649380    0.4499890623532921    1.1387878689416091 O
   0.8957546281465697    0.3791139515406994    0.3208442047158895 O
   0.7088312488182935    0.4770770349600798    0.3120857392001816 O
   0.2781143271993126    0.5520314486724172    0.0438061839080172 O
   0.1431967367365727    0.8383764665673734    0.1338037370363743 O
   0.3616531523106312    0.5459825619469685    0.2399382378964104 O
   0.5464922517105253    0.7564930484113769    0.0518302959096813 O
   0.4663107303078223    0.7338218995768514    0.2557008412336244 O
   0.9747453583610544    0.6615779066433137    0.2071445531144701 O
   0.7245811622831815    0.8955507934054153    0.1172143370340927 O
   0.8155414788238610    0.7899375217033761    0.2780545714996723 O
   0.2012070862152101    0.2870074961219158    0.3709611005983486 O
   0.2621185066563795    0.2566622334745278    0.5702376939930316 O
   0.6335164736064829    0.1341635188311701    0.3600562182483038 O
   0.5778173343822693    0.3773494436881706    0.6202848507003679 O
   0.5464487633205173    0.3574143501290917    0.4149200273174591 O
   0.4313840182454178    0.1183659184792245    0.6276717791053262 O
  -0.1714670673071274    0.2526085650714300    0.6294586517479187 O
   0.8437187927570279    0.1946378598708907    0.4268524001809808 O
   0.1098115694952509    0.9193566959581773    0.6565964894273948 O
   0.2357700771975479    0.5123193409502489    0.4052479786076418 O
   1.0205346795494508    0.5561252777869283    0.3970404525754045 O
   0.3003724759033942    0.8715133258996098    0.5706142855386951 O
   0.5350816888704329   -0.0103549720869150    0.5047270375217862 O
   0.3385339334843918    0.5726919984866035    0.5797532169986843 O
   0.4934174391487929    0.7672005776607903    0.4548542287522570 O
   0.9308220844530001    0.9608418563650901    0.3996533470033412 O
   0.6934521727154734    0.6741952058929219    0.4021794549022359 O
   0.9229546393515573    0.8316568105129972    0.5629197298834727 O
   0.8701281059618706    0.6178223843167064    0.5245577594078337 O
   0.1257571016453748    0.3972503579183868   -0.0374525081616388 O
   0.1745226101063169    0.1787333636679275   -0.0703383261427137 O
   0.2788322809834443    0.4267778801227385    0.7281504328628982 O
   0.4376811371185725    0.2911525942297209    0.8075577822969593 O
   0.3766677166353844    0.1309455350187616   -0.0848510484857812 O
   0.8008945890691752    0.3903085362264041   -0.0142984821170698 O
   0.6846145411678529    0.1862929767291006    0.9301747497574219 O
  -0.1099325768418438    0.4600548747033113    0.6875118657593594 O
   0.6783348176507012    0.1709678201503575    0.7222179536991135 O
   0.2159188132059078    0.7606697623983797    0.9592559857836553 O
   0.0719196608625026    0.7587540110156340    0.8135321049658177 O
   1.0808016811205019    0.5130627413530092    0.7823524946481099 O
   0.4149343370504014    0.8971828563586020    0.8974515790303280 O
   0.5882071061041745    0.5695261381507103    0.7689834947770573 O
   0.5049497694809076    0.7878346384951082    0.6915024963358344 O
   0.4964205101533436    0.5198610098637692   -0.0391158649762914 O
   0.8556583325592173    0.9981656834829881    0.9660129369733369 O
   0.8503764699182487    0.8113081470746817   -0.1611255591973786 O
   0.7865695134005484    0.5687024163251230    0.8525937918318562 O
