Li1 Co1 H90 C51 N3 Cl6 O45
1.0
  14.1257589853999992    0.0000000000000000    0.0000000000000000
   0.0000000000000000   13.7857547058000005    0.0000000000000000
   0.0000000000000000    0.0000000000000000   14.2480547425000008
Li Co H C N Cl O
1 1 90 51 3 6 45
direct
   0.7733789029454157    0.7295828968049475    0.3098147397014747 Li
   0.7093292472111556    0.6896286098069158    0.5924764835525055 Co
   0.1219739052026032    0.1681315896274316    1.0727483609189254 H
  -0.0285270344068942    0.2885203558153100    0.3280993409827222 H
   0.2559291851953984    0.0634343836490925    1.0222453264342515 H
   0.0529284117173990    0.0634380105814635    1.0440855008035845 H
   0.0107246617726226    0.1857403462882381    1.0524080404163985 H
   0.3778235203443740    0.2608381571875161    0.2902717210205160 H
   0.1086309053542547    1.0619716631647715    0.3284916752417509 H
   0.4979284295215398    0.1884228254697690    0.2115550105453281 H
   0.6000452079184320    1.0482255894789925    0.0767373084298072 H
   0.6655560240775111    1.0070613578420227    0.2576202462467483 H
   0.7799201443821061    1.2344199658318571    0.1221470160490577 H
  -0.2080260618659274    0.1765649327762900    0.3186159411473077 H
   0.7072132547161051    1.0121463170260494    0.0258980877017079 H
   0.3199675141046599    0.3521577858089616    0.2260306708180799 H
   0.5795432299150319    0.4420826413178468    0.2307955317922235 H
   0.3873769893041291    0.5140081195495777    0.2898786849112922 H
   0.4303580426144342    0.4712286698505432    1.0708688060966016 H
   0.4957549533896212    0.5849190722585156    1.0594132072131177 H
   0.3777690099990682    0.5843822862676197    1.0535464414327576 H
   1.0061409091072315    0.5329958358978072    0.1639393877630591 H
   0.7718965047237242    0.3736792771115143    0.1791456740888501 H
   0.9494303280455006    0.4490784135521681    0.2355112632527141 H
   0.9070071208663765    0.5019913672182525    0.0089455980906511 H
   0.7882170436935791    0.4604082248924415    0.0224239292362475 H
   0.1789216416627422    0.7505610736383367    0.1184272100153324 H
   0.2227295531979451    0.8729432018572716    0.0965154469261052 H
   0.3299804274034205    0.8588460411179878    0.2309913479966404 H
   0.2964332034638227    0.8480515649956619    0.3444847356361846 H
   0.1002561341209162    0.7569763916160163   -0.0034687281592609 H
   0.3805532851690361    0.7223137989471538    0.1600686839373996 H
   0.5502274246242854    0.8617323538987642    0.2715954873304348 H
   0.5890234992682336    0.8600842758294192    0.0319192605249776 H
   0.6503816182122016    0.7772864875066825    0.1060542929269279 H
   0.8467894716144546    0.6821556783498764    0.1486790589722497 H
   0.9061760150821043    0.9159724021193675    0.1196147405453443 H
   0.0977387472649778    0.1536376424867694    0.5578267710884323 H
   0.3001533575492998    0.2301630139672407    0.6610002236450909 H
   0.3183902537236051    0.1678334557865422    0.5579216612348020 H
   0.5579372404375499    0.1833603532664418    0.5841700864941773 H
   0.4153839799662876    0.2889178676031626    0.5256732590280472 H
   0.4784760942322286    0.0679194482189696    0.4885773178941729 H
   0.6440860272926684   -0.6734697769715775   -0.5753804836421864 H
  -0.0959379254594881    0.1840530973492871    0.5430023614537638 H
  -0.1169612205834486    0.3067979188053137    0.5613681668025778 H
   0.6288210068273703    0.0768112356195120    0.6039271694846241 H
   0.1317666533404536    0.3549505237345684    0.4885654566258766 H
   0.0196190511027718    0.4126598053066020    0.5161189231934199 H
   0.2665856037393920    0.5508462187931642    0.4059331239125466 H
   0.0726491219665207    0.4436592688194848    0.6772192798023283 H
   0.4698095156698638    0.5035450725073063    0.3765852580068440 H
   1.0280696423045175    0.6194786600480439    0.3912223438244555 H
   0.2423207128861453    0.6915951325384273    0.6094886304301409 H
   0.1289151251470566    0.7799776713259035    0.3514119970612543 H
   0.2124242662289081    0.8259824069051006    0.5320604467280315 H
   0.5366842939367429   -0.0361024229519045    0.5223854417893706 H
   0.4128934943197208   -0.0314737318601391    0.5283355873729020 H
  -0.0651636498648596    0.6446118506055568    0.5309922307311770 H
   0.2050335129173229    0.2596224094567844    0.9561310380612470 H
   0.1841213622636612    0.1013967593890162    0.8288666477447737 H
   0.0123075855661767    0.1384502258767878    0.7972482964581086 H
   0.1555869663125054    0.2618123512223446    0.8416473397964978 H
   0.1288117678689444    0.0045547635396111    0.8954392442951410 H
   0.3522107373162941    0.1743880479672650    0.9735699098574683 H
   0.0827066346387134    0.3050446596972120    0.9407731520933268 H
   0.3434678442705012    0.0555356503317075    0.6907130516522157 H
   0.5862099867312380    0.1500150624346966    0.7028754136821074 H
   0.4257189998509459    0.1494296755500305    0.7472913014251776 H
   0.4655218168593007    0.3446406057769971    0.7143232922134457 H
   0.5067185412690455    0.0153325557730308    0.7735559394240584 H
  -0.0518716207290048    0.1988901522922381    0.8925735899487824 H
  -0.0266205881743176    0.0704423423761801    0.8988705898987038 H
   0.1501557537256776    0.5995283558485729    0.8559608726741947 H
   0.2997137351540417    0.5443641652598598    0.9321607483499601 H
   0.5200690805352837    0.3903181920563373    0.9579790096247939 H
   0.3364763615401166    0.4195108629393237    0.9205900460344894 H
   0.5954592596471244    0.4900602830295284    0.9411626789515753 H
   0.3539232116707696    0.4955416659216966    0.8226910678785945 H
   0.4668600812328851    0.6112469743390087    0.8015766066109357 H
   0.5646878157587456    0.4756021119497729    0.7638921640885181 H
   0.6018723663760183    0.3682272723715505    0.8190203913585222 H
   0.5313109897427204    0.6589251765141472    0.8983378856006665 H
   0.4066389631408074    0.6698951961632256    0.8931280516028659 H
   0.0614822883710278    0.8419721009555292    0.6295390868021153 H
   0.2860096927588628    0.0058640861255125    0.9182648163383135 H
   0.2780412713723491    0.7025252559314257    0.7304139097849903 H
   0.1364347210930009    0.7540654156951175    0.8261259227331326 H
   0.5686446296940372   -0.0557212255326737    0.6850161336190557 H
   0.4508375793458057   -0.0721606591970963    0.6986292200021001 H
  -0.0175938165769974    0.7444322833179596    0.6472797541822050 H
   0.8240430832375825   -0.1049125838929592   -0.2666085088351842 H
   0.0670791557734601    0.1411696997685020    1.0311398739560254 C
   0.4092434249639226    0.2688899470509539    0.1448771364657044 C
   0.3854705430715525    0.3177737415461855    0.2379993221941398 C
   0.5380542734203233    0.3176859697828093    0.3362148347879987 C
   0.6693115744911087    1.0246991299617965    0.0914122941579511 C
   0.7155158174400775    1.1080373312077998    0.1436748670815966 C
   0.4647015423514335    0.3803368741715712    0.2824313524916961 C
   0.4137465458274278    0.4588940531662307    0.3372353249715905 C
   0.4388722753805679    0.5393093096145114    1.0360738808271741 C
   0.8768678553982319    0.3664000238430820    0.0806901287282866 C
   0.9401062272919671    0.5233492113322294    0.2046326620716238 C
   0.7527747003464035    0.5355243155308690    0.1944003880780990 C
   0.8504267982921295    0.5393328121362749    0.1443970709322953 C
   0.8564052381117019    0.4701346891203003    0.0583032130570157 C
   0.9521147855701685    0.5870908793622212    0.2916943713658672 C
   0.1671282930595144    0.8285800158691520    0.1344539592191281 C
   0.0666140480219552    0.8441410065133382    0.1007848016625488 C
   0.1825794982107270    0.8454902253553196    0.2416278877025096 C
   0.1801392753500915    0.9554653433198185    0.2621633225592584 C
   0.2852005326980255    0.8166307244799258    0.2731739484190854 C
   0.3051860074814894    0.7009714781037244    0.2781795440101286 C
   0.5106077482176267    0.8195192134201249    0.1470690146248222 C
   0.6067039651644827    0.8411263003266313    0.1060283244697114 C
   0.6705971691284496    0.9241910308718674    0.1489233028401245 C
   0.7747600676686822    0.8867081355913792    0.1515124282096363 C
   0.0510885105816893    0.1809056454378045    0.4290787396446585 C
   0.0740055092601028    0.3090408137834894    0.6212369008449575 C
  -0.0002970468775757    0.2758021547634492    0.4597679114581069 C
   0.3560243377080096    0.1944565901620280    0.6184512574208337 C
   0.4755109438255644    0.0126159834272133    0.5422581896919603 C
   0.5745592853303363    0.1234521351365680    0.6330764117851296 C
   0.3981495078043582    0.1140801418901161    0.6787472076769359 C
  -0.1787171942554925    0.2394494116097390    0.4365688849261521 C
  -0.0976390729889651    0.2571437638744991    0.5064980449418005 C
   0.0610405421960825    0.3444701399555640    0.5201221152803975 C
   0.3365429066369833    0.4202129645076860    0.4060763013523352 C
   0.0662813225376213    0.7298476628680245    0.5231148746970783 C
   0.0557629496732982    0.7591257117390222    0.6267941506893041 C
   0.1375065219084932    0.2591552605674102    0.9127377460523536 C
   0.2587049652466173    0.0716675201310762    0.9434219347294173 C
   0.1646406391191973    0.0792644926752009    0.8956869974139909 C
   0.5037744870739411   -0.0180033050345500    0.7064008072118059 C
   0.0030592329548214    0.1405603751301878    0.8728768660751094 C
   0.1142298965363742    0.6057238817245748    0.7181203017686257 C
   0.3514631668663866    0.4948709010490190    0.8984347409275824 C
   0.5456381490981346    0.4177496245800059    0.8160873593934396 C
   0.4656975242320915    0.6225934695681882    0.8786537950305042 C
   0.5321372108337119    0.4526201855510169    0.9140635410707890 C
   0.2682095872735660    0.8333886028065148    0.6549972989268923 C
   0.2291766404018346    0.7334557351906136    0.6716887002653934 C
   0.1225614842494055    0.7172440728790848    0.6964155844869361 C
   0.4831443743627445    0.0615179125842995    0.6378265339051773 N
   0.0921425877891080    0.1549723535992673    0.9277496198741180 N
   0.4495479495270591    0.5242066181447144    0.9356826326286835 N
   0.6001542286090434    0.5630711570425802    0.6131677291525538 Cl
   0.8570168866616263    0.6256959475182714    0.6249826753358994 Cl
   0.7027200448244737    0.7542714254537858    0.4486554471349793 Cl
   0.2031610471597421    0.6814759912235664   -0.0527575618065113 Cl
   0.6967125800158422    0.8117097026390643    0.6990503301191257 Cl
   0.8991271903001643   -1.0532748809893597    0.7240460229653696 Cl
   0.3870386004072959    0.2958460338180900    0.0638344944441457 O
   0.4656493144331912    0.1901107997951942    0.1496209419339967 O
   0.7567943073677810    1.1718517555011523    0.0901482619566795 O
   0.7195736524958253    1.1064596156264506    0.2330498746187001 O
  -0.1543892979381911    0.1803420201473639    0.3666028426827543 O
   0.2927654359439641    0.6524206360001430    0.3505725842279834 O
   0.5155051516117736    0.4314478227584887    0.2081763037063935 O
   0.8306317557539544    0.3272951644063192    0.1540194371063282 O
   0.7102537993016663    0.4518680323159359    0.2044649198750087 O
   0.7129637421825809    0.6115559889770109    0.2230695648451955 O
   0.8614994776548215    0.6349431742911638    0.0997046542123783 O
   0.9388213405811888    0.3173065926568113    0.0440303874906312 O
   0.2424792884361257    1.0062953497252847    0.2265928528243090 O
   0.0448396428152752    0.7971395899186129    0.0231678904429925 O
   0.0078610988276646    0.8962440661809966    0.1412977004709876 O
   0.1096673098416264    0.7888382671080560    0.2870165398159088 O
   0.1173518526766128    0.9875992387396770    0.3229140717417481 O
   0.3448631675250160    0.6624048554308059    0.2014785472951028 O
   0.4922653001928656    0.8362894233167751    0.2364320907086099 O
   0.4519730227592589    0.7798623348765082    0.0968446146675801 O
   0.6385939330214732    0.9402554397291371    0.2471563616888595 O
   0.7938514312038193    0.8151480345266945    0.1993484319531487 O
   0.8362257914501371    0.9294058342347733    0.0971822046113956 O
   0.0471071315946820    0.1623821764330526    0.3449016346520399 O
   0.0987893102835978    0.1247070537369056    0.4882109520923607 O
   0.0819342867591215    0.2237041728011101    0.6434322114129819 O
  -0.0054649107831861    0.3321313160297012    0.3753163128542071 O
   0.5702925411460207    0.2385252692416291    0.3041444919757262 O
   0.4297060422504524    0.2685540931134069    0.5925157871634279 O
   0.5819668165014508    0.3624423152399364    0.4077488103671216 O
  -0.2588197927190156    0.2726046511852480    0.4523253516198370 O
   0.2715304707778425    0.4813990234504815    0.4360095103207033 O
   0.0869874665616210    0.5535511849553948    0.6516024495334718 O
   0.3424250684440677    0.3356936890044167    0.4340401186734140 O
   1.0297049526636901    0.5667096955970850    0.3422725038214107 O
   0.1307621055483905    0.7611045660405951    0.4696357146453460 O
   0.2532801239988513    0.8743743893708357    0.5680669058041415 O
   0.8974883403081795    0.6593248644614224    0.3082096083054124 O
  -0.0000089207644446    0.6736461696212288    0.4888240884227498 O
   0.3188673962266710    0.1515006539338246    0.9197316832459523 O
   0.4583152660392552    0.3673858240614975    0.7815303613401315 O
   0.0770410983597271    0.3721603178345738    0.6946567478981596 O
   0.1377224395100290    0.5618307461717262    0.7989888849418139 O
   0.0898460740206422    0.7642578210438711    0.7776400057090108 O
   0.3099383184949637    0.8745013320038177    0.7193864395204823 O
