Li1 Co1 H90 C51 N3 Cl6 O45
1.0
  14.2584034150000001    0.0000000000000000    0.0000000000000000
   0.0000000000000000   13.9152064096999997    0.0000000000000000
   0.0000000000000000    0.0000000000000000   14.3818475600000006
Li Co H C N Cl O
1 1 90 51 3 6 45
direct
   0.5735921452184553    0.6329303673685053    0.3697344001051281 Li
   0.7129484211048323    0.6498054314592766    0.5843278302693956 Co
   0.1517144759646990    0.2207539446025527    0.1623451903699638 H
   0.3178992815865702    0.1488527474127964    0.1300030314046800 H
   0.3499933377498703    0.0847300909656732    0.0317354066016814 H
   0.5088250059307218    0.1178054178023035    0.0416138314290407 H
   0.9153799217428018    1.0283201185521256    0.1730767740108073 H
   0.8836456534078222    1.1178473568352447    0.3134725049192498 H
   0.7206624685194459    1.0852801072625688    0.1682276056609795 H
   0.6960615374200365    0.3317519387769919    0.2351209582699818 H
   0.2784053786852404    0.3234437616220048    0.0408295093902386 H
   0.1389977646526001    0.3682889462083435    0.9930715591592600 H
   0.0906908133094087    0.4696830584089701    0.2570367794942752 H
   0.2876469463534252    0.5270998854740043    0.2536450038690301 H
   0.3414299666313656    0.6068948211226763    0.1293765472229773 H
   0.6636161095179672    0.6279300822163212    0.1734675443882956 H
   0.6257829816214384    0.3996897739887645    0.0757972002868316 H
   0.7268630224964076    0.4394230688980363    0.0150247580568849 H
   0.8413162296684814    0.4389216749700859    0.2015974489998001 H
   0.8206449110487593    0.5570436022779136    0.2371638112398405 H
   0.0921489008241811    0.7574969709074729    0.1943090947349744 H
   0.1859953127297598    0.7891479566731591    0.0939061392749180 H
   0.3210931875713098    0.8242110369922471    0.2618261502418539 H
   0.6540463143572796    0.9729253240155048    0.0294359801989168 H
   0.3963386388867999    0.7143024984502757    0.1506206884034029 H
   0.6765586525663609    0.9704108086738128    0.1772841611178919 H
   0.8044537574335421    0.6659805418653358    0.1156877635546291 H
   0.9557687354997592    0.8938204967071091    0.2494348354781199 H
   0.0534005231889422    0.2044882857732145    0.3718502617754071 H
   0.2646661124926518    0.2762615653491323    0.3849848746415165 H
   0.2094053671576524    0.1599880475612720    0.4159586419646351 H
   0.0899957845806258    0.2928103676607872    0.6690756343964476 H
  -0.0021716174594573    0.3103501721605512    0.4117992320035411 H
   0.4971455075217480    0.2176630813603073    0.6382889084105965 H
   0.3892593048925176    0.2836872546962892    0.6990238033088985 H
   0.3301783562419986    0.0863843962862147    0.4915868250240306 H
   0.5201256891355812    0.3094044441840818    0.4991022711132116 H
   0.6352952668368584    0.3031673825520315    0.4760441766217692 H
   0.7389057453036020    0.2789679571115820    0.6956786141877309 H
   0.5817016787079031    0.1657716484386473    0.5609231182811953 H
   0.0131155078697849    0.0360797166867770    0.5987022004007392 H
   0.7456154726984205    0.2438179215606149    0.5749854283673134 H
   0.2100295604660446    0.3627403400485256    0.5490854875950306 H
   0.4636186822464091    0.4700210986694955    0.7185039152229757 H
   0.4544409365906554    0.3998158950069031    0.6160407237691512 H
   0.5999427813355918    0.4189067365063737    0.5177782512944394 H
   0.6211884980671940    0.4387092454945204    0.6813390101042066 H
   0.7449064171537187    0.3699561870179249    0.6032676778003618 H
   0.0706163357070368   -0.0605598846534227    0.7106071551213132 H
   0.2404186571543992    0.7471888234192682    0.3311663372963745 H
   0.2262059859245468    0.9377034246365386    0.3733465924735473 H
   0.3786830856896470    0.8634436566118485    0.6676300621281234 H
   0.6537131774792051    0.9961790214794848    0.6353671697518675 H
   0.4996032862070623    0.9606725413416417    0.6432027416093680 H
   0.4658820492630871    0.7578577273240289    0.6754830170095336 H
   0.5612400609861689    0.8595277966241723    0.6412301160561044 H
   0.0395041566580616   -0.1409065189096445    0.6157187901663449 H
   0.7071378126104170    0.9413131447169381    0.3593977587675113 H
   0.8307343997392430    0.9415718544977353    0.3908672899325322 H
   0.2586401923738809    0.2540865439434201   -0.1200517675352137 H
   0.1522110252482290    0.1813208249028335   -0.1036679198399180 H
   0.1790660656658100    0.0221460390760128   -0.0697397337731203 H
   0.5952360832539958    0.1643429955380233    0.6871560652253221 H
  -0.2060121117564831   -0.0025535586073111    0.8486735608258665 H
  -0.1183655524870700    0.0326812762606950    0.7673974942340441 H
  -0.1188452695914972    0.3180173239697855    0.7984825129101841 H
   0.7629624359453571    0.2818568829971497   -0.0416703220848212 H
   0.0125965156807846   -0.0116076822969299    0.8541380882220949 H
  -0.0612967505801210   -0.0420930367724691    0.9499866914178307 H
   0.1700489270523280    0.5181081395870888    0.7415308593355721 H
   0.2231390226238734    0.6054884460087321    0.8945828222921313 H
   0.0737920068310818    0.5914800300168486    0.7073815612046440 H
   0.5933200201994705    0.3327824660705004    0.7578827222668740 H
  -0.0677610086963583    0.4604241946733816    0.8823472594226275 H
  -0.0708419988129505    0.5166390992151292    0.7759485513556647 H
   0.0104111377606158    0.5885796059188011    0.9679308393392538 H
   0.0171545295136398   -0.1279588130190293    0.9031373560185337 H
   0.3505347728443409    0.7889021823814019    0.9096893653905480 H
   0.2942725128527302    0.8255627955969120    0.7489965204442760 H
   0.3411024404796587    0.9515558961216637    0.7583652750106051 H
   0.4188138060336961    0.9043686693808312    0.9257227713238256 H
   0.4881768315572658    0.9705358517345315    0.8171372788490326 H
   0.4729776543638353    0.7918557857121689    0.9230430043579185 H
   0.5721829411571604    0.8696835927970189    0.8246891597563283 H
   0.5314345499741213    0.7324862028489124    0.7848834256452096 H
   0.4090539475173069    0.6904702971709021    0.7668085573839861 H
   0.0020069710027909   -0.2053683726249240    0.7574015601650558 H
  -0.2031786949408599   -0.0473261607273706    0.7344524919995745 H
  -0.1005886673322183   -0.2389798036184283    0.8762778027943442 H
  -0.1838132728831897   -0.1578757246150949    0.9191665900260731 H
  -0.2100237811092961   -0.2172913003282707    0.8029916693123398 H
  -0.1031941483891589   -0.1789735072390990    0.6855387486807711 H
   0.2371090299383285    0.1894895862315022    0.0157145164456186 C
   0.1582257239142648    0.1274790076892754    0.0587569696087086 C
   0.3338646034654925    0.1587951080164853    0.0546156379924806 C
   0.4153793401559469    0.2337598601938473    0.0521152638333207 C
   0.7428865556613934    0.3113483607314600    0.0992232586283928 C
   0.0969039914206972    0.3318798563908305    0.3061966664316390 C
   0.1652131822642781    0.6404128291397817    0.2009751367438357 C
   0.3906395435789400    0.6177311677466751    0.2626146442063943 C
   0.6720371084548948    0.4701956343485572    0.2483014623192126 C
   0.7021274339641763    0.4084940271484301    0.0832183608543268 C
   0.7155539021617729    0.4878489405782631    0.1570106879925794 C
   0.8812134035274803    0.5488906509914048    0.1052836760842430 C
   0.8203777002055036    0.5076541085280457    0.1806286549181029 C
   0.2497415803549138    0.7136068565952435    0.1856203640639896 C
   0.2505845919916413    0.7895259604084348    0.2642861957855435 C
   0.1722013419550873    0.8654544065192661    0.2626667932781231 C
   0.3478465335734786    0.6635465140110031    0.1814185395245561 C
   0.7390565335747304    1.0123217931629445    0.1741239273711228 C
   0.7811650349633483    0.9952900659271348    0.0766350620392753 C
   0.8099536719553533    0.9755030795258360    0.2460868650731270 C
   0.8252779683467806    0.8632381260637708    0.2302001718616464 C
   0.0642046781504954    0.2816520710873520    0.3928920645575248 C
   0.2341886468640079    0.2309600454549986    0.4407197165424552 C
   0.1341613185237542    0.2740366612342771    0.4758494172218858 C
   0.0973156784679177    0.2009303076489743    0.5501787407347544 C
   0.3086647273263449    0.2272130654631205    0.5177025795147561 C
   0.5696956360243367    0.2033679286947070    0.6259879853711925 C
   0.5919250533563333    0.3416404015096814    0.5193963187856234 C
   0.7634681026592345    1.0814411415708518    0.3845982761897666 C
   0.7215819263029317    0.2995540692802319    0.6238971552553433 C
   0.4766232238211644    0.3969719558776629    0.6889903219082653 C
   0.5799225173767465    0.3719920892651422    0.6918216688426643 C
   0.5520933847276757    0.9236310498377357    0.6834597390211804 C
   0.0126834819394819   -0.0859939306588984    0.6680110980122222 C
   0.7762998338618685    0.9819212380044442    0.3502111782917549 C
   0.2710749646860093    0.0959092280492283   -0.1406638619662855 C
   0.2294567005137580    0.1846732724789960   -0.0940224275329477 C
   0.1220842300175584    0.5753753461622286    0.7641628611449418 C
   0.1236369985397835    0.4725458833522085    0.9125360093859876 C
   0.0601902034344986    0.5314582110506716    0.8492138252089776 C
   0.1713288740049301    0.6653998821351024    0.7840253995850308 C
  -0.0040434960438381    0.3815219514961156    0.7640418752985308 C
  -0.0276099494692267    0.4707143029034820    0.8168973931190799 C
   0.3506224404438342    0.8763590237798642    0.7395366788326604 C
   0.4129534023427685    0.8330653792400281    0.8937929376856780 C
   0.5160253899437028    0.9023270180273739    0.7833620633926397 C
   0.4584076499984482    0.7438270335454658    0.7510435453398729 C
  -0.1595545960922021   -0.0267687940899204    0.7894252621323153 C
  -0.0266014214046559   -0.0677045864331028    0.8844325269708255 C
  -0.1568593434133803   -0.1877538297440409    0.8565946571610025 C
  -0.0472103206935389   -0.1477033997618086    0.7294385325830836 C
   0.6136897622769357    0.3030186244280731    0.6144762516172853 N
   0.4322535997064156    0.8376438237218570    0.7914785449165198 N
  -0.0963841292605200   -0.1086410974145652    0.8152202789722798 N
   0.5203860969731161   -0.0089365038101997    1.0437277767947639 Cl
   0.8416886416311289    0.6481288483520554    0.5105621061109342 Cl
   0.3393287496067104    0.9545727396210698    0.4361737081296111 Cl
   0.5869160773916845    1.6947601070768759    0.5079745526102628 Cl
   0.7539403879463036    0.3470115040143414    0.8635909766241467 Cl
   0.6838084123740581    0.6251223624563925    0.7198632676927080 Cl
   0.1317508102080867    0.0536087416123411    0.0245972416634348 O
   0.1302969307380899    0.1563057450145931    0.1420960534781249 O
   0.2195565738381796    0.2849362480269153    0.0408190795758928 O
   0.1569233340561924    0.2980485220836487    0.2539676327927926 O
   0.4987571886708326    0.1927852613835453    0.0386552407596232 O
   0.7430022768927246    0.2738526898345992    0.1800202490812662 O
   0.7673942084349420    0.2549330998372507    0.0285682196453485 O
   0.1717090007163330    0.5512980892293778    0.2092160807189087 O
   0.3987175868666499    0.3204844091849979    0.0529851103497582 O
   0.3515271700706050    0.5330559595385778    0.2830292674858528 O
   0.6477054922211288    0.5448332192625701    0.2916936619233642 O
   0.6826301598368683    0.5819803505936348    0.1162669659112977 O
   0.6688972057114432    0.3846343738867608    0.2879389287588862 O
   0.9369209029494975    0.5021080894660357    0.0579058967580936 O
   0.8719599130657645    0.6440750098146207    0.0982407701170211 O
   0.0841353808896983    0.6788678821404318    0.2031647024354915 O
   0.2415183595224430    0.7488208509531299    0.0904809882437664 O
   0.1082355546608021    0.8543076081583107    0.2010210279269571 O
   0.4552053980582369    0.6535171981754352    0.3114671992810359 O
   0.8672721511856591    1.0005634336257159    0.0613637278741953 O
   0.9004581949682477    1.0239551096394544    0.2390411778220795 O
   0.7260101920885368    0.9625215976360610    0.0088934178634835 O
   0.9151667141408342    0.8376344814242170    0.2423828903384650 O
   0.7610063964654629    0.8072346449039969    0.2155574078411383 O
   0.0789103919598981    0.2251606345354635    0.6348985234272640 O
   0.0828007293550124    0.1151126801671736    0.5207223028026589 O
   0.3277608345183716    0.3010862060931748    0.5593533616900609 O
   0.4245977635778654    0.3256837571407398    0.7431857232117680 O
   0.3493018157250672    0.1480105033486459    0.5349875075438499 O
   0.6282383757480465    0.9844328787930161    0.6952391713432958 O
   0.7007093228747728    1.1160141105829853    0.4348032305245766 O
   0.8377765626713402    1.1444190072379476    0.3589305030848206 O
   0.0613733653572601    0.4224619838051500    0.2991836592655416 O
   0.1502795326961928    0.3669292825825988    0.5159552796706184 O
   0.1726796563779227    0.9383624159392912    0.3216508700082482 O
  -0.0346920888266928   -0.0085642491811639    0.6253316023883653 O
   0.2329627031526937    0.0093125966719163   -0.1151191606706197 O
   0.3359398708806977    0.0994434911102288   -0.1944156484996146 O
  -0.0644114050549186    0.3065025828094742    0.7584959953504055 O
   0.1998678336735782    0.5033611071710297    0.9309738351864439 O
   0.0880516678942626    0.3938552216573377    0.9520900373108947 O
   0.0262824799728813    0.6103399730369579    0.9030087216416025 O
   0.0742450729852631    0.3761831877140553    0.7239795677545062 O
   0.2274852315363529    0.6710994023337186    0.8587035656217178 O
   0.1538837230465610    0.7381267947085693    0.7352590643089809 O
