Li1 Co1 H90 C51 N3 Cl6 O45
1.0
  14.0052192783000002    0.0000000000000000    0.0000000000000000
   0.0000000000000000   13.6681163659999996    0.0000000000000000
   0.0000000000000000    0.0000000000000000   14.1264714458000000
Li Co H C N Cl O
1 1 90 51 3 6 45
direct
   0.7926490772908128    0.6907653864058417    0.4641370456915747 Li
   0.4172318920599787    0.2488559207368984    0.6786242240096143 Co
   0.0645226697449958   -0.0002705798590653    0.9807902685436226 H
   0.2077364217144304    0.0588714393010019    1.0531883903197490 H
   0.2144574874920900    0.1906818476818929    1.0774485179329962 H
   0.0780533397212679    0.0745663598193571    1.1523136393511570 H
   0.0615916195997401    0.2040121409806265    1.1523752258558506 H
   0.4679581952961416    0.2356170811517951    0.0119375686665291 H
   0.5286911965507458    0.1413575675874517    0.2065346420083867 H
   0.6137393472673537    0.3256631392217692    0.1422362074357494 H
   0.6304752508860259    0.9977645286166859    0.0814319221408977 H
  -0.0341683948170275    0.1322619470446496    1.1068507647427250 H
   0.7144703656089131    1.1185690312844678    0.1484054762679822 H
   0.1046562791395234    0.3037603406221981    1.0344859138369504 H
   1.1863280258627094    0.4621324924268647    0.1616274617239138 H
   0.4126821596542370    0.3505824471117178    0.0291187876943112 H
   0.4798012087259273    0.3982675840060228    0.2829995967668626 H
   0.4908610855419939    0.4575770000435186    0.1783407648941966 H
   0.9979496829339549    0.5534992152846293    0.3114008859026068 H
   0.9714795511471288    0.4472592652347338    0.2457794033153462 H
   0.7881800290912622    0.4344576475637536    0.1900790111106147 H
   0.7726144034721207    0.5985858961043031    0.1030806403769668 H
   0.8845012628537473    0.6450495040363925    0.0667141633008574 H
   0.1983749117377073    0.9761887684970562    0.2038899617608569 H
   0.1109624995738472    0.6945698608928568    0.0813483910195892 H
   0.1889362876524124    0.6891960406799481    0.2098857973327458 H
   0.1750443237970905    0.8039331381706499    0.2640252901943823 H
   0.3145516004184076    0.9231324452567951    0.1362906321148173 H
   0.4189990903814180    0.7483504975450689    0.1045898636873879 H
   0.5030113415728767    0.7415799962176002    0.2526289552626422 H
   0.4135275587704326    0.9110122674968160    0.2146329134301587 H
   0.6864158244987439    0.7298709943541023    0.0360568259989255 H
   0.9134254797439217    0.7037957115238684    0.2881261423644564 H
   0.8133970566137950    0.9652904123511762    0.2260745533768458 H
   0.7442128488733780    0.8776484895051120    0.2929893525626709 H
   0.8371389198001287    0.7972189723307773    0.1470972939613883 H
   0.2310048899564754    0.1908618285903171    0.3945214305131371 H
   0.2029560610024968    0.0580929852905819    0.4095895953281579 H
   0.0912662710094427    0.2516668420790353    0.3539245976663538 H
   0.1654086303232229    0.2726031578329628    0.6008050740387390 H
   0.0515560751925367    0.2775665337790993    0.5566652474449303 H
   0.4985747098597071    0.0410452814402092    0.5984060319191247 H
   0.6425957323027657    0.1310254928363697    0.5951872521853138 H
   0.3293346606394490   -0.0062757965108767    0.4724949714802615 H
   0.0606098427544961    0.0490800389049014    0.5630332212411571 H
   0.6650059490771865    0.0028212872913435    0.5838194452551732 H
   0.8296188661753213   -0.0110160253957557    0.6362689902702016 H
   0.2507446737118325    0.4366603651287643    0.3116755475557229 H
   0.1877674376919291    0.4424215832726106    0.5796254042855428 H
   0.4315422713562555    0.5888208343777280    0.5914573752516322 H
  -0.0375164323641906    0.5486594847593208    0.6088707824810177 H
   0.1245802799320245    0.7495445172302244    0.6643092550680869 H
   0.0467521518363173    0.7086947040556093    0.5679670081579686 H
   0.3460969829805025    0.7108222832495015    0.4877328177340760 H
   0.6716334782972264    0.9481446701197920    0.3953631127439489 H
   0.5351566433388799   -0.0195826776589209    0.7054702769291319 H
   0.4857085778542486    0.6607971018937987    0.5137169774308793 H
   0.6986305564926272   -0.0924910414243103    0.7276647790171403 H
  -0.0394164383170592    0.8226467628685098    0.5183667238485899 H
   0.0642577685016609    0.1326145925644075    0.7300142687766562 H
   0.1576486661384142    0.0619025811855603    0.8447223192772483 H
   0.1095723035609816    0.2546767667020314    0.9121800707515786 H
   0.0564306864816137   -0.0076271165834761    0.8160923813941936 H
   0.2255126517792995    0.1399821037344540    0.9596271634365164 H
   0.6416675069218077    0.1524805340540075    0.8165298579447754 H
   0.4457002074841980    0.0814056343394757    0.7613136630872898 H
   0.7063569617598165    0.2191737034410905    0.7252437922809113 H
  -0.0343561819517906    0.0782808438521601    0.9481154422948332 H
   0.7708079340768716    0.1560552768123836    0.8198972947588811 H
  -0.0030664183792210    0.2702685274314118    0.9828438599242661 H
   0.8662073686341133    0.0814136822662752    0.7120855170022489 H
   0.8090415375185307    0.1169664963474309    0.5979692632594016 H
   0.1136964803305303    0.6112643073322808    0.8521303971119375 H
   0.4959494028745484    0.3394038767872749   -0.1092533463166320 H
   0.5177419427795036    0.5435343454845152    0.8298360824128740 H
   0.5999759069263183    0.5823766399004917    0.7427350675047368 H
   0.5022905388635867    0.7497398623625385    0.8895948129096526 H
   0.6093738318987559    0.7464760622305050    0.8270052268695465 H
   0.5807372220727737    0.7268581432122700    0.6402388422049303 H
   0.4809694874707915    0.5313152513878737    0.7087478116042021 H
   0.8565266919302456    0.5544803307244538   -0.0670750852918558 H
  -0.0686598219343783    0.5157853133689072    0.7346006936491790 H
   0.3701194558396948    0.6429870398866049    0.8383633356949252 H
  -0.0175353100097844    0.7348548559320921    0.8108419548963542 H
   0.3347997660747201    0.6469546677987362    0.7230514542919928 H
   0.4736010201908900    0.7976579501562022    0.6480822729176255 H
   0.3559782991705620    0.7622134172719846    0.7778195542360185 H
   0.5163309181031089    0.8260188441974815    0.7937520537893246 H
   0.6510504374842451   -0.0197889972368706    0.8080365834239345 H
  -0.1959466544056216    0.6603822678487723    0.7746729793697793 H
   0.7739360536107001   -0.0220950940797690    0.8136444948053398 H
   0.6838796271501573    0.9177827688242847   -0.0088312412323667 H
   0.1900337356605142    0.1328479824415917    1.0263232243470508 C
   0.0422181278600995    0.1389746496251040    1.1167208869834389 C
   0.4185449739642724    0.2145110273053699    0.1849524655130210 C
   0.4822632908479422    0.3014066878482121    0.1566531126609075 C
   0.4815450586089378    0.3067987988038468    0.0455326530314290 C
   0.7734719409202210    1.0474677929004106    0.0436609896014320 C
   0.6698912706591206    1.0144083728676678    0.2721221458344371 C
   1.0616780674929105    0.5350167124118557    0.1762439921711819 C
   0.3485724886695650    0.4332417521502977    0.2191046599835969 C
   0.4508070179224192    0.4008880621348963    0.2113836943894302 C
   0.9759778741471559    0.5253249599821266    0.2383621228994960 C
   0.8649692587798202    0.4847777488551709    0.0554494960688069 C
   0.8072700550799486    0.5459883046916107    0.2720209174416650 C
   0.8835423346332654    0.5842788771439993    0.2049404717949400 C
   0.8482647720201957    0.5823195727831866    0.1018305051207737 C
   0.2131386934316059    0.7674584706561021    0.2066925016698425 C
   0.1596557750198549    0.8153407085940227    0.1226920487221391 C
   0.2980984485311655    0.9453381385559093    0.2896445682560387 C
   0.3213847672613059    0.7795457250791743    0.2049050772520127 C
   0.3393652069099856    0.8951220018461467    0.2083461347154072 C
   0.3615662159639290    0.7213036104612282    0.2942380720371469 C
   0.6332506447750902    0.8133850623817552    0.1391469717290525 C
   0.6972832016511905    0.9601097423814544    0.0590328395947693 C
   0.7398401933095422    0.9346095205025269    0.2352615609390623 C
   0.7215734318318131    0.8841117063547833    0.1374721019577315 C
   0.2171279205111537    0.1329182188936597    0.4457294765404465 C
   0.1266637889025132    0.1617217489089089    0.5000443847568308 C
   0.2975150945802096    0.1256275288430625    0.5177446718355508 C
   0.1261261322010814    0.2707228694807265    0.5368191732801499 C
   0.0404730641438985    0.1494384177238135    0.4269761027049185 C
   0.5385579467425194    0.0486571569330755    0.6634788990910119 C
   0.6397325140122722    0.0633446233420808    0.6293217493844261 C
   0.1523534973498109    0.3531153491644191    0.4694120360022057 C
   0.4455600454516733    0.6679290282975339    0.5778572344990652 C
   0.0490841396010933    0.7263335647108874    0.6458771928932532 C
   0.0423623598039099    0.0676166092131733    0.9462919154432174 C
   0.0783075306717456    0.0654575699417922    0.8469854463520216 C
   0.7094001129703110    0.1562133088295365    0.7767626731842086 C
   0.0718156651612303    0.2536985777810432    0.9823235601432344 C
   0.8136455354080822    0.0638874925861895    0.6570788578388931 C
   0.1273606719577555    0.5789460281947968    0.7225219519298000 C
   0.0286032035800174    0.6382292518887089    0.7129774594840175 C
   0.5011335416271987    0.7216591824998221    0.6527692182920619 C
   0.5236809929540965    0.5803251501963398    0.7569735842335411 C
   0.5339166056318725    0.7510663070250304    0.8219501782486659 C
   0.5636807236879090    0.3573939197028929    0.0068860594999413 C
  -0.0549442209014385    0.5750522948832787    0.6813050066909299 C
  -0.1476603700881878    0.6272635858095971    0.6495773384108757 C
  -0.0139673544492867    0.8165252170929608    0.6551802945562712 C
   0.3790575522387963    0.6869411579166826    0.7738312971389676 C
   0.7137691984365279   -0.0256471563171648    0.7646322554321557 C
   0.0838433240398742    0.1527907450506410    1.0174491045443117 N
   0.7178041227655999    0.0642591604783825    0.7056451259711928 N
   0.4841959988950014    0.6860931990839036    0.7532076048660737 N
   0.5033030899503070    0.3556570307736286    0.6046928106338763 Cl
  -0.0413699957342138    0.7267184019378431    0.4242174520291628 Cl
   0.7049053600679031    0.8342716273154680    0.4769946797226124 Cl
   0.3557812297819893    0.3545127619086880    0.7974408730532104 Cl
   0.7294783419799559    0.6253006233002391    0.9109752405103325 Cl
   0.3500233763419547    0.0292031229696658    0.8231125350383992 Cl
   0.2204274047306974    1.0001547628761240    0.2678188773053330 O
   0.3302935888599310    0.2239183221042237    0.1842615640350796 O
   0.4585450617078468    0.1284399134446175    0.2046417418526334 O
   0.5759904202784595    0.2803869663074538    0.1846466566621289 O
   0.6463200581389785    1.0933197583957415    0.2282378678405639 O
   0.7719874943302121    1.1227063972890967    0.1004161391853978 O
   1.0801590348277836    0.5960654317566555    0.1173411017223861 O
   1.1190866652465898    0.4589207843301150    0.1904088882506974 O
   0.2979942016806887    0.4512118947378297    0.1495373937507980 O
   0.6341645897655719    0.3921426727338121    0.0462716910877515 O
   0.3216275338994026    0.4406006300897775    0.3098484812498144 O
   0.8585930644321627    0.4048761756788806    0.0941718339221591 O
   0.7661960819725582    0.4603908479044917    0.2504840459612462 O
   0.1179241899310320    0.7613910654790221    0.0564497458519331 O
   0.1528568811140996    0.9104657401041621    0.1163932358627923 O
   0.6394376239489371    1.0027476585649666    0.3560079204630561 O
   0.3500119520295736    0.7358081694429730    0.1189175746643691 O
   0.4551805303096836    0.7072094957462554    0.2996244135798272 O
   0.5595223453831697    0.8225106797426281    0.1878817178856864 O
   0.6315527063474610    0.7381310937691792    0.0797096236820540 O
   0.8903497967733064    0.6857771350495978    0.2229032023305574 O
   0.8082511179056687    0.8402117289231747    0.1020775590304064 O
   0.1093595257428851    0.0971495740483367    0.5814032013876964 O
   0.3120553881631544    0.1910037647538711    0.5734194667068372 O
   0.0442837863424929    0.1976147708047688    0.3468548916620499 O
   0.1506362803950387    0.3459885441686472    0.3813829761785140 O
   0.5010095878378646    0.1286806196188921    0.7229523495717962 O
   0.3458306536981199    0.0444861359618308    0.5229354514496490 O
   0.3276881316175344    0.9378367391491084    0.3712558895561478 O
  -0.0188055507426492    0.0878469022978759    0.4447469240287841 O
   0.1712193212080199    0.5410162955149075    0.6580267236984868 O
   0.1747294411870886    0.4384675636730674    0.5083158416771463 O
   0.7936437064874855    0.5861467277911818    0.3498903276634973 O
   0.3088872835359924    0.6792985539760366    0.3519602005338872 O
   0.3578733069867639    0.7141636361306934    0.5571306856844247 O
  -0.1871135188765208    0.6151002418967846    0.5749991959467695 O
  -0.0476562236218707    0.8649327651619731    0.5825598950505614 O
   0.0439553373615386    0.1497420440530657    0.7929103715585128 O
   0.8207100445766963    1.0400929654332736   -0.0286316564367709 O
   0.1611395075903401    0.5723708719996422    0.8146631497507882 O
   0.0149354418551732    0.6745575934614486    0.8098848864555993 O
   0.5598840676739337    0.3577407121849784   -0.0894769994014183 O
   0.8733868349460614    0.4878023060723479   -0.0417715265531111 O
  -0.0309595910770082    0.8516770980935618    0.7351309039022302 O
  -0.1902409243908253    0.6906732010625025    0.7116990085934826 O
