Li1 Co1 H110 Cl3 O55
1.0
  12.5251213915000008    0.0000000000000000    0.0000000000000000
   0.0000000000000000   12.5275727182000001    0.0000000000000000
   0.0000000000000000    0.0000000000000000   12.5065549391000008
Li Co H Cl O
1 1 110 3 55
direct
   0.7412831704849508    0.2606499624908320    0.6568839308270128 Li
   0.5819721396669866    0.6566245149109718    0.3331936724215018 Co
   0.2666682095445941    0.1706628576175763    0.1286881141399135 H
   0.1153475204464249    0.3184049654970296    0.2705897016387737 H
   0.3135220468573611    1.1522400774516544    0.2837028251806754 H
   1.0047832114697630    0.2964565796297068    0.0561174498427067 H
   0.3632245591557626    0.0970240912937717    0.1128860006912181 H
   0.6427388161893010    0.1631945313819539    0.2736057200534111 H
   0.6553351012925389    0.0745977995994643    0.1884983499436535 H
   0.3964689475321161    1.2380827242428929    0.3154429807977079 H
   0.9063011320196512    0.2311701894887190    0.0156303051041542 H
  -0.3049597832075430    0.0730228735987286    0.0020482034920676 H
   0.7918224012208368    0.0829830632385560    0.2899259617981523 H
   0.8912114579085274    0.1691685537790679    0.3230102125782298 H
  -0.0764637941832597    1.0322966507559921    0.2253886048736975 H
   0.1722092447953262    0.6261589164598429    0.2542622636676984 H
   0.2283244693932274    0.4746898296156482    0.1267291414156660 H
   0.0562454186095223    0.6556003739789172    0.2976131306842404 H
   0.1743601221527530    0.5679736625086901    0.0695582415570153 H
   0.5500482973742202    0.4423060622948953    0.0543057598840944 H
   0.3524007119639899    0.6249016896726362    0.0670043008310891 H
   0.6201218697226388    0.4529960820626865    0.2564315261170386 H
   0.7127389361558029    0.5213908157651871    0.2168083043414934 H
  -0.0171843687156651    0.6210517818664790    0.1128436229139181 H
  -0.1558801901532852    0.3827446439112701    1.1471708267674594 H
  -0.0718506652407162    0.5433783153547785    0.2057533015311072 H
  -0.1652038522839573    0.4024635476092798    1.2720013662407339 H
   1.2011805095965005    0.9849770292032245    0.1529226056906148 H
   0.1378007958446859   -0.1409226416491048    1.0329827064614234 H
   1.0857405106691256    0.9369230275588823    0.1739491794577727 H
   0.2524400041300789    0.8697591787489993    1.3060235251863388 H
   0.4992591688607267    0.6937993140900195    0.1541347700375369 H
   0.5980174931384815    0.7629978746971023    0.1532056572597509 H
  -0.3460124791398114   -0.0342623148597993    0.0488645332368386 H
  -0.0758578120324480    0.9966233395685228    0.1051108779277149 H
   0.7462555773825211   -0.1932504161307196    1.1143320472634408 H
   0.8809281244402061    0.7317611771498199    0.2053902918915936 H
   0.8768802594802378    0.8579691853223060    0.2054174776355219 H
   0.7928052260266989    0.7381255385303903    0.3151031589986037 H
   0.2108787302925837    0.2711571854749595    0.3436945658041722 H
   1.2399346250120531    0.0873271609519892    0.6247455840195006 H
   0.0003194935741474    0.3008205534999662    0.3698480510439323 H
   0.3470953741614281    0.1682761223199586    0.4797320284215502 H
   0.3702296808833287    0.2068853573952667    0.5982434815928950 H
   0.5617447907989802    0.3136993452363419    0.6005982467655108 H
   0.4660770553299112    1.0525559624126932    0.5964156401040664 H
   0.6273728972505344    0.2910660701097027    0.4911268530310405 H
   0.5668297714557923    1.0002633104571972    0.5484951693654532 H
   0.8515791074917982    0.1196082747077676    0.5502486498488307 H
  -0.0843958530347949    0.2756608512104641    0.4571430739592168 H
   0.8429484526165999    0.0002089278712545    0.4511638094563912 H
   0.9153389685772131    0.1734942121662886    0.6448270533947972 H
   1.1066664555607950    0.5575869736482885    0.4246297238016344 H
   1.1332530242327750    0.4324214659101464    0.4079328795454154 H
   0.2609117783096098    0.5047523172556411    0.4953030630468548 H
   1.0167671272585446    0.4795016156939221    0.5915973667831212 H
   0.3290524352599843    0.5730408851405553    0.5766260176856476 H
   0.3721075069949352    0.3990510749011475    0.6062904617956815 H
   0.6261106340352069    0.5776507166936463    0.5266610190874830 H
   0.5995855418133094    0.4741023255423884    0.4499804300148049 H
   0.9246562435442403    0.4606464068427426    0.6648637462506823 H
  -0.1006974914475423    0.6184463290198489    0.5926871952823659 H
   0.7430580035827830    0.6478662340797140    0.6249894561341519 H
   0.2477510276192519    0.7587823733236176    1.3609387279215714 H
   0.2390205733121017    0.6985935389052340    0.6663365739070350 H
   0.0378020045475421    0.8208350963439870    0.5913830791545097 H
   0.1857524269089236    0.9052010005597766    0.6048640098201478 H
   0.1992716571588527    0.8185617110170255    0.5148863936436997 H
   0.6095183796766158   -0.0006135778313091    0.3606368813364501 H
   0.4430425480399623    0.8135128478874497    0.3771482228693935 H
   0.5595747519506186    0.8212262335666736    0.4208469074920773 H
   0.6792941505200900   -0.0519948800579456    0.4543461406574136 H
   0.7973081763963676    0.6834253970572973    0.4326215329358605 H
   0.8741657149311469   -0.0710822967011241    0.5505956678742688 H
  -0.1205951029923796    0.7472637812351151    0.5776318902109959 H
   0.1585902151134453    0.2885077133776410    0.9296129130774563 H
   1.1202950659881432    0.0767982258608064    0.6759763188717403 H
   1.0985547577317465    0.2150194151486861    0.7830633629475551 H
   0.3218317467594022    0.3077811995853261    0.8658383561444024 H
   0.4969549995758218    0.0630544620948325   -0.0575957994833577 H
   0.4314618219562666    0.1478675399272527   -0.1183359476455874 H
   0.5981987289069062    0.0971586744279450    0.7007921055940856 H
   0.6910561123722102    0.1173460647300256    0.7732421131630929 H
   0.8691118716971039    0.3087925686897012    0.8255075054460167 H
   0.9977972512331317    0.1435402850615720    0.8183064816278236 H
   0.1487491927275346    0.3796594492874265    0.8340630189764038 H
   0.0797742125260423    0.5128376824160321    0.7611356617272431 H
   0.1948150137256097    0.5477031755027694    0.7767258862894384 H
   0.0800976425251120   -0.4107306943367171   -0.0584238452601865 H
   0.4858996177019207    0.5141459965139571   -0.0113812341762473 H
   0.6456210237840710    0.4972664297569593    0.8845085655775369 H
   0.4308278959645083    0.3499625552147609    0.8905853789262231 H
   0.3991244108174917    0.3359542549679742    0.7142106689648292 H
   0.6686882652877001    0.5955671962103781    0.7172122949267987 H
   0.7176786088396929    0.5950491389501261    0.8522934590224623 H
   0.7890032668670602    0.3965469984367239    0.8103282653655616 H
   0.1832366828282807   -0.1518625102958774    0.9105828923276232 H
   0.2485270680021097    0.9698424134029467   -0.2263281170780748 H
   1.0098131028401378   -0.1712573288665183    0.8845165613845746 H
   0.0974785519147597   -0.2998113621358935   -0.0095400396896658 H
   0.3241407064170408    0.7022255274016087    0.7494353972889110 H
   0.3299681948475748    0.9923288125112709   -0.1312867563046229 H
   0.4259425141716000    0.6982846203232347   -0.0183567762359761 H
   0.3614225806124395    0.8427148336375322    0.8481116519417218 H
   0.4680011883779434    0.8089165864012682    0.8174117508202999 H
   0.5555723955316205   -0.1101002302621781    0.6859662801846990 H
   0.6135973820593529   -0.2149505495975210    0.6878045162226765 H
   0.6953578670870640    0.7964752297629174    0.8326957359729494 H
   0.9249117300900372   -0.0759379859370466    0.8482555764684011 H
   0.8139930446278102    0.7624742297622403    0.8592977859875269 H
  -0.0320437057378439    0.8413418621619797    0.6911555589521954 H
   0.7050887109000997   -0.2080761133489981    0.9960420779470416 H
   0.1635506460791813    0.2931382991507112    0.0962655163922095 Cl
   0.5619938901811321    0.3026724685135023    0.3182670998434394 Cl
   0.8675709684677668    0.0760906666073588    0.9530726109262001 Cl
   0.3023029939150589    0.1074606701060466    0.1613206018223583 O
  -0.3573936063596034    0.0456190015380820    0.0520513420898022 O
   0.6684088268782348    0.0897264286055174    0.2682677192750125 O
   0.8674033054220878    0.0906597299132012    0.3136447237949190 O
   0.9303647710518876    0.3038698273584610    0.0333756155498117 O
   0.0684979146295725   -0.3699278978574447    0.0049295725161894 O
   0.1338591174803146    0.6454036660552489    0.3203651996101437 O
   0.2366716938816824    0.5549144687063406    0.1195369129852144 O
   0.4257868270577551    0.6457141811157082    0.0386051132267080 O
   0.6347428857013165    0.5294905492317177    0.2227467902284266 O
  -0.0373114391144462    0.6182810934992446    0.1887957939654576 O
  -0.1640924858097412    0.4408955735755340    1.2021899749941827 O
   1.1672247508691940    0.9191222927304964    0.1642926432982882 O
   0.5352117146225265    0.7445353995470692    0.2002465892242122 O
  -0.0527519281887672    0.9764119222656201    0.1741834566039787 O
   0.6855256270511650   -0.1743920143226202    1.0659174356498951 O
   0.8328407661485138    0.7947119193039082    0.2078026268748812 O
   0.1391293258828293    0.3108049297884617    0.3454264576085478 O
   0.3307961309350476    1.2062409613592915    0.3429013817460280 O
   1.1814441739336972    0.0375017068084920    0.6434525741650088 O
   0.3482937657403062    0.1409156744734225    0.5572129977787066 O
   0.6326854206121966    0.3147163020153269    0.5648058161417492 O
   0.5345889661671467    1.0157331867340635    0.6172751015041356 O
  -0.0757372543186501    0.2891175681493399    0.3780813335506983 O
   0.8675230647404301    0.1889281676778062    0.5824381698213845 O
   1.1124947423867846    0.4897613845167582    0.4695277794799800 O
   0.3351577653090724    0.5180797194392613    0.5231636530891733 O
   0.6161330860263862    0.5535949792591961    0.4537688433892885 O
   0.6639897080314057    0.6364386412634282    0.6462742944686291 O
   0.4121111112985255    0.3393882801353157    0.6373469759109868 O
   0.9804002142552806    0.5112412039560872    0.6548849790675766 O
   0.2761116309936085    0.8313079950412258    1.3718210212999424 O
   0.1739297870021765    0.8278675839600445    0.5918044581853990 O
   0.5013884895408520    0.7707399969886052    0.4060106875335415 O
   0.6065283886953375   -0.0498395543130969    0.4262104948529966 O
   0.7518339664309032    0.6962187771960660    0.3671270779089877 O
   0.8151714763202978   -0.0266506248584739    0.5184109453859378 O
  -0.1483018204885874    0.6737164133031422    0.5609958140882637 O
  -0.0387747383054974    0.8425791329684369    0.6116700407706763 O
   0.1714858985125390    0.3021831478655292    0.8492950313833080 O
   1.0305554167770159    0.1755943795803462    0.7550332617960362 O
   0.6470254013904979    0.1555354259703682    0.7222712420395799 O
   0.4270794293003958    0.0777232254804985   -0.0843321790561693 O
   0.3972657461968200    0.2967686911686260    0.8470482096057016 O
   0.1358064039965596    0.5100151084988496    0.8173373898148488 O
   0.2891542191565353    0.6499153141830534    0.7004546825370928 O
   0.5391310379141405    0.4524732353670546   -0.0219652039940400 O
   0.8263258592306953    0.3442982496388763    0.7653350595834669 O
   0.7025266598830312    0.5164896268931561    0.8325917904814587 O
   0.2764932640213924    0.9411776426546354   -0.1576505312694757 O
   0.1318256042548631   -0.1843851712426454    0.9656740028176862 O
   0.4106260957510816    0.7820542398342348    0.8588500207934132 O
   0.5887153876851110   -0.1586084300283747    0.7367604439726776 O
   0.9413187567029256   -0.1546723123853804    0.8395401467972591 O
   0.7373414921205795    0.7477163828785095    0.8750815090800355 O
