Li1 Co1 H90 C51 N3 Cl6 O45
1.0
  13.8216160000000006    0.0000000000000000    0.0000000000000000
   0.0000000000000000   14.1063589999999994    0.0000000000000000
   0.0000000000000000    0.0000000000000000   14.1462109999999992
Li Co H C N Cl O
1 1 90 51 3 6 45
direct
   0.2227818693559421    0.5117750512375305    0.1193923821721591 Li
   0.7178797558838270    0.0033653078019636    0.8577713056874383 Co
   1.1178463516856494    0.8856413210524416    0.1623702763941525 H
   1.0824053164260965    0.7672170827355238    0.1327081661654842 H
   1.0410774586705345    0.8216179497487622    0.2406841061539377 H
   0.9984389842692778    1.0085379770924587    0.1774816952751518 H
   0.9137231630512669    0.9358983774622494    0.2393843128736027 H
   0.8787397884588891    0.9906524192387276    0.1294482967912751 H
   1.0576806916065384    0.9549553949392611    0.0223416150091357 H
   0.9386197337561684    0.9281214436694827   -0.0197119080155103 H
   1.0281165183579111    0.8372138614932457   -0.0196810905761267 H
   0.8897555307570402    0.7703531520784350    0.1861115707944693 H
   0.9244549407247313    0.7412368074568356    0.0672217182396049 H
   0.7560895108068405    0.7631487855937880    0.0607520565047418 H
   0.8052367653681015    0.8662634085804848    0.0085853300222936 H
   0.6977018461517089    0.8502902031629849    0.1730929921800262 H
   0.7035154746015225    0.2017105675532574    0.1108517764933663 H
   0.6800654243324369    0.2778549730656933    0.2108345436102996 H
   0.5813334280159425    0.2329615962559864    0.1422118247776737 H
   0.6542357073152661    0.0404854151237750    0.1159126475633652 H
   0.5340926075503760    0.0701541170191401    0.1549300522945685 H
   0.6063315657156152   -0.0115287651476898    0.2216285060359979 H
   0.7946069801099958    0.0993180146627489    0.2011841128341717 H
   0.7494357396414426    0.0463228498579967    0.3080714411795498 H
   0.7786804618215408    0.1707490075929586    0.3050608123970440 H
   0.5310665728233225    0.2082884931540449    0.2915806211288663 H
   0.6358101237944969    0.2010204809051010    0.3652233626375289 H
   0.5213186294569317    0.1078580702504452    0.4433703717553768 H
   0.5938621149654280    0.0203588792827405    0.3863075321017056 H
   0.4109311863388477    0.0901336170446251    0.3277783754250520 H
   0.8895897853044100    0.5502579687642998   -0.0210173204683572 H
   0.9807166947772242    0.4667668616685567    0.0151625279730382 H
   0.9739885734055987    0.5807219318606595    0.0695402620532099 H
   0.7525650618567321    0.5812847787299331    0.0825822462283363 H
   0.8359840672754907    0.6189265904830580    0.1734266518433806 H
   0.7489908842786545    0.5302501800783603    0.1996834579945118 H
   0.7761503249692364    0.4257189796459880    0.0052650126595736 H
   0.7530505622497398    0.3817297482645947    0.1217577441761614 H
   0.8594237902427617    0.3438998929489885    0.0583264571693438 H
   0.9700159207143360    0.5142508779196673    0.2176250955114412 H
   0.9772152554375696    0.3991325649659136    0.1651298238093579 H
   0.9331558979789337    0.3758229178769660    0.3258100561344660 H
   0.8285673679546587    0.3498361979870213    0.2584087166521127 H
   0.8270641103037444    0.4623826247439187    0.3995253096394505 H
   0.3962834396498933    0.9301568512470156    0.8446223798019131 H
   0.5221117950317820    0.9341119200213179    0.8667086776805465 H
   0.5399314139533321    1.0410240112278442    0.7466320762499585 H
   0.5556254623193120    0.7307891171634012    0.7386367190479487 H
   0.5519991468436106    0.6665667476632348    0.8431144466882334 H
   0.7890656136011881    0.7182670538868322    0.8512051594593070 H
   0.3593340583329764    0.6793629823259142    0.9075074201848113 H
   0.3830438814101043    0.7766213542417288    0.7318704902676767 H
   0.1042580563662020    0.6009645649880312    0.5208634863427388 H
   0.2131043678250068    0.5535860869555355    0.5686098609726662 H
   0.2229656959070487    0.3930498011570526    0.5146780731603678 H
   0.1324886626860419    0.4515221801742036    0.7404703414928563 H
   0.1175104322099529    0.5465027141305563    0.8193566291355333 H
   0.2536774028449351    0.5093834262973174    0.8933671348462143 H
   0.0170763744268398    0.7136948145159215    0.7746911084529986 H
  -0.0232587774106877    0.5260331053534083    0.6388462946014308 H
   0.2962656103309482    0.1965338823434169    0.0762223495747377 H
   0.2430675334924657    0.1349184045294750    0.1715223362637529 H
   0.1977440004121081    0.0718952580180329    0.0219963974805692 H
   0.1080372316811580    0.3425711758789068    0.2142793027758458 H
   0.1924820860310400    0.3621853555548954    0.3073139712110897 H
   0.1104611920921548    0.3011279366986194    0.4276992673161740 H
   0.4017307563746526    0.3502213143731844    0.1645637959168006 H
   0.2337400670080835    0.3688439320167592    0.0719240219165401 H
   0.8859964775464749    0.8454943057949964    0.3966314068127502 H
   0.8401201871040259    0.8374631632443212    0.5119883394924620 H
   1.0335577366640774    0.8196370672262062    0.4700911473750816 H
   0.7507592961633429    0.6684017151413770    0.5373585456911395 H
   0.6473226198731030    0.6625901871631085    0.4621412397991236 H
   0.5194214793697061    0.8367921211986736    0.5616616322208117 H
   0.6520973770360859    0.7273483029887443    0.2857690621184712 H
   0.8230022531374044    0.6350296919282998    0.3690671975697238 H
   0.5593154266476510    0.3618671515449167    0.4038850431398203 H
   0.5730776480839866    0.4729562795048672    0.4592127531534770 H
   0.7056100950858423    0.4828394144796683    0.5623252247545297 H
   0.5846914666128764    0.3760037178977226    0.6733282382116316 H
   0.4602560366313171    0.3983856691864995    0.6879960732948209 H
   0.4182593576612170    0.5557053567118205    0.6891179701759008 H
   0.3296986293064429    0.3118770066747911    0.6160495082393441 H
   0.5737777015364918    0.2440481828089020    0.5377615214420315 H
   0.7763896891651453    0.1943232814364075    0.6710240565477216 H
   0.7333812978164057    0.1412522692779902    0.7771400080205223 H
   0.6692369387197560    0.2488310768214534    0.8588784176907867 H
   0.9602635914642685    0.2219541867607368    0.8682237632394993 H
   0.9990414297430921    0.1039177416369454    0.8598923231104075 H
   0.9716709623534612    0.1950449183946049    1.0300181193395179 H
   0.9915082896240206    0.0575362302916011    0.6529700532531292 H
   0.9458674079789221    0.2517011824241819    0.6983853245225878 H
   1.0593327994353192    0.8334803261422737    0.1663097468290272 C
   0.9380488417562750    0.9589021220855076    0.1693803648199508 C
   1.0018394006894706    0.9002243746951286    0.0175266670347275 C
   0.8958607227982602    0.7971005246640894    0.1134132058400656 C
   0.7975977751082072    0.8281202931245405    0.0759555657695195 C
   0.6539727467468347    0.2175113946837735    0.1692015727745048 C
   0.6075407036340756    0.0518922161274926    0.1773600259461703 C
   0.7506112968266517    0.1104098704704736    0.2645340367113145 C
   0.5875497279044649    0.1606718799656240    0.3184017663811179 C
   0.5427822340021600    0.0788275500432110    0.3737657334532902 C
   0.9315441638662222    0.5229167682461505    0.0387390319570378 C
   0.7952162113315837    0.5593082112825853    0.1441440545457720 C
   0.8094604769804050    0.4026877559262458    0.0717676174913551 C
   0.9279083343076525    0.4518313074266719    0.1958057482671508 C
   0.8766959587069991    0.4081489263104675    0.2807025973244709 C
   0.4666443120688636    0.8993338203004758    0.8235675743844060 C
   0.4802583113291528    0.9189374005014334    0.7184355492788846 C
   0.4643569203485322    0.7930611882201495    0.8442037320099355 C
   0.5567129538253702    0.7395554387918243    0.8158871198796626 C
   0.6565918124190397    0.7742214925906820    0.8410046831621556 C
   0.4490733189230550    0.7723275460379252    0.9507988697468178 C
   0.1338333600065289    0.5502425501860544    0.5730684294190156 C
   0.0937684428506768    0.4539633657416489    0.5438573169875666 C
   0.1010842067960794    0.5833405912893611    0.6717765902120364 C
   0.1510933808318796    0.5268930770867237    0.7516040026548453 C
   0.2603087294568160    0.5340760035952580    0.7580128290183147 C
   0.1284455565832534    0.6910159170059403    0.6848583645472277 C
   0.2345333230209839    0.1979276587246929    0.1259708030652166 C
   0.1414432979472154    0.1868466462536506    0.0720961188829999 C
   0.2471887853055677    0.2849293315163750    0.1895508514612146 C
   0.1648313467831836    0.3085954873259641    0.2573624442615765 C
   0.1141906894244493    0.2265558702993451    0.3081976799299827 C
   0.3384567419612873    0.2637605125461503    0.2477019938413191 C
   0.8554386701236670    0.7949826656191012    0.4482839758292875 C
   0.9324949275106469    0.7193651707006747    0.4703050498822618 C
   0.7615076681337405    0.7523991690556010    0.4111907336883354 C
   0.7018155930536631    0.7104116937616574    0.4929202088106844 C
   0.6471673992389890    0.7814670638965022    0.5537741873071171 C
   0.7017205014232777    0.8288457574346434    0.3620156542271284 C
   0.5788567950375700    0.3960949427134245    0.4713347475164905 C
   0.6802984679939017    0.3640166991354750    0.4984305606639121 C
   0.5045642528341113    0.3646818828302895    0.5451014593236310 C
   0.5222807998717370    0.4133118616930138    0.6416378060528011 C
   0.5498887662629318    0.5180740338453034    0.6435959685600618 C
   0.4018859922023589    0.3868286933573716    0.5046150562860967 C
   0.7904728311074478    0.1869965169608969    0.7476254645148444 C
   0.7890952548529779    0.2848791116120042    0.7926461948008552 C
   0.8892455621687073    0.1403701018810027    0.7606143843040374 C
   0.9334851264859332    0.1487422126432484    0.8606306360056415 C
   0.8766486776944170    0.1241310695410488    0.9477246133257875 C
   0.8835790887259491    0.0349494111131015    0.7325683485139590 C
   0.9727104341489445    0.8732600914240166    0.1160193503405258 N
   0.6490071884503229    0.1330906905176595    0.2329924090627519 N
   0.8647380219505446    0.4840746120242650    0.1134588159331145 N
   0.3168749023269058    0.2488603310039111    0.7224891880942537 Cl
   0.2005652132138528    0.6417773112112062    0.1987122650722515 Cl
   0.5909649906349590    0.1084522469618135    0.8659146650647302 Cl
   0.1627562305304966    0.4480044155972494   -0.0231638726440600 Cl
   0.0485202953113442    0.9345076975568253    0.4059485957052387 Cl
   0.9169434406222832    0.7190404320491205    0.8839897234672947 Cl
   0.7469933392737867    0.8874957882469884    0.1403125006406309 O
   0.4604326093273029    0.0403123938643558    0.3270477062727256 O
   0.8227649487585242    0.4766593392384243    0.3319929534488069 O
   0.4494377712417997    0.8631538152403465    0.6574536397060670 O
   0.5228262628624611    0.9988769951197186    0.6919234910323337 O
   0.6802747862478598    0.8568237636657340    0.8608082623679233 O
   0.7170050332754143    0.7023316555320901    0.8386516643926775 O
   0.4935686254053071    0.8141450674833952    1.0122257656131384 O
   0.3870853740980794    0.7008169819015665    0.9684816499626651 O
   0.3845009997383808    0.7497733490264922    0.7967002824996744 O
   0.0095827412655655    0.4304658133257490    0.5575869559700475 O
   0.1531565701145221    0.3978930169011011    0.4913591236550905 O
   0.3120673327923449    0.5356699457315668    0.6865801817886077 O
   0.2998560587994920    0.5363881764245472    0.8437932842935824 O
   0.2001642246463800    0.7228330124024208    0.6460200141225096 O
   0.0744838852417836    0.7437276684933369    0.7429392322792302 O
   0.0002489882514461    0.5744845165219459    0.6842695446858528 O
   0.0719421672545381    0.2414052343343878    0.0689907375197500 O
   0.1357652317934459    0.1053617570628962    0.0214371643403311 O
   0.0938975283353263    0.1524877730674513    0.2673376609468077 O
   0.0838997842220476    0.2424961699897188    0.3971188256699975 O
   0.3398285779318424    0.2098543295261378    0.3152293048647444 O
   0.4202861488844719    0.3045235641599650    0.2141843239861190 O
   0.2701017666819857    0.3686122563589939    0.1336766657870436 O
   0.9141698756498516    0.6335003632049915    0.4661746265484094 O
   1.0195247842220474    0.7506541581707937    0.4946046952077840 O
   0.6761355756085250    0.8147545479311848    0.6283616015624256 O
   0.5605610002477278    0.8009060233048088    0.5148178342596473 O
   0.7067843174054320    0.9127859300901104    0.3803582994767998 O
   0.6405467855567684    0.7958559923223277    0.2932249108966352 O
   0.7776317009530578    0.6813836795164506    0.3404033376852643 O
   0.7039104255247721    0.2799609112457722    0.4892152577110578 O
   0.7428556573992504    0.4291367396788923    0.5292528430404440 O
   0.6306721023069950    0.5464233215672449    0.6163107534590005 O
   0.4890485613259694    0.5789497346551297    0.6809345011183561 O
   0.3919285805653984    0.4313966141085733    0.4310748475333784 O
   0.3247387642660597    0.3563769290147798    0.5527167041407767 O
   0.5093575707789884    0.2644151995564553    0.5593386964184262 O
   0.8506329563778938    0.3450507682386362    0.7763327459204449 O
   0.7152625850696473    0.3031484694243213    0.8534922277067690 O
   0.8076095682299377    0.0669185989098959    0.9507230211680006 O
   0.9045105825541672    0.1642360661599496    1.0279093638572196 O
   0.8190673680993595   -0.0191200663473828    0.7606961454201413 O
   0.9537461046523068    0.0030097539698231    0.6769378641390265 O
   0.9572767858693223    0.1826344118989173    0.6964853288276275 O
