Li1 Co1 H90 C51 N3 Cl6 O45
1.0
  14.9918064893000000    0.0000000000000000    0.0000000000000000
   0.0000000000000000   14.6032433262999994    0.0000000000000000
   0.0000000000000000    0.0000000000000000   14.6512948845000004
Li Co H C N Cl O
1 1 90 51 3 6 45
direct
   0.9149234119643740    0.7193335706104087    0.3036452053672403 Li
   0.2380103256566652    0.1049721031244637    0.2634699167910260 Co
   0.0253168118846044    0.2205642330563075    0.1581898024967023 H
   0.4287525155349124    0.1195668061803362    1.0841427716333942 H
   0.5183869435779297    0.0011992653966437    1.1238846514187775 H
   0.3860605290517088   -0.0123915510792114    1.0302130673834369 H
  -0.0224386070844826    0.2494317928565871    0.2733762084290127 H
  -0.0361534319220864    0.0047477921753952    0.2701812689803827 H
   0.2352861709639570    0.3244267768837061    0.2083287155273282 H
   0.1501930235230201    0.3533422712410125    0.1249040073608792 H
   0.1470433030384539    0.5464628634947161    0.0300345769823755 H
   0.0388388647569308    0.4756754379275278    0.1884676723708052 H
   0.2889521518165131    0.6506166439950215    0.1459062465776692 H
   0.0507266916260409    0.3848701989562767    0.3167580395238478 H
   0.4191639445976743    0.5806039778252627    0.0477872740682261 H
   0.5784342768090854    0.5425509927737018    0.3029647194389591 H
   0.6730186086580893    0.6240821275631723    1.0909073614380027 H
   0.0357531792504498    0.6906214557307729    0.0595637075753105 H
   0.0724485568483824    0.7543408623864286    0.1656928935795457 H
   0.2887974006194738   -0.1699579182612199    0.1836380651205369 H
   0.5623488237202855   -0.1929439079143176    0.9669087651144805 H
   0.5021020715597211   -0.1029269184944020   -0.6931192523224243 H
   0.5655431018771027    0.7261834188095309    0.3204171017721079 H
   0.6713076740873750    0.7630087998556367    0.3406357924977577 H
   0.2418691001173207    0.2129193559899273    0.5761200979600692 H
   0.2570994194362743    0.3285765399634503    0.4875036780302816 H
   0.5226501389470546    0.2168890220911281    0.3671945371730601 H
   0.3572181076724965    0.2115984165541474    0.6163499892185930 H
   0.3746276173394124    0.1019070305922962    0.4567109253380068 H
   0.4849761601371552    0.0964911104276598    0.4514250444236904 H
  -0.0703007510170451    0.0158425877889290    0.6058157667340478 H
  -0.2420418952105504    0.0707523076424546    0.7069071727617101 H
  -0.0950782853498901    0.1158032586743504    0.6722863420434216 H
  -0.0141760938184257    0.1237275257302579    0.5071208724329461 H
  -0.2409679752655797    0.2172738681061143    0.4895018427133890 H
  -0.2831043249076898    0.1239124161645039    0.5449917230556441 H
  -0.0837841160901116    0.2013500082618287    0.4429679079741957 H
  -0.2201099152163667    0.2087641146750944    0.6110808303757337 H
  -0.0665020093483445    0.2279571113086042    0.5558461220185811 H
   0.1411287389688546    0.3535689332178104    0.6149542081520584 H
   0.1993018484351789    0.4477569823563778    0.6657347026998199 H
   0.2178746602039760    0.4691860575972467    0.4966772904010347 H
   0.2650997895107949    0.6293063094997017    0.6170523162197978 H
   0.3171455520115909    0.4695000289457719    0.4373652632491318 H
   0.3757915864723154    0.3368877073725022    0.5276888155653175 H
   0.3756455066785584    0.5550889609434337    0.5370201409585861 H
   0.5287169861989128    0.6295110585361445    0.5841166607842839 H
   0.7148267790375127    0.5388592786253175    0.3981877021854164 H
   0.7065369174995650    0.5615091100777805    0.5217460643828188 H
   0.2839440829054324   -0.0468297911853853    0.4303682025245910 H
   1.1457421596896571    0.8714203331448738    0.5929745809219298 H
   0.6591503666854897    0.6986409071213479    0.6037551980103961 H
   0.5165373332577997   -0.0789589552016420    0.6074681804074367 H
   0.5920257009076707    0.7772268742491563    0.4918830179115559 H
   0.3372765482471281   -0.1431679791183567    0.4101334040076600 H
  -0.1733777218345995    0.0880053242751533    0.3909228153041479 H
  -0.1122623385314643   -0.0025841407115389    0.4468903599112459 H
  -0.2228847642667257    0.0021963041828001    0.4780905373429077 H
   0.8960777845076930    0.6811934131429976    0.5512738299086960 H
   0.2076323988654513    0.2015369530342331    0.9683263872539389 H
   1.1681043746928508    1.0995182923154250    0.8014926691922047 H
   0.2649750547097331    0.2117627636068105    0.7008660684977015 H
   0.3909278544172063    0.0275536848499496    0.9165466636199149 H
   0.5204005768263008    0.0906684313076822    0.8552578828617051 H
   0.6280146926536009    0.1029177649661745    0.9103772430524791 H
   0.4629323857437311    0.1859780806027369    0.9974234741231005 H
   0.5796416029584003   -0.0082267228529732    0.8748841344842976 H
   0.6223749453649505    0.0370187055245740    1.0829524331590488 H
   0.5475688837471979    0.1606946561092857    1.0719534053413449 H
  -0.1875988232176894   -0.0207602399566955    0.7318776619153372 H
   0.7914979927982013    0.2749364010917474    0.8174414301612578 H
   0.1819076804817626    0.3496608972613583    0.7348746666405956 H
   0.1753294205455510    0.6308087154727972   -0.0573406352491601 H
   0.3352187575451190    0.3182911535842824    0.7666329517388126 H
   0.3489089022349191    0.4264082317374979    0.7144532634568721 H
   0.5969937479574482    0.5360377821207846    0.8602922501706337 H
   0.5049475091679537    0.6027368693191615    0.8633356671758551 H
   0.4144953944766496    0.3258031834497599    0.6738111219469123 H
   0.7892601037203276    0.4687154772031213    0.7681700172458228 H
   0.9267151863663562    0.6995783701009137    0.7498542299986564 H
   1.1485496932600805    0.7525987836281994    0.7886248645724608 H
   0.1518999559076039    0.8590408914030231   -0.0519458902369893 H
   1.2153541841474733    0.8453699557389946    0.7551404521797372 H
   1.0302263943790511    0.8669952887519189    0.8327834188231474 H
   0.5850045323730364    0.8047851358632195    0.8109280126952727 H
   0.6496985371077043   -0.0969830334230853    0.9988192551896351 H
   0.4491872776977413   -0.0757870570852436    0.9455529735297371 H
  -0.3184369581282466   -0.0425834742122015    0.6356220059397031 H
   0.9883315099668039    0.9517285204287147    0.7502344011742358 H
   0.7451826938050097    0.6933701601865638    0.9125244935342972 H
   0.7495870996414329    0.7466302464989832    0.7980759063466927 H
   0.6223229169452563   -0.1359812194612750    1.1099514119604710 H
   0.2054638810138367    0.2224610719557945    0.1040785443280660 C
   0.1136770772699304    0.2865050640404599    0.2512539316913508 C
   0.1785011530538339    0.2993378297359064    0.1670320243631842 C
   0.0433539977429596    0.1137694638976441    0.2545184895599253 C
   0.0363455027977380    0.2157399622812584    0.2333940768414680 C
   0.1605720262209975    0.2639093986374371    0.3381138311085913 C
   0.4870574970342310    0.1328837109017528    1.0371462429696756 C
   0.4292394481807687    0.1290592180304044    0.3208382249594193 C
   0.1932338672305837    0.6048131204178058    0.0093551761247400 C
   0.0354696910662184    0.6111384276071782    0.1755712013428488 C
   0.6544424617341835    0.6396341522008074    0.2541574293231543 C
   0.1798839083618614    0.6789124130079107    0.0930255963615814 C
   0.0775893649327855    0.6901058168530423    0.1212729289873027 C
   0.1997927832671655    0.7731811976360987    0.0452878362855123 C
   0.3005871739283910   -0.0911247457750306    0.2879981242179469 C
   0.2842108953141209    0.2268251709833868    0.6316735494752030 C
   0.4264232432070630    0.0738742168636681    0.4128075703737639 C
  -0.1216401276658386    0.0633142339506756    0.6245178679585535 C
  -0.2295884260350209    0.1723379600110827    0.5470349554276627 C
  -0.0714853981116214    0.1719558531136409    0.5062786260583233 C
   0.1924300948494100    0.3706411680925796    0.6657947656503603 C
   0.2898879963399875    0.4618548094896987    0.5078070233895169 C
   0.3017024497967083    0.3619116004786228    0.5372912432762523 C
   0.5516221644537872    0.5933964784928066    0.4534789925721122 C
   0.6357068943960865    0.6563119541491852    0.4375408108727566 C
   0.8090996073993728    0.6408153966418237    0.4587719035817759 C
   0.7173868440988775    0.5930602518142333    0.4536019168606613 C
   1.2123992367212497    0.7442643337200202    0.6556386667408080 C
   0.4785726623286344   -0.0829197191708236    0.4748310984757997 C
   0.6319288306890593    0.7014964371613698    0.3400467660623448 C
   0.3309050679276500   -0.0746873013911727    0.3823454164468667 C
   0.4272990549385826   -0.0296103287426053    0.3939184549623485 C
  -0.1652999761615593    0.0459365874697074    0.4594753908899799 C
   0.5678937191976472    0.0598451415807112    0.9026864552491972 C
   0.4263138501195008   -0.0107672543753908    0.9653594140039506 C
   0.5667433574975873   -0.0027738246014876    1.0667183731749290 C
  -0.2044413565161425    0.0203278927678604    0.6675782257612919 C
   0.2909492426955455    0.5713024139900995   -0.0010043177764149 C
   0.3511634670883358    0.3532580433765227    0.6988041347069920 C
   0.5775618002326744    0.6046398712331233    0.8855111815287688 C
   0.5862165277395033    0.5942421810346357    0.9931241954247625 C
   0.6089529471458824    0.6687372761099043    0.7264010128797023 C
   0.7849457470718367    0.6068359587243346    0.7967408707642274 C
   0.7313784868104953    0.6818405296628588    0.8374662813647091 C
   1.1119136814230810    0.9774796492428697    0.8087698416769928 C
   1.1639787878235071    0.7952406807798080    0.7302395814460545 C
   1.0445935755558977    0.9126036502040971    0.7728767684608949 C
   1.0794826331470102    0.8486459403220799    0.7011486373786527 C
   0.6287717728632541    0.6767101625022246    0.8296826690015011 C
   0.5947992158959863   -0.1009362648190198    1.0522950746428956 C
   1.0023358262678346    0.7772980913053104    0.6741742297842699 C
  -0.1454804834131658    0.1126039693825080    0.5329594759819402 N
   0.2810458331160551    0.3321079472575494    0.6293304118706001 N
   0.5126211274261742    0.0473540807989269    0.9903244428893470 N
   0.8995003206801430    0.8785167019229907    0.2868992452364698 Cl
   0.5657427442619037    0.2643914833252490    0.4777019027515704 Cl
   1.2538085225496840    1.1666136613445359    0.8558550996994645 Cl
   0.7692825246197863    0.2074760446498471   -0.1218741804036072 Cl
  -0.1487936264980536    1.3543767451152371    0.7458866625953481 Cl
   0.5926226936721110    1.8933186653546834    0.7013718258425926 Cl
   0.1815007915585129    0.2420217951196380    0.0199815406356822 O
   0.2411607131722531    0.1506201817810355    0.1337598798979385 O
   0.1107814956046399    0.0710789474096226    0.2732929393384909 O
   0.2285398192102717    0.2104760631403354    0.3399914808465065 O
   0.3727926149986581    0.1159785621971911    0.2612748889621873 O
   0.4939707399495509    0.1863752526466727    0.3098214512699647 O
  -0.0379464113084722    0.0742337260413687    0.2594900637841981 O
   0.0710191093688345    0.3745957690472864    0.2568377384910180 O
   0.0597256071400777    0.5268131190106801    0.1467962702993127 O
  -0.0088932081263961    0.6293453419247091    0.2443855967903545 O
   0.5236754323305418    0.5725147474152447    1.0422577365673662 O
   0.6268367158692418    0.5540813765547316    0.2564875987907088 O
   0.3538729470985661    0.5893973668780037    0.0702644682408993 O
   0.6699182484691304    0.6132400155431080    1.0235795240163710 O
   0.6939567124299088    0.6756206784989452    0.1932037725276186 O
   0.2294263034381387    0.6588983658904713    0.1727127509239506 O
   0.2598809387968505   -0.0317351991776624    0.2404466957952586 O
   0.2592919504046710    0.8261605244002186    0.0653379412295318 O
   0.5277630651347497   -0.1632395477042281    1.0144540507354090 O
   0.3204166721421103   -0.1719759631120459    0.2451732404826679 O
   0.4788041887962738   -0.0417001088041372    0.3100323541303849 O
   0.1311359472324536    0.3017831769236566    0.4056750949970957 O
   1.2414817892682815    0.6619743948928163    0.6706407537053215 O
   0.3254647629144942    0.5285827259002304    0.5714624891590756 O
   0.5233930113959452    0.5456185305116592    0.3893420676512901 O
   0.5007235285525958    0.5977989251660204    0.5288083753127193 O
   0.8425692229762630    0.6409605698716762    0.5422206369284410 O
   1.2224580645288010    0.7788292580126218    0.5784079503488339 O
   1.0949650901921744    0.9025901212412095    0.6226661544947352 O
   0.4870081367386236   -0.0404045062056428    0.5506609830531256 O
   0.6379994800177412    0.7260724845489833    0.5068640350660332 O
   0.5078335589599438   -0.1602436378900564    0.4546427804921846 O
   0.8392147239680287    0.6787206747798037    0.3924858170852551 O
   0.9755925515139779    0.7601491611392982    0.5958453169443475 O
   1.1248794304232921    1.0566565809808792    0.7639403569674292 O
   0.3183775583087095    0.5348482518491965   -0.0704357235340170 O
   0.5347146623338186    0.6486239359814809    0.7002258520476236 O
   0.7470310367661983    0.5215294297454989    0.7983072852129789 O
   0.8600481038694379    0.6242122356465306    0.7631069835286817 O
   1.1548204518952789    0.9540341726217012    0.8806317493308931 O
   0.1403336379909632    0.7951509746802294   -0.0219376211067892 O
   0.6002275143507511    0.7697401812209643    0.8652515387913869 O
   0.6759275309438141    0.6808359583034554    0.6703240581479268 O
   0.9769939836906135    0.7443540398195988    0.7546265044324998 O
  -0.2596581844941997   -0.0295541768329454    0.6089670240368302 O
