Li1 Co1 H90 C51 N3 Cl6 O45
1.0
  13.9447380424999992    0.0000000000000000    0.0000000000000000
   0.0000000000000000   13.6090909019000001    0.0000000000000000
   0.0000000000000000    0.0000000000000000   14.0654665851999994
Li Co H C N Cl O
1 1 90 51 3 6 45
direct
   0.8923533365757740    0.8311399367110431    0.5227270100187335 Li
   0.3780389064199949    0.0849468167442839    0.7287254376179130 Co
  -0.0213798551963727    0.1596748060957266    1.0781486131826299 H
   0.3941553798392194    1.1678354612710473    0.1855134543027246 H
   0.6329931399928627    1.1666347932677408    0.2556618559944393 H
   0.4136494713862604    1.0402229695536516    0.0918457475103824 H
  -0.0766924754585256    0.0179452803027353    0.9845399161639751 H
  -0.1597711246571809    0.2760345255960877    1.1134023317135000 H
   0.7272251001770657    1.1557406048852308    0.1689992492038045 H
  -0.1237532375897265    0.1040641848238576    1.1156823840534447 H
   0.1164649715864320    0.3877304508388074    0.2066467738552216 H
   1.0457445292594139    0.4090810320124136    0.0684288208122969 H
   0.4003727788133529    0.5098268503689198   -0.0145716252040768 H
   0.4298519987705248    0.4318569839282557    0.1745148856407523 H
   0.4368130474258782    0.6060734703262552    0.2018861781370207 H
   0.5391330046492697    0.4785071242334664    0.3130463725414617 H
   0.7780535917442639    0.6301052004658739    0.0506178226145120 H
   0.8678846087330508    0.4723245510839070    0.3147683203953270 H
   0.9035417862637130    0.6365942452254817    0.1324202991289191 H
   0.2686033619623658    0.9711485540194913    0.0804213131322807 H
   0.2532305382243612    0.8995559688113217    0.1883388138284310 H
   0.1141436658794805    0.8302824216805299    0.1357319560666998 H
   1.0258818398954519    0.7234744055920295    0.2551883558826828 H
   0.3834151278858633    0.8324860956963904   -0.0052964263182273 H
   0.3828177699452112    0.8677683936442250    0.2886255687295620 H
   0.5119938429922644    0.9915415400022106    0.1523656026352521 H
   0.7502552925708716    0.5974233701212838    0.3547776579164967 H
   0.8702102171382544    0.9555516268235412    0.2535503014420115 H
   0.8450172017564453    0.7285107449400481    0.2011574429800381 H
   0.1114659533339886    0.2674241047498547    0.3809118780487166 H
   0.1818788931115197    0.2415663893053300    0.6165080440150005 H
   0.1839162207338396    0.0253278454368967    0.4520058580416868 H
   0.2355851726929276    0.1212034633900280    0.3894412787104931 H
   0.0720324409708251    0.2868919738316176    0.5692402910419451 H
   0.0556613912383575    0.0458090077723680    0.5563682687095678 H
   0.6598807013695827    1.2688267772896737    0.3614948186610549 H
   0.3524070158164824   -0.0234623349496050    0.4405487194516620 H
   0.9077075152880200    1.1010345260320096    0.3472514234074056 H
   0.7484309485120255    1.1582793490415491    0.4477931289693112 H
   0.2978043407659087    0.5153167835715535    0.2837654384533342 H
   0.1764911977836460    0.4401127153955439    0.5999924169938229 H
   0.3079400636148595    0.6343222345362384    0.6838161559973048 H
   0.5248263178264720    0.3872373980663358    0.4167372093271126 H
   0.4600416659207387    0.4451666900141127    0.5582926271967922 H
   0.3363350036125284    0.5916191617013832    0.4550529663434546 H
   0.3206954125829001    0.6372225017388397    0.2955034066892207 H
   0.4355286919976576    0.5800371977674077    0.5785695229735804 H
   0.5551461415988088    0.5390595891953214    0.5787343237632280 H
   0.3540850681347606    0.4690086058583740    0.4227825118049892 H
   0.5918650816347883    0.6436145525104202    0.4625562368080866 H
   0.5517652247356658    0.6408568370781014    0.3407361756234162 H
   0.4829013280404905    0.6985329894131860    0.4336900774424798 H
   0.6225863471540363    0.4810727621773738    0.4129876003340135 H
   0.9794184357049031    0.5068315731462283    0.3603707891164796 H
   0.0714035299096584    0.7005889680381869    0.5869114431857021 H
   0.1842252978916079    0.7466647863658061    0.6031810776563274 H
   0.6493627554925796    0.9677691953002708    0.5061093103082992 H
   0.7759861452341800    1.0284977190464539    0.4523178988811011 H
   0.0759952260609129    0.1692309183252249    0.8967902498074608 H
   0.2517138370905328    0.2981609117133235   -0.0652638646460477 H
   0.0209938343056544    0.2298477520245889    0.8023895420913634 H
  -0.0188462830423227    0.2621011922553921    0.9233624219949991 H
   0.4143988579984830    0.2793286471743146   -0.0977114196016881 H
   0.5056524187410171    0.3300256411890783   -0.2300561227598970 H
   0.5036245570548517    0.3442249731939091   -0.0229218636614048 H
  -0.1752077717525901    0.2446334567752205    0.8886376585439290 H
  -0.1428357043373266    0.2091049998426199    0.7666452603816465 H
  -0.0543858534874303    0.0717504907520071    0.7318060321888454 H
  -0.2236353576951749    0.1390047994047781    0.8282123612491848 H
  -0.1820727268136489    0.0726065361766411    0.9613661381719267 H
   0.2414440134793949    0.4298240046352643   -0.0762503469688311 H
   0.0029784367245492    0.6130798163553415    0.7670149601686034 H
   0.6252160129023808   -0.3473208521547967    0.7452040946603947 H
  -0.0451594342024012    0.6470291817707414    0.9484607717626105 H
   0.7201593525309137   -0.3271431634333802    0.8261136039970748 H
   0.0217625830600109    0.0233600431646478    0.8171697129972292 H
   0.2172298619499148    0.7027007916865974    0.8343714175076635 H
   0.1783564174758861    0.8717546995915550    0.7317790156659524 H
   0.0095680190974803    0.7411611123482020    0.8031787089442910 H
   0.5418953369270508   -0.3175319409834120    0.9050708140741701 H
   0.6418559812755981   -0.2545784339361199    0.9694568758172560 H
   0.3963117487798445   -0.1475374853157663    0.8271978197184392 H
   0.5006636552527409   -0.0654710190065381    0.8454773413000793 H
   0.5638502133160456   -0.1798901239434156    0.6891917330918861 H
   0.5286575120616863   -0.2072901907581607    0.9491731548136315 H
   0.6356988200769925   -0.0585337444537743    0.8505187666641417 H
   0.4986483431031437   -0.2699387545855187    0.7652034312125138 H
   0.4039311102677532   -0.1077001439453512    0.6655309467266346 H
   0.7225330077332646   -0.2556475722132379    0.7216072947967320 H
  -0.0945027777562857   -0.0198625353485045    0.8260176242446917 H
   0.7055775081549009   -0.1028122347911319    0.7595008119987013 H
   0.7377502172178220   -0.1463669442329835    0.8753305990968613 H
   0.3858798568678813    0.3181255075822560    0.0999371961168406 C
   0.3918197318047612    1.0381214331463953    0.2407074996120264 C
  -0.0941671672926301    0.1519461487770136    1.0602402133102045 C
   0.7133610892927608    1.1698326556608802    0.2435854702612614 C
   0.7389047745821075    1.2782616470341381    0.2551108611196475 C
   0.7683761062591508    1.0902152875493389    0.3021764878437955 C
   0.2609373879100605    0.3692192951844037   -0.0296710176567574 C
   0.1788583989386189    0.3835663225800942    0.0481849136318831 C
   0.9903881648983656    0.4505063560155982    0.2229512454211564 C
   0.3635847087587913    0.3782265096180208    0.0109774739191707 C
   0.9375646555749920    0.5075451402808738    0.2969310166357780 C
   0.7710416278262620    0.5956914395926465    0.1848664796755498 C
   0.2315542615471832    0.8162947129223040    0.0602641432095761 C
   0.2839575406746118    0.8971730028781989    0.1182003655925190 C
   0.4294159920143226    0.9936621812858963    0.1520037234207115 C
   0.3949614186450932    0.8893253074832707    0.1196201549666599 C
   0.4279817592636574    0.7931432767043262    0.1793643515000485 C
   0.9242320279248086    0.6184644522967303    0.2855307549360542 C
   0.8660824952818400    0.6475222345432131    0.1979111944661036 C
   0.7383726742316107    0.9874964498197124    0.2632798044891409 C
   0.1309600448810296    0.1532166230595820    0.5064107222788385 C
   0.0504658830990729    0.1555231694869865    0.4339261165372293 C
   0.1449058070321223    0.2628558348743614    0.5485983167255366 C
   0.2168081975212192    0.0980814192896342    0.4602710655480147 C
   0.3001708248045062    0.0780617132002317    0.5224259179807020 C
   0.6304495282095580    1.0695893690347662    0.4231955802208008 C
   0.7357846012330354    1.0862341252225860    0.4188651159855020 C
   0.1954833078679542    0.3382591081272965    0.4948314547861146 C
   0.3563970513288328    0.5652639846667493    0.3017015658097815 C
   0.4863662909428225    0.5232669104962619    0.5467048139513006 C
   0.5458358196978659    0.4638149672450752    0.3924664183133820 C
   0.3780338866053676    0.5447431429725396    0.4056767870469378 C
   0.5300420486475410    0.6374458818324781    0.4164620673702811 C
   0.0749625784804340    0.8339975853431476    0.6471476248201952 C
   0.1138317202562108    0.7364980528935003    0.6352248066908301 C
   0.8817027241693344    0.6620052004827295    0.3819626785970291 C
   0.0056181421021484    0.2051943785980686    0.8703744890682505 C
  -0.1608030551212845    0.1852995890083981    0.8368604924194649 C
  -0.0511107830012863    0.0420879656862335    0.8062948515716617 C
  -0.1033907181121578    0.0878162222234219    0.9704436898639799 C
   0.1813346017826423    0.5793134168719016    0.6970343453032770 C
   0.0838275711122954    0.6239651871025761    0.8883411877532347 C
   0.0504866794739576    0.6669533634779961    0.7920322603675358 C
   0.1372247735359350    0.6815774115819156    0.7259996126502334 C
   0.4376276916282560    0.3482693285734677   -0.0668827231362424 C
   0.4692703082665312    0.4309620674281169   -0.1344887278314986 C
   0.6742474108329957   -0.2897931300135113    0.7730979435863046 C
   0.5313856378883641   -0.1954157752542244    0.7595569779278737 C
   0.4612921734560437   -0.1178778994617511    0.7952742431146977 C
   0.5846654483613618   -0.2473685474927645    0.9177856429009776 C
   0.6783521849653994   -0.1225130364047480    0.8292482316137934 C
   0.4825986332184627    0.5382200033565344    0.4378157848726948 N
  -0.0770990804433392    0.1273324547092318    0.8739428029735148 N
   0.6178526619604658   -0.2153700838820025    0.8221798560716260 N
   0.0501137789587846    0.8798323883065781    0.2425687958471295 Cl
   0.3702990693810303   -0.2334410925755858    0.6174977019062394 Cl
   0.7454161912701273    0.8765720676635728    0.5850643661731743 Cl
   0.2997233441862987    0.1158430759456459    0.8525713114428821 Cl
   0.5043827641984907    0.1830937105837188    0.7442201244581860 Cl
   0.8471269581326738    0.7171690615673217    0.9540425275845331 Cl
   0.3816861603049365    1.1334870978594442    0.2527625565113415 O
   0.3721162422761231    0.2261818201589244    0.1031059498677398 O
  -0.1463502916928316    0.2437076050713244    1.0486615003671611 O
   0.8665837596281974    1.1043404044572700    0.2901008130717464 O
   0.7019797352998575    1.3224159556747035    0.3354295617583250 O
   0.7956093177287809    1.3279122816629116    0.2087590393687781 O
   0.0902292689948894    0.3946258416240140    0.0114346219249657 O
   0.1929124456623869    0.3746017267169739    0.1358940552040579 O
   1.0709934797184988    0.4141843853885236    0.2607630020933179 O
   0.4227862511243728    0.3587123479510630    0.1769741001851454 O
   0.3709387371878270    0.4773795103384149    0.0393320256565192 O
   0.4309929309236790    0.5454529626121932    0.2379127114148569 O
   0.9703540847206992    0.4480324214785529    0.1408252815931620 O
   0.7206218925930032    0.5604789479240740    0.2495006668525742 O
   0.7378025667132213    0.5881435437970751    0.0966098980342271 O
   0.1419728010570120    0.7946621143804794    0.0807199168063614 O
   1.0162889741426278    0.6516194957344229    0.2741681741761549 O
   0.4035539070543283    0.7952933101055958    0.2652520106603310 O
   0.4270136521569585    0.8818523615875385    0.0279857970025815 O
   0.4578056253508141    0.7209143521504631    0.1369740051586497 O
   0.6548845515826405    0.9606878993713454    0.2527817524618181 O
   0.8080347931641686    0.9210540984151996    0.2497104003855595 O
   0.0493995310489534    0.2260010586357828    0.3727187620008452 O
   0.0948460642192806    0.1020170238341319    0.5845908660614177 O
   0.3161955073276881    0.1247150866383765    0.6025255714956075 O
   0.3555637621006963    0.0004944452901744    0.5065058915355348 O
   0.5741855813638890    1.1348053343330868    0.3963624852990064 O
   0.5925420394931024    0.9961744725363887    0.4705832723362787 O
  -0.0101455100604125    0.0896473511489052    0.4300264947459612 O
   0.2048129919110311    0.3286177587568047    0.4069885103295067 O
   0.2756361222552525    0.5690665898791795    0.6849465841920388 O
   0.2207157646504065    0.4192978790452002    0.5416596915893686 O
   0.3680430212642340    0.9815732033235967    0.3058599774519196 O
   0.9281582400797546    0.7130144857468231    0.4386589847714084 O
   0.0040024789085241    0.8603270442748956    0.6022319445494282 O
   0.7925128092200948    0.6274084736775418    0.4051329017834337 O
   0.1654110326683823    0.6081397361924105    0.9100816681096957 O
   0.0135429951659488    0.6053981864247628    0.9475130605779686 O
   0.1333810297641524    0.5032283934516056    0.6855452134624578 O
   0.5172668068712486    0.4014412858493921   -0.2137253456321979 O
   0.4580662971532475    0.5184825350762322   -0.1186712646387668 O
   0.2086481302863098    0.7341481530926594    0.7731349135650002 O
   0.2706571832613184    0.7793716000103426   -0.0136061399912159 O
   0.1189218122883215    0.8988946461656818    0.7037209347192983 O
   0.4257214084486091   -0.0578217204053019    0.7177681047014088 O
