Li1 Co1 H90 C51 N3 Cl6 O45
1.0
  14.0586011458000009    0.0000000000000000    0.0000000000000000
   0.0000000000000000   13.7202133423999992    0.0000000000000000
   0.0000000000000000    0.0000000000000000   14.1803154744000004
Li Co H C N Cl O
1 1 90 51 3 6 45
direct
   0.8429832345830885    0.5851629250099992    0.3730571260385753 Li
   0.5014483300641958    0.7877282882912849    0.6144706549674757 Co
   0.0980200699421424    0.0746905420219029    0.9856175458459868 H
   0.1815404705725270    0.2240716011098285    0.2858312810118562 H
   0.4067093879612751    0.1479277413950892    0.1552333402718701 H
   0.4369940511069534    0.2479167113741834    0.1047055504428277 H
   0.5808840426516909    0.0801809814283519    0.2415656931881439 H
   0.8477987919275136    1.1330035315967464    0.1255873143594749 H
   0.7942223377562520    0.3136365349292209    0.2051694648438773 H
  -0.1451982961341664    0.1363113039518417    0.3331172529784546 H
   0.3040626178428187    0.4453489912082637    0.2425811854052244 H
   1.0937635194376223    0.3580585847027842    0.3313225115253504 H
   0.5745016153341050    0.5458493963833628    0.9442002726505997 H
   0.4569140984214520    0.3908000580887527    0.2061405292764605 H
   0.6121757761205948    0.3291362939120357    0.2450578580902153 H
   0.4936890232264319    0.5339027162618911    1.0408603224551685 H
   0.4534287587712381    0.3578151482549209    0.3231844697301356 H
   1.0436390445562418    0.4250321059643176    0.1780381925746136 H
   0.9684124989681020    0.3432118767896864    0.2230851452431351 H
   0.9156903260923579    0.4447683879915935    0.0290076576887585 H
   0.7949471609370450    0.4366244913034349    0.0519866951148484 H
   0.8610533112120066    0.6063367940126209    0.2026257978806762 H
   0.1652536439085240    0.6915380930614822    0.1589278984144291 H
   0.2240176696769631    0.7514358497137301    0.0665999101998089 H
   0.1401956743177696    0.8183006991956933    0.2955172432351904 H
   0.2504904315214931    0.9642845807881379    0.3039810887833854 H
   0.2342605095233030    0.6969352394579716    0.3383562055344903 H
   0.4838012684947652    0.7034169170952411    1.0190406386435789 H
   0.3768956109251994    0.7668656389390753    0.2957767579128888 H
   0.4015580930885534    0.7408871799235355    0.1772970242967305 H
   0.5777620392926931    0.9143072238121381    0.2925222463977314 H
   0.7510089345378602    0.9854438727579535    0.3256505643711985 H
   0.7042617515724813    0.7253750304628354    0.1887544562765274 H
   0.7392467401143132    0.9050260270244411    0.1252128516044265 H
   0.8536756212893510    0.8714223221479869    0.1577487991179300 H
   0.2780066826753690    0.1370875309487710    0.5037303824513282 H
   0.2126687453888831    0.2953285105762948    0.4712397794861291 H
   0.0849284402635393    0.3159098231953452    0.4830033400572000 H
   0.5331268018681312    0.2381479128391195    0.7384622546730102 H
   0.6175909663810245    0.2027592502955481    0.6536954522580687 H
   0.4955639608341380    0.2063503023273514    0.6225988239216913 H
   0.0239273498203265    0.0804594027549500    0.4837521245267112 H
  -0.0040861058510904    0.0893339003273544    0.3550751565640358 H
   0.6920030639397158    0.2435253802413206    0.5340660968278238 H
   0.0114801654820556    0.2331283115923103    0.6089496212400288 H
   0.8198344165303604    0.3213813124591461    0.5434079200220363 H
   0.0956165591198659    0.6525911768099214    0.5540414634204338 H
   0.0002912855665746    0.4976026976272771    0.5938343016699563 H
   0.4255306061789247    0.4097796463430597    0.5950571235480241 H
   0.5404818010552936    0.3412658429100610    0.5048217545035183 H
   0.4184495318268196    0.3345341691601654    0.6942608403157939 H
   0.6082187679216233    0.4501174301798225    0.5374557252240872 H
   0.6937109152224283    0.3326566473347290    0.4353632151798948 H
   0.1406779413605348    0.7406947630904939    0.6340583715102738 H
   0.9477127154703008    0.8329127168806116    0.3936525775662400 H
   0.6568395370088954    0.7429563897303731    0.3032744754490002 H
   0.1903087682659876    0.2096476271481101    0.7730447010851024 H
   0.2572030481624591    0.2133822629530542    0.8796220196735625 H
   0.0954977706299812    0.0874556496502777    0.7409558522282856 H
   0.2818719321007170    0.0767167495819624    0.7524132842080826 H
   0.3254665965800558    0.0563453462353211    0.8709741161610216 H
   0.0322247614041845    0.0927624184433688    0.8482630558477725 H
   0.1204454874307229    0.2326873563499232    0.9762461041287762 H
   0.1630969570742113   -0.0311292410796646    0.9725529563920743 H
   0.2214811441983487    0.0829426002934833    1.0056156904931881 H
   0.5343531685472337    0.2076410985823389   -0.0100986655098419 H
   0.5975591013982033    0.3720991827017001    0.7861600651498690 H
   0.6896294280669910    0.3393329283599610    0.7169429873089734 H
  -0.0227337648380103    0.2578035838749773    0.9150796229199580 H
   0.1317033642535021    0.3328264697669210    0.8929877307779566 H
   0.1381762699897308    0.6629095294817783    0.8234039474142264 H
   0.4441306075082262    0.4173584643544865    0.9380593655489765 H
   0.6411793729771580    0.4644572873737328    0.7105778256760783 H
   0.5249613379781272    0.6194080193299255    0.7723451397800024 H
   0.6360878280035399    0.6645931767708926    0.8760741437401374 H
   0.4700159709399016    0.4594634947635070    0.7001866605242159 H
  -0.1186778766320180    0.5975694376313417    0.7106194326488614 H
  -0.0132178820974315    0.8569487862747274    0.6603984060937289 H
   0.0881200807073259   -0.0217066470737476    0.8104296239351654 H
   0.2481808133978080   -0.0336051501017948    0.8093838079921581 H
   0.0424263453678100    0.7764616996353857    0.7829076692434972 H
   0.1037027121318931    0.8230579138519912   -0.0106621226497358 H
   0.3829595143758971    0.6551880752043429    0.9486839528701817 H
   0.3995920368847142    0.6621668296603033    0.7800424297448872 H
   0.4925583275167277    0.7312575920517708    0.7312487339170957 H
   0.3794143536957473    0.7989613497717298    0.8969636648889984 H
   0.4691904976314517    0.8612927420509700    0.8267875110653046 H
   0.4745192639306778    0.8530202759334611    0.9504688214822865 H
   0.6200058581364636    0.7604510156527142    0.9583078572358056 H
   0.6423580108678097    0.7743728108342597    0.8354847787828422 H
   0.7204141409635011   -0.0381765075898139   -0.3365244074728115 H
  -0.1414248054824419    0.6956240353570554    0.6488415405010094 H
   0.3322290048036082    0.3058159568287035    0.2560851162836101 C
   0.5514204427028619    0.1333813203577988    0.1002232806291028 C
   0.4693859651585194    0.1909460229094171    0.1433598385642415 C
   0.5018550561630942    0.2417178281733539    0.2336138249660604 C
   0.5059967200026289    0.1729047582568442    0.3206725368987182 C
   0.8699019867459279    0.3004902378929644    0.0797879101662139 C
   0.8227763877528925    1.0148457479280253    0.1912106780765910 C
   0.3144078860876221    0.6384179278124693    0.2519004421057240 C
   0.4381492158229573    0.3281647346755036    0.2533327092535647 C
   1.0034031779765151    0.4654501582322276    0.3155012838238213 C
   0.9781688039217407    0.4232367986039081    0.2199350037613998 C
   0.8681550135054689    0.4145413069943635    0.0825121090791182 C
   0.7924163259250119    0.4570810245216643    0.2344819297710786 C
   0.8804890998204364    0.4684489527096321    0.1744113339131932 C
   0.0878007032704504    0.8164508737325886    0.1240133014230001 C
   0.1854391514890401    0.7650763081621161    0.1338734487696808 C
   0.2580537729163634    0.8036398484508743    0.2097278965738833 C
   0.2969089900418021    0.9051849166820286    0.1824703929804130 C
   0.3450268641449517    0.7431699432609838    0.2284009649183803 C
   0.5890319372261253    0.8179253406009341    0.1932994891508914 C
   0.6797009864992680    0.7801117886500541    0.2382780371353456 C
   0.8334260959597952    0.8034335834366669    0.3221245497285578 C
   0.7930586373403762    0.9082417204614853    0.1822151095202858 C
   0.7562576786507867    0.8556572611680996    0.2676716003993277 C
   0.1896059956431971    0.0905146399846553    0.4084879315736868 C
   0.1534893155600089    0.2240898224008363    0.5825669923996906 C
   0.1440644802847309    0.2600083600869125    0.4830359909527909 C
   0.1190925790010188    0.1818878547236547    0.4080732722517122 C
   0.5524815013277776    0.2409663821321951    0.6625986392307367 C
   0.0157131613102201    0.1331641225689867    0.4220052613077145 C
  -0.0682368695470527    0.1955873501549059    0.4465750249796854 C
   0.4631586741861060    0.3901251414698265    0.6590303124123843 C
   0.5989127211362300    0.3705248631586323    0.5435622184227983 C
   0.6867251561855601    0.3216036122094404    0.5157729918212178 C
  -0.0864470739155352    0.6364062972852160    0.6544655338560215 C
  -0.0960476023465108    0.5776426337852891    0.5627368976103574 C
   0.0711077195542070    0.7103497538978619    0.6034398707594384 C
   0.0286255412915123    0.7929650873269063    0.5450277006285726 C
   0.1899289296216858    0.2001681827142490    0.8494858777258402 C
   0.0905335498461197    0.0558169287960969    0.8096475538874277 C
   0.2684182464858786    0.0440926213100836    0.8201254589994990 C
   0.1104245757810536    0.2530558442900033    0.9005827663182048 C
   0.1686103078831682    0.0496530304740023    0.9605969459418079 C
   0.6278323836107190    0.3854801699661361    0.7152519106863628 C
   0.0682425696305225    0.5863946842821216    0.7317289771114233 C
   0.0082216620559387    0.6731134524461067    0.6850262079667176 C
   0.4966705431917041    0.5508485897842434    0.9662787659369592 C
   0.4637625038212142    0.6560167795193745    0.9594291298921652 C
   0.6053621536978109    0.7316387814596524    0.8919496720671631 C
   0.4769235571921093    0.6776797079726437    0.7877044595633456 C
   0.4529550274283449    0.8149246583977813    0.8871077487598888 C
   0.5604223340494849    0.3473707042492906    0.6446166697561974 N
   0.1779803724176013    0.0853405221901005    0.8616583854751647 N
   0.5040575512533864    0.7231833735804258    0.8812256511330354 N
   0.4781152831558980    0.6762161738789028    0.5041484972676525 Cl
   0.4275478765819956    0.2774519663944319    0.9476205068539614 Cl
   0.7740588807337383    0.0475153086129755    0.6455383699837836 Cl
   0.1693657173218358    0.8027929228448352   -0.1362157468419601 Cl
   0.4147414815407800    0.9170017883263611    0.6413480541824693 Cl
   0.6571425543543497    0.7938397092952774    0.6644490917151946 Cl
   0.1174835995751562    0.2239775792482287    0.3163390649029127 O
   0.3076682397303950    0.2213799520021668    0.2634932730477983 O
   0.1685213943428354    0.0177125650407335    0.3625869781587177 O
   0.6039736798519737    0.0760841063581740    0.1426764969264977 O
   0.5970661647305981    0.2708923016316493    0.2148815195755670 O
   0.5543427106848563    0.0923790424805662    0.3091191973206415 O
   0.9063921036985138    0.2636431432171343    0.0081188417428260 O
   0.8357271783836084    0.2533226039903564    0.1496601215277120 O
   0.8391201190827084    1.0612531895697910    0.1141242407562498 O
   0.8296903046491718    1.0565608427094804    0.2683760981249273 O
   0.2762888730761391    0.3810021054880766    0.2587141128011631 O
   0.3526250596476325    0.5673060598224245    0.2131967897793133 O
   0.9667338113266185    0.5409393415380920    0.3478052195738390 O
   0.7539188968858725    0.3686334931520300    0.2481847278753092 O
   0.8923345173177349    0.5690924751928222    0.1515098688092414 O
   0.7533043264950922    0.5261655187890251    0.2756693068117655 O
   0.2915386122057002    0.9731926055359967    0.2460895699746520 O
   0.2078908873855591    0.7984934270186514    0.2974177651275738 O
   0.3257696139255101    0.9288623910691123    0.1046738163110440 O
   0.0420898965311906    0.8496537102068729    0.1917543895344862 O
   0.5553141444611165    0.7926232559076013    0.1183194929780638 O
   0.5370501651834407    0.8802785984293836    0.2457687026421717 O
   0.8400803853183029    0.7158868398092907    0.3283712372694602 O
   0.2755569368121193    0.0994204781775930    0.4453111602911772 O
   0.2302501532001319    0.1889577156346537    0.6064553184818248 O
   0.0762689727434461    0.2210701900550354    0.6387895779577693 O
   0.4814885917452926    0.1942950961966377    0.4037588407349770 O
  -0.1442131341072789    0.1890466355347714    0.3925461141713793 O
  -0.0759168655068396    0.2451018863393093    0.5221550078041047 O
   0.2561133238121401    0.6272541072378537    0.3259185414840392 O
   1.0728162006435347    0.4176051077495672    0.3639233377082786 O
   0.7694816116774053    0.3671101932237838    0.5559839448870646 O
  -0.0484297779941929    0.4992816073807293    0.5423085086564609 O
  -0.1526392924975388    0.6147389957221050    0.5084118509362745 O
  -0.0076156177481417    0.8686876707935469    0.5933392492141295 O
   0.0330548582167316    0.7956181072976317    0.4566901031850290 O
   0.8883284288444998    0.8612519263591129    0.3671411786711525 O
   0.7083667119025664    0.9245563355781657    0.3309706152640149 O
   0.5702398826497049    0.1516864293041637    0.0110052373292917 O
   0.0169245193837143    0.2329847278191694    0.8669904248177661 O
   0.1237836573889779    0.5972181311407129    0.8042936532540420 O
   0.0563921729749654    0.5074421947714509    0.6926318215508938 O
   0.4431731865059225    0.4834930773780240    0.9134068815734894 O
   0.0497535323995563    0.8184705216278854    0.0365321729361539 O
  -0.0078005579120340    0.7443208000010320    0.7477956154320802 O
