Li1 Co1 H110 Cl3 O55
1.0
  12.6678671711999993    0.0000000000000000    0.0000000000000000
   0.0000000000000000   11.7222398117999997    0.0000000000000000
   0.0000000000000000    0.0000000000000000   12.9264670806000002
Li Co H Cl O
1 1 110 3 55
direct
   0.4215274373684618    0.8049172391441760    0.4672627874761618 Li
   0.6515574779916272    0.5258434398940591    0.7177620135840970 Co
   1.1305583956674319    1.1614113961561634    0.1858061468244977 H
   0.0543055572262393    0.3189870678243549    0.1157978456887480 H
   0.1131242983710770    0.4301100290428030    0.1137036926745322 H
   1.0099856126284295    1.1476341656445144    0.1476727576373015 H
   0.2763356718452549    0.1803241479305154    0.2615507407568526 H
   0.3117938901806347    0.3511677778299861    0.1903387077813837 H
   0.1503310351982166    0.1122464586141201    0.0300366246925048 H
   0.2829555707490461    0.4987419639730323    0.0466950510558205 H
   0.4195373628232128    0.0709125490730220    0.0303443035018191 H
   0.4350506293695168    0.2592587214297346    0.1001222555420709 H
   0.3930861855672819    0.3276057278775557    0.2850095867129223 H
   0.6095764568131724    0.2651790916929448    0.0984844530498668 H
   0.5152724998916826    1.1491185236067600    0.2753155226489627 H
   0.6480122876771833    1.0716930473691575    0.2094583944257664 H
   0.9877877164711899    0.4488572994901097    0.0112695169833859 H
  -0.0259605985723994    0.4421904848493334    0.2195547339117400 H
   0.7231093807508142    0.2327262493942353    0.1471389690965520 H
   0.7055760425022921    0.4202492855453323    0.1822026873711482 H
   0.8477799333115887    1.0651413984323483    0.2473511919663350 H
   0.7322277270705964    1.0583508872947183    0.1193254916971795 H
  -0.1245108109426590    0.4890791348705276    0.2691467837736923 H
   0.2797940282842615   -0.0008373053492831    0.2314272741072222 H
   0.2546382545700812    0.5416885346013887    0.1546166503065299 H
   0.2351890452698656    0.7618708582390478    0.2097144582040100 H
   1.1085499552384195    0.6857736264538687    0.2704008000411633 H
   0.2886795019380982    0.6773955347600663    0.2831049673110015 H
   1.0143904583097025    0.5894063776911478    0.3059418335761108 H
   0.3438419054079322   -0.0589978626272281    0.1361769638466672 H
   0.5396499263223977    0.6695463522252252    1.0304313589511529 H
   0.4010306957709254    0.8913776781278390    0.2862434892092924 H
   0.6044998326955620    0.7070033576311381    0.2356271842343657 H
   0.6889410401651119    0.7408987570069497    0.1467993558075824 H
   0.8248597371904848    0.7592792033601382    0.0342500187823516 H
   0.7076284795580824    0.5450181030649780    0.2104571205215746 H
   0.9470784168684575    0.9915803713723168    0.2636085342617710 H
   0.9463205939555503   -0.2449503798079259    0.2713461472828965 H
   0.7591328086754041    0.8745924900444204    0.0517941241118237 H
   0.8541188062185103   -0.1792410945206014    0.2113831275987878 H
   0.2067525298618913    0.1541721492577527    0.3559903113207330 H
   0.1701038980341531    0.0974538078251944    0.5678610400297622 H
   0.2508838735557203    0.2442206397294651    0.5034861420153718 H
   0.1324322052739902    0.2592817545705280    0.4802083199992086 H
   0.3622593703881795    0.3804480182542174    0.5883283493378922 H
   0.6084144616800480    1.1272455706458506    0.3535317896069621 H
   0.5842801701005572    0.1244005351632607    0.6481374213124225 H
   0.4228859928196214    0.2636836436999466    0.5706645902785683 H
   0.4280147172624943    0.3599203713315044    0.4469192552209593 H
   0.5857531883875206    0.4191138370121431    0.4092484827690794 H
   0.6102474458506423    0.1826846183222017    0.5454542990235758 H
   0.4156732553662538    0.4851089038611644    0.3933547355666176 H
   0.6812854499470141    0.2911348821293187    0.4329997520126900 H
   0.9974104886673759    0.4003136756489403    0.5107000233812981 H
   0.9798858338063975    0.3643299381745208    0.3917711628957274 H
   0.6961150970739665    0.4387858454083431    0.3530459646742219 H
   0.9068822265296727    1.0990427693631806    0.3965652028769225 H
   0.7530986437313807    0.1757089889789351    0.4318842113231816 H
   0.9331297388777597    1.2082539798957708    0.4678816727407989 H
   0.8657624395157820    0.0756305893868132    0.5858992246741915 H
   0.8389781359377190    0.4920000783548549    0.6039931089924383 H
   0.7411195159153739    0.4667967038510678    0.5352163895333164 H
   0.7707140794621344    0.0090248030750495    0.6409908437190254 H
   0.1381758714347325   -0.0111486453270173    0.6409923909321870 H
   0.3297321900482417    0.5648146610373205    0.5755027258348689 H
   0.0113426817362491    0.7155904537506590    0.4513705874868617 H
   0.0060619980113610    0.7690068664885801    0.5600886147125009 H
   0.3131121862895462    0.9587880035167257    0.5837702593638399 H
   0.4955967331164623    0.9541216598078265    0.3378801812642896 H
   0.4245050498970929    0.9260468204184535    0.6378337552627953 H
   0.4618996636547241    0.5733027999593582    0.6579606776753749 H
   0.5515414308640995    0.6702407587661838    0.6053724495259982 H
   0.5879769249975826   -0.1554248269401542    0.5715109158779597 H
   0.6247344938690511   -0.2362634734116334    0.4844422688159072 H
  -0.0252892937753825    0.9492164538981063    0.6397066567949033 H
  -0.0066245890697992    0.5799286667942796    0.5750447507390375 H
   0.7972978757278241    0.7456222570281882    0.3742102935116494 H
   0.8006654512970555    0.7069803244903448    0.4917079818227468 H
   0.3007975639548045    0.0366670886111141   -0.0068881898777765 H
   0.0416103814853995    0.4355774142037417    0.8393505334944458 H
   0.2316043850120411    0.2241553617811987    0.7945734109913701 H
   0.1534641593037673    0.1415687558472817    0.7348262275433036 H
   0.1638589635924774    0.1114942986053201   -0.0874812083339566 H
   0.0897869049484402    0.3385933891153292    0.7714162716018113 H
   0.3773408357539000    0.4529520800756154   -0.1137567558507058 H
   0.4784920384530532    0.2365215991494258   -0.0102447141105359 H
   0.5332794774607718    0.3477264559795840    0.7866857182935703 H
   0.5862939266118345    0.3171751274152687    0.6915978654149825 H
   0.7499852545975203    0.3410792621624466    0.8672932031928112 H
   0.8990119198195845    0.4247654872994296   -0.0828055301596232 H
  -0.1825647824645546    0.1690822690647251    0.8618005964691569 H
  -0.1570277290973179    0.0739197388734316    0.7823101994725860 H
   0.7524900172044520    0.3095434800990325    0.9881305511132066 H
   0.7591904347927396    1.0354627699803189    0.9456286055642532 H
  -0.0031214737149990    0.4768988687872256    0.6681189056878122 H
   0.1207577854208816    0.7087325493492256    0.8016116836634557 H
   0.2683469553050251    0.5666368383978705    0.8437832992024090 H
   0.0514576429315568    0.8139436710973500    0.8604545210185712 H
   0.2920036605696108    0.5455418937482072    0.6933980479284957 H
   0.1702246760608977    0.5222835400225352    0.7740411187304533 H
   0.0474327349252653    0.8443286492003791    0.6988063315348432 H
   0.0668457108174576   -0.0213709238270167   -0.0414987294173421 H
   0.4474915555230763    0.9151529979024312    0.9425805956359153 H
   0.5202015064210497    0.9208942215150255    0.8470401829075618 H
   0.5187261199374835    0.7389434992773709    0.9278356542059363 H
   0.4146415110462854    0.5769445954425924   -0.0644656389486833 H
   0.6482112161918214    0.6081766812792480    0.8976959418181091 H
   0.6535357115538620    0.9684619226499829    0.9660054029024300 H
  -0.0369428734983861   -0.0253127472960679   -0.1045407806536785 H
   0.9097635323964551    0.7132666657683845    0.8733195984572151 H
   0.9017669218675491    0.5939584087753683    0.9282456656937583 H
   0.7634942374189583    0.6255027216316688    0.8703721573843808 H
   0.3251647282002407    0.6413051623745659    0.4282923559685439 Cl
   0.4020505991078797    0.2825699660713027    0.8148272048832004 Cl
   0.5986914358276754    0.9433728607708742    0.7027865373930406 Cl
   0.0429198836909257    0.4040450444574823    0.1162937275070385 O
   1.0789238157369543    1.1806739264938131    0.1288980995279540 O
   0.2234759448722440    0.1234280247742031    0.2869289046398781 O
   0.2512706790008499    0.4719220042172589    0.1123908823069208 O
   0.3586328719903716    0.2931754477877624    0.2232069305796798 O
   0.4932766898445517    0.2156424835597902    0.0648676885239922 O
   0.5610915783644652    1.0909726392925798    0.3034020831713563 O
   0.3753215534505494    0.0028362246834886    0.0170588018307756 O
   0.6860755222756816    0.2972105128230627    0.1049724593610319 O
   0.7203575362983200    1.0974731034720702    0.1848252136800479 O
   0.9254252059298701    1.0694921028044482    0.2602270998971100 O
  -0.0500436581653822    0.4756363114400280    0.2838251950377229 O
   0.7385610741854446    0.4702030494506353    0.2354198576707123 O
   0.2356500542085508    0.6777060556211338    0.2255215614694226 O
   0.3128935228032177   -0.0744411569896049    0.2101956414972654 O
   1.0351121785845081    0.6721635994827942    0.3060044957091553 O
   0.6431685362255183    0.6716201879759260    0.1772879647633487 O
   0.8854974112060732   -0.1902355803926840    0.2804383454269964 O
   0.7939413517427394    0.8094991280034990    0.0898992766588209 O
   0.1901467352828127    0.2052485655069151    0.4647036969068874 O
   0.1864657683631397    0.0536425560298654    0.6338697951427946 O
   1.0031809943896171    0.3348031578358705    0.4583431035995796 O
   0.3692676535348357    0.3117051830164641    0.5447325240836927 O
   0.4577742651725856    0.4076134751218928    0.3883115942664060 O
   0.5721818430555412    0.1992949251514476    0.6127356369620182 O
   0.6674236058317536    0.4159557374855719    0.4208394301691516 O
   0.6774308152764664    0.2049926417203210    0.4387584794001382 O
   0.9056902342395791    1.1281754270704760    0.4681315476663962 O
   0.7589772970984846    0.4855200880782923    0.6082023023985513 O
   0.8442355323960126    0.0260271339606002    0.6441657251266136 O
   0.0376546702892855    0.9001899871795627    0.6361689539009214 O
   0.4503878599683435    0.8816986405188499    0.3471425728561647 O
   0.3432901155994717    0.5164715108289831    0.6343324118781108 O
   0.5365025930372301    0.6177857663865679    0.6664819541628471 O
   0.3760975325374116    0.9123634286285555    0.5817774488117085 O
   0.5625101281295634   -0.2210752497565621    0.5261597772919331 O
  -0.0376840400951867    0.5028964601087432    0.5989344955606106 O
  -0.0267453399866921    0.7097110312933038    0.5172006394797302 O
   0.7501818149155556    0.7183399282979682    0.4333710831714723 O
   0.1830184635082796    0.0603119299085077   -0.0252856374183277 O
   0.0686330677335039    0.4223760122119293    0.7695449172828647 O
   0.1593791250187813    0.1919789171720108    0.7962776662888646 O
   0.6028697240339438    0.3646046297054651    0.7531251176054615 O
   0.7981283233365517    0.3130214843588464    0.9230857097998465 O
   0.9570011606343359    0.4756030413477708   -0.0592143974782375 O
  -0.1619117398912311    0.0852696175771646    0.8549928585581487 O
   0.2263304111775277    0.5806153956216404    0.7823891073438271 O
   0.0532745233652518    0.7539380739339193    0.8047966219565943 O
   0.0124157905568804   -0.0758333823886768   -0.0664367885165525 O
   0.3532949568475817    0.5186630715215172   -0.0663106906438827 O
   0.5055999955668371    0.8732019708039259    0.9078379240923498 O
   0.5276518529335683    0.6618788755788659    0.9569928862361521 O
   0.7072471999050259    0.5697744640215142    0.8558592979286407 O
   0.8628179817395906    0.6682112831384927    0.9180417948930540 O
   0.7220089587293637    0.9804476866554732    0.9978238415705852 O
