Li1 Co1 H90 C51 N3 Cl6 O45
1.0
  13.4878325206999996    0.0000000000000000    0.0000000000000000
   0.0000000000000000   13.1382499090000007    0.0000000000000000
   0.0000000000000000    0.0000000000000000   13.1814809479000008
Li Co H C N Cl O
1 1 90 51 3 6 45
direct
   0.7448593200487486    0.7474402242777433    0.6137313785814663 Li
   0.1657395846863602    0.3131449384123601    0.6945622051184301 Co
   0.2693603849784048    0.2350356006308481    0.1818512262297726 H
   0.0903442238350658    0.2594444832614273    0.2794070323704223 H
  -0.0140476417844909    0.9856370938513862    0.0360883936926515 H
   0.0544896861057597    0.0418492921361890    0.3205253256898348 H
   0.4767188316159710    0.0402219825517250    1.0391896425023697 H
   0.4346596646497905    0.2294853941341633    0.1519979797277024 H
   0.5824737034836988    0.0334174232976984    1.1691689677976018 H
   0.6100956360238772    0.3550805085085401    0.3673303851849358 H
  -0.0140550558741785    0.2675772255018383    0.2123599377766393 H
   0.6996170619569844    0.0037338655406756    1.2269803778365782 H
   0.6983729777074026    0.0816734699090279    1.1196100447462376 H
   0.2788526440054583    0.5950470201700591   -0.0211107937871224 H
   0.1559085017605827    0.4204689739396553    0.2333780616957227 H
   0.0613410463860847    0.5168163724720027    0.2155864341140463 H
   0.2990434344517401    0.5073553559088415    0.0716117162882509 H
   0.0524003956317897    0.3971173097435104    0.1415295050134114 H
   0.5685622762983423    0.5522465708031463    1.0640950382843439 H
   0.5461426622101696    0.6410128074083051    0.3233618810167957 H
   0.6475130638593325    0.5630384952209391    0.3247555028770865 H
   0.8216729962572836   -0.4654199443421471    1.0533473840139358 H
  -0.1160477220708229    0.4300166687139852    0.2402832038690307 H
  -0.0766952168269000    0.5203759028755128    0.3335959359407602 H
   0.2530627330270895    0.9205606943368426    0.2542907346411641 H
   0.0137107100059397    0.7589653513722030    0.2160454113734235 H
   0.4478224911993884   -0.0919767510718615    1.0199679783356916 H
   0.5465852833645202   -0.1493618674474858    1.1740386785875891 H
   0.3493747237050833    0.7554313951511241    0.0835420904716657 H
   0.6291535535658914   -0.2378706116146538    1.1203648916438911 H
   0.6595920987783949   -0.1600535502037846    1.2255822041356987 H
   0.8040044791227284   -0.0167034074492425    1.0550535655946620 H
   0.8051358692090584   -0.1020618081318002    1.1565133336803615 H
   0.7906947053155220   -0.1544234243870022    1.0369046185267596 H
  -0.0588280020887166    0.8539018922843661    0.2845141975111287 H
   0.3310233689102987    0.2582890782337302    0.4467699416459132 H
   0.2519891728403229    0.1521859054629739    0.4384865021422969 H
   0.2869391916277400    0.0114692945897441   -0.3750945395014738 H
   0.4559766553196211    0.0950763204575910    0.6375056419771075 H
   0.4490714687481640    0.2229974676149997    0.5902142941790960 H
   0.5019004017072914    0.1405169235923384    0.3811755669760664 H
   0.6232200575888932    0.0764246734195684    0.5633827111879339 H
   0.8942584171169720    0.0815600605881274    0.3420001509480010 H
   0.0132606747619014    0.2057272831100933    0.4302347737947831 H
  -0.1089820945985258    0.2386981889004650    0.3923905435469313 H
   0.7750242853517789    0.1753061841990267    0.5074520458162669 H
   0.1489058940506303    0.3637331068977765    0.3913997595787550 H
   0.0356349146211860    0.3820559430188259    0.4629069751735372 H
   0.1024662604743163    0.4902094649750964    0.4105228763966842 H
   0.0221286674372577    0.6278421034562160    0.5130848726809774 H
   0.3394138942097726    0.5730923456892206    0.3492914409312644 H
   0.4012792827901384    0.5591681928327065    0.5303675286208088 H
   0.5039121185608599    0.6415319024207488    0.5375929686435533 H
   0.6249972148870144    0.4256302397451983    0.5004720258652721 H
   0.6187797592749805    0.5369327351405917    0.6600455979330681 H
   0.8572635923937107    0.4537634388059653    0.6602921559649648 H
  -0.1203523425434522    0.3994159416167945    0.3753537628629083 H
   0.2086034028063375    0.8111998578516306    0.3200511756284947 H
   0.1886639500004657    0.8973445124166728    0.6383545602469307 H
   0.0529490382686733    0.9025993979971871    0.4209247425103582 H
   0.7297812858510460    0.7980831945826552    0.4118073299468521 H
   0.3962347361666851   -0.1202925467506420    0.3957482846213172 H
   0.9139035305622454   -0.0233511726086013    0.6036126369524196 H
   0.3787056039182570    0.3083589128430850   -0.1203545741461429 H
   0.4678477991638427    0.3652751692074698   -0.0528037425271921 H
   0.8550986782049271   -0.0066868526636731    0.8452789574964326 H
   0.8822446261871607    0.1574590583166536    0.9830927590851992 H
   0.8800715564997207    0.0644451479051250    0.6941305389025861 H
   0.7247886378554060    0.2055796226520081    0.6432971004863398 H
   0.0855235827201785    0.4618158050444494   -0.0746609223948230 H
   0.2150099177054056    0.6774149160082018    0.7808484126011487 H
   0.3653595010715813    0.4581080052737487   -0.2221056600295297 H
   0.4358582263886903    0.6571336759765695    0.8040635582444576 H
   0.9547744413741919    0.5090179441646058    0.7423982565069090 H
   0.7570799640808443    0.5525874076749532    0.9333957635359728 H
   0.7633952856767547    0.4404126499859228    0.8503792948762556 H
   0.1838358947958908    0.7608986377821837    0.6293631578037263 H
   0.0741066260102202    0.8276457316549587    0.6680310436061333 H
   0.0887694711854163    0.6926772227377029    0.7891623494367104 H
   0.1636480699854840    0.7186639410879241    0.9100433040348999 H
   0.1498890023432080    0.9015208677440602    0.9120810113385149 H
   0.0352775554982429    0.8819429177292870    0.8345753043517168 H
   0.1254343689175788    0.9784930677710401    0.7971705543127199 H
   0.2926977150881105    0.8511579956276807    0.8880928114351971 H
   0.2945282538319827    0.9303207461617177    0.7797992133454152 H
   0.5320177092418099    0.0365685279186905    0.8629833414668224 H
   0.3498188276773714    0.7597105038900657    0.6800213503573014 H
   0.4323105103322697    0.8354024725227199    0.7422374248061024 H
   0.6271858541627985   -0.1187337394405473    0.9495821086699762 H
   0.6403947963502534   -0.0344302737832782    0.6401995729656171 H
   0.6510896207246379    0.0150428299026809    0.9567148428727275 H
   0.8614792437900886    0.7232330427883628    0.7786142175121141 H
   0.0148309789577383    0.2790011214575078    0.2864267291985501 C
   0.3382372781763481    0.1908569616172613    0.3039907647507832 C
   0.3655663541738657    0.2949553011581399    0.0416924680976423 C
   0.6624991633449088    0.0205679188987636    1.1578219878496601 C
   0.0750978898014543    0.4363272504561703    0.2157472658148529 C
   0.3327931121187324    0.5406913788216021    0.0007190750369753 C
   0.4310159361319152    0.5896619802682428    0.0327056174950267 C
  -0.0826628176164613    0.4363310561380798    0.3166714339912625 C
   0.2296801769702894    0.8022922787744636    0.1627145297540866 C
   0.0794158556355213    0.9618835496456075    0.1463855602816320 C
   0.0911404970675156    0.9042122459903955    0.2497828951779917 C
   0.1955597948189164    0.8633734734205077    0.2510331340597332 C
   0.0156220623274068    0.8212818703660418    0.2745426320611221 C
   0.6232549038104250   -0.1617508843353818    1.1515154127137877 C
   0.6101289994274715   -0.0516289114682877    0.9946248472170884 C
   0.7740256074708571   -0.0884542118965108    1.0791267331889718 C
   0.3169247359603300    0.1570016153511424    0.6547859461326346 C
   0.3242706160228190    0.1816807013972899    0.4201735370851758 C
   0.4109161165661004    0.1481054533197036    0.5937715575992938 C
   0.4004429734733754    0.1160540002786455    0.4856928511450722 C
   0.6685060588098143    0.0415813721297665    0.6249357341909570 C
  -0.0379135964889235    0.2114479841563196    0.3648981850302856 C
   0.7726547422876172    0.0415387484923811    0.5789795929656794 C
   0.0818387801454338    0.4103184591508747    0.3979339267440705 C
   0.4850162359489684    0.4403340245976745    0.3597591570054572 C
   0.5937253259936232    0.6000377914260604    0.3756807367452084 C
   0.5307604279125842    0.5248346245778510    0.4396879604657278 C
   0.4571621682606707    0.5964086931572463    0.4832267405366751 C
   0.4114032222585767    0.6764292443936644    0.4148930985460533 C
   0.8870319038984537    0.5221835104461172    0.7022745403561635 C
   0.9221791374715612    0.5883784759874748    0.6136873774557738 C
   0.0357513158292815    0.7668164731513175    0.3780848672162271 C
   0.6610852964414805    0.6736412018268300    0.4249246724278231 C
   0.3765110333707229   -0.0002529668276232    0.4782396377779011 C
   0.7741939073067660   -0.0289173629693057    0.4801547336688542 C
   0.3897103372415839    0.3576356433425185   -0.0516066084523207 C
   0.6664708911905640    0.1011494276486288    0.7226007845057396 C
   0.8478551125801274   -0.0065178803868953    0.6499905820722656 C
   0.2247038399719622    0.4221868587535634   -0.1030249583842362 C
   0.3338184807225296    0.4577453237877818   -0.0785019172117268 C
   0.8048163219435223    0.5090617856202022    0.8780658652580261 C
   0.8250560453817424    0.5732625357842095    0.7827214950034665 C
   0.9004892180904436    0.4913731663893561    0.9357634792822807 C
   0.7165515842124658    0.5953491913136663    0.7552488611293726 C
   0.1547837843549715    0.8283893619000575    0.6710534657571395 C
   0.1605897579893428    0.7195339199724153    0.8239490324970118 C
   0.2854504424184668    0.8528172729401839    0.8078848284188096 C
   0.1141501244130287    0.9035766971115239    0.8385346470239310 C
   0.4950371195707488   -0.0301991166363952    0.9982352154441564 C
   0.3657910010914004    0.7900166712074681    0.7603780268329252 C
   0.8241819242075726   -0.0868291857211924    0.7298640048053715 C
   0.0185691629782338    0.3960403017631471    0.3076079607387345 N
   0.6664323379241884   -0.0732185449403754    1.0941516003327165 N
   0.1816428070662943    0.8257208177451787    0.7835218603070087 N
   0.8288283342148008    0.2116451184792271    0.0603102547461977 Cl
   1.6971420519322999    1.5663879589093908    1.1197086679589965 Cl
   0.0311115785027721    1.2169449180326137    0.7054244140436581 Cl
   0.7218192949355162    1.3198787189092125    0.4438519842364214 Cl
   0.2498635533268836    0.4491450915816188    0.6273042085773631 Cl
   0.9528475194643807    1.0717908820530109   -0.0826501612683790 Cl
   0.2827279886851746    0.2698705294204493    0.0765299800445194 O
   0.2564702486475174    0.2297175407306374    0.2598743257635051 O
  -0.0105941588079998    0.9522871421428372    0.1021598771202211 O
   0.4509705136807498    0.2554782015754394    0.0821348130896083 O
   0.4116389903106428    0.1701053393016259    0.2551722744352076 O
   0.5002797632565654    0.5255060990939474    0.0414997735127136 O
   0.4330165540932213    0.6818295070231184    0.0476993803947476 O
   0.5439481658035324    0.3670486169772553    0.3279167561660531 O
   0.1493529636587935    1.0095063307872110    0.1088662555878153 O
   0.1702644036227116    0.7518487262016047    0.1139051431196887 O
   0.0923430624148468    0.9753990483786892    0.3310089732060887 O
   0.3286212038515114    0.8068476800200284    0.1413861220348622 O
   0.2900946281987889    0.2414984096494096    0.6770929995784650 O
   0.2740839015183843    0.0702442459986852    0.6807966805376047 O
   0.5032833926342156    0.1316230449700452    0.4545661824785013 O
  -0.0509097543023438    0.1161590370993452    0.3089697197149032 O
   0.8057749637401309    0.0124922618869938    0.4009829012985118 O
   0.8124320748706404    0.1426260325065339    0.5633174681394936 O
   0.3320094428387515    0.6516976399371670    0.3590414834726129 O
   0.3966654947775356    0.4512576256095328    0.3367814657128675 O
   0.5725784145412265    0.4751550245914872    0.5235013046845356 O
   1.0129305608838439    0.5700050242970301    0.5673147428166151 O
   0.6831436960800726    0.5179691591905461    0.6996670943388421 O
   0.0400218314893478    0.6761575187053325    0.3896419904713551 O
   0.0509880115462991    0.8334334127027907    0.4526224706830462 O
   0.3165584799297619   -0.0462598554304909    0.5345055310361361 O
   0.4362035005454425    0.7657607769896471    0.4221420564118403 O
   0.7080001731667707    0.7370765913020356    0.3678492950120664 O
   0.6807014949369723    0.6801405453917219    0.5181267189092335 O
   0.4163751108030913   -0.0449316724441065    0.3970751461529713 O
   0.7310446467338155   -0.1133601165844592    0.4915423463804527 O
   0.8732884058445217    0.6648888945715670    0.5900739457609393 O
   0.6420911400707796    0.0680658736737385    0.8090781692931903 O
   0.6845827708884388    0.1970716401753292    0.7077997161909474 O
   0.2001127872960808    0.3467787939913512   -0.1513601949572939 O
   0.1593234314706981    0.4880172399679994   -0.0698223158488597 O
   0.3768980488524165    0.5042713074030931   -0.1647995042959174 O
   0.9761040359964914    0.4475108556560796    0.9046053718114025 O
   0.8766084352066358    0.6612240228928042    0.8229688694902096 O
   0.8934628852934909    0.5159340022872143    1.0368704797223431 O
   0.4740528732460983   -0.0023521809688542    0.8901418983402846 O
   0.4032492064201377    0.7172132151440566    0.8317933711118223 O
   0.6753181244147949    0.6766743303086303    0.7760401516591110 O
   0.8210976628975247   -0.1771387785678936    0.7066799634060865 O
   0.8087480137048645   -0.0623495174070981    0.8225250650327953 O
