Li1 Co1 H90 C51 N3 Cl6 O45
1.0
  14.4603645420000007    0.0000000000000000    0.0000000000000000
   0.0000000000000000   14.1123063715000008    0.0000000000000000
   0.0000000000000000    0.0000000000000000   14.5855571939999997
Li Co H C N Cl O
1 1 90 51 3 6 45
direct
   0.8456651787845364    0.6122795564550645    0.3407356010399392 Li
   0.6340557140914159    0.8195249154352586    0.8241830214031932 Co
   0.1375599321803045    0.1075108948005877    1.0803357312590027 H
   0.1115813339984330    0.2384703532582318    0.2637560256239327 H
   0.3987089501757873    0.1855123193036045    0.1533193807583790 H
   0.5832130124524215    0.1808107490390873    0.2359017589273456 H
   0.3958819121795277    0.2917593040649358    0.1024156003868329 H
   0.8307741295738076    1.1452392160603400    0.1058079973547290 H
  -0.0071452717529976    0.0975855150424729    0.3763242311550460 H
  -0.1443140128479342    0.1777269157623460    0.3247177008053080 H
   0.2575202551003573    0.4911022694133408    0.2658697604363869 H
   1.0520901268783518    0.3708803187741225    0.3195420329171416 H
   0.6105099729718834    0.3463478298324725    0.2248264192710415 H
   0.4009613138631204    0.4387909759531258    0.1862588148581360 H
   0.5552552802095189    0.4412200615396766    1.1346641322559814 H
   0.4296397056696000    0.4383055131365138    0.2986521899068698 H
   0.5471193165788448    0.6073873724149399    1.1211850448693936 H
   0.6608005446851895    0.5768494866395624    1.0896970465782536 H
   0.7885200080939979    0.3166248356628515    0.1662136430411641 H
   0.9761909338246614    0.3665401352217235    0.1747186318016230 H
   1.0245382626882880    0.4695260513250685    0.1245635372605019 H
   0.8978263810702207    0.4468554975843907   -0.0063419862381433 H
   0.7796951959926600    0.4354081837472813    0.0166835310960970 H
   0.8634621021783090    0.6021933241799873    0.1670973939893489 H
   0.2016565182178102    1.0043189477747656    0.2072055634763980 H
   0.1465728446571275    0.6926760536776092    0.0931845509171982 H
   0.1444968250718116    0.7124488670402446    0.2441222196478537 H
   0.2261081839398624    0.7330897171133598    0.0199230370931279 H
   0.0821567645994965    0.8511179086897419    0.1761104195633104 H
   0.5976575998895727    0.7008915782664278    0.9860739912573545 H
   0.3120686724455055    0.8125848733597981    0.2539641473912141 H
   0.4241834116895392    0.7148715752142286    1.0340029109895106 H
   0.3486216928389245    0.7751544218025128    0.1419759676957597 H
   0.7551107535349713    1.0000389953410529    0.3240183788757902 H
   0.6419884325001963    0.7654876815540512    0.2824368340686100 H
   0.6874637729101865    0.7657094737910962    0.1743264630333052 H
   0.7108539162926450    0.9322747352105273    0.1178630733220928 H
   0.8251048395803299    0.8961509446280377    0.1283069664126264 H
   0.2135158319648398    0.1153728272926476    0.4872351122741756 H
   0.2183103169032127    0.2714309472075934    0.4494658318364961 H
   0.1189200148243400    0.3458574776662260    0.4506969812373148 H
   0.0853510132552508    0.3516106124028672    0.6224752661992817 H
   0.5767557063638513    0.0749754616890121    0.5915309564278549 H
   0.5719416506878821    0.1559381314272086    0.4943008690792975 H
   0.4351520148350075    0.2164200950078559    0.5637041826816342 H
   0.5460634649123357    0.3281006352760926    0.5268848145315497 H
   0.0158755863334721    0.1097918826953097    0.4943049827377065 H
   0.6785504429850908    0.1401384460936836    0.5605531203403952 H
   0.6884104986970944    0.2819047844464521    0.4742061276784981 H
   0.8180835781380539    0.3006607548053826    0.5716276372650175 H
   0.1716794039658865    0.6693311806761748    0.5130948504372921 H
   0.0814735176473672    0.5970233683925092    0.4597372255177487 H
   0.5900021912255330    0.3732718484866688    0.6308938681331532 H
  -0.0369024745365233    0.4826813212797320    0.5317082161379648 H
   0.6998956863296483    0.3937957793293929    0.5131453606776758 H
   0.0804935976765502    0.8027579891957705    0.5998693420227521 H
   0.5812603645839678    0.9585220395312476    0.2839355769489295 H
   0.9311789288984027    0.8452868277995066    0.3665213831665703 H
   0.7786412806535455   -0.1522460792545585   -0.3284345835598661 H
  -0.0744450965377329    0.7090249050932744    0.6057031952563471 H
   0.1377680873752346    0.1947524815114874    0.8208537005309007 H
   0.0483595530160321    0.2236690872921076    0.9036534169858057 H
   0.1852800292771485    0.0676456888455811    0.9313931868566776 H
   0.2132800149499855    0.1864335011188075    0.9546792358901499 H
   0.1221439999365128    0.0706494501645393    0.7399640927972079 H
   0.0078695641018923   -0.0052984474919710    0.9533566947116796 H
   0.5791125625759483    0.1437112143338788    0.7494495034784613 H
   0.4524717026805368    0.2511961257345638   -0.0219834867283576 H
   0.4403621186177424    0.1581128291124841    0.6799979229507932 H
   0.5725033930959941    0.2715535352491550    0.7585413741719272 H
   0.4396705731196358    0.2830725595475710    0.6648041256174172 H
  -0.0208807484363903    0.1960747317170020    0.7256382773881157 H
   0.6778810269429237    0.2212201608664601    0.7237178845208811 H
  -0.0886383763408722    0.0908530931761312    0.7407614569188051 H
  -0.0606134950301034    0.1057549805405314    0.9613557034878402 H
  -0.0909917056709289    0.1822052765870255    0.8198684793419623 H
  -0.0915463251604103    0.0125108314014893    0.8857507755901506 H
   0.2007533597972830    0.5614919685773347    0.7227079813814893 H
   0.3873945742812657    0.5522525149708482    0.8569997313604172 H
   0.5070437017271705    0.5225925154653591    0.8333208279488921 H
   0.3326151807397499    0.6547403693247548    0.9728040148398872 H
   0.4529622850568936    0.4787672906070738    0.9289174501042377 H
   0.4031306920906808    0.5865551999648211    1.0503560743844695 H
  -0.0857352683398208    0.6037699622867772    0.6637729685762459 H
   0.1251141878508805    0.6869583490107835    0.7219654660386777 H
   0.1219697304709900   -0.0230921371547124    0.8294279358745765 H
   0.1234053789250592    0.7234258112704834   -0.0962932978369698 H
   0.6259141489422072    0.5931281865169930    0.9306726110253803 H
   0.5477370741723034    0.6822858314035151    0.8174462201488385 H
   0.4239337637647227    0.6972869229633986    0.8300957197562924 H
   0.4979984249210362    0.7662600570760292    0.9069032071288589 H
   0.0302811706045301   -0.0206531311486133    0.7434517895182441 H
   0.5270881479897895    0.2155874883671916    0.0906697344098735 C
   0.4451241009177042    0.2481987418281723    0.1453347697866495 C
   0.4968705833681741    0.2525332565694008    0.3149217089141805 C
   0.4689317994719196    0.3153932864360647    0.2309701681047756 C
   0.8640125723948018    0.3107675365209527    0.0479109976880051 C
   0.8092795124016591    1.0375403070379694    0.1803488589439760 C
   0.2994825443799659    0.3596553640551751    0.2636826653823068 C
   0.5863134875386324    0.5724625353950069    1.0705836183909039 C
   0.3967000105037878    0.3915353408751639    0.2472856229643194 C
   0.9900674857896677    0.4900587121369951    0.2641845317081961 C
   0.9701475177167079    0.4421273547675120    0.1723875587032304 C
   0.8492238719177928    0.4162427835015629    0.0422588310341379 C
   0.7849620065062396    0.4579503530869756    0.2080282951581836 C
   0.8666535846520708    0.4701660246761459    0.1374625988114308 C
   0.2661445190072443    0.6674881084443723    0.2248449307338817 C
   0.0871891411892180    0.8035686291931492    0.0120700631904841 C
   0.1691697853532578    0.7599974379354409    0.0626666904008302 C
   0.2094198079795546    0.8202143845938683    0.1446635578562594 C
   0.2441983226248322    0.9171489298048932    0.1021475269805178 C
   0.2939619366685811    0.7687061490960915    0.1934638875613736 C
   0.5744074253159309    0.8608526746722492    0.1871933009266975 C
   0.6606345737656439    0.8148070473386264    0.2236670532094586 C
   0.8259630475434800    0.8283193673648626    0.2918756232878956 C
   0.7722299623405995    0.9364498146375860    0.1636199814143350 C
   0.7387501701407660    0.8840274833385692    0.2531702113182910 C
   0.1594093121929816    0.1276592669032674    0.3611283769924655 C
   0.1414581741531312    0.2355537499110196    0.5672978746676738 C
   0.1448612695493137    0.2711921485370369    0.4680533973572378 C
   0.0956059414466731    0.2042193961661896    0.3940349018249511 C
   0.6038241110961891    0.1421289074159185    0.5626486179339032 C
   0.4665028150643701    0.2153564843119945    0.6322253222381763 C
   0.5951770261878645    0.3170478706964486    0.5820743413554640 C
   0.0048737890040947    0.1504556824239578    0.4294123641417329 C
  -0.0808128474842982    0.2103176197828338    0.4449160570752481 C
   0.0576421682371166    0.6311255191913263    0.6060446289042881 C
   0.0927090573551047    0.5295492805337726    0.6360229145593517 C
   0.0960457643834689    0.6580495378455226    0.5095174972168430 C
  -0.1007826068331217    0.5996905440482202    0.5169596331980898 C
   0.6853379620490069    0.3190595900605728    0.5385544407059969 C
  -0.0511040528856399    0.6345657789704116    0.6013907100243208 C
   0.0609270093531229    0.7558259015153638    0.4769523374713250 C
   0.0938853762473840    0.1679496336960601    0.8753336212792749 C
   0.1568727233059267    0.1374216683402309    0.9496304058029256 C
   0.6019763015252482    0.2119318137636281    0.7206442960796771 C
  -0.0324890311676072    0.0486190327532601    0.9156707844177543 C
  -0.0458697450104713    0.1400640429470710    0.7768396123845743 C
   0.4539066595891079    0.5349201956772441    0.8845708412365230 C
   0.5761976983014292    0.6230219536231246    0.9751193189143790 C
   0.4032136775504536    0.6454406845995817    1.0019965917388454 C
   0.0774259018469494    0.0217269011618977    0.7839329307010361 C
   0.4909600823049569    0.7015966366557563    0.8677720315139302 C
   0.5700454329320739    0.2200233331080924    0.6223354018133783 N
   0.0241658337647737    0.0918337975086243    0.8391827911816147 N
   0.4818399111213776    0.6228781075396737    0.9335226906930326 N
   0.7087765136163329    0.7205028305107045    0.7297635911625358 Cl
   0.8364288971118250   -0.0762620429268364    0.6595674384628517 Cl
   0.3521478833337700    0.3093857637981481    0.9368225303467278 Cl
   0.2112005376371790    0.6420790795754869   -0.1706209347986874 Cl
   0.5229318903916191    0.9168718666589359    0.7650574090916693 Cl
   0.7196275540271231    0.8859180318639243    0.9442469981651083 Cl
   0.0997517567078220    0.1318017506660959    1.0304089447595772 O
   0.2862719507296361    0.2729934132864570    0.2737947233611869 O
   0.0685063480123709    0.2578300520068184    0.3149923267168672 O
   0.2308694746943262    0.9974334680068209    0.1469994302227958 O
   0.5209674931651526    0.2244407542126892    0.0035863283318047 O
   0.5955041272084689    0.1741010024174276    0.1264469072020561 O
   0.5677456292235706    0.1912215207536745    0.3017346912746267 O
   0.8343750069824485    0.2627130242287909    0.1190601479190909 O
   0.8275024278222654    1.0757140814599839    0.0966640203214166 O
   0.8212750606118158    1.0776095901951133    0.2557316492875836 O
   0.2382973648894888    0.4253925990314162    0.2795593300115649 O
   0.3222053463567516    0.5987077139115382    0.2257869585095262 O
   1.0193565122709753    0.4317913405002355    0.3307579225690841 O
   0.5550312886226821    0.4763323094569057    1.0707015432652931 O
   0.5489952720515585    0.3755599223953540    0.2146663686107239 O
   0.9690265224642772    0.5717709404322082    0.2808037116802656 O
   0.7394112876369560    0.3765958976367593    0.2025982660583985 O
   0.8663486130874057    0.5658158542976187    0.1086868726312438 O
   0.7610628856371746    0.5202128902562707    0.2663442023728833 O
   0.1855462742939195    0.6579460820416614    0.2620042927514641 O
   0.1403517013561607    0.8350503720284116    0.2108605489727306 O
   0.0303233548799146    0.8581748699955936    0.0497354051923647 O
   0.2708013863914939    0.9171191685462482    0.0236362994169203 O
   0.5368854113705649    0.9370414968035049    0.2325546122019478 O
   0.5379393267096794    0.8357738540540443    0.1162847997125340 O
   0.8333065691878739    0.7429669119765254    0.2895754026275700 O
   0.1571749286885993    0.1018527126510520    0.2802991029154371 O
   0.2235287192319249    0.0869947585732231    0.4213009153690614 O
   0.1684761652186569    0.1571725150595807    0.5846652605433539 O
   0.0962193423034936    0.2821407487114233    0.6360530813876839 O
  -0.1504915887825202    0.2113309197795572    0.3818077378141472 O
   0.7574668490470203    0.2976208548152126    0.6001785520131566 O
  -0.0836723881189689    0.2526586790165478    0.5183983029534442 O
   0.0559133044918502    0.4625797168692087    0.5928781795567789 O
   0.4712269006710357    0.2782788711015336    0.3892651148997990 O
  -0.0849628120184358    0.5086328553776324    0.4908132409192348 O
  -0.1553185763593041    0.6488270906725475    0.4701602075113703 O
   0.0234293378092902    0.7661849453280203    0.4031651666635671 O
   0.0736230931528614    0.8280132515616567    0.5359703090544817 O
   0.8801995778689824    0.8853979184390328    0.3402028822759831 O
   0.7085192586910373    0.9452754450286276    0.3202132448475317 O
   0.8950512089863191    0.2684215170774646   -0.0188145985340133 O
   0.1642611954076973    0.5103727552461321    0.6854834864390988 O
   0.0743651214723298    0.6957081590524199    0.6747948306732340 O
   0.0731652900331149    0.7701446099306007   -0.0714454298275744 O
