Li1 Co1 H90 C51 N3 Cl6 O45
1.0
  14.0802296136000002    0.0000000000000000    0.0000000000000000
   0.0000000000000000   13.7413212170999994    0.0000000000000000
   0.0000000000000000    0.0000000000000000   14.2021311936999997
Li Co H C N Cl O
1 1 90 51 3 6 45
direct
   0.7743495383746333    0.7320368943840836    0.3191750262672410 Li
   0.6656716231706098    0.6597519965706238    0.5761573728054132 Co
   0.1515365416654216    0.1173514600978318    1.0480353542574385 H
   0.0295200655746784    0.0860618924349386    1.0274208425333200 H
   0.1310965340875611    0.0155912306477044    0.9903904847069331 H
   0.3318532033729618    0.3546910833024398    0.2166918158145982 H
   0.3537143525478793    0.2478665664449705    0.2915256548704895 H
   0.4791429178813715    0.1528764283514320    0.2118946484690225 H
   0.6518352010847210    1.0679973109308620    0.0429418365794659 H
   0.0620969490906229    0.3006839039144435    0.3076746396159437 H
   0.6720983649556014    1.0538181794687769    0.2302489360364850 H
   0.8864386195410077    1.1822832646021664    0.0770867119778225 H
  -0.1632360239551769    0.2107194834290531    0.2582475507920219 H
   1.0556041846891320    0.6903611347571749    0.3005383867101152 H
   0.5526101857021211    0.4479717060132241    0.2104364166221580 H
   0.4082219863764282    0.4886506910371961    0.3176717307611784 H
   0.4583224477580121    0.5132253294336681    1.0342937546807094 H
   0.5193537465068602    0.6605867052437409    0.9893878182897748 H
   0.9876209183455614    0.4901792194565640    0.1865942203079735 H
   0.7355760229574784    0.4019823873723365    0.1632301212530940 H
   0.9343483496031104    0.4918768000335300    0.0256092266603859 H
   0.8979931186127316    0.4700497285852069    0.2746598762959152 H
   0.1592793131252492    0.7088375240350889    0.1722520066484942 H
   0.2132173539698702    0.8061083744054790    0.1293711184427755 H
   0.1335929422403123    0.8064576857944034    0.0087842870269598 H
   0.3273575380509376    0.8225704013405963    0.2697127314595706 H
   0.3910589139953796    0.7015849463225484    0.2059504701729194 H
   0.5346190728473050    0.9371343486589195    0.2468013813556974 H
   0.6419653336312976    0.8112367022341237    0.0660721679022550 H
   0.5713745814009529    0.9158416363078032    0.0413526384730569 H
   0.8342150393736957    0.6841914223502996    0.1418298119717080 H
   0.9125759773895282    0.8719950519451423    0.1470346646090918 H
   0.1459137640422833    1.0396710682173431    0.3544908526850739 H
   0.0663461695679801    0.1574800613646300    0.5567397941167774 H
   0.5092851536010267    0.2335739087814850    0.5337820425263236 H
   0.6170907392808116    0.1214245764391011    0.4697942517077791 H
   0.5687468543669943    0.2163506741113368    0.6481038283101521 H
   0.4331079441779651    0.0886467967129784    0.4589034918710715 H
   0.3519963407921168    0.1781156316653323    0.6583515860596763 H
   0.6677305384579003    0.0992593133477344    0.5879227196904020 H
   0.6158187429787981   -0.0071998820154849    0.5227221531436880 H
   0.3701380903949267    0.0536057702794504    0.5605957646928197 H
  -0.0842209772882251    0.2145837406690281    0.5223051734721703 H
  -0.0956803074573974    0.3447975659432196    0.5085411617661868 H
   0.6755620868790632   -0.6870595441544064   -0.6492134368741815 H
   0.1637288144273790    0.3417716560366629    0.4986954774746611 H
   0.2938964360000926    0.5097240649453503    0.4027054474286961 H
   0.0629456568409892    0.4209932958485109    0.5105691883776278 H
   0.0996851145200276    0.4434628964874778    0.6831295574218971 H
   0.4920459745065645    0.4507205683244401    0.3949425280121435 H
   0.2719060275694707    0.8177513596375617    0.3820339020109048 H
   0.1081821350433606    0.7864727079555724    0.4004050884505666 H
   0.2364797587025055    0.7418911142120498    0.6006433457384235 H
   0.1693032973835508    0.8761096490138462    0.5718854083253981 H
   0.4545936023172184   -0.0261791341470380    0.5091049151839521 H
   0.5535876555572082   -0.0387732651818791    0.6731197921225128 H
  -0.0688249215455962    0.6561962977241986    0.5606351249826506 H
   0.2762795357926975    0.0786128270661282    0.9556745682521753 H
   0.1515599787832142    0.2647230241567482    0.9793196110573682 H
   0.0228703160628122    0.2594258624901234    0.9715573957604905 H
   0.1734104747227714    0.1546055197266072    0.7770732044564945 H
   0.0899956418520376    0.2860906929100711    0.8667365079869448 H
   0.3177199111283675    0.0769135727054236    0.8355630176169648 H
   0.1687003242621609    0.0409294055218000    0.8221967138269951 H
   0.4048378086103231    0.3023649649736416    0.6574749570643378 H
   0.3199776868090492    0.2354791113152429    0.9601309416750653 H
   0.5859688036288005    0.0678380261819344    0.7243564685111094 H
   0.4022739299669570    0.2177413700784916    0.8099682674317781 H
   0.5220704848733320    0.3127708057032841    0.8188415835757595 H
   0.7509983566806626    0.9904530935179109    0.0062572015134898 H
   0.0125679272537627    0.1497733788464879    0.7875152992363108 H
   0.0065268325888120    0.0317417882610309    0.8485512091414753 H
  -0.0580090467921828    0.1380110455565227    0.8958321411960862 H
   0.1823002445230521    0.6366013842696665    0.8664478189202068 H
   0.6816088632695393    0.3984294539077404    0.8749782287824776 H
   0.6029617083303614    0.5143961775454187    0.9713799576023979 H
   0.3594962184857307    0.5435564739732002    0.9511970712390364 H
   0.3748453999927745    0.5700750302490358    0.7882546248950301 H
   0.4274006508876355    0.4319341651888557    0.9448015522312770 H
   0.6149565411303087    0.4227948693368879    0.7731068983273843 H
   0.4581029200880219    0.4641927590312279    0.7761557365200077 H
   0.6444517987643792    0.5745636815967129    0.8699698255344106 H
   0.4840865872610787    0.5853508539259310    0.7407575281002032 H
   0.8099902923801848    0.4738235651166947    0.0101467585980282 H
   0.0229910527302283    0.8410453351543900    0.6725283315955374 H
   0.2887885647526994    0.7258293399100748    0.7209682446351502 H
   0.1687060059876863    0.7971492650116313    0.8545629829263757 H
   0.4201671040780278    0.6921964750131480    0.9134302042326301 H
   0.5368522750650890    0.7044383837308238    0.8703113235767713 H
   0.4609242519192606    0.0364574920115088    0.7190790915472036 H
  -0.0250003521363029    0.7285263149253944    0.7010310960383533 H
   0.6965191314797410   -0.1576453862969351   -0.2595184027616197 H
   0.1028129044217961    0.0845976955296976    1.0006333136187329 C
   0.3891455929246793    0.2356333905120178    0.1486759675714486 C
   0.3785988899180348    0.2940069622615678    0.2363874513628800 C
   0.5460173244670786    0.2938330342991659    0.2981359303791149 C
   0.7784119721253407    1.1005014634023274    0.1012570280605434 C
   0.7140735327063559    1.0257815741152412    0.0637478688551766 C
   0.4617529315871497    0.3561967609351155    0.2743479512799031 C
   0.8632990821228606    0.3684037385138990    0.0955987223524785 C
   0.8666122383198974    0.4717137097729507    0.0675437780229439 C
   0.9222690011359717    0.5214541597050459    0.2203616875605457 C
   0.9515043198272521    0.6133197801978627    0.2698007464189420 C
   0.7492434137089845    0.5524457210892630    0.1867737708250910 C
   0.8486650878163347    0.5457884282020143    0.1431627105164276 C
   0.1560648769092173    0.7856008849473822    0.1753022530804675 C
   0.0667261349624955    0.8251705879919016    0.1279333060664853 C
   0.1701967487224302    0.8198188464207574    0.2759026475222385 C
   0.1752030591260556    0.9342336086667274    0.2721581390907441 C
   0.2721304557277266    0.7914562171042255    0.3140321361612546 C
   0.2993246145239837    0.6832941287200004    0.3123668931299488 C
   0.5198366505635833    0.8339768736530949    0.1531140338827892 C
   0.6052542845798865    0.8727810025702218    0.0965788569400377 C
   0.6814377012880847    0.9465672116239959    0.1398484192063403 C
   0.7699469113080886    0.8955895808028573    0.1825427156981918 C
   0.0709781963026155    0.1909448201556371    0.4260089921915280 C
   0.0240762623055922    0.2888982831985500    0.4388683298155188 C
   0.5030870586554935    0.1950557785640398    0.6047166780581293 C
   0.6125084276445241    0.0749719835686527    0.5386415948751017 C
   0.4386334222514798    0.0466151761086030    0.5246934769977035 C
  -0.0791784458843749    0.2786721922877914    0.4699811250695164 C
  -0.1532333461675957    0.2647594107597612    0.3941370151039770 C
   0.0915609572343033    0.3132707576286820    0.6222077149040778 C
   0.0912271558596822    0.3458615102153182    0.5188873484050753 C
   0.4327080927441105    0.4258298031209918    0.3543577740665044 C
   0.3555545214024393    0.3868866773803554    0.4166794064981655 C
   0.0440667033512502    0.7426887085500936    0.5636622058773173 C
   0.0390000246139168    0.7631365239792491    0.6633388657174942 C
   0.2337923025289605    0.7653619286195210    0.6771086300812222 C
   0.2436046425114387    0.8689414882202957    0.6870472792934343 C
   0.5281571753856246    0.0367216587493828    0.6819424116498964 C
   0.1793038445240600    0.1172306565758288    0.8458642884617870 C
   0.2757134938872230    0.1216450792533595    0.8869827651210538 C
   0.0906213418755295    0.2481270945225432    0.9340897796159471 C
   0.0060168977229015    0.1156107250096924    0.8564880461177455 C
   0.4169363329011103    0.2255812275636611    0.6689830890320597 C
   0.1299182862567178    0.6280949242172998    0.7369144429142127 C
   0.4306058542996885    0.5072016000780807    0.9602098030786619 C
   0.6095418567045406    0.4161258599634690    0.8508008715030069 C
   0.4478888110893243    0.5434270832128861    0.7948620839249556 C
   0.5936280537234037    0.5170804900228897    0.8959891598836046 C
   0.4941443067646878    0.6633535425368453    0.9169191172221102 C
   0.1291114812321018    0.7399960999271356    0.7224173229262399 C
   0.5194856903778753    0.0863027717468843    0.5870721431230373 N
   0.0952803568064108    0.1413040331291944    0.9084034938730140 N
   0.4941798175492220    0.5600548875113305    0.8877875739095454 N
   0.5863043095210791    0.4976400740847506    0.5726502935283189 Cl
   0.8240191829182486    0.5897907472255709    0.6120648709861241 Cl
   0.6485099712209427    0.7411954023624422    0.4412890932580683 Cl
   0.2421884724242165    0.7224490244901721   -0.0437099471011346 Cl
   0.6035675223145142    0.7404356500915320    0.7070506151396783 Cl
   0.7331314605501470   -1.0719934174283701    0.7820020421812898 Cl
   0.3421726373585877    0.2597526141851797    0.0789322096459208 O
   0.4519830625029744    0.1602367104088908    0.1461559232547283 O
   0.5392167251425114    0.2018993708587148    0.3119028782641430 O
   0.6222284395872134    0.3470229705834914    0.3120486310368620 O
   0.8531813493933886    1.1285511679329476    0.0473207568381090 O
   0.7742472673151749    1.1229869286002079    0.1833137267422847 O
   0.9338519088353229    0.3122846806870311    0.0771057232090467 O
  -0.1195826165273382    0.2251431328633852    0.3139631324331074 O
   1.0446029436404503    0.6217178081732508    0.2764842503737643 O
   0.4938639846315752    0.4137197594526349    0.1955294989833523 O
   0.3621439025805974    0.6501473888393263    0.2483546693586829 O
   0.6895014902401010    0.4761036078800507    0.1797065216474096 O
   0.7898009909411354    0.3425539680014413    0.1429711899648356 O
   0.7275079727113181    0.6328484700349112    0.2222522488878422 O
   0.8661200588462540    0.6379615154902906    0.1012006984865458 O
   0.1943483434998008    0.9780125139477843    0.2008779920344301 O
   0.0723041689971208    0.8371585182205471    0.0357844600833882 O
   0.0941695794661824    0.7852362911851926    0.3295699450288341 O
  -0.0051050799931963    0.8405242789992445    0.1715429581357987 O
   0.4812448722395173    0.7599912660148100    0.1285986991593326 O
   0.4849688171920452    0.8834844857125103    0.2246103456793192 O
   0.6314001650166954    0.9954176816329974    0.2157328048172880 O
   0.7698375380917233    0.8605485543693295    0.2627250478051609 O
   0.8397362561530664    0.8992573503865625    0.1260265499866645 O
   0.9000683688609077    0.6693922631728739    0.3130618592491449 O
   0.1066388363475061    0.1677461775387028    0.3488804271149070 O
   0.0702885768669621    0.1246789942125790    0.4938133932962839 O
   0.0847038247407576    0.2252282775144355    0.6412661221465111 O
   0.3589663975804810    0.3017165557079509    0.4466180117821819 O
  -0.2366290032146809    0.2856263998556259    0.4079807120335769 O
   0.0342188525842379    0.3446956834547834    0.3564468971421427 O
   0.2641135410112955    0.6280767309157934    0.3686612611438603 O
   0.2858227040284067    0.4476720987240155    0.4363370195839990 O
   0.1126351874239438    0.5759660212768318    0.6652730824646388 O
   0.1443555508169245    0.9696435952548067    0.3547070174252899 O
   0.1037035148979128    0.7867950932582671    0.5167605126796456 O
   0.2053609479995334    0.9233038008536985    0.6184695435496581 O
  -0.0212099309951270    0.6912817158134025    0.5152438952293327 O
   0.3082477644617266    0.2217417132137350    0.8916891010285584 O
   0.4566030155708682    0.2255790443674803    0.7650940164262172 O
   0.5410677602971388    0.3468286661234023    0.8772694342048323 O
   0.0955296425138406    0.3716741663927026    0.6956917565430502 O
   0.1648246772381030    0.5883207284638478    0.8152132548906352 O
   0.1136799147049387    0.7987371763671163    0.8045183811475044 O
   0.2841991509595051    0.9087120453134465    0.7555503783516636 O
