Li1 Co1 H90 C51 N3 Cl6 O45
1.0
  14.0060882860000007    0.0000000000000000    0.0000000000000000
   0.0000000000000000   13.6689644568999995    0.0000000000000000
   0.0000000000000000    0.0000000000000000   14.1273479770999995
Li Co H C N Cl O
1 1 90 51 3 6 45
direct
   0.8252488779078655    0.7552902607182139    0.4288967751287600 Li
   0.4005564242735632    0.1141436670875539    0.7181336514783426 Co
   0.0032127915361621    0.2504444092450569    0.9734320985645427 H
  -0.0646634049140821    0.2818718082520937    0.8729942809146889 H
   0.3660357222669016    1.0026220912061783    0.1285169722897063 H
   0.4055021306396469    1.1374545436433237    0.2033993919564979 H
  -0.1161310228014080    0.2168602996771759    0.9729804922184442 H
   0.6351279857911357    1.1307151889328431    0.2589285685062380 H
   0.7270173108988783    1.1240431399793496    0.1670111044425716 H
   1.0740406839314707    0.4544336733032039    0.0431980573770276 H
   0.1864416808303417    0.3793539550673466    0.1512162078801238 H
   0.5942414807008878    0.3360024633088854    0.0046281856018543 H
   0.4873980159559306    0.5050692574531513    0.0316205128679572 H
   0.4514807070165858    0.4158779362053606    0.2146138109866520 H
   0.4639050182480051    0.5727592425224255    0.2248075147329911 H
   0.5885375326485357    0.4818555018683363    0.3596438621555755 H
   0.8697123988627127    0.4375358314273035    0.1984140259759780 H
   0.8931572032431212    0.6125559660939323    0.0581166394309018 H
   0.7165147353762724    0.5140940815639294    0.2094536068125799 H
   0.9460891843117432    0.4824495483321781    0.2863611765674401 H
   0.1997366134480469    0.7702087280712447    0.2503650362568657 H
   0.2661812895772289    0.8524753843015460    0.3227947662853637 H
   0.2457544584622219    0.8543467769795106    0.0754192499701360 H
   0.0803106919598922    0.8920782380295577    0.3219644618277250 H
   0.4600846082300641    0.9319312935933253    0.1714967304852457 H
   0.4251164579514775    0.8407261402014247    0.3351431561093263 H
  -0.1140140862667699    0.0651787288795141    1.1501206040112952 H
   0.7924802710971574    0.6752966369548539    0.1020335869716361 H
   0.9598267815673827    0.6826241854546555    0.2760747448722939 H
   0.8457192615114436    0.8949394642858201    0.2961393741614910 H
   0.1078494302659717    0.2983302605883594    0.3369736482895938 H
   0.2554052615444152    0.1931993997589865    0.4089984898698655 H
   0.1996280892142307    0.0810445979205683    0.4343082649656297 H
   0.1704950442363647    0.3280837946825022    0.5827624549098146 H
   0.0234232881587592    0.1245189958439623    0.5592940728371548 H
   0.0513382914070830    0.3397723172844722    0.5366412720058348 H
   0.3390595964361323    0.0351552401731083    0.4553195687489838 H
   0.6575660851078544    1.2165234448324276    0.3706685782064907 H
   0.8909381682516690    1.0785137217149070    0.3267197775535707 H
   0.7993494267125884    1.0796893777092342    0.4387648692838681 H
   0.1662404658856368    0.4855650001379294    0.5387326057825557 H
   0.3388896703331832    0.5529237969877686    0.3446877642140160 H
   0.6052002863906552    0.4493141925831647    0.6128569921640229 H
   0.4902028676174232    0.4826877521851668    0.6357947721723639 H
   0.3855243899395766    0.5499279592175322    0.5131250765005976 H
   0.5040998955402415    0.3676369006770887    0.5742931370878180 H
   0.4017437650685390    0.4313649908880685    0.4580191553990628 H
   0.5573644462674923    0.3725633894548107    0.4208690830110437 H
   0.6596044843680203    0.4380984197655969    0.4535869718001667 H
   0.6350223174582094    0.5893084113137607    0.5486821023354717 H
   0.4347065731397604    0.6373339952612428    0.3758521413294990 H
   0.1194301083745146    0.7762077194548682    0.5621372816308442 H
   0.0141894466064913    0.7243332704257711    0.6106513411069023 H
   0.0067212657794038    0.8934089898986810    0.5248516565543018 H
   0.5998433302964259    0.6188000382231063    0.4377087616531801 H
   0.5266743641244530    0.6494336682482855    0.5338225547161815 H
   0.4089106483517421   -0.0772344002304493    0.6585187824055923 H
   0.5786771064410239   -0.0526597515027298    0.6632967492334368 H
   0.6601228303795371    0.9399845737336824    0.5161888629288898 H
   0.7617029411819317    0.9667525122379999    0.4292457436689270 H
   0.1173602942045599    0.1609760370171469    0.8552209521620449 H
   0.0553551160087268    0.0657522909825337    0.7937954106232759 H
   0.0496754431139390    0.1985121650550687    0.7561867949891712 H
   0.3349999333211400    0.2742413838458505   -0.0434303743699494 H
   0.5074228790206842    0.2840021817775951   -0.0768046496241776 H
   0.5325046143936608    0.3458656830447406   -0.2070668901369055 H
  -0.1508166530844614   -0.0020121693700152    0.9704556021925299 H
  -0.1809464074729023    0.1107300946734090    0.8576021492596551 H
  -0.0991962444995258    0.0347389686978300    0.7951728807635700 H
   0.0130842129621001   -0.0127211005740983    0.9048898639165665 H
  -0.1109225735534536    0.1604631964122786    0.7542090706459122 H
   0.3448228044319497    0.3907798389002043   -0.0838979837844487 H
   0.1238917395397603    0.6218141656012196    0.8247707926064575 H
   0.5852627424956102   -0.2999484185161047    0.8672394853131518 H
   0.7958073956338904    0.5509485193370633   -0.0703773994320549 H
   0.0074552323081080    0.6405778401142900    0.7614807822344228 H
   0.0483917156639291    0.0803239873702184    0.9885156089548447 H
   0.3092182880375712    0.7133448740133289    0.6266479740465258 H
   0.1933144063218852    0.8265077990379217    0.7928596369719558 H
   0.5618074426794314    0.0180090985806710    0.7665801115718736 H
   0.5478244521398271    0.0030935575649006    0.9176785345356283 H
   0.5904509862447685   -0.2544607005576214    0.9883839494244775 H
   0.3986429706773305   -0.1092368245091358    0.8794682490046839 H
   0.5124748248998722   -0.2064204849238377    0.7544971643494579 H
   0.4175090519560074   -0.2399292413072659    0.8900923236889977 H
   0.6299102548652891   -0.1611661423618637    0.7623018846818748 H
   0.4369834401242328   -0.1600929081716471    0.9889898664029418 H
   0.5818901377372055   -0.0734901517058901    1.0142366431212724 H
   0.6819447690792600   -0.2250817376327975    0.8994776662327593 H
   0.6572469381834082   -0.0560382078697510    0.9141414233891484 H
  -0.0739400849796985    0.6770378076247349    0.8735209190361580 H
  -0.0566047665780079   -0.0470748368414393    1.0438890591783438 H
  -0.0538138374333534    0.2284273792828433    0.9302130881041425 C
   0.3852787824630452    1.0114237821008583    0.2739689002333550 C
   0.4410823718764613    0.3006435301926299    0.1224684202091239 C
   0.7088859101241282    1.1298489931037932    0.2406724881422472 C
   0.7500373000219143    1.0448089007350385    0.2982806111473028 C
   0.7515702048245678    1.2274167352839100    0.2722431693998313 C
   0.2471816949319492    0.3771321335024607    0.0272821189882744 C
   0.4378809069788838    0.3678417442853099    0.0358874142069567 C
   1.0154847200354138    0.4699097812898052    0.1572824561341427 C
   0.9250661838859695    0.4905982270672211    0.2144963083950339 C
   0.7655419859531792    0.5276192465888978    0.0707396738665982 C
   0.8739598374612159    0.5933087143485966    0.2055038209015618 C
   0.8295620022268365    0.6064852794474311    0.1049591183641519 C
   0.8018890365789316    0.5958429224160200    0.2879481694012219 C
   0.2394115025857549    0.8389783852727080    0.2496501108500327 C
   0.1642413352627071    0.9137558128695760    0.2111885396562906 C
   0.3294009396264918    0.8551083562515047    0.1857839130709070 C
   0.3870330195846661    0.9532738028170387    0.1860302438051425 C
   0.4028468567872627    0.7697544142115825    0.2201137816907041 C
   0.7151667501562399    0.9454897457046295    0.2666412687367852 C
   0.2168406038776557    0.1567686956211446    0.4640364206450095 C
   0.1187832468229524    0.2029002077768948    0.4934294107995028 C
   0.0474442705437049    0.1911334056532117    0.4067800975678708 C
   0.1256881011995072    0.3121037984882962    0.5162556128950921 C
   0.2945425273395995    0.1369895820787486    0.5395465589759392 C
   0.1688907419114636    0.3845635669750032    0.4438301511836270 C
   0.6442533031095874    1.0666971718577987    0.4462234524638677 C
   0.7414067675326376    1.0420947229261064    0.4077392301681270 C
   0.4158005092486249    0.5573396399135676    0.3617978403862615 C
   0.5883640366694745    0.4419948378276919    0.4255104353799587 C
   0.4263951875749301    0.5076394594688765    0.4579924695695206 C
   0.5288793338040223    0.4436019090926194    0.5861194897954051 C
   0.5755718140059138    0.5941734470090163    0.5042392953048994 C
   0.0537243966005942    0.8710437258024911    0.6540890762709775 C
   0.0805177447744099    0.7700814324004215    0.6274542117082910 C
   0.0579554137689804    0.1433704604748419    0.8113301949579964 C
  -0.0056897655128775    0.0512735058028637    0.9459258744218449 C
  -0.1141447437324828    0.1092954578315449    0.8194860073713928 C
   0.1887892313618392    0.6303502913895268    0.6507487465731110 C
   0.0779767069576217    0.6791828128365378    0.7868217025954353 C
   0.3444543932171527    0.3515500931728814   -0.0205817830757282 C
   0.5384451024372188    0.4330721428872985   -0.1043427268790610 C
   0.5258108824903919    0.3481394470959969   -0.0306608156181990 C
   0.1400083022366863    0.7178046119980325    0.7088438682711380 C
   0.0481175491784987    0.7459896293206523    0.8675424438023841 C
   0.5545892959752545   -0.1448401067866266    0.7795075201906772 C
   0.5358239566004689   -0.0511951197039476    0.7305938811184236 C
   0.6070244930840786   -0.2401867589861726    0.9152576980095204 C
   0.4431279108888519   -0.1659572880412967    0.9102539280086266 C
   0.5849360274338056   -0.0626817250349566    0.9401611689631834 C
  -0.0862083212274848    0.0199492601842527    1.0103951577916852 C
   0.5264889447591763    0.4946610074025644    0.4937168674408046 N
  -0.0284234505717009    0.1352293902166757    0.8794540920659347 N
   0.5453273951967434   -0.1542855918785735    0.8851848208715982 N
  -0.0142096318426705    0.7895013380441150    0.4010734355580808 Cl
   0.4060690269662920   -0.1969669524044251    0.5729280542689295 Cl
   0.7351544865094248    0.8320005340755128    0.5442405751570011 Cl
   0.3033379881052679    0.0954348613981141    0.8388158915395080 Cl
   0.5290685372379781    0.2054600212953459    0.7638917089034063 Cl
   0.8244542234852510    0.6005016513344242    0.8092923036250537 Cl
   0.4002608385314586    1.1086981589706295    0.2686197009269816 O
   0.4453914979341863    0.2102401932100528    0.1201346488563235 O
   0.7129155862797765    1.2602209759719198    0.3567388583242460 O
   0.8559826553345202    1.0368170736771476    0.2792034283358603 O
   0.8090366425311279    1.2759500387460549    0.2276558908093239 O
   0.2445671176672461    0.3468116215641340    0.1189051187259581 O
   0.1765659755530688    0.4128788063057064   -0.0115383306027591 O
   1.0837264717995652    0.4307342188916099    0.1997320369735256 O
   0.4405483184100500    0.3394482254328935    0.2054443617588153 O
   0.4490691843051545    0.4647086067440545    0.0760435709689743 O
   0.4677157896004426    0.5212854822226954    0.2828063692475237 O
   0.7231989714090826    0.4690959251974087    0.1249579178881653 O
   1.0118134594414478    0.4872619831151798    0.0644702735415288 O
   0.9445577074595345    0.6676910864153233    0.2103178879232167 O
   0.7212762361349577    0.5508973084350079    0.2784601890515289 O
   0.1644883706896834    0.9498514513911129    0.1324809151394737 O
   0.0939754637428394    0.9419810673295248    0.2715813325133077 O
   0.3091268992090944    0.8231973800122027    0.0914951617667547 O
   0.4098545235958539    0.6888989841250628    0.1820719637308749 O
   0.4396615611837362    0.7779035318972145    0.3061631946428401 O
  -0.1057691003976297    0.0928040842011007    1.0823605402292105 O
   0.6398066654240138    0.9315069746905811    0.2256378191906299 O
   0.7831650363695273    0.8739517734549185    0.2695823727619250 O
   0.0589928197672365    0.2418892622645576    0.3285941562439608 O
   0.0752793085671115    0.1668001797494673    0.5815056018876634 O
   0.3200014558226097    0.1850707664341765    0.6120146543084474 O
   0.1889677251674579    0.3607497659349627    0.3596806701963233 O
   0.5935125119987409    1.1362064608018039    0.4227038222729360 O
   0.3391531271902765    0.0550097068999571    0.5269631639687404 O
   0.6192684541743007    1.0062536757462157    0.5138393915310164 O
  -0.0203234016727231    0.1226000501855179    0.4103660501530353 O
   0.2815403245631091    0.6417644698733432    0.6261404477923681 O
   0.1909632859142753    0.4736041818538881    0.4745331536652745 O
   0.8245870228766313    0.6348766035469023    0.3626975138437712 O
   0.0201954061779502    0.9262498098024446    0.5811646320178897 O
   0.3742200202421314    0.9711061704970173    0.3528577335661613 O
   0.1419795878259395    0.5539823994916837    0.6339034051554749 O
   0.5494802320782687    0.4146600677960535   -0.2014607423922346 O
   0.5308349119383809    0.5175647907130817   -0.0776554816430027 O
   0.7599065795221849    0.5093531225685106   -0.0198519928832086 O
   0.2191403180692474    0.7769795409072735    0.7439629862262013 O
   0.0617094954887535    0.9082155248515050    0.7337480470717384 O
   0.0978166504397543    0.8160790646265127    0.8990656993151585 O
   0.4317457178921569   -0.0325243563988918    0.7128212602127170 O
  -0.0386975540231148    0.7380797397060499    0.9023458620233408 O
