Li1 Co1 H90 C51 N3 Cl6 O45
1.0
  14.6397650959999996    0.0000000000000000    0.0000000000000000
   0.0000000000000000   14.2873887889999995    0.0000000000000000
   0.0000000000000000    0.0000000000000000   14.7665109336999993
Li Co H C N Cl O
1 1 90 51 3 6 45
direct
   0.8709188270844370    0.3977625287887027    0.5253661140219090 Li
   0.5815923951215837    0.9166411083166612    0.7626145077507709 Co
   0.0902300711478574    0.2506593715191157    0.0763406787128921 H
   0.2664057121562438    0.0375637495714543    0.2123511424586946 H
   0.4796475216749612    0.2333979948153562    0.2098718838061683 H
   0.4315627337440169    0.1918431656742116    0.0971004913305359 H
   0.3633922410171437    0.3156866493317907    0.0092205577547278 H
   0.9293029605999084    0.2372132476096224    0.1918608586429371 H
   0.8078447276064135    0.3351401690829987    0.0531984481931485 H
   0.1855294144673208    0.2687165549422077    0.1916407660283315 H
   0.1281425647131845    0.6566082881234878    0.2750294558500957 H
   0.3263711551973935    0.5497154175958919    0.1747274951059484 H
   0.2464880428433891    0.3615655716233621    0.1406591899891386 H
   0.7170775608324693    0.5982918237012778    0.1940204750982516 H
   0.5518758663967569    0.5749740568986766    0.9960873989082862 H
   0.9500751518205919    0.3962038114941089    0.2475632519634085 H
   0.6880975876417847    0.3804535576637341    0.1878761665065085 H
   0.8618988736129103    0.4411272057881143    0.0605800158829973 H
   0.8960783837839251    0.5036938520242854    0.2149719375926134 H
   0.7765238698608693    0.5595632632783953    0.3149826988774365 H
   0.2548816201442690    0.8645413152058937    0.0200877152518842 H
   0.1802021431970113    0.7450303237142489    0.1316834745615003 H
   0.3012286752746405    0.7388549475623849    0.1160433547636049 H
   0.2534635646041790    0.8418086798169793    0.3237979159984238 H
   0.4809872289633902    0.7332269072544240    0.2666456202537353 H
   0.6961250388494622    0.8805981331022908    0.3078537297883503 H
   0.7081668987320479    0.8059112875380716    0.1139534907369193 H
   0.8731804753952453    0.7160383220183959    0.3062582276344711 H
   0.8043849726398643    0.8405691251116691    0.1706303864340598 H
   0.3062813519750481    0.3415836138131427    0.2997407774099660 H
   0.0985307507832980    0.2022859416218270    0.3875956542881113 H
   0.1211499661756595    0.0920390642349167    0.5399557487004930 H
   0.1481825037474631    0.3278414246070112    0.5977265385526256 H
  -0.0173010258114868    0.2229531191138639    0.4016070887379253 H
   0.5330227633455739    0.2353066710894277    0.3913934370041363 H
   0.4954702482338245    0.2475489361095177    0.5808119132141527 H
   0.6146893059546944    0.2271197307235257    0.4807605871674377 H
   0.6471235695433730    0.2927167417547904    0.3836211202723569 H
   0.6792702602118310    0.2790067487747708    0.5862451533587084 H
   0.2326845426728014    0.6081200716809303    0.3239760217142432 H
   0.0582678096681395    0.3713280273148729    0.5250692260150073 H
   0.2368949927446295    0.4372087150949021    0.5544009349030914 H
   0.0311150515881201    0.6186153414754675    0.5550794296433170 H
   0.3548005731061356    0.5061410451759774    0.6656410245475048 H
   0.4109654087171017    0.3014482182927598    0.5077803484225785 H
   0.4586289467195424    0.3735789634708736    0.5961513526400946 H
   0.4551344234355603    0.3763569378499678    0.3562253460223434 H
   0.5440487599337366    0.4562303854654347    0.3786151984041585 H
   0.4401783091424543    0.4520980698357617    0.4490664380145795 H
   0.5891561093802403    0.4756684580272886    0.5478394661556651 H
   0.6335864670898542    0.3526157206821987    0.6618716845693674 H
   0.6636764307683261    0.4323404357313875    0.4677323233572679 H
   0.7653297011754184    0.4289291755830303    0.6583285320782399 H
   0.1281432477842539    0.6643409817340277    0.6199992339426659 H
   0.0362599428828978    0.9025167639049401    0.5274401991011476 H
   0.7756515881052358    0.7490177563264182    0.3839820721603101 H
   0.9539652415608677    0.8310908361114943    0.3969844666231631 H
  -0.0393259693734638   -0.0094385410442406    0.3557817747529076 H
   0.1422063149612165    0.1674167288246250    0.7725613395148534 H
   0.1637537918456776    0.1505060110183021    0.8990461949005263 H
   0.0375837346154096    0.0606379449243390    0.8815471390192698 H
   0.0227815845413480    0.1272848328940368    0.6639920229580754 H
   0.3126195684280808    0.2057386369133543    0.7343640969480427 H
   0.3051003220960425    0.0665823481497477    0.9530995866315681 H
   0.3030941423651926    0.2300040926323812    0.8520520198299415 H
   0.2286892599878366    0.0681928593733042    0.6770045755416024 H
   0.3437478001320521    0.0471764228197486    0.7119444474122505 H
   0.3894056365533913    0.1605316358623801    0.8159067176392999 H
   0.3666013089012203   -0.0003893017529055    0.8659232722144530 H
   0.0457020342753183    0.5532905985302364    0.7205693690726096 H
   0.3648874835880768    0.5585651802689248    0.8445790290540258 H
   0.4375600977334151    0.5468002592968425    0.9863911341208315 H
   0.4329903522790787    0.6809654330951377    0.7046163791579519 H
   0.4754508013316281    0.4592237945922955    0.8454079317010326 H
   0.5393885758698106    0.5123397285958745    0.7548144254891489 H
   0.6006781521790069    0.4928677310105501    0.8695842589054000 H
   0.6439438737152808    0.6529330189210126    0.8542522687679525 H
  -0.0317930616200374    0.6022372612359097    0.7977873391888782 H
  -0.1518182115099151    0.5363465646290674    0.7918590599634712 H
   0.9496202264883664    0.4060470377180830   -0.0359878197013494 H
   0.8140709204040634    0.6305713400503447   -0.0160853524686000 H
   0.1222838641508760   -0.0342408338377863    0.8559249726389550 H
   0.2497667839765453   -0.0359948282429287    0.7346898340176591 H
   0.0242440397009496   -0.0365414641688729    0.7313660969330923 H
   0.1454932529472056    0.7396465547739635    0.8349694468963234 H
   0.2540694486427434   -0.0297725575878147    0.8865483204311536 H
   0.4764607902148542    0.6726091125831686    0.9902187139908338 H
   0.3170410874603558    0.6443317271234090    0.7205544704956210 H
   0.3764908118441029    0.6800667384358390    0.8623394872406291 H
   0.5619334048227136    0.6752548024680201    0.7572916525175404 H
   0.5587428481646179    0.7431930390719909    0.8676995889163314 H
  -0.1281231591832367    0.7584064558278466    0.7023219983016943 H
   0.3213218938523329    0.1628805605326346    0.2436747233693616 C
   0.2487285159510458    0.2846158912978399    0.1493924649366882 C
   0.2242356366152994    0.2448486526238675    0.0591070883852523 C
   0.3393051058966254    0.2579602157489801    0.1947972327257980 C
   0.4315128695559502    0.2483097469309023    0.1494710210699013 C
   0.4640603863279365    0.3367527800604321    0.1019235670266004 C
   0.8084062120254666    0.2745944659615156    0.2295515495921324 C
   0.9514918412185431    0.3260055398006710    0.0695015546670404 C
   0.1909372881238203    0.5596689508901976    0.1927039826588877 C
   0.2011239269818951    0.6364366525463915    0.2628417426653058 C
   0.8606509027691027    0.3723296099141382    0.0893342694711609 C
   0.8237459390311519    0.3734291810276572    0.1859176808405413 C
   0.8850672781450756    0.4352557340140288    0.2434282196410033 C
   0.8440065100208490    0.4443695057411796    0.3368653224335912 C
   0.2572026956381159    0.7249951721391489    0.2515669059250954 C
   0.2443889654470997    0.7718875756352878    0.1581907518565521 C
   0.2576193689904545    0.8740273033036170    0.1547945535111767 C
   0.3596326178511246    0.6975625876558486    0.2626785355264752 C
   0.6466631796425922    0.7597425992114927    0.2672165066356199 C
   0.8342358614440435    0.8621727928327885    0.3326767906756357 C
   0.8095612852038347    0.7558965500270324    0.3174375780403449 C
   0.7436824959148238    0.7288951150064487    0.2425938993296369 C
   0.8304543800038033    0.7228632220361706    0.0837859039589654 C
   0.7704971338154865    0.7789539473489021    0.1515392144391488 C
   0.0725822469986441    0.2164018870180408    0.5247866948186581 C
   0.0409205367894654    0.1845654187369927    0.4300599847460905 C
   0.1169627405201912    0.3187291926993701    0.5283145424079699 C
   0.1871400960489838    0.3463213584773122    0.4613356193271757 C
   0.0276266076366558    0.0778377288477104    0.4183422539444891 C
   0.5877913333835640    0.2698679199846894    0.4290692293763429 C
  -0.0190196326221162    0.2218136526766844    0.5790854390243819 C
   0.4724872974970035    0.3155935602432496    0.5489055270600102 C
   0.4901398348365958    0.4114366159774278    0.4134162426255937 C
   0.6185418267861530    0.4096935402924451    0.5206495631513136 C
   0.6713575649438139    0.3536159034455460    0.5968509085505179 C
   0.0532349420287447    0.6793220257275103    0.5956143266604569 C
   0.0435312344167411    0.7618031576826576    0.5311876652594335 C
  -0.0098070531090166    0.6903597319402379    0.6855658396457373 C
   0.1605604345961973    0.1205124267231838    0.8302608193598539 C
   0.2736223580045345    0.0341348514905315    0.7271111987867326 C
   0.0938967966484372    0.0361968097976143    0.8345177491303483 C
   0.3225766954068346    0.1789492770343341    0.8022934815199108 C
   0.2983843673416275    0.0315360561089299    0.8865720227127265 C
  -0.0203864578320007    0.5925881922537497    0.7233052895741683 C
   0.4067269527314279    0.6157351790743657    0.8250307416287801 C
   0.3911317571457842    0.6204267291532443    0.7268179677032734 C
   0.5356078458077467    0.5056653109392752    0.8295944466436326 C
   0.4914253745892208    0.6021231746085999    0.9678573043469064 C
   0.5712964648924036    0.6745520848372288    0.8347818602678749 C
  -0.0906129944777906    0.5391070410591876    0.6747792699059288 C
   0.0399457943734209    0.7483528342654104    0.7560896082377715 C
   0.5436387123707713    0.3510689019929071    0.4782929764932843 N
   0.2632963726483006    0.0909849877887298    0.8140152755697818 N
   0.5036494778331244    0.5992367129458676    0.8655880542322075 N
   0.5025768513328337    0.9924744194976495    0.6614436890849651 Cl
   0.2185374577543017    0.4992255757743138    0.6690230015239365 Cl
   0.8603346408639670    0.5015193469094026    0.9155233438419678 Cl
   0.2507995874334895    0.7815520428125448   -0.0856515488850886 Cl
   0.5411881266021648    0.9774051858413385    0.8888589542804899 Cl
   0.7097687003898084    0.8603747035962318    0.7327875566194219 Cl
   0.2841976643011021    0.2275984746074513    0.0016554666847001 O
   0.1420171042749906    0.2280065267775223    0.0337327801493855 O
   0.3730549643649829    0.1333181257002329    0.3072286667628705 O
   0.2525414186604787    0.1091744557060643    0.2087727751492303 O
   0.3580007610663100    0.3268825370032422    0.2612333735585727 O
   0.9990581782078070    0.2762336738213893    0.1252222326047253 O
   0.8760227341150502    0.2131325702317598    0.2315066492178749 O
   0.7325416067727868    0.2584970528234990    0.2583897769778685 O
   0.1162448328262439    0.5263110709417681    0.1768234540050385 O
   0.2636099022691586    0.5279040142245548    0.1480048656526056 O
   0.5363882545045449    0.3810526874366000    0.1191117844152293 O
   0.4135665433494057    0.3620107194452578    0.0288927742521975 O
   0.3862211592278133    0.6164777920288175    0.2552028359183797 O
   0.7364897575539623    0.4243898576602247    0.1719780304434909 O
   0.7562995016378506    0.6271032465637204    0.2372737529285862 O
   0.2608502951487522    0.9139975181856865    0.0743869335032395 O
   0.2559246696672544    0.9240518396660816    0.2256305150119282 O
   0.5813200546862108    0.7035293882559439    0.2522237977286874 O
   0.4179067769244212    0.7681731110271112    0.2696869615835620 O
   0.6350646328840522    0.8407014096059118    0.3072381476754997 O
   0.7818743655475386    0.9246726668956751    0.3109858169961990 O
   0.9152883914688736    0.7210749316510393    0.0864737426893333 O
   0.7764985962313011    0.6640666138941171    0.0326228361637285 O
   0.1363530789674632    0.1550533779976357    0.5630105516616349 O
   0.2026622030302009    0.3064911271870338    0.3868703644719803 O
  -0.0277588438841164    0.1708393276439172    0.6529812973553916 O
  -0.0069053672061734    0.0513885290967426    0.3391441275048152 O
  -0.0866539145595045    0.2675105962989274    0.5574113955460688 O
   0.2461417258111994    0.4100668065399561    0.4886693613202726 O
   0.7914093546053985    0.5139709573910161    0.3706925414864023 O
   0.7610290857224286    0.3894321052412148    0.6078663746095162 O
  -0.0886976631991719    0.5144961758274162    0.5959028172876015 O
   0.8763786141422115    0.3929071979074286    0.3977097564392941 O
   0.2270717476954796    0.7765749262064126    0.3250934149883946 O
   0.0566625926550318    0.0219478799891991    0.4776012084753779 O
   0.0509350417380495    0.8493824920508364    0.5684839502432556 O
   0.9100779253514328    0.8865607341946325    0.3814100360056269 O
   0.0247843489168510    0.7555878862071330    0.4503466321027346 O
  -0.0923145245116848    0.7230228033308124    0.6582140839186450 O
   0.0605123812022127    0.0224539206735239    0.7438334970404425 O
   0.4146082267302522    0.5327378576244889    0.6828123117350102 O
  -0.1656995817824152    0.5190642603783350    0.7262728152270965 O
   0.9900648645079873    0.3559277324639759   -0.0069078290435695 O
   0.1074653203711487    0.7007325160919579    0.7933042219313737 O
   0.0148647908469146    0.8293123445777886    0.7667048443422100 O
