Li1 Co1 H110 Cl3 O55
1.0
  12.5031609612000008    0.0000000000000000    0.0000000000000000
   0.0000000000000000   12.5056079900999997    0.0000000000000000
   0.0000000000000000    0.0000000000000000   12.4846270615999995
Li Co H Cl O
1 1 110 3 55
direct
   0.6015751939882337    0.1718995987161765    0.6005458548266100 Li
   0.5271676099471249    0.5381640781102226    0.3983379724810666 Co
   0.1205760275644175    0.1288445149148734    1.1642150750025893 H
   0.0321143974668517    0.0458301584100284    1.1794978703202692 H
   0.4941343632920037    0.1980726564562810    0.0489279357634024 H
   0.5733103415163926    0.1045098324075605    0.0446615688357247 H
   0.6434861956642216    1.1944312509255743    0.2242783078008223 H
   0.4395105763856844    1.0022694622382589    0.0965919145962421 H
  -0.0406645584166904    0.2809666669530638    1.2527639755460649 H
  -0.1470570942024833    0.2241193708789514    1.2398360763622411 H
  -0.1466276028109333    1.0284257275121220    0.1715518629697471 H
   0.0192185225356755    0.3731413137925081    1.0394536390129763 H
   0.2892917632528702    0.3859459691220823    1.1429729506931097 H
   0.1729667791537765    0.4454008953110852    0.2897420173667897 H
   0.3103912276857972    0.5919799342071654    1.0806803410570529 H
   0.2666414909834153    0.6291888408327664    1.3027694740619324 H
   0.5187001511718169    0.3486435044702801    0.2866830553480151 H
   0.3973988254745400    0.3967603173814441    1.0854942613851062 H
   0.5650652265154812    0.3962109638429806    0.0411603028560265 H
   0.4321548364823589    0.4346960979029162    0.2471984958519444 H
  -0.2272800076811347    0.4685904915489951    0.2375009694939177 H
  -0.1753867302920441    0.3833727235809238    0.3142657775471569 H
   0.7148881397622296    0.6296894162550054    0.1145497597840716 H
   0.9590415989933117    0.6315685731915256    0.2900495956373342 H
   0.1062956387448159   -0.1705979434577607    0.0147529221330537 H
   0.1260330476101269   -0.0074050781755921    0.0311825919171756 H
   0.2381350995911867    0.6959820747691934    1.0454930665127302 H
   0.0442951572341308   -0.2629357171121199    0.0597749558090813 H
   1.2212073033437578    0.9765450032391704    0.2268326492194848 H
   0.2525002669722489    0.7560631200566197    1.2737097353761135 H
   1.3340827597487077    0.9118140440854182    0.2102498551177067 H
   0.4482843576990997    0.8836027008001264    0.0524610008507585 H
   0.5536761065607835   -0.1321591885903009    1.1957258280318099 H
   0.5433219248941040    0.7096751315270544    0.2617491908069220 H
   0.6482169993532692   -0.1427832222322620    1.2857405312708488 H
   0.4190805426691958    0.6667096075457047    0.2728300183973195 H
   0.7041148640747453    0.7547405134298093    0.1446307544463079 H
  -0.0937201818753148    0.9858608237968136    0.2796423964988324 H
   0.9467806994915198    0.7828135187789234    0.1982246661185281 H
   0.8706159597944791    0.6894745942800861    0.1449030893733525 H
   1.1988769501741541    0.1888256050461020    0.6042688334763258 H
   0.3049358072355870    0.0823431372561172    0.4974302396265662 H
   1.2463369486370586    0.2829457790457819    0.5399016724842527 H
   0.5980624822718690    1.1859550536799934    0.3394335297314766 H
   0.4954860214888745    0.0947557284810208    0.4645522050665659 H
   1.3767919595788238    0.2425590980943378    0.6376739162186653 H
   0.6049175487839276    0.0345659319836511    0.4336093504587413 H
   0.9397424792947966    0.1865498260497885    0.5679313443577794 H
   0.9079025308821199    0.2198780736911626    0.4441286875083792 H
   0.7800548606041406    0.2609508468347491    0.5573399186509826 H
   0.9035356351691530    0.0220419747219180    0.4556460519671276 H
   0.6831473662705069    0.3239745719206414    0.5208294167552550 H
   0.1078952342440712    0.5406293720826872    0.3377058049149023 H
   0.2064335161891957    0.4408693283496977    0.4579344663393818 H
   0.1982787783339922    0.4595697386124481    0.5876940492253431 H
   0.3593884374234861    0.4907317581087017    0.5138800702051401 H
   0.4016817424237960    0.6015540388884238    0.5655476127610595 H
   0.9127493052448635    0.5396722015069363    0.3502644499770566 H
   0.7162733894645847    0.5957030638652243    0.4883743023172533 H
   0.7229876915727089    0.5124716047611175    0.3896857316518434 H
   0.7774195270191177    0.6623091817492489    0.6236999305209587 H
   0.2946999956358524   -0.0090565772483561    0.3976355085663075 H
   0.1302759746719016    0.8178394047931624    0.6419319529015157 H
   0.2971617731092063    0.8876808711730002    0.5615410853931855 H
   0.3521278734523662    0.7518362164113235    0.6350194516650599 H
   0.5546790529388166    0.7632622902266164    0.6140008021927729 H
   0.6459695676768155    0.8837786218750346    0.4761592798542231 H
   0.6696595770207863    0.7894393461729690    0.5846807433561024 H
   0.9829235597971931   -0.2103992870145101    0.5497305603953244 H
   0.8345690752187610    0.7209644666886686    0.5153707034381696 H
   0.7462602064913741    0.9506926016401487    0.4085144879166601 H
   0.9634244906612711   -0.2987732389946858    0.4384569121601354 H
   0.9117975459228066   -0.1043676569610402    0.4250524268539838 H
   1.0175628003335666    0.1036142342080274    0.7186038466855281 H
   1.0451958125832017    0.2249006203797941    0.7189250417024248 H
   0.1505956362989416    0.2835191218217331    0.8261272827782969 H
   0.5672366774057203    0.0030247226068452    0.7101550560665089 H
   0.3955752866053889    0.1550983364211859   -0.2085067464375175 H
   1.4622023612615604    0.3098593045830005    0.7182890595492677 H
   0.4192828914998516    0.1392078655094705   -0.0934732742389538 H
   0.6743935799008324    0.0414847479315439    0.7536453419453739 H
  -0.2131451820519653    0.0180874928575297   -0.0827048308295781 H
   0.7783784845209211    0.2486243769724256   -0.0478417149469464 H
   0.1071874132356507    0.5641380251791809    0.7350472693834658 H
   0.1374957489577903    0.4467418936866360    0.7577952456424860 H
   0.3313435293327926    0.5943556683596768    0.8792726428059729 H
   0.0492323087425823    0.3621470462519900    0.8730650084395148 H
   0.2940289653239148    0.5497140963192010    0.7642183449953410 H
   0.4442853689509614    0.4784004903988807    0.7861525204135458 H
   0.5655323084012638    0.4461965383544204    0.7671307267445593 H
   0.4892212057160412    0.3688968180397209   -0.0649317728995991 H
   0.4050129000509951    0.6628217517902317    0.7167159248530452 H
   0.7364810794066768    0.3825986708513274   -0.1898245704422572 H
  -0.2188325438495675    0.5728365226921459    0.7795548063133504 H
  -0.1179500547002844    0.6413569817276724    0.8075348171119455 H
   0.7193981992723800    0.3930004042259044   -0.3140541523390538 H
   0.7616315194414679    0.3689527929271917   -0.0177219526068602 H
  -0.0864540193199476    0.3751492129702113    0.9664758884158161 H
   1.0497306658235905    0.6819163851890266    0.8959331324604668 H
   0.2862429342312897    0.8876488855230169    0.6860037539481292 H
   1.0284480477059987    0.7306865050011000    0.7749227095983533 H
   0.1920859443586254   -0.0457507548016004   -0.0620177891802217 H
   0.0328925206974644    0.8738870596176916    0.7046138412862305 H
   1.0312153479197104   -0.0361254730803686    0.8565406862485435 H
   0.3709599112650988    0.8850180658118884   -0.1476919542732174 H
   0.5539888274808880   -0.1942241438179430    0.9288375995280920 H
   0.4590176434991027   -0.2690233859451961    0.9612054065924235 H
   0.3348530418581587    0.9981193241529225   -0.1743126933918281 H
  -0.2642618558261675    0.7706405800365198   -0.0254194993197761 H
   0.9138130362518683   -0.0272263455778832    0.8055619908610311 H
  -0.2694469446370035    0.7378312995661250   -0.1424679295844382 H
  -0.2296674039637732   -0.0950790242058829   -0.1215654229486848 H
   0.1023662324008952    0.3104174541752095    0.1834224618485739 Cl
   0.7337641664511918    0.1149067679346400    1.0861911184043085 Cl
   0.6937110949475889    0.4745830030733709    0.0923247466834849 Cl
   0.1083375223996152    0.0519954724084391    1.1599698540810117 O
   0.4980589708494266    0.1193687661073137    0.0330723560153413 O
   0.6028820635111253    1.2374199645031618    0.2798618664106272 O
  -0.1124546443625928    0.2696229561864779    1.2929173575835538 O
   0.3040664270817418    0.6508559201314702    1.0316280147858414 O
   0.3487135368592059    0.4376803590463603    1.1342742527292731 O
   0.4783319593548607    0.4122901500895976    0.3117098341583353 O
   0.4979605957262224    0.3549662678307337    0.0129470532121193 O
   0.4998689131568340    0.6537282314999726    0.2943765170370254 O
  -0.2051600013196829    0.4576130164747182    0.3107854973765427 O
   0.1085582665785125   -0.2479056601849559    0.0171088595475135 O
   1.2779609516573356    0.9289343632389925    0.2618941691063192 O
   0.3014550874292075    0.7006159958105275    1.3007509916614841 O
   0.4411469625814226    0.9263595184153349    0.1201118001764180 O
   0.6116910359255241   -0.1779562422364244    1.2226709661076354 O
  -0.0826517808182178    0.9932655017679530    0.2036961951968861 O
   0.9424297997335455    0.7055329898542139    0.1808208623102184 O
   0.7521635136813758    0.7017746759811733    0.1084734869706587 O
   1.2642124283412364    0.2105078775285478    0.5691864879774232 O
   1.0392133254159868    0.1632154947457040    0.6659526944519299 O
   0.3381714027213638    0.0224615544819868    0.4616077839141658 O
   0.5765687175483756    0.1016878984377817    0.4636727234492277 O
   0.7062159327630171    0.2785861349530549    0.5808055775412736 O
   0.8830608127786853    0.1838214501062109    0.5090429213097801 O
   0.1786285474233906    0.5087588704393031    0.3348390793152181 O
   0.2408880034454051    0.4239817047997521    0.5307255874130083 O
   0.4217414697822070    0.5384527486013221    0.5138776672499015 O
   0.9753974629731971    0.5947994692531954    0.3623817522603826 O
   0.6740400692954970    0.5356060257528062    0.4530412484884538 O
   0.0524134243119513    0.8098317973198372    0.6565114833193570 O
   0.2670933767119549    0.8482505611560573    0.6195580366746419 O
   0.4113736915537838    0.6911922236841905    0.6405999147142358 O
   0.5955695126862797    0.8255487460803931    0.5845061286087621 O
   0.6709200582741994    0.9181072207196372    0.4015555295455908 O
   0.7666438519383844    0.6862616357392611    0.5498771406648808 O
   0.8859800745648262   -0.0319093645919417    0.4059833750653043 O
   0.9347437433596238   -0.2356119756138653    0.4867202681279971 O
   0.0925500746803903    0.3313144789505647    0.8040881783146721 O
   1.4457585195292160    0.2406463562253350    0.6744855885043012 O
   0.3631602836107301    0.1292499330284121   -0.1439089017425360 O
   0.6124940328661502    0.0623137232365596    0.7115367553287204 O
   0.7926060866890474    0.3216340219831116   -0.0729920857550400 O
   0.1648232384670678    0.5136222885192675    0.7178637364720304 O
   0.3529724598759730    0.5896809656146140    0.8066497285990504 O
   0.4936984735184567    0.4170560119371129    0.7919925026284936 O
  -0.0064984782289967    0.3948835593686726    0.9660834057268401 O
   0.7091823826163861    0.4344250195193075   -0.2472431858692951 O
  -0.1880939169381282    0.6439925992862983    0.7663233337843800 O
   1.0110444486741013    0.6708557474247930    0.8284981986137440 O
   0.1194707070744321   -0.0391260469053042   -0.0396421908846809 O
   0.3160441981801654    0.9224892547673527   -0.1864876666008812 O
   0.4775961454252033   -0.1940322299180431    0.9476767685989428 O
  -0.2866345982765016    0.7969055965203263   -0.0947676661274952 O
  -0.2131699757822038   -0.0222961574535786   -0.1518050126566706 O
   0.9918573006605340   -0.0277910522283388    0.7898538724661138 O
