Li1 Co1 H90 C51 N3 Cl6 O45
1.0
  13.9359340063000001    0.0000000000000000    0.0000000000000000
   0.0000000000000000   13.6004987771000003    0.0000000000000000
   0.0000000000000000    0.0000000000000000   14.0565863267999998
Li Co H C N Cl O
1 1 90 51 3 6 45
direct
   0.8885555494739069    0.5969400844452799    0.4399904087387318 Li
   0.5486710467302279    0.8265860739922878    0.6207661633154464 Co
   0.1547611733397277    0.2042037526723848    0.9848837293450912 H
   0.0653950785062566    0.2825251449579059    0.9278848263843895 H
   0.3978521637583481    0.1738548657113426    0.1520421184569735 H
   0.3968411084538647    0.2345423458933006    0.0395325828391582 H
   0.5928602628761718    0.1744938128663272    0.1990001767404078 H
   0.0136784156923982    0.2100366269882571    0.2694112976903772 H
   0.8331807177869069    1.1166857287669554    0.1642534758953536 H
   0.8119514266704123    0.2898954628883615    0.2789349470948393 H
   1.1325492422154797    0.4243515611513933    0.2470701692898595 H
   0.9865726611639085    0.4695423964342044    0.1565545938564285 H
   0.1186451871580717    0.6864890061400246    0.1977665913166880 H
   0.4353286615491599    0.6421810723005208    0.9810385567873025 H
   0.5520763441418365    0.4096615851972466    0.0726693622229219 H
   0.3867083107571934    0.4180692180255760    0.0745489081799391 H
   0.4351794071110246    0.4691461021446834    0.1764228601272748 H
   0.3876110130801459    0.3643567026265072    0.3164163090522230 H
   0.9836837267026949    0.3664367733991787    0.2253401423189701 H
   0.8203441185378628    0.4457261448901513    0.0721998314388071 H
   0.7307448136448054    0.4178543729637963    0.1566349832179512 H
   0.8374194003160648    0.5943092985758495    0.2776544085927080 H
   0.2139269242414796    0.9875448767448718    0.1790550781594336 H
   0.1777147837583327    0.6986032677344167    0.0812503930077596 H
   0.0864629165045761    0.8727520279245949    0.2297750739980182 H
   0.1893681110435067    0.8182496150242604    0.3534871872786456 H
   0.3454552451399119    0.6846523087946257    0.9050926638670100 H
   0.3497369818339163    0.7597164675973138    0.1899225815808547 H
   0.3265207410097464    0.8672331126825757    0.2621847920766828 H
   0.6988187152721477    0.6879580699094830    0.2070035423787286 H
   0.7354563744178629    0.8814686200101447    0.1351952116408782 H
   0.8442571192631352    0.8527314386460260    0.1824250286508759 H
   0.2673413562891263    0.1442052178117393    0.3715399345175813 H
   0.1357498892822523    0.0606457823362176    0.4700403077810521 H
   0.1575927022478124    0.3372084335776033    0.4003228829940985 H
   0.0850557628835031    0.2997495132578714    0.4905256513278699 H
   0.4625103344695939    0.3562636170857525    0.6277230444334143 H
   0.5350808560824837    0.2040905215309951    0.4612971465936389 H
   0.4550733015478574    0.1834993649425663    0.5641273762379553 H
   0.5575846939923235    0.1084727047646241    0.5453610133481929 H
   0.5112576878721639    0.3825111838736022    0.5102355292142082 H
  -0.0780240851534205    0.1901336804539890    0.4210526671127676 H
   0.7066007555681890    0.1895116444434976    0.5426516784417946 H
   0.1867604637926248    0.3557952519100043    0.5849665752575286 H
   0.0590883609256289    0.6215546228888017    0.5137470126464191 H
   0.1652613665764242    0.6924351115972867    0.5499459814550741 H
   0.6809254043618583    0.3117395147035956    0.4906004205481888 H
   0.5797624683603909    0.4177045255182430    0.6117725145688109 H
   0.7271426151859647    0.3032964419985456    0.6085583629284613 H
   0.1048068610069276    0.8094036159199794    0.6823543739857311 H
   0.0373653820522254    0.0441544753866775    0.3834638822032607 H
   0.5768632726565555    0.9041060250822586    0.2638373981547112 H
   0.6391291386980942    0.7135365435891209    0.3181834521851642 H
   0.8782871311579684    0.8226318072494714    0.4654144335831306 H
   0.7020549533297914    0.9538880228675167    0.3598649804295385 H
   0.2131375978859568    0.0538555901885961    0.9193770708582848 H
   0.2421467765902505    0.1307954154957328    0.8185503148415809 H
   0.1822684792602856    0.2617560537187220    0.8715461121625643 H
   0.1006341948638681    0.1908299784468204    0.7292633449599170 H
  -0.0041086949446026    0.2166716777668317    0.7880293910535600 H
   0.0062013423973543    0.0965547594997842    0.7406437751924696 H
   0.0627867136859606    0.0628677596692021    0.9973163353802285 H
   0.1568665220007314    0.0271183354775936    0.7064100011585468 H
   0.2591746987871211   -0.0241224323369966    0.7684271922270453 H
   0.5126960701141391    0.1914784840747795    0.7122030150601331 H
   0.4954454071954341    0.3214068072165276    0.8111367083245196 H
   0.6355111537121431    0.2525718317245758    0.8348601068970600 H
   0.4705447439285784    0.1517380297827607   -0.0695337270284817 H
   0.0163291171081268    0.0069492222343446    0.8833071468943614 H
  -0.0495925498274868    0.1063941045262564    0.9346602978812220 H
   0.6321608221176556    0.1566385853500479    0.6982415883355070 H
   0.6923498270039308    0.3233971753966697    0.7455140899622423 H
   0.8506291356604471    0.3261389866060341   -0.0052691908887427 H
   0.1724435188422682    0.5238096047253237    0.8056951311007404 H
   0.1245127522572631    0.6753151512328883    0.8008667895374263 H
   0.3978571867442469    0.5705645811730029    0.8876197160054281 H
   0.5463479875089827    0.4477598938322542    0.8986892599460744 H
   0.5599200236505499    0.5787833973967292    0.7714535315537491 H
   0.6240228673922148    0.6358776270074445    0.9786439497883169 H
   0.6802142930724737    0.5447772916222308    0.9045270926952352 H
  -0.0123076430702429    0.5742144473149404    0.7808967915966886 H
  -0.0935652035242517    0.4514591699267982    0.7659443703534685 H
   0.1490055490691377   -0.1151595347471486    0.8609766896480283 H
   0.0582696142241275    0.7070845743313647   -0.0146576723402021 H
   0.4370508281430279    0.6497080021343271    0.7113976986243483 H
   0.4421111276513436    0.8306601892808605    0.9094215954144929 H
   0.3856570715655198    0.7634891233536156    0.7606486322368765 H
   0.6432989345634973    0.6764165814264061    0.8066192530531119 H
   0.5060561778788452    0.7579246215481797    0.7182628078163300 H
   0.5436325613321012    0.8306660714180756    0.8302779132902668 H
   0.5567259069175147    0.7947850344062805    0.9560417338154202 H
  -0.0460886583783793    0.6822060749803175    0.7172945784266629 H
   0.5167949234794160    0.1512101079677101    0.0666294889545358 C
   0.4374497967372741    0.2192355543254409    0.1013655186454057 C
   0.5169244009869289    0.2838684780443926    0.2472786125015953 C
   0.4778835415975229    0.3132078432059021    0.1487205438645007 C
   0.8263480218257354    0.3054970965841255    0.1254538706910537 C
   0.7954523531317421    0.9958423665538494    0.2325403257523428 C
   1.0227037163032608    0.4958806290145524    0.2994932813362787 C
   0.3130081913726090    0.3864970671039493    0.2048081302578523 C
   0.4065447996408972    0.4006558860675771    0.1491865175972207 C
   0.9644112473784828    0.4403341367585468    0.2289654891005596 C
   0.8106885045015758    0.4108872020127171    0.1416292062038091 C
   0.7996293246912862    0.4293918910042530    0.3236385462042436 C
   0.8553507424053021    0.4584704569069903    0.2309567264713738 C
   0.0497965545822965    0.7833560417974414    0.0996993957720771 C
   0.1414050538348666    0.7378915327280287    0.1406126009151726 C
   0.2064067967815890    0.8227053339646596    0.1770681092502932 C
   0.2310086641444087    0.8852581869109397    0.0865425740729568 C
   0.2943363176480085    0.7961188090197926    0.2355303831548194 C
   0.2825172318281747    0.7258780027334443    0.3200964344252926 C
   0.5782188330367539    0.7833508949273783    0.1873181085495754 C
   0.6663149735211300    0.7483448258263216    0.2504116633701433 C
   0.7313181516066807    0.8298087499189823    0.2859067678286654 C
   0.7779673392180824    0.8893227437265382    0.2023203285123228 C
   0.1566957404801728    0.1482653630244265    0.2921913662330143 C
   0.2265130917649989    0.2489925512292188    0.4996281458471867 C
   0.1421161651242513    0.2706483746535713    0.4429569896020027 C
   0.0972042130644142    0.1910395295851065    0.3772340623903919 C
   0.0687626317666828    0.0948217348228006    0.4374172377597268 C
   0.5307568545499880    0.1863389666831309    0.5340935550679394 C
   0.5296404600555130    0.3601965610811642    0.5855783880974359 C
   0.6839564175670662    0.2648735864426976    0.5534177347574357 C
  -0.0090326562642371    0.1058345662236749    0.5062812903465518 C
   0.0926907014496516    0.6196105765392282    0.6685743568822402 C
   0.1360189778125442    0.5176194641003523    0.6693825189591408 C
   0.0930659902532320    0.6697396204201743    0.5692345194895944 C
  -0.0765387164662093    0.5410530899712381    0.6493342658877171 C
   0.0388514683088508    0.7674492722336469    0.5662321546892917 C
   0.8057796121396377    0.7897506602173510    0.3522158971101408 C
   0.1846178015220873    0.0790215789960287    0.8493451315870021 C
   0.1232161043259633    0.2306152840351039    0.9132831304086976 C
   0.0229451071062367    0.0751768670588427    0.9276457925306583 C
   0.0449020136086406    0.1538585402487856    0.7720390222133345 C
   0.1831826626938639   -0.0068421837334882    0.7769029342905966 C
   0.5866850040122094    0.2193781961529058    0.6919854463423164 C
   0.6203675687967297    0.2915292264998413    0.7694829250810248 C
   0.6135908432498588    0.5771650743954391    0.9221003494061507 C
   0.5786983129192633    0.6317086622562791    0.8312169748584965 C
   0.4129462363841878    0.6444236371137579    0.9075434722780336 C
  -0.0136344289169354    0.6085675991851267    0.7093011725322478 C
   0.5104846503423414    0.7925461459288027    0.8892516911853666 C
   0.4506542938249333    0.7168577453141676    0.7472648706587675 C
   0.5829140332271695    0.2600377343847759    0.5915755767490841 N
   0.0907159504220162    0.1348599723113312    0.8645109759139107 N
   0.4857407831681632    0.6941696068085741    0.8479173311571258 N
   0.5832266064639565    0.6852044944256885    0.5522952716192897 Cl
   0.4160985188203804    0.9262390368881818    0.6020219252853599 Cl
   0.3900206111727331    0.2190002688368390    0.8437456212812935 Cl
   0.1396843223798268    0.5901962141282269   -0.0728631271340232 Cl
   0.9251042300122722    0.4218431972627510    0.8970636874586467 Cl
   0.6788846369481247    0.9041596995843459    0.6936416094717397 Cl
   0.1160002262976560    0.1309630564063616    0.2152480761016173 O
   0.5713965418320869    0.1111086375041177    0.1245226346358926 O
   0.5938949979713209    0.2242758106515855    0.2501982402864547 O
   0.4885687959861189    0.3284947825606609    0.3180191164107240 O
   0.8288035443608256    0.2462720627672589    0.1935415256699336 O
   0.7828202611657197    1.0341586083726746    0.3129688148403739 O
   0.8161542307288645    1.0474081224495710    0.1556425658787994 O
   0.2276016445662063    0.3963525880077629    0.1682992661518096 O
   1.1141299529246467    0.4720195555849207    0.3010690551041791 O
   0.3166060844149651    0.3596906972806700    0.2964199889311636 O
   0.3235729658565755    0.6460853408770092    0.3270390873376812 O
   0.5633495749083555    0.3460669322234661    0.1055948527538338 O
   0.7800081066318160    0.3336203298764238    0.3359075278752195 O
   0.8450442929104157    0.5600054096048391    0.2136495372047901 O
   0.9927731784712477    0.5571886011459828    0.3590034625817157 O
   0.2324725057491965    0.8513351663246038    0.0041228476141115 O
   0.2374251698453955    0.9790929808339991    0.1120217332139751 O
   0.1561396241842363    0.8826825460779004    0.2395228176403533 O
  -0.0048858226200856    0.8370393670905805    0.1424010863564827 O
   0.0238951690105206    0.7624928363628167    0.0108527888530905 O
   0.5379575201067160    0.8709131247777405    0.2096208207950292 O
   0.5481550425645402    0.7346681215341823    0.1200777432129390 O
   0.2478313614888433    0.1159069909372934    0.3093562734438056 O
   0.2881350827712552    0.1890116627802186    0.4776206688675021 O
   0.2313595555879093    0.2986488183315055    0.5825041708589580 O
   0.0164525390473541    0.2305623448001685    0.3351107483627823 O
  -0.0084801278153711    0.0752930392688399    0.5873995984115782 O
  -0.0908161950987898    0.1573841462420552    0.4812334236871540 O
   0.1234557725102766    0.4622466419456209    0.5967887912733165 O
   0.7769347568311755    0.4860804737272755    0.3864525167851794 O
  -0.1106361798859690    0.4552838825974530    0.6933812333096396 O
  -0.1006483312109483    0.5550335331238195    0.5679028305884057 O
  -0.0174597914635649    0.7869389986285579    0.5027458302537091 O
   0.2199516370423615    0.7600863069747100    0.3825326461480997 O
   0.0594751308398351    0.8362327790249671    0.6324766879174374 O
   0.8369264301285702    0.8559761725872770    0.4127206299255665 O
   0.8226869826749375    0.7015274251974477    0.3548922225795952 O
   0.6651862368327323    0.8897778740935526    0.3423721130801458 O
   0.5213135764790308    0.1227398285797240   -0.0213470631932803 O
   0.8303843497801138    0.2702241255069360    0.0399316840056558 O
   0.1740566148851913    0.4810433055231688    0.7469689239827193 O
   0.5502452505109062    0.3691609381968979    0.7875057930882441 O
   0.5521450872917083    0.4968313294419347    0.9540476508034901 O
   0.1408611362189700    0.6835163210449695    0.7311898439953457 O
   0.1275782087943483   -0.0935603268934909    0.7965520861955229 O
