Li1 Co1 H90 C51 N3 Cl6 O45
1.0
  13.3161790937000006    0.0000000000000000    0.0000000000000000
   0.0000000000000000   12.9710454587000008    0.0000000000000000
   0.0000000000000000    0.0000000000000000   13.0137263160999996
Li Co H C N Cl O
1 1 90 51 3 6 45
direct
   0.8866740950026758    0.7895234245387017    0.5199441723105011 Li
   0.1788907335984248    0.3835137457685364    0.5354773097908795 Co
   0.1924464239154317    0.0157114729918173    0.0274872199869038 H
   0.2831406081481576    0.1284996059652272    0.2014166499611408 H
   0.0088081608075917    0.2224426889557116    0.1704808526175365 H
   0.3454625395490823    0.3098072736846880    0.0629113551502253 H
   0.4187433202545378    0.2641756396051848   -0.0349145840986279 H
   0.5600561538203067    0.1507568712657942    1.1431945621673760 H
   0.6610042554147028    0.2317541974524296    1.1605277989760321 H
  -0.0447086922615561    0.3583276494711958    0.0938310156860545 H
   0.7670939970785382    0.0942155537339764    1.0264716525945228 H
   0.7516113275718220    0.0676448350438468    1.1633624982085158 H
  -0.1631210377928652    0.3716172490296015    0.1746687384448706 H
  -0.1065965652167864    0.2275972464825419    0.2481334768893250 H
   0.1143970080366898    0.3649261923775883    0.1724019011621852 H
   0.0741992909413073    0.4908701654521941    0.2188590023271328 H
   0.4464661375433690    0.5701017897088715    1.0137958058775132 H
   0.5285275901801083    0.3762791708610019    0.2972623723701701 H
   0.6405937459068675    0.5329562873255740    0.2732999812436405 H
   0.6643070046260593   -0.3857210882137667    1.0152834658704890 H
   0.5590961937664465    0.6409378686452633    0.2989398319593573 H
  -0.0761659141156974    0.4826618833720023    0.1528556164300939 H
   0.0667339362550646    0.7280542081568242    0.2181797195617451 H
   0.2661147031641022    0.8883088311645467    0.3111238902489371 H
   0.5338925675882147   -0.0042676413228412    1.1573111952928725 H
   0.3904371524456106    0.7487911642376920    0.1242550456973645 H
   0.5763650363061803   -0.1343481352485101    1.1309935986506034 H
   0.6437027458466165   -0.0445859026121987    1.2176836036958372 H
  -0.0167975326575342    1.0283553683371995    0.2391798538324265 H
   0.7896650362546482   -0.1039334704278427    1.1039921087264397 H
  -0.0403147892066113    0.7988025532244525    0.2829190555164053 H
   0.0131449904336908    0.2204251183533014    0.3106951122137714 H
   0.1593723718993871    0.3144853854215720    0.3545626399405328 H
   0.2800646507198455    0.0640699497234890    0.4510718925168837 H
   0.4899265773532993    0.2278555140223996    0.5593192895946305 H
   0.4602492204163557    0.2282556359722088    0.4321501790876286 H
   0.5500217438698415    0.0832164403275618    0.3921621704758144 H
   0.8938773624959300    0.1483538267232979    0.6782132145487619 H
   0.6722987865967860    0.0941955090890919    0.5165703500144472 H
   0.9108311747277592    0.0784365634704951    0.5583523105991962 H
  -0.1563465719821223    0.3478674286330215    0.3522988763355188 H
  -0.0384020783741136    0.3717398297425488    0.4141617110413638 H
   0.2279678746763174    0.4181293055882612    0.3082922646941249 H
   0.1169270130601232    0.5353146168910203    0.4099967241126819 H
   0.3526387722602517    0.6427588475382296    0.4308885112454451 H
   0.4508496021685644    0.5446577342508254    0.5330413433943232 H
   0.6229663170214260    0.3908015160798027    0.4408907962818965 H
   0.5656373343884744    0.6005317192975662    0.5623355663355543 H
  -0.1038044730003645    0.4743464395364666    0.3437640418613536 H
   0.6654319519472535    0.4719764686580297    0.5699214028286630 H
   0.1255240737630813    0.8266461068647460    0.6996367479186839 H
   0.2466917141685303    0.8521598560111597    0.6396108966731737 H
   0.2078074369027664    0.7201327186880565    0.6542562023581574 H
   0.0405432401442710    0.9556557541848559    0.3885805675691714 H
   0.2197815924678141    0.7751159505540466    0.3613654570468426 H
   0.3741411865778442   -0.0352358467214721    0.4066076871121545 H
   0.6410540881684778    0.7405196644313260    0.4644694387511471 H
   0.4941164429001209   -0.1080472483164407    0.5550877575443620 H
  -0.0187845891407651    0.6014414377961692    0.5094983555860612 H
   0.8012922454496080   -0.0310765829079439    0.4719052797738896 H
   0.1516081326778739    0.2462433919123830   -0.1017132840931514 H
   0.2566412649418961    0.1987291031094997   -0.1566614198254462 H
   0.6386938014992432    0.0399308006474221    0.7209857446050736 H
   0.5867862689303085    0.2928764872882297    1.0210781167005674 H
   0.5668901712482530   -0.0804041411249919    0.9538667754786533 H
   0.6387756568116665    0.0268640050263861    0.9116728652439898 H
   0.3446394806278348    0.1926663689798267   -0.3463711109648452 H
   0.8289766132705854    0.2226600962579201    0.8224178761819412 H
   0.7603518228130632    0.0611634762152404    0.7880410966851622 H
   0.9781500350173531    0.0707378779390971    0.8146222611877568 H
   0.1158291005210138    0.5180264267667931   -0.0779821872113975 H
   0.2405420522104133    0.6276351629728947    0.8241913881983608 H
   0.0030730321747745    0.6081479134057859    0.9535640182280166 H
   0.2649980164707673    0.3978348735906123   -0.2250930110829212 H
   0.6024476683852517    0.3106375845516332    0.7446323153508630 H
   0.6725894105041973    0.5162309662486604    0.8922433802634131 H
   0.7706595844490522    0.4224689712057496    0.8788813350062549 H
   0.8957029612528212    0.4451809415660420    0.7180934139162505 H
   0.2421168282668514    0.7098621510284044    0.9331248301323727 H
   0.0526022548864181    0.6800495965021515    0.7945227144748068 H
   0.1725998900005317    0.9014411573553973    0.8700437432814532 H
   0.2809695649535164    0.9510107932068194    0.8045828614934230 H
   0.2987163974598324    0.8899602015238753    0.9247836373515080 H
   0.0619825733036656    0.7804663288424406    0.8936872403495711 H
   0.3554075845254340    0.6752388817298779    0.7387124121556737 H
   0.4063095733940489    0.8093707067658509    0.7324851411933405 H
   0.4076027371371039    0.7371614154652966    0.8419388030732432 H
   0.5253262214015696    0.0428858438721216    0.9881144605132318 H
   0.9392154430182645    0.5528595403688237    0.7939072105211014 H
   0.7701564371158078    0.6909577380587058    0.7169822794380257 H
   0.7860281070980771   -0.0710502304948645    0.9608878236996352 H
   0.7022578309437295   -0.1644528790213483    1.0281030070186385 H
   0.2393690430544017    0.1528507657083414   -0.0020254645948248 C
  -0.0264339305384180    0.2499331484668864    0.2446156527943643 C
   0.3794422567649669    0.3333558766845431   -0.0127910206390359 C
   0.3650139437595569    0.0887079020780273    0.3192368624626973 C
   0.6347737580969509    0.1735576548218824    1.1021425231876518 C
   0.7118799604674019    0.0857251047296416    1.0926863538314733 C
  -0.0859840458094845    0.4014652671583424    0.1636065725053657 C
   0.0788868217683395    0.4071864713770992    0.2380072458007729 C
   0.4455375678753740    0.4249945964611933   -0.0064023815989523 C
   0.6097996271799722    0.5846061718420643    0.3334841268892297 C
   0.2640638145565046    0.7672985390491021    0.2041291705061847 C
   0.1128995814956610    0.8712647154297032    0.2880982023927781 C
   0.1136377812398091    0.9519837294315965    0.1941235812662366 C
   0.2192671806420344    0.8225562283604333    0.2900315456481125 C
   0.0386583150600270    0.7794949345134239    0.2848078304455038 C
   0.5968589781553938   -0.0549644029750747    1.1509409983188175 C
   0.7449817982317003   -0.0912166851444048    1.0330132070987605 C
   0.3428994920142119    0.2545727128097618    0.5256722780189926 C
   0.3612208136398293    0.0436406018468100    0.4258288535885494 C
   0.4355276394220188    0.1977122228555528    0.5057898866335296 C
   0.4408325395366036    0.0821494484614037    0.5015959302927945 C
   0.4389398795008188    0.0312954134416151    0.6061331678952904 C
   0.8790893366955588    0.0745926173399573    0.6388547719660000 C
   0.7646796408451341    0.0559911868871662    0.6287984670444732 C
  -0.0863002025666425    0.3913026322019145    0.3498045869051469 C
   0.1480042460327397    0.3978857561507036    0.3305310910663958 C
   0.4421834525780564    0.4872700701361547    0.3627509172572432 C
   0.5449039094279600    0.5324755242274988    0.4159399104162324 C
   0.5100962820493761    0.5968442755867034    0.5023000330053791 C
   0.7101880336885965    0.6347301963141180    0.3745907236476219 C
   0.9080360786466612    0.5964318184708113    0.6386657407892067 C
   0.2042929152317458    0.7999651426277519    0.6874795843087292 C
   0.0481482745379517    0.7105806744527249    0.3810784887926094 C
   0.4750160689707606    0.7045588005607010    0.4810860322423191 C
   0.7494402843771809   -0.0629275236293718    0.6080565216981926 C
   0.2345125448393397    0.2338419243119355   -0.0833203969072672 C
   0.6905630347935577    0.1935491043026237    0.7480179713059518 C
   0.7080162395277863    0.0829620275271050    0.7238780752938967 C
   0.2886827384755362    0.3398295260343477   -0.0848918146167898 C
   0.2041254497760540    0.4033425252465614   -0.0399385102525931 C
   0.7536103995137573    0.5068726535061372    0.8814716768638592 C
   0.7744286836513712    0.5517139889136761    0.7732413386971888 C
   0.8804913905331219    0.5322622800438431    0.7306693661089386 C
   0.7981419423705628    0.5679641825215185    0.9707112975375506 C
   0.6976949605007549    0.4822788764651329    0.7117992904645637 C
   0.2075453497097779    0.7043953596101045    0.8556935106529275 C
   0.0907753671901187    0.7040191370445805    0.8666165926778000 C
   0.2541090070199556    0.8882988088421045    0.8527220327640650 C
   0.3657859369813110    0.7491427164710504    0.7703328712005908 C
   0.5903683775565410   -0.0005879070907800    0.9730011874027718 C
   0.9457413390270614   -0.0098392816528446    0.6851343682454223 C
  -0.0248110926471626    0.3673939965420191    0.2522099419010695 N
   0.6609081317450679   -0.0148573814048844    1.0599186445956921 N
   0.2590030535434687    0.7884487231937419    0.7915589207801229 N
   0.6707946013602359    1.3175649013655399    0.3245981247411028 Cl
   1.5327926204038960    1.6739818158478781    1.0491138991611699 Cl
   0.8743492382366951    1.0204492978260353    0.3263186158176901 Cl
   0.0623933517981204    1.2665651571963987    0.5674440186254840 Cl
   0.2333560569390466    0.5138434871438649    0.6386257829794779 Cl
   0.9297502654239177    0.1929284912590852   -0.1132357332639541 Cl
   0.2784928785280836    0.1073579022472692    0.2777322244458539 O
   0.2750797372898808    0.1710150687130750    0.0872641033410275 O
   0.4414224985589869    0.0954120648440034    0.2637638962680044 O
   0.1895356790443044    0.4036832842095974    0.0527374820577659 O
   0.5365754693236610    0.4081640332891573    0.0155705716547392 O
   0.3985198013227890    0.5145564628272394   -0.0151001209897036 O
   0.4533325967098171    0.4082804464190633    0.2954665761906325 O
   0.7399578345609465    0.6191794066231676    1.0290204998035628 O
   0.7899654227222568    0.6051820769107640    0.3408540375259199 O
   0.2142334544110833    0.7115289403453364    0.1501407906267964 O
   0.1783350186333489    0.9482053138708734    0.1288701727210284 O
   0.0413385133172648    1.0217521997435262    0.1894193175901009 O
   0.3658032092031985    0.7834514390344667    0.1880768888671004 O
   0.3053444248676161    0.3112759293964157    0.4602410572204917 O
   0.2978655527903310    0.2411266108316812    0.6199439700924786 O
   0.5384392171619384    0.0515682588986192    0.4579035253513633 O
   0.7353131088055486    0.1171951971982645    0.5445580294194919 O
   0.1275479275885942    0.6585802399351204    0.3851841537422326 O
   0.1193669021432741    0.4569629525447713    0.4208428873538265 O
   0.3615602503482271    0.5290819658485575    0.3765286774194634 O
   0.5885427787996498    0.4508818698555502    0.4795463886757249 O
   0.9667443608422546    0.5516792962590683    0.5732617220380981 O
   0.7271899077552432    0.4768556436020626    0.6166681981141436 O
   0.1087790301262400    0.9285800646332137    0.3798221230444092 O
   0.4720967630853064   -0.0652843112990577    0.6170116815939268 O
   0.5232172080124897    0.7857396123428174    0.4976978154279351 O
   0.3782669947104483    0.7072177997994143    0.4569380063528228 O
   0.8711223366084097    0.6814388445822215    0.6274475857078763 O
   0.7073719105547658    0.7048186099963190    0.4488616877452945 O
   0.7856616356075947   -0.0896701636967797    0.5159503123861764 O
   0.7297905035985646   -0.1297509730390442    0.6697498430804578 O
  -0.0261695904469224    0.7005668324371702    0.4394278025522338 O
   0.9689266685294310   -0.0878461010122926    0.6385620041677956 O
   0.1973479801006350    0.0671784115763427   -0.0330819037870330 O
   0.6008150679337990    0.2314751143198073    0.7360075758048084 O
   0.4101665356381433    0.0797749289904738    0.6808066300840377 O
   0.6105160489052186    0.2232144077837638    1.0093036259607067 O
   0.7587267320233008    0.2540723676355301    0.7774807086255195 O
   1.0015846852878376    0.0140870858082948    0.7679838130401944 O
   0.1448749700064272    0.4474196200204856   -0.1101543713983377 O
   0.0752574022734586    0.6264186072179831    0.9462402127563979 O
   0.3199657361784645    0.3708856194913183   -0.1819808396439157 O
   0.6220666595509382    0.4385553383890555    0.7470843417132526 O
   0.8898574405931580    0.5757827504482832    0.9787919961357608 O
   0.7401643502574274    0.6526516507365974    0.7736132536954329 O
