Li1 Co1 H110 Cl3 O55
1.0
  12.6942258308000007    0.0000000000000000    0.0000000000000000
   0.0000000000000000   11.7466308575999996    0.0000000000000000
   0.0000000000000000    0.0000000000000000   12.9533638218000000
Li Co H Cl O
1 1 110 3 55
direct
   0.3565339844844065    0.8166553069719918    0.2420448814711297 Li
   0.5307407482111421    0.2856945510234300    0.5966369444432120 Co
   0.1206810825503846    0.2011605248811560    0.2762290521693065 H
   0.1632067164248199    0.2013929319460493    0.1547169861412500 H
   1.0693084475041634    0.3628128337873683    0.2291107894233145 H
   0.2840908113238385    0.0948776242661044    0.0677888325364724 H
   0.2841341381093653    0.2732382133914926    0.0254732604935162 H
   0.3078181345977949    0.3896477623572105    0.0832034385605818 H
   0.2956370057868657    0.4730938169649289    0.2956533502482774 H
   1.0305427908537188    0.4992766436603818    0.2229015914801023 H
   0.4840588939650802    0.3307032012831710    0.0157787130595393 H
   0.5397968341459829    0.4608579680868647    0.1291313541340464 H
   0.5890916874391801    0.2727401982524355    0.0377265564082714 H
   0.6243368458256371    0.0788182109511836    0.0055454638569720 H
   0.4751839927697152    0.4848725134845766    0.2270341087734027 H
   0.3860214069542185    0.1083042826766696    0.2818924459417055 H
   0.6234466773229953    0.3945938614305809    0.2633891441509669 H
  -0.0120966876315862    0.1818017825526803    1.1832204840186604 H
   0.6732275783738296    1.1276968340525917    0.1765221329653242 H
   0.8828614729862349    0.1942334322546474    1.0555856840744511 H
   0.7201946016446316    0.1759379735307568    0.0030853306870560 H
  -0.1423826162139494    0.1522239398323391    1.2003588893822450 H
   0.6848454589729103    0.2799729104258185    0.2973864907906759 H
   0.7071713576750085    1.0860253108784983    0.2889601081535801 H
  -0.0256270913197940    1.0087435769919975    0.1733522999733027 H
   0.1235603443885756    0.7652303488437495    0.0011253764736745 H
   0.0694556664700864    0.8397589528845909    0.0887459370951458 H
   1.0680716647173072    0.9151763224043650    0.3022099483002109 H
   0.2097026593729850    0.7261612740117031    0.1204038914027254 H
   0.3147070934965582    0.5649584556925372    0.2161535373682513 H
   0.3291979338559349    0.7044997437325446    0.0778855920963244 H
   1.0185215772693703    0.6619164697654081    1.0974049371620809 H
   0.5955938563071493   -0.0997070211278689    0.0018380098966981 H
   0.4857281568474677   -0.0300395556289827    0.0035471412315828 H
   0.6423946622734757    0.7473971503258555    0.0262659426215917 H
   0.5070693558785021    0.6487007654598999    0.2115006919121105 H
   0.5992726942782443    0.7770728934581481    0.1317522949542883 H
   0.5291415959453343    0.7511709983795993    0.2855895550987418 H
   0.9419040652632280    0.5465131667729645    1.0637843266402740 H
  -0.0606816906259068    0.8802565224231976    0.1857598878563446 H
   0.7659776220309463    0.7799613812646793    0.1484846281907897 H
   0.8699737236913501    0.7070153586657303    0.1516421091789456 H
   0.8379828007778251    0.7481020332919055    0.3015738201011301 H
   0.1563075166494776    0.4690279702911910    0.3569154294206763 H
   1.2334539438718364    0.1246849796043769    0.3742005148301655 H
   1.1207412807231747    0.0648740424499640    0.3970301059748468 H
   0.1744543499475806    0.2555046179014100    0.4840731332155749 H
   0.1493445083354503    0.3308002503871924    0.5813428476568169 H
   0.2035439537502827    0.4426297626894450    0.4640358669447714 H
   0.3269236714956457    0.2507994389722330    0.5797857231695037 H
   0.3846963950768348    0.1458587104396384    0.6404927341681903 H
   0.5028390860916114    0.1369736095741019    0.4336908534480858 H
   0.6228542820008831    0.1129444216799937    0.4579239410320012 H
   0.6200482818182194    0.3917581547157105    0.4423828041682930 H
   0.5859745221604601    0.4844264281292503    0.5304039557151320 H
   0.3730666980817015    0.0168880278357986    0.3738515707209610 H
   0.9210205546393042    0.4305113943057224    0.3624738311602173 H
   0.7927882369149383    0.4139364289083864    0.3762347354667891 H
   0.9473868730317121    0.4042894074454890    0.6589975799594120 H
   0.8803091314388370    1.2662982781378658    0.6218751763416944 H
   0.9043673138022710    0.4193669221939337    0.5422333154172134 H
   0.8775440947624895    1.0605371514539352    0.5927761712349560 H
   0.2434148373115297    0.8960559462962928    0.3503356713614947 H
   0.0713392000008975    0.6996932591596960    0.6498756251046320 H
   1.0529939433539763    0.8962687732787957    0.4211126535116496 H
   1.1656514633210584    0.6241720300724606    0.4777905952494104 H
   0.2663843357186353   -0.2313873317421443    0.5592775367513224 H
   1.0955250915465695    0.7327997732499376    0.5011466905588648 H
   0.3175178202376430    0.8433582828126822    0.4387806510409737 H
   0.3562409378622979   -0.0525811680461877    0.6273602380582831 H
   0.3887943212279346   -0.2658006035049544    0.5880970777706007 H
   0.5871916109538950    0.7534090869276011    0.4502849986413404 H
   0.6615789751450116    0.9222166389855653    0.4258149069832529 H
   0.7478898707131073    0.9996090429029676    0.4857174937301891 H
   0.6800826636039082    0.7499493715000319    0.3828399695339437 H
   0.8494919705332203    0.6217943270239367    0.3689501411870241 H
   0.8559200899859257    0.9437377034562717    0.6441350313080727 H
  -0.0719592590186677    0.8973754735878116    0.5316769841135351 H
  -0.0760414299750304    0.7779463353943407    0.4568925487092196 H
   0.3058700047685620    0.0256238092904111    0.7214624355082283 H
   0.2161622892151643    0.1233041581418972   -0.0324321616283933 H
   0.1374966018932091    0.2472809832974929   -0.2187497107377820 H
   0.1023044597370422    0.3763784256521115   -0.2157667018042284 H
   0.2786064280358808    0.3977096484544253    0.7943060623051542 H
  -0.3679119267965371    0.4414387828953581    0.8378121359206862 H
   0.3337102216286184    0.3919641712347735    0.9029689563119717 H
  -0.3877886804767651    1.1399216159275658    0.7205669152279689 H
  -0.3790217023653487    0.4352974474882506    0.9521453717020771 H
  -0.4716338880685166    0.4898705423416778    0.7028803896928462 H
  -0.5480780929325516    0.4208396849128547    0.7692230024552339 H
  -0.1225704588321432    0.3652501283909930    0.9577037734416182 H
  -0.0505558269684222    0.4824292597254418    0.8384760561284647 H
   0.8725024324466423    0.1742276958993624    0.9385272874402019 H
   0.8801200691019928    1.1631623224168968    0.7117823244787694 H
  -0.2798128166257894    1.1965250801940719    0.6729499403259014 H
  -0.1904721971097643    0.4808024102711887    0.9342118060896415 H
   0.8854768353125806    0.0041318595509110    0.8248734118714214 H
   0.9871214741584836    0.0597990553559898    0.8548347412480303 H
   0.1845534297740122    0.8589746754808246    0.8499170997090199 H
   0.2473662401515750    0.7402495689454737    0.8727065468411377 H
   0.0920005623790293    0.7186067674407755    0.7627822044395408 H
   0.0098909470395082    0.5463650391931424    0.7371803604272635 H
   0.4825337911145364    0.9893422692670213    0.7329922591165677 H
   0.3563252281541409    0.5704536483807655    0.8831439901076090 H
   0.4370635113437515    0.6755688950390125    0.9061032772928796 H
   0.6204004104205919   -0.1355828399144398    0.7133054809554519 H
   0.6356010223028715    0.6165477162512720    0.9034475964617655 H
   0.6241036689435291    0.7360653904694642    0.8448604981265208 H
   0.6375554542099993   -0.2614955393028831    0.6814380829823254 H
   0.5796322685190715    0.9851368080927613    0.8218008509098418 H
   0.7919130358472967   -0.1879195488357252   -0.2431649903787156 H
   0.9135762251260608   -0.2026922953452256   -0.2543898738916219 H
   0.3928126836456122    0.9942713421817915    0.1367363285140766 Cl
   0.5257699842716114   -0.3691170365070858    0.5961552162924518 Cl
   1.1721504811500802    1.0515643658716074    0.8335352545822060 Cl
   0.1095055290435459    0.2289199738629914    0.2035197534144196 O
   0.2368724926969809    0.1546016428808629    0.0332577944097409 O
   1.0471802764960150    0.4275020207731296    0.2679632455824641 O
   0.3325104635493941    0.4842706387780581    0.2296535055931613 O
   0.3245863883564084    0.3439027307380090    0.0229021908888819 O
   0.5536944914235108    0.3468363378648307    0.0386465104961775 O
   0.6546923795254590    0.1441365144972239    0.0393617455600154 O
   0.6661243488266428    0.3591717897707065    0.3225359426613739 O
  -0.0731535027797341    0.1349687793989233    1.1566096356906082 O
   0.7231108881904545    1.1481282243728825    0.2391799885745413 O
   0.0952107620826713    0.7644590638591585    0.0663829428964893 O
   0.2868471826430806    0.7119188923426002    0.1432921545657685 O
   0.0041789799635743    0.9258261846088166    0.1839225272813297 O
   0.5458428901263154    0.5013257418479210    0.1936860143368817 O
   0.4901931790359400    0.7301658265144801    0.2237013837304029 O
   0.6581396161339197    0.7940369065794998    0.0862072143006346 O
   0.9780386043925899    0.5914903186392951    1.1162494630596078 O
   0.8446945137357968    0.7809293183811030    0.1780151814325842 O
   1.1569230854367476    0.1438368541058596    0.3923525565109747 O
   0.2051470448147748    0.3207428985020291    0.5255557941978657 O
   0.3678714226171682    0.0973674445690108    0.3567664333740470 O
   0.3887809293124080    0.2312797994449850    0.6233581888058136 O
   0.5689912099936862    0.1709161080516153    0.4545510719764380 O
   0.6063664707085887    0.4021211261477481    0.5202498365373289 O
   0.8495234809226945    1.1820273061459656    0.6454860317308778 O
   0.9405412409184756    0.3663389512334785    0.5925376231603007 O
   0.8560697643359275    0.4562592026489392    0.4028679718018480 O
   0.2013398020065732    0.5046313705401581    0.4077377493258791 O
   1.1060259288387955    0.9268732933627317    0.3724627422863173 O
   0.3167324237800024    0.8704511576853181    0.3671336246185324 O
   1.1580338266657078    0.6892119559253868    0.5273283067525860 O
   0.3444844115495314   -0.1989252577549220    0.5667759750980115 O
   0.6161953489452805    0.7894900709253049    0.3887820553935613 O
   0.6957315107764562    0.9960420626762168    0.4271311673951859 O
   0.8614816737280948    0.9816123932625112    0.5731627330967924 O
  -0.0301839662935832    0.8264921701032820    0.4969462372443035 O
   0.8259221992066342    0.7034696611372300    0.3736639746622515 O
   0.1581106986871299    0.3250079512313899   -0.2463147513644555 O
  -0.3345747224927335    0.4724953474901303    0.8971480744902858 O
   0.3639145054589649    0.0137430409499548    0.6709767077083644 O
   0.5575151261472387    1.0057129207611546    0.7511581968017258 O
   0.3452249057021715    0.4266915756237580    0.8310339737994126 O
  -0.4792893371912360    0.4122116790421818    0.7305465623511698 O
  -0.3603391924461871    1.2125977739127010    0.6855675122746594 O
   0.9212490049629910    0.0763902807347891    0.8223952910958761 O
  -0.1183315236881472    0.4500718966136110    0.9448268094116816 O
   0.8364939348751765    0.2201787440376269    0.9913398239682569 O
  -0.0033187596598276    0.4747215177271121    0.7774146970188826 O
   0.1752948895868007    0.7778526915220393    0.8701743860486801 O
   0.0350956743119421    0.6964012513943392    0.7167439700315513 O
   0.3569333786709900    0.6534970343375882    0.9058099172010705 O
   0.6039346564009292    0.6937443193447714    0.9090059982013066 O
   0.5508601318903203   -0.0521282722274213   -0.0429893421323373 O
   0.6636578730905619   -0.2041718685275867    0.7314791386430262 O
   0.8578501013412110   -0.1427372317582618   -0.2507151527415921 O
