Li1 Co1 H90 C51 N3 Cl6 O45
1.0
  13.9987840000000006    0.0000000000000000    0.0000000000000000
   0.0000000000000000   13.9338909999999991    0.0000000000000000
   0.0000000000000000    0.0000000000000000   14.0721019999999992
Li Co H C N Cl O
1 1 90 51 3 6 45
direct
   0.2557484978695292    0.1589267893655835    0.8303739007861087 Li
   0.5857400435637837    0.7156927903340137    0.1924856293679509 Co
   0.3451809707185995    0.9571647754385334    0.4340944174509253 H
   0.4153729995405314    1.0547726740506296    0.3869215302731604 H
   0.4691798423348770    0.9676045047287940    0.4641115584580044 H
   0.3573281429301288    0.8063404952715650    0.3767642524194325 H
   0.4823912498399860    0.7968622497477554    0.4035620570402347 H
   0.4388221412659842    0.7711843016426639    0.2855791885249269 H
   0.2983920703398238    0.9331661357190179    0.2743045687133309 H
   0.3806739256781160    0.8870749850131597    0.1875022921238064 H
   0.3838418079741783    1.0128056032589894    0.2192442678428567 H
   0.5893804147560244    0.9192137702239813    0.3518830612512616 H
   0.5418504500105151    1.0272691497299644    0.3019760942608290 H
   0.6110699107865368    0.9862421336581434    0.1650071680833468 H
   0.5212721604962258    0.8973294516226660    0.1496296772152448 H
   0.6902209413331900    0.8510019340613474    0.1489581094565688 H
   0.8587628354005604    0.6167097919741155    0.4959562942337968 H
   0.7933510632066327    0.6842878568520452    0.4089249559163230 H
   0.7359834375614338    0.5890006251663660    0.4728051551928774 H
   0.8221484766105398    0.6389405313993055    0.6669395503244647 H
   0.7020545384513397    0.6042739691303743    0.6383872089613905 H
   0.7230121516268840    0.7155255620989142    0.6984289219904746 H
   0.9021114376791584    0.7633110973811982    0.5699470235505684 H
   0.8137837507886397    0.8410532126309874    0.6200078417566900 H
   0.8309083203226794    0.8360764828718699    0.4928790119628184 H
   0.6132064927925167    0.6938779512485063    0.5211401182282506 H
   0.6716562324270450    0.7796060784457121    0.4489893620725603 H
   0.5551915380650204    0.8604854236336427    0.5444060375628318 H
   0.6698935764706420    0.9003567596445244    0.5810674290166460 H
   0.5349921443176778    0.8389858109267542    0.6907185053092993 H
   0.0624696687940895    0.5418727195440241    0.7017885863817646 H
   0.0466280992691937    0.4168441772653453    0.7292871157414864 H
   0.0239867762799969    0.4602814224684261    0.6104900248733275 H
   0.1854312124538817    0.5880268074438074    0.5899122526257983 H
   0.1539048363057820    0.4956801743317786    0.5054323113917167 H
   0.2740546957507166    0.5034676638420669    0.5513889801253573 H
   0.2320149885875802    0.5393804695328822    0.7514096636024953 H
   0.3065233465992475    0.4423901701254876    0.7137550019179794 H
   0.2067532708555257    0.4181571543799216    0.7906417555813624 H
   0.1165560715845033    0.3358375101398454    0.5634824882593944 H
   0.1538855060553831    0.3019380774544598    0.6800961910310203 H
   0.2957253001403550    0.2494796528837494    0.6132506977280296 H
   0.3235614343360109    0.3673912513023104    0.5749635861081736 H
   0.3101094130747356    0.2805289391168627    0.4442049929711994 H
   0.0010038786226004    1.0074491540087405    0.4340015564128231 H
   0.0816663783082873    1.0907968657139633    0.4830712703759538 H
   0.1480647933420503    1.0986849416290110    0.3260634715410676 H
   0.2237168185465251    0.9422020274164625    0.5644988516996253 H
   0.1706760437192259    0.9079785208596796    0.6702301383261720 H
   0.3072272970280847    1.0055070518349829    0.7145157112988523 H
   0.0509077538449054    0.9475829070286255    0.7371566046067604 H
   0.0918362016300844    0.8413467264814977    0.4896593913261857 H
   0.8866495989937411    0.3059884213246680    0.2816229465931956 H
   0.8062672443549381    0.3706961443863743    0.3543323705300033 H
   0.8936760392902697    0.4882206865261111    0.2668253079746011 H
   0.9165200913165028    0.3379335061541676    0.5447159642532438 H
   0.8791556938088335    0.2201997475077134    0.5737753705878483 H
   0.7373403618485719    0.2217769214643634    0.6395521983851454 H
   0.8661100128411152    0.0833573787824234    0.4827299063068190 H
   1.0196077280712381    0.2644266314412823    0.4238994124687272 H
   0.6396933012181628    0.5147589729243612    1.0313538233307293 H
   0.6379101577679889    0.5440531585900881    0.9100434419818731 H
   0.5637653049007685    0.3651588562017602    1.0137268881365415 H
   0.7476251044376425    0.6749074892289599    0.8939709959464479 H
   0.8549969325907164    0.6778815314401413    0.9565841002289496 H
   0.7275212275580507    0.8330991393574129    0.9692174118692433 H
   0.9375329471474093    0.4958185836246315    0.9608812514292464 H
   0.8072312380846793    0.4548480506988321    0.8622470516487162 H
   0.5247868572013111    0.5439061092124232    0.2006891088481309 H
   0.4449791103284399    0.4887830154549078    0.2796649597906553 H
   0.4923568368509721    0.5090985999531646    0.4515044760192898 H
   0.6162833721843267    0.3988571304311194    0.4198539976472599 H
   0.6035447285992840    0.2916366361700404    0.3546423071691777 H
   0.4390676618769173    0.2385319276575366    0.3319967656573269 H
   0.6819395227471186    0.2771446425122746    0.2254417122616081 H
   0.7103149723575989    0.4828941930147150    0.2271268371988776 H
   0.0838754866136944    0.3379622669647696    0.1065575391650800 H
   0.1418239369933846    0.2748895279861168    0.0135548605318523 H
   0.0195271489295070    0.2171892581906949   -0.0663784159608849 H
   0.1705296488609296    0.0782860738612065    0.1204030883232654 H
   0.2715257739529376    0.1131920136306506    0.1880248196040648 H
   0.4035806667207666    0.1629904819838192    0.1072107315595069 H
   0.2019833251230964    0.3113660182930956    0.3045056616275237 H
   0.0566168782945719    0.1967406885844019    0.2275934213666161 H
   0.5287736641982617   -0.0090623875269298    0.8030329363729741 H
   0.5458314800771267    0.0418195829147795    0.9179217831138519 H
   0.4168714468342393    0.1457943448818424    0.9246758750043171 H
   0.6787003985489025    0.2035641250530810    0.8876009312610157 H
   0.7873569847209585    0.1437204309980608    0.8654093034572946 H
   0.8468208095788891    0.1432544864890934    1.0135742428529868 H
   0.7896945320393541    0.0070522842470922    0.7216383749918812 H
   0.6175302797728716    0.1322125786688012    0.7049491952232865 H
   0.4155429500162299    0.9793825967204710    0.4087191330762099 C
   0.4299707996065944    0.8155574821132160    0.3492153368416460 C
   0.3705107065013646    0.9397095642559570    0.2444954982560530 C
   0.5424413077593024    0.9487154148112685    0.2965561058326610 C
   0.5777274861873717    0.9227727000304510    0.1977319564625100 C
   0.7889247966109055    0.6465520829752436    0.4770129338175633 C
   0.7512375946367912    0.6648628032184263    0.6462031734846722 C
   0.8313651521446433    0.7951527746269869    0.5593581342716248 C
   0.6621237308897686    0.7555421403827547    0.5228158614825277 C
   0.6212155691522920    0.8379083667297240    0.5814865277412004 C
   0.0680398804639031    0.4684225253376821    0.6744050121296734 C
   0.1981100765609356    0.5136828205416564    0.5672717473196258 C
   0.2335034700156813    0.4630087267081393    0.7323965630720983 C
   0.1731427329688064    0.3436475432454582    0.6166782141004948 C
   0.2677180053638945    0.3115039976988481    0.5732247179561377 C
   0.0718051003572882    1.0142719309344390    0.4677941006965413 C
   0.1438257858682583    0.9755070812596425    0.3979912212120123 C
   0.0709155830963604    0.9578810398330230    0.5617578098851188 C
   0.1672574510757505    0.9637159598851464    0.6146020189450021 C
   0.1902773276593167    1.0617444926187525    0.6540987771407570 C
  -0.0124814862490913    0.9954114740814322    0.6237619660516958 C
   0.8772290043192322    0.3369491178020555    0.3533393078020611 C
   0.9535079046865784    0.4125726295691562    0.3673732168797526 C
   0.8816950593708710    0.2533172794304190    0.4237837481564589 C
   0.8626366461544088    0.2825469971022452    0.5283487896833039 C
   0.7662953832275717    0.3277774068994799    0.5517263703745184 C
   0.8079772585961752    0.1758799175334442    0.3920421647028994 C
   0.6775800033774362    0.5024522123791553    0.9643416534359971 C
   0.6724471696970250    0.3976193742293521    0.9295948785760650 C
   0.7795675702975343    0.5439510708100128    0.9667594535628012 C
   0.7798486997156324    0.6545835509980666    0.9629020234503702 C
   0.7328900424494013    0.7079209604840457    1.0417685417573013 C
   0.8398014234664952    0.5061457922987915    1.0527277538210000 C
   0.5197207228856449    0.5119021944408780    0.2720852748224821 C
   0.5463765781370724    0.5867793726820456    0.3450506726002981 C
   0.5872448842699479    0.4253465252455326    0.2766870130702578 C
   0.5718884633122419    0.3629958982742151    0.3656634843891837 C
   0.4739130834506768    0.3553299771040265    0.4083272101069194 C
   0.5815761626152671    0.3675223029949065    0.1828940488066389 C
   0.1057588701990115    0.2656083164422630    0.0823372656053801 C
   0.0135833855283430    0.2084457636420437    0.0742866197246154 C
   0.1744045611390246    0.2267523414672901    0.1577615128145035 C
   0.2259568723969167    0.1339277305958544    0.1277670159013913 C
   0.2828839526347431    0.1319569300491873    0.0368891093882065 C
   0.2481519201953541    0.3082475914301325    0.1757061759501175 C
   0.5551341202207277    0.0552467534014727    0.8414317114813410 C
   0.4928810238089251    0.1363886368854184    0.8040567734656842 C
   0.6622370478750154    0.0663282460010632    0.8203060949956162 C
   0.7139080008663609    0.1325755878239610    0.8914156776293977 C
   0.7124801939939924    0.1010503749455195    0.9957897128659244 C
   0.7117511170970278   -0.0325095416635597    0.8268844498142496 C
   0.4403799658598918    0.9193931623263023    0.3231880482389909 N
   0.7587406084699928    0.7163799429750097    0.5526042854152138 N
   0.1698930478532993    0.4483666299671786    0.6474927498393631 N
   0.3924323448379516    0.9048378001521614    0.6974295481940083 Cl
   0.4594960976610539    0.1671422203604148    0.2290989995666604 Cl
   0.4598126687289410    0.5480592606903557    0.6627198068916783 Cl
   0.1134851905708381    0.2611900372982680   -0.1602004021858284 Cl
   0.4524208959863942    0.7182639400580929    0.1088958707092942 Cl
   0.5667689607897372    0.5023061569808462    0.7473536206602256 Cl
   0.6491994818978563    0.8473611132741028    0.2060524390741341 O
   0.5985289350846472    0.8109397152597219    0.6759397721818674 O
   0.2483576359203771    0.2851396885478722    0.4778727406893441 O
   0.1710319360595891    0.8911698871478183    0.3981880048908117 O
   0.1789157758273861    1.0348860659237253    0.3316594152032156 O
   0.1472825361117080    1.1347154839951024    0.6325075507553883 O
   0.2619166671905216    1.0651320051233357    0.7186331203398043 O
  -0.0842481068355651    1.0345677829688780    0.5912002457060076 O
  -0.0075478927312544    0.9810386165644615    0.7184380499800244 O
   0.0497968366395253    0.8582693305122023    0.5439526781428958 O
   1.0223633802764582    0.4041376942018565    0.4214962142826993 O
   0.9442673427920596    0.4933630053514844    0.3154365119013492 O
   0.7417595263988642    0.4062441862075712    0.5215623316260785 O
   0.7079716045336509    0.2789460553408951    0.6109932290144003 O
   0.7452151922624136    0.1915650545852555    0.3334060355730793 O
   0.8153970987765794    0.0895032055295969    0.4333590560955287 O
   0.9745539741166088    0.2099478286431263    0.4208175168144745 O
   0.7329149660427648    0.3650674036419547    0.8738887672929034 O
   0.5983981801562192    0.3436843778955929    0.9541352727545609 O
   0.7016690706849965    0.6677494828974908    1.1143881980105035 O
   0.7280672399831298    0.8027879484632111    1.0344987195232100 O
   0.8106285374501099    0.4930618568783121    1.1337617585489361 O
   0.9317602507474934    0.4894157547235012    1.0308463213242771 O
   0.8305366437542003    0.5208548086101722    0.8804922114691892 O
   0.5864347024713003    0.6644783800878019    0.3216023611824304 O
   0.5290971622963823    0.5731425680020032    0.4350932213254282 O
   0.4408351261080962    0.4182734844129326    0.4621123027675610 O
   0.4223326447497154    0.2771789495123796    0.3935519419913244 O
   0.5256911300295797    0.3899524791746972    0.1190246553073592 O
   0.6445756002807100    0.2971836330569831    0.1693445421302376 O
   0.6842199029572854    0.4591631949754739    0.2876832643765658 O
  -0.0290069494607532    0.1787526456177962    0.1453779200861393 O
  -0.0250680116215808    0.1959435020698813   -0.0118556673338496 O
   0.2465340339560922    0.1113164520951111   -0.0404256457208738 O
   0.3769059384015069    0.1474179064555622    0.0409871844305847 O
   0.2984472958508396    0.3402287537630372    0.1129114840128362 O
   0.2522763277153215    0.3419069375524755    0.2656660632505364 O
   0.1251784540714393    0.2075228721108842    0.2459228919744897 O
   0.5053240038563349    0.1731998671440734    0.7256240851579957 O
   0.4148874837985927    0.1614286066971530    0.8552335265904129 O
   0.6408483658294891    0.0673135271404089    1.0331369464206557 O
   0.7923167890868233    0.1131748619247847    1.0469894426575364 O
   0.6892298316768084   -0.0934033523012345    0.8859418138100479 O
   0.7832251558421073   -0.0476961266598110    0.7656801066393636 O
   0.6791794515866520    0.1018574345098580    0.7258755337333399 O
