Li1 Co1 H90 C51 N3 Cl6 O45
1.0
  13.7961532973000001    0.0000000000000000    0.0000000000000000
   0.0000000000000000   13.4640825625999998    0.0000000000000000
   0.0000000000000000    0.0000000000000000   13.9155954464999994
Li Co H C N Cl O
1 1 90 51 3 6 45
direct
   0.8447130802164052    0.7597476273440688    0.4586898022251297 Li
   0.3579737801164132    0.0885737870185570    0.7358195890766119 Co
   0.4084951091405266    1.1476656288652518    0.1938930844586048 H
   0.6410439893148200    1.1428557950203608    0.2216468375398025 H
  -0.1486870150610355    0.2522841616208911    1.0647584417184719 H
   0.0081646778252344    0.1690983972145477    1.0960571383264954 H
   0.7375063851234001    1.1296829702715983    0.1352991131740286 H
   0.9123616471675025    1.0491568746420545    0.2966303338631626 H
   0.6717395021055396    1.2564669521777789    0.3488293218829456 H
   1.1028792460488079    0.4453326658851188    0.0320875757646653 H
   0.1408502141883488    0.4281718976763875    0.1877517734145635 H
   0.6382265372930591    0.5222681715301442   -0.0199454114534358 H
   0.5891135718599623    0.3788913769342546    0.0362375958067128 H
   0.3767123367581834    0.5180851163729776    0.1193357287213804 H
   0.4454401175799262    0.4113751349598397    0.2375642304283483 H
   0.4748616520651540    0.5861457507117381    0.2592787162483569 H
   0.8600289436637440    0.4488383633420783    0.1692128613721841 H
   0.7228537500269517    0.5258418275721574    0.2260390319115764 H
   0.9040622322847751    0.4431666066780094    0.2933347508479540 H
   0.9320345222183413    0.6424392260730210    0.0949063033829553 H
   0.2296438056773433    0.8790977570338327    0.2997074569488851 H
   0.1812361092993463    0.7888762366032996    0.2169873172016837 H
   0.0366603020422354    0.8838466881030473    0.2113590995446592 H
   0.3276740298170447    0.7457689548927573    0.0830663500993579 H
   0.4051050337338440    0.8654703896178261    0.3291823005929753 H
   0.5006995064524173   -0.1829033064265800    0.9921248268734658 H
   0.3480507242435278    1.0001256839218069    0.1004842177667428 H
   0.4598481917522321    0.9343900501803359    0.1501493580517622 H
   0.9743252961338634    0.7015082340282440    0.2995163045105848 H
   0.8475073373668781    0.7220532655009702    0.1575022593626246 H
   0.8381699519940140    0.9046316170945967    0.2823003685543368 H
   0.1208402886641067    0.2308916903061297    0.6270667868111052 H
   0.2509548185128950    0.1701909335928421    0.4130644459519500 H
   0.1862498256961869    0.0605919324623081    0.4139713421065930 H
   0.0237791752404059    0.2725031404287149    0.5607061338623833 H
   0.0950591892275262    0.2897185725921999    0.3768805828944304 H
   0.0284920831502306    0.0405868560861286    0.5138922025071248 H
   0.3716094650748296    0.0424585023630164    0.4483950217717333 H
   0.4387448454986805    0.4002945433705982    0.4813704702003821 H
   0.7996613917778868    1.0302866695004322    0.4285614471998728 H
   0.8011574609759610    1.1593849568823202    0.4035161660733897 H
   0.2436237895064405    0.4407789207847798    0.5669179413507751 H
   0.0625653490722611    0.6071780043898763    0.5882772141999120 H
   0.5322890365633426    0.3664189341057718    0.5699692660435089 H
   0.4889213682643035    0.5906711240312132    0.6589130704792223 H
   0.3528614855165987    0.5951638178125204    0.3562346823216122 H
   0.4118888087458479    0.6048369611102135    0.5206982159733915 H
   0.6062400849472184    0.5360994889729896    0.6571905426799518 H
   0.3750676754159207    0.4725557238466128    0.3962430313815174 H
   0.5057760664536538    0.6469638566757194    0.4399723854245780 H
   0.5897086652764444    0.4709833033046585    0.3853602775258001 H
   0.4282143739339413    0.4370949713014500    0.6041392734878972 H
   0.6560068558147449    0.4315358847723826    0.4975391638696559 H
   0.5850184448500981    0.6477318258226648    0.5855320927175534 H
   0.6552907141637289    0.5631230160724653    0.4615730421234333 H
   0.0996387266274451    0.8292206119051030    0.6819225062759876 H
   0.1412097346933124    0.6834305076871929    0.5322492847449710 H
   0.6481582912426774    0.9711508170353205    0.4962872591224263 H
   0.0723789541462563    0.1970951061063274    0.7927945135811477 H
  -0.0196640938422374    0.1427846845384139    0.7283208082733624 H
   0.3308031629217376    0.3132552672408402   -0.0360000604160996 H
   0.0948069450022695    0.0871113776855443    0.9719632749601004 H
   0.0112568441038121    0.2494625805868051    0.9923210096390899 H
   0.5648735541685491    0.0230260606215513    0.7265027042549415 H
   0.5249627914990912    0.3070075337165625   -0.0510658907505629 H
  -0.0484684997832595    0.2370822346386136    0.8201717107312575 H
  -0.1466980548480920    0.0393636015551627    0.8002300559837565 H
  -0.1632780387806252    0.1437353620123886    0.8750827637967006 H
  -0.1410790972785808    0.0187138470169440    0.9283309343725682 H
   0.0813321744634134    0.5761688362524391    0.7821122542001889 H
   0.2770997874928056    0.5866611961546588    0.8029665540478459 H
   0.3354276403847770    0.4322516409299369   -0.0653110591130751 H
   0.8350161743385776    0.6811941874730226   -0.0463222920843195 H
  -0.0089966275689536   -0.0030106186969320    0.7448921437139884 H
   0.1015624512648912    0.0036485799215505    0.8164600477845604 H
   0.0495979663428294    0.7020400192402486    0.7815833512130121 H
   0.2590614260280411    0.7907337712614333    0.6597962522336251 H
   0.0539716492600675    0.7377550408738608    0.9228299121350144 H
   0.5710125117587475   -0.1007424911718656    0.6734413744082396 H
   0.4907439777597287   -0.0468465055652629    0.8809107573102946 H
   0.5995084983956124   -0.3268046818817418    0.8167546812420909 H
   0.4445081911419593   -0.3121731613838493    0.8037555968194767 H
   0.3958539042885820   -0.2135745384306902    0.8841969982890449 H
   0.4074919309573218   -0.1963605917007584    0.7548155422872583 H
   0.5944034521930753   -0.2508819448332101    0.7141863071119715 H
   0.5581909667825389   -0.2949124234969953    0.9717757156127456 H
   0.6073577878074076   -0.0639483020619367    0.8474842322443483 H
   0.6247510419144753   -0.1747155966819725    0.9754615083046351 H
   0.4120620454407800   -0.0750964808778437    0.6368529293102572 H
  -0.0158086713303398    0.0289195182434182    1.0010658743822372 H
   0.0007560909679107   -0.0673625710837038    0.8584884325740233 H
   0.6799802049703192   -0.2295451772766894    0.8149667591876124 H
   0.4364579761576320    0.3100771821540138    0.1373471750129611 C
   0.3811643023660184    1.0187990691176452    0.2528693606197817 C
   0.7181343185595772    1.1473685421546347    0.2087577017001204 C
  -0.0244473112056538    0.1836890682897304    1.0217592037555359 C
   0.7431217184942724    1.2551894793221252    0.2188399148931812 C
   0.7710497932044458    1.0721499006102655    0.2781510671304784 C
   0.2408367807532451    0.4057662864067441    0.0513177985049581 C
   1.0056043049054211    0.4568955034773696    0.1721304512199266 C
   0.4313594535126447    0.3930705829152326    0.0536080346736171 C
   0.7902015084910330    0.5946379743347281    0.0692616946867635 C
   0.8937035477355126    0.5889985258504390    0.2373637359535896 C
   0.9135416862442780    0.4787376898003277    0.2201844495249857 C
   0.8625709565889603    0.6463110086291384    0.1353379185562399 C
   0.8049186543232512    0.6090778739042727    0.3050848768579140 C
   0.1641088713723625    0.9426312355328546    0.1696045082852431 C
   0.2226085112798104    0.8617233834801679    0.2189347724941423 C
   0.3218100764195544    0.8512755865845406    0.1698538687968605 C
   0.3751205887160463    0.7709752768550659    0.2311103204720490 C
   0.3816042800807621    0.9560996615586812    0.1647308397267728 C
   0.7141505994158681    0.9707972838496860    0.2616106322719836 C
   0.1066689471468838    0.1598693985492272    0.4942579532182292 C
   0.1011906084845560    0.2537235467338310    0.5537739116394196 C
   0.2081711535825035    0.1216009166378610    0.4611344694426260 C
   0.2818155947615414    0.0897569348435897    0.5403637057508217 C
   0.0434759700022603    0.1659633897007607    0.4060112084259420 C
   0.1671937892536627    0.3356184693825430    0.5197870655990690 C
   0.6598347344169881    1.1057778881017926    0.4268461055824932 C
   0.7597314208556435    1.0883901456461498    0.3888125193062324 C
   0.2485744448469669    0.5954415938869474    0.6620491202564510 C
   0.4126513401394400    0.5415147112624406    0.3776401623203081 C
   0.5537722713182075    0.5773185618225273    0.6139807495876098 C
   0.4629735556903408    0.5842822743193923    0.4621998927697845 C
   0.4778990929442867    0.4238245535682497    0.5474875115829992 C
   0.6177592379006073    0.4931688995835867    0.4594942952878262 C
   0.0990262370574971    0.6812461776473806    0.5954073438721537 C
   0.0152862281503695    0.7494847669258008    0.5995724548961723 C
  -0.0018678288465411    0.1725505447919185    0.7990953578631689 C
  -0.1312444718524808    0.0703400901544320    0.8689472016981721 C
   0.0137655144015518    0.0946031618105312    0.9686554754356771 C
   0.1684144193551922    0.6727145900352338    0.8683507486012199 C
   0.1110034887188235    0.6515716715573907    0.7795151680647847 C
   0.5306502464228746    0.4537252911883745   -0.0882701916366034 C
   0.3372426390630608    0.3846600581376622   -0.0029881780452635 C
   0.5246185651123831    0.3746616048918434   -0.0061335698589504 C
   0.0195743799797332    0.0010520420707569    0.8164183679295927 C
   0.1685303937116321    0.6772867545116311    0.6829343206862392 C
   0.5350545900605966   -0.0841947613904927    0.8280096793197617 C
   0.4384353389349316   -0.2367279912226345    0.8218166277661054 C
   0.6093953122821103   -0.2539545641377676    0.7914765678223399 C
   0.5291967978007921   -0.0500854934277659    0.7224381997773969 C
   0.5595416331312266   -0.2142689786167577    0.9521718114141212 C
   0.5282712499524292    0.5179012196991056    0.5174549411761674 N
  -0.0254033748065549    0.0860210694575795    0.8651061874774373 N
   0.5361051727619962   -0.1975756763471824    0.8475632802451492 N
   0.3767021890019949   -0.2052546250998581    0.5828291541228947 Cl
   0.6959071083081506    0.8456866428410562    0.5336505902137143 Cl
  -0.0335331771929890    0.8457943367736550    0.3486935030452059 Cl
   0.2668034391601294    0.0683109879209172    0.8768139150142403 Cl
   0.4740559927077608    0.2016873239356914    0.7468144473698286 Cl
   0.9120456170462040    0.7805555805556911    0.9079099612929381 Cl
   0.3916382364319932    1.1157689141798459    0.2546508151105584 O
   0.4152622128387924    0.2237445267654586    0.1169686004064878 O
   0.4424712465390387    0.3394791111870124    0.2242906338574982 O
   0.7165201004858799    1.2992251570033462    0.2991965194164356 O
   0.7696979671121937    1.3050554836992070    0.1488278192020089 O
   0.8641083416515162    1.0652827412943511    0.2455531088365634 O
   0.1666414613811179    0.4323716639610262   -0.0047588532632038 O
   0.2410962733757793    0.4110992156773541    0.1390646724849080 O
   1.0797423619390560    0.4322932330694233    0.2303960139920844 O
   1.0100062565720413    0.4558914989388391    0.0855470200881282 O
   0.4417717762017608    0.4936099990771755    0.0937981941353644 O
   0.4779506290489296    0.5250113959443049    0.2978986949669226 O
   0.7316822979109359    0.5332457483024793    0.0969673003492916 O
   0.7218933373876840    0.5640462130257080    0.2872243403860441 O
   0.2015337961955048    1.0175394214646287    0.1371790183567119 O
   0.0684684438150499    0.9234758271490399    0.1612785979463405 O
   0.3119196383344177    0.8171536924366127    0.0741842292820926 O
   0.3770276420397543    0.6841999622676913    0.2004389775431088 O
   0.6291131273960695    0.9628197629528401    0.2379587518141637 O
   0.4251751209554893    0.7999872795803796    0.3050712231123211 O
   0.9770274986389121    0.6327564274572327    0.2666222755227609 O
   0.7691362163231883    0.8865717159561828    0.2726917247478922 O
   0.0702993889673441    0.0833257502755058    0.5566897768035083 O
   0.2605806900974033    0.1047917505511450    0.6287404485735170 O
   0.0438768063717056    0.2456962638129567    0.3544280761942170 O
   0.6097613563446237    1.0450726750878458    0.4810317854478596 O
   0.3640486618746786    0.0529166972935151    0.5189254855074305 O
   0.6174243619463873    1.1854394614034405    0.4054046946743423 O
  -0.0125802351829453    0.0970882921448434    0.3867428989216268 O
   0.2192177110334000    0.3767397264326101    0.5893601718108844 O
   0.2627892767478548    0.5713612305578778    0.5742038674464134 O
   0.1727366386517602    0.3611211353386922    0.4346610783889462 O
   0.0304846675618129    0.8282127452393345    0.6489350569235809 O
   0.3688137582449013    0.9801027823429903    0.3364813055396552 O
  -0.0656269058185366    0.7374141338734278    0.5610420878657871 O
   0.8111711218148150    0.6639497893552526    0.3772851649348931 O
  -0.1244331529308224    0.1958072352158023    1.0214085180792556 O
   0.2900976134908028    0.5550890487006022    0.7359281004231658 O
   0.2552857358861960    0.6452043606320896    0.8812901877141389 O
   0.4897550064351878    0.4419934855294602   -0.1663516509731699 O
   0.5909677118835446    0.5302397506927777   -0.0751489421218423 O
   0.7864214693108214    0.6262524566450477   -0.0234896363620727 O
   0.1229213035224744    0.7246171238135958    0.9390117565171487 O
   0.2008386748965934    0.7766518611781823    0.7049434399637784 O
   0.4345190298859031   -0.0285853281804058    0.6916137911741785 O
