Li1 Co1 H90 C51 N3 Cl6 O45
1.0
  14.1006110078999995    0.0000000000000000    0.0000000000000000
   0.0000000000000000   13.7612120351999998    0.0000000000000000
   0.0000000000000000    0.0000000000000000   14.2226890428000008
Li Co H C N Cl O
1 1 90 51 3 6 45
direct
   0.6215156204004229    0.7134407559804243    0.3436062271131466 Li
   0.7402126044575176    0.6754172157092933    0.5935990371436765 Co
   0.1877670405287147    0.2485412991858091    0.1662740789933232 H
   0.3762290865004212    0.1217029076593005    0.1630327791335518 H
   0.1103469911855776    0.3640500200698484    0.3303527558860987 H
   0.3743937050417382    0.3068813638506388    0.0843584864851827 H
   0.5211472534405025    0.0257869377124849    0.0615329856939421 H
   0.6825725490340580    0.2241262985927951    0.2365934115042382 H
   0.8787541186447766    1.0596486327149359    0.2834087498693183 H
   0.7103514871084823    1.0216934003804603    0.1855243065119092 H
   0.2391740327217399    0.3885275151581004    1.0356047634224523 H
   0.1370529261120161    0.5805781857850638    0.1668393729384981 H
  -0.0103222478315624    0.5279164726927643    1.0494882139714861 H
   0.6257189843515873    0.3264305139772315    0.0630685602912829 H
   0.6250736222467181    0.5125894797316436    0.1964427762564624 H
   0.3711739864086546    0.6328344840065125    0.1700026284849431 H
   0.7336511866616386    0.3755424670720068    0.0289695232849502 H
   0.8475512154689145    0.3496435855571839    0.2300095651079476 H
   0.7490930706961682    0.5719139780325039    0.1343729385947227 H
   0.7952024201162561    0.4554176987876720    0.2780897838304526 H
   0.1531706673838426    0.7444075050509256    0.1216010921841484 H
   0.2558889112378518    0.8817565986602175    0.2394585518358148 H
   0.6515476523288795    0.9194996403829556    0.0238031303631280 H
   0.3872059157962072    0.7558294640758970    0.1534023921098449 H
   0.6740906470843487    0.8924504241476511    0.1625054526921573 H
   0.9406975336861991    0.7940070605445910    0.2546624277941005 H
   0.9067472318353225    0.9613426116653636    0.1652405191681900 H
   0.2396988326751500    0.0768013395111269    0.3739971045835934 H
   0.1696047070059675    0.1890574399220925    0.4740246729090218 H
   0.2867563679570073    0.2154540973582862    0.4762304442582789 H
   0.0467462011561559    0.0490392500220052    0.5956331110036155 H
   0.4409589056188008    0.2856157951455384    0.6507780978369628 H
   0.5327095396356651    0.2067455621149181    0.5996689160350879 H
   0.5900389702218359    0.3154547365810507    0.4524167337158650 H
   0.4663190123403929    0.3209920395311896    0.4805655597778868 H
   0.4543737852927400    1.0058423256755546    0.5040190712057321 H
  -0.0633575382584113    0.1789064445270150    0.5713204090272582 H
   0.6855319952578153    0.2151932191746773    0.6009703576924496 H
   0.7519532304422532    0.1936064578312617    0.4711856879689383 H
  -0.1134191986789784    0.3300290342146446    0.4562946923658801 H
   0.3080433887699234    0.3757619244855163    0.3500916392403769 H
   0.1363018948273387    0.4458640344982394    0.6583455838219346 H
   0.0922151527952583    0.4585160450591297    0.4188768033577948 H
   0.3268326454802578    0.6372948469340654    0.3779351784479273 H
   0.5426270531336016    0.5101660740087541    0.5934837284284916 H
   0.5327678349818412    0.4249164610386746    0.4572494344655728 H
   0.4342237364869957    0.4483837253446058    0.6197649751656708 H
   0.6629088621310821    0.3930619994637259    0.6852455602503499 H
   0.7937003575469012    0.2827308748421196    0.6347480771204925 H
   0.6889999300850793    0.4294138846552638    0.5677864078374167 H
   0.2345260071884293    0.7578227478019117    0.7308768749790190 H
   0.2577214559400299    0.8098232546009918    0.3416291045088783 H
   0.1403598750076261    0.9160457295008020    0.3943476866098892 H
   0.3790630062488358    0.8086365858716510    0.5512252639291739 H
   0.3370960305150565    0.9626324689798644    0.5942655777655991 H
   0.4044108439985441    1.0465960033723645    0.6649673977220055 H
   0.2322615663083773    0.8555328911061935    0.6441344877773143 H
  -0.0631093220642309   -0.0869051708047909    0.6273676162467354 H
   0.7047935719262187    0.9129646055495437    0.3721676333829155 H
   0.8311937682724224    0.9023507148816002    0.3886827944254688 H
   0.2556151642351271    0.2625575064433261   -0.0872813484752678 H
   0.2577796094483807    0.0441159918215864   -0.0574269377711997 H
   0.0255605943882908    0.1067209424463065    0.6980279531897521 H
  -0.1435271138439417    0.1064019298485229    0.8030896609655011 H
   0.3818834514038520    0.2599029437560744   -0.0690028078126914 H
   0.5413576045976501    0.2735543575646452    0.7134561186611109 H
   0.2614808674981745    0.8770084703825000    0.7660840006142019 H
   0.3703832405329083    0.0634820185435289    0.0507642766587450 H
   0.7830029487668497    0.2362146233402440   -0.0507439540039270 H
  -0.2237491694248130    0.0266662207268770    0.6712003962592884 H
  -0.2721867867463137   -0.0362010614418063    0.7756574363822383 H
   0.2061492226805932    0.5929869764906506    0.8635627541626982 H
   0.1908456305256786    0.6485729232839544    0.9848281488296167 H
   0.5250667502601110    0.4495118236516656    0.7043699325249231 H
  -0.0478397709873754    0.4711626730999475    0.9150860629965484 H
  -0.0759151501165638    0.3722854865178700    0.7944098677401479 H
  -0.0385536485685213    0.5731195404464514    0.8397036935463245 H
   0.0111044832392210    0.6882176870303821    0.9877382876841925 H
   0.3747688660895138    0.6707170483232698    0.7672159947083954 H
  -0.0314915432495242    0.0435702550085216    0.8464148013904715 H
   0.0189779009186251   -0.0621333702447797    0.7200392619554795 H
   0.4606605341400299    0.7176998284988974    0.5964248037676291 H
   0.3280574151012567    0.7093124858938443    0.5908210814504103 H
   0.4098077732491535    0.9253123551202471    0.7697626298693698 H
   0.3810912871498532    0.7679722898366348    0.8446204852858867 H
   0.5034821536898288    0.8778892067572465    0.7005352146431023 H
   0.4826877356439921    0.7340770196520837    0.7786927273789049 H
  -0.2314296876618826   -0.1109749983136427    0.6823684671861017 H
  -0.1441703483814322    0.0124901438303797    0.8950321899812771 H
  -0.0874600399024600   -0.1960699737420176    0.7633686209919813 H
  -0.1683118554274234   -0.1575944384006784    0.8599185769017015 H
  -0.0408790797134291   -0.1334250557075524    0.8566786832457738 H
   0.2025139192195388    0.1599284650196885    0.0647834258786977 C
   0.3016954369010397    0.1998152132651183    0.0418538660030220 C
   0.2191507869317655    0.2102343536455765    0.3405948415818233 C
   0.4780216967068752    0.1651968963042695    0.0599678808158833 C
   0.3798565888810870    0.1323901930251395    0.0852106460144762 C
   0.7409792379029720    0.2261021419945572    0.0825761231132694 C
   0.2064477913027359    0.6423103935169864    0.2721541974061163 C
   0.6396169636583143    0.3612174207391869    0.2566950954501958 C
   0.6960294127042699    0.3944136245932873    0.1707134645279429 C
   0.6978250795718840    0.3325695081140784    0.0798129325603623 C
   0.8525786571847580    0.4788306074163499    0.1364316210219267 C
   0.8017624195338824    0.4150837515612035    0.2114504867785493 C
   0.2485310740532169    0.7271728312886625    0.2171814705436245 C
   0.2275029072713748    0.8179489923422586    0.2747099728920749 C
   0.1197394919733661    0.8408292444010609    0.2790059256346353 C
   0.3570214082056112    0.7009287766896773    0.2025393730209044 C
   0.4177896968648707    0.6971812870159416    0.2863343569661749 C
   0.7319526787043181    0.9456884672884748    0.1703211336555454 C
   0.7773393644047779    0.9464493014339860    0.0687046252969071 C
   0.8008092693482295    0.9130590739725775    0.2468263568749785 C
   0.7983526382149692    0.7995756107423488    0.2449884484512383 C
   0.2208074527306385    0.2357357411034800    0.4427761517142911 C
   0.2039386801741346    0.3499400710694748    0.4496236613312789 C
   0.2075824939047037    0.3782900448219380    0.5593848320425433 C
   0.5174548177034390    0.2737999754645333    0.6391227772783011 C
   0.5368224819732352    0.3532406524342427    0.4883265394117542 C
  -0.0134249502588181    0.0648380037541535    0.6436359885147160 C
   0.0208834921008047    0.3259930525105670    0.4422718167057414 C
   0.7896757092555465    1.0510018652866284    0.3812917870228837 C
   0.7279528520323817    0.2794855211708177    0.5879763310745677 C
   0.1094087339715755    0.3825839979889158    0.4051023336066492 C
   0.5120069544897838    0.4479503332869335    0.6293032558376140 C
   0.6669980466329236    0.3685002094749208    0.6111751789863156 C
   0.3918284105209736    0.7516532330976231    0.6063125260947365 C
   0.2696670375822459    0.8256009346080018    0.7075908424289605 C
   0.4054661174183741    0.9766784701246459    0.6309337491944058 C
   0.7782031567605259    0.9412288310410991    0.3527099907973810 C
   0.3143175849696791    0.2145472004971611   -0.0647553691027393 C
   0.3197655758373770    0.1388903472100466   -0.1384383412078292 C
  -0.2172600889198096   -0.0401738219704690    0.7175826238405032 C
   0.0876827250895232    0.5431679635834756    0.9461153570120433 C
   0.1568541957054806    0.6237226412648075    0.9192835814700484 C
   0.0404287444197002    0.4598147678717922    0.7934269312533886 C
   0.1459021880291126    0.4500702046998135    0.9670396702065763 C
   0.0043005227621715    0.5140188596401637    0.8747835577336509 C
   0.0988340149103618    0.7106001631678137    0.8818103583407129 C
   0.4025009976816070    0.7416955346296764    0.7766333418497791 C
   0.4315876805047992    0.8969449410435316    0.7033405913113211 C
  -0.1057989615176384    0.0398380256185067    0.8295994158272844 C
  -0.0400947165398189   -0.0362061482030466    0.6842429369097786 C
  -0.1067138154904749   -0.1384914699028763    0.8139089933390720 C
   0.5591812293937098    0.3578521648386497    0.5926934418683217 N
   0.3716299950168204    0.8041638693810860    0.6987064465443463 N
  -0.1186530144305549   -0.0438028627753238    0.7594776549564120 N
   0.5158882288522449   -0.1031544662467930    1.0507509850231456 Cl
   0.6094594052545149    0.6870629922288374    0.5001416750372546 Cl
   0.2261384273925085    0.9829431799321456    0.4687566114492988 Cl
   0.8798001726059658    0.6690318769923811    0.5568673053011338 Cl
   0.7952612828137332    0.2939224762509239    0.8292457555605891 Cl
   0.7030305277584112    1.6822892822509687    0.7322746415996753 Cl
   0.1497027325565785    0.1987738805712142    0.1267077214426125 O
   0.3054924354828745    0.2954753917895652    0.0812704628443766 O
   0.2053159254572730    0.2689769991285659    0.2789053820598095 O
   0.2430923026441600    0.1190410781702770    0.3158569035631253 O
   0.4984225147876544    0.2520577045632005    0.0607884007586931 O
   0.5451653119352909    0.0994664942374828    0.0494171333764625 O
   0.6482470861354056    0.2709274087241266    0.2819765312544909 O
   0.7417345243224068    0.1780242547919141    0.1560488677437233 O
   0.8626321222381930    1.1018236968383168    0.3367875446749551 O
   0.0413443075816630    0.5766962602785490    1.0320393335767037 O
   0.2128730447863786    0.4613990033260701    1.0284436703483153 O
   0.1555960941955487    0.5670183336788180    0.2342352076583220 O
   0.5870320083266213    0.4226632438132815    0.3003422565553778 O
   0.6498512719389375    0.4827593311262752    0.1378596210252230 O
   0.8147923513501040    0.5650868177678641    0.1172974053204476 O
   0.9249577902186532    0.4471443723024192    0.0999378188697412 O
   0.2240087324464402    0.7291087072806796    0.1216460907071474 O
   0.0636163920909123    0.8066796361544956    0.2210829831080219 O
   0.0878876807470036    0.8913277032739024    0.3482706052627613 O
   0.5013625292293530    0.7270674626629708    0.2778718222346763 O
   0.7203007013603613    0.9264372560345273   -0.0021146126804498 O
   0.8626392141294552    0.9587113027437818    0.0567202530388152 O
   0.8913883229285620    0.9572434087858710    0.2325351072112662 O
   0.8832283928421609    0.7562138778896272    0.2525453879073821 O
   0.7272443720952780    0.7478447022890039    0.2412655237749932 O
   0.2828671747887627    0.3614891991254535    0.6080744995109160 O
   0.4814725400761972    0.9829039392025778    0.5641543942396682 O
   0.0222472627905448    0.2416276639800845    0.4727549411483361 O
  -0.0928839183398660    0.1230647063113425    0.6026613178145211 O
   0.7571799543025673    0.2697443733956717    0.4887388383787326 O
   0.7313796538903244    1.0861324917723916    0.4351564252565253 O
   0.2078555317183022    0.6472285649561649    0.3603259908149610 O
   0.1343197112195262    0.4246669190658297    0.5893860504278955 O
   0.2834997714893597    0.4046981838049312    0.4089173646346578 O
  -0.0599711601806637    0.3719853676046933    0.4322519112173245 O
   0.3957608642259183    0.6538813219782805    0.3672916215548211 O
   0.1805716076539864    0.0818030791706815    0.0274873844336707 O
   0.2954028017840020    0.0477275923021888   -0.1182389260947331 O
   0.3456141011102036    0.1561904221882562   -0.2193843561657257 O
   0.7679489911843681    0.1879972135435816    0.0023064922042015 O
   0.1200217492456056    0.4802437096889011    0.7562961187599985 O
   0.1183274964230424    0.3687494607756947    0.9401333658608643 O
  -0.0166694905113198    0.3900651704130208    0.7563769754810123 O
   0.1089782561719540    0.7513792746708248    0.8083221454679780 O
   0.0236358550997029    0.7384683479628041    0.9357649936203525 O
