Li1 Co1 H110 Cl3 O55
1.0
  12.8744923237000002    0.0000000000000000    0.0000000000000000
   0.0000000000000000   12.3036116348999993    0.0000000000000000
   0.0000000000000000    0.0000000000000000   12.4963873422000002
Li Co H Cl O
1 1 110 3 55
direct
   0.4373317425057015    0.3715498711315716    0.2330550895509677 Li
   0.6094969777841197    0.1460331625149353    0.6964922287346221 Co
   0.0917868551309516    0.1756358524248530    0.1627795790412723 H
   1.2084984611904723    0.2970489825144506    0.1967605999853015 H
   0.1527115875614556    0.2841153818188127    1.0236419791424285 H
   0.0704722282625318    0.0532530883485844    0.1440357618414796 H
   0.3251168323037275    0.2141034190259867    0.2763532032524227 H
   0.5948470797331654    1.3033843877119695    1.0594443264727758 H
   0.6386025914719075    1.1166506002537413    0.2734795727369271 H
   0.4331319652530898    0.2915798567002768    0.0384620497059099 H
   0.3920437431547155    1.0350322893220536    0.2316418811158896 H
   0.9389732703903464    1.1204868721875949    1.2450019549698910 H
   0.6873283962824939    1.1426267127550036    0.1516891737741448 H
   0.8184092931108202    1.1118715157259749    1.2484269448351990 H
  -0.0169730838860137    0.1527937790288745    1.0207771511709791 H
   0.7133783555016715    1.2835040462920424    1.0138951621892851 H
   1.1010301459192751    0.3568436202054817    0.1849451851812654 H
   0.1621006956490403    0.5094085788291335    1.1480619380812391 H
   0.2805713865043407    0.5542181856632882    1.1418361387466371 H
   0.0321382196203826    1.4535841871560635    0.3151588185651302 H
   0.4443720201120772    0.5827277006259531    0.2010282333852287 H
   0.3863658493658138    0.5715326138427120    0.3043845046523945 H
   0.4754318856155799    0.4131750471528369    0.0271551018552422 H
   0.6201622526973086    0.3630369236241180    0.3093787480517842 H
   0.7229997057565452    0.3745912545164191    0.1537705753254688 H
  -0.0146725659894379    1.4955799860590742    0.2069779529292862 H
  -0.1716413962305992    0.5201054379226602    0.1609870609809241 H
  -0.0974248775535040    0.5547310432035979    0.0597004278653113 H
   0.7818563954766592    0.4026821931981657    0.2628212923593478 H
   1.1017447372032410    0.8567513044299432    1.0694552197473097 H
   0.2412261457551177    0.7140850652729018    0.0784902583635281 H
   0.3232324861570960    0.8716493689527258    0.1159684500340455 H
   0.5455674666775054    0.6940673658112753    0.0761987160788794 H
   0.4413854945828942    0.8471118584266588    0.1257088651369733 H
   0.5958723628797249    0.7714763436189320    0.1625491124335133 H
   0.4192688943441542   -0.0152970516450741    0.0179814105426441 H
   0.9888004778538279    0.8617498367166380    1.1068740342570780 H
  -0.0967592202378968    0.7021812435052709    0.1660261173318226 H
   0.7054526060869035    0.9206756238362094    0.2180667577338598 H
  -0.0509997459854247    0.7857648310335811    0.2509370576654947 H
   0.7918132929431341    0.8248582301323986    0.1991068780892930 H
   0.2669257998992208    0.2976016657591583    0.3482475816353701 H
   0.0652211474198683    0.0638663947398228    0.5168707158498564 H
   0.1319076604421743    0.1678804060704399    0.5405407567904990 H
   0.2282679648959866    0.3230958059602562    0.5141075172505787 H
   0.2633497365607660    0.0104850771649904    0.5022416878760952 H
   0.4890813558689823    0.1120764665139894    0.3993855611570176 H
   0.5522620995867454    0.2829311766900788    0.3560658412110851 H
   0.5903257364027691    0.0956162590554299    0.4656006981675136 H
   0.3425753847925299    1.0335693042625331    0.3409662772464825 H
   0.8507290141171409    0.2416985683264514    0.3418577348889949 H
   0.7781444044483196    0.2810674962781453    0.4377878599061468 H
  -0.0454422452932780    1.0321469576768882    0.4043397929925603 H
   0.1236704424351561    0.3385587452699092    0.4498161362298493 H
   0.2548321191477569    0.4660708975187519   -0.3501006498194684 H
   0.3635696106776498    0.5256192660580969    0.4997777757743934 H
   0.3463137846291898    0.3817159917562833   -0.3634541091377855 H
   0.5676529977299861    0.6432708990057721    0.5783788924893845 H
   0.4316818109844332    0.6326163039250761    0.4852599799481270 H
   0.9958143466518831    0.4581407057266738    0.5105592917686216 H
   0.9322390242686257    0.3804822076894211    0.4335490348321894 H
   0.1098695098987393    0.8245087392570687    0.6548978074217747 H
   0.2585782862809817    0.6907163172554961    0.4408463438466159 H
   1.0615645120732971    0.7536206109674856    0.3875333357142422 H
   0.2284038925858713    0.8201360394680578    0.4308786630610368 H
   0.1226125366430242    0.7506507512966591    0.5489199784913498 H
   0.5541332413292167    0.9654104558784330    0.6019112936503931 H
   0.3584206697848140   -0.0681921461353749    0.5001490830868941 H
   0.4208992498931152    0.8757863655932585    0.6545008927084119 H
   0.5885291607073203    0.7280898961398996    0.4803401580574927 H
   0.4677158532080627    0.8097976117141137    0.5537605774855668 H
   0.6830237605262567    0.9685477460616269    0.5910025408831312 H
   0.8523912155820177    0.6964536569972486    0.5352384243494869 H
   0.9076865998271502    0.6743138164298399    0.4326527758020154 H
   0.9895228364343586    0.8661225365056489    0.4250977923164139 H
   0.6943593531329917    0.7998354962282573    0.3433901777843373 H
   0.9686987143440087    0.7702181764677444    0.6353233501565172 H
   0.8167781608322029    0.8678943739666236    0.5949380783031278 H
   0.7432381736859057    0.7165883952636367    0.4327191949980015 H
   0.7444630763541817    0.8712754949930707    0.4969113473403902 H
  -0.1084272531376071    0.9688240876839805    0.4817253583978778 H
   0.1668154446639013    0.0065612699584089    0.6753653227920986 H
   0.2852177833094310    0.2328962748850037    0.9105692997106432 H
   0.1044275865794775    0.2289380875295235    0.9269340293240897 H
   0.4068078204651732    0.0948286854317214   -0.0414231181160610 H
   0.5613335252448280    1.0319193822231854   -0.1212825184909144 H
   0.3835603018465917    0.2087537703250071    0.8303781234483699 H
   0.8816583890383543    0.2570111452827649   -0.0755380977758502 H
  -0.0473763021379244    0.0888930299374562    0.9063840901322409 H
   0.7981475232917653    0.3082871460799997   -0.1505501772137602 H
   0.6815961314176382    1.0124698086263391   -0.1436081708862957 H
   1.1600072287361443    0.5269855315497936    0.9879276572525446 H
   1.1347557476038328    0.4108992926158052    0.9272701264604050 H
   0.1499075935015464   -0.4519554784082061    0.7810662717007021 H
   0.1351660413511269   -0.3700396938477492    0.6850073094479626 H
   0.2838383114395145    0.6424361847523681    0.7858052413227475 H
   1.0024320833251312    0.5191512465560618    0.9392415863634448 H
   0.5625001731888678    0.5403433979126923    0.7614542035654283 H
   0.6161403465360318    0.4798920424838320    0.6678287446258668 H
   0.8834992383242225    0.4554593792203639    0.9223567064199863 H
  -0.1447898520059296    0.5846482749013124    0.8457745732167177 H
  -0.2502332330626717    0.6307046701139695    0.7965819559293141 H
   0.2302913456511287    0.7979685647384137   -0.0172256447407866 H
   0.2291340184629667   -0.0642507018311315    0.7475117740272825 H
   0.0339679956929221    0.9541779816992265   -0.1859404054364828 H
   0.0191576611798481    0.9326395905451762   -0.0593402964067734 H
   0.3823796727687352    0.6684805698897411    0.8621953190195504 H
   0.3416464161233744    0.8477133078400172    0.7945421664043911 H
   0.3874377362917624    0.9753587542831716    0.8151017083715633 H
   0.8699530731151326    0.7245185870557148    0.7100313417091896 H
  -0.2479209088753173    0.8297104639131412    0.8546251311396869 H
  -0.1508568873527301    0.9060945394096560    0.8837615519331145 H
   0.4495768855401799    0.2010015750485041    0.6900159570103374 Cl
   0.7573179521690004    0.2273117358050234    0.7053355845760988 Cl
   0.5323980153518105    0.5350303238382007    0.9507889236897056 Cl
   1.1450862520350766    0.3003829629112020    0.1534160728697839 O
   0.3149416738037804    0.2926291420957439    0.2837281347007125 O
   0.0365029742520316    0.1210437521593719    0.1502991720460981 O
   0.3890385761137770    1.0816446188573283    0.2967174887880213 O
   0.6669679817970654    1.2707273101055643    1.0701674255837872 O
   0.6937325323002087    1.1043046318903442    0.2187589577884139 O
   0.8816350871486596    1.1276473712844697    1.2938320674888402 O
   0.0505218493627614    1.4681165054139662    0.2388783725532685 O
   0.2115659470926000    0.5567865372122240    1.1090426610175885 O
   0.4774218669954932    0.3464361070459491    0.0778991275192516 O
   0.3908374819981951    0.5395241262793609    0.2324893260381703 O
   0.7385374058048614    0.4364673948393566    0.2067818962664356 O
  -0.1077429543102443    0.5701866675879533    0.1416846823498265 O
   0.2407942840661123    0.7906910268367773    0.0577906759228912 O
   1.0459910824607825    0.9080208030713579    1.0724720916613777 O
   0.3885034093804591    0.9030222707846632    0.1463540318507782 O
   0.5290099205902251    0.7505109549465271    0.1282079874148605 O
   0.7139632329330043    0.8416256644534574    0.2174161697057067 O
  -0.0844799010985331    0.7823203139878880    0.1796292488085453 O
   0.1220431938048210    0.0909046343942967    0.5593926052126786 O
   0.1829566636553060    0.2858303254163617    0.4603839904731342 O
   0.6183198499521274    1.0125185747949896    0.6024562511499900 O
   0.5591648960439234    0.1418734083290323    0.4119011783283774 O
   0.8274348917191704    0.3093843848746400    0.3846348980291613 O
   0.2907737305422647    0.4150964341976737   -0.4023261436464790 O
   0.5521758825948756    0.3597890967919827    0.3431901199651020 O
   0.3743801340366013    0.5926800628780794    0.4541597916010859 O
   0.9964823341564597    0.4231355370997383    0.4387425358195376 O
   0.8519018758984325    0.6454336785854298    0.4754267380170740 O
   0.0953505684678682    0.7545487937108034    0.6219210767303067 O
   0.2020603295565426    0.7438738793931696    0.4404854395407154 O
   0.2942643536185062   -0.0446331287832838    0.4566084993085258 O
   0.4534488828777552    0.8815082627149384    0.5787806085904089 O
   0.5360750535456082    0.6911283913805942    0.5252395345441071 O
  -0.0370666140614742    0.9748141987332392    0.4599934776099869 O
   0.9939967992557093    0.7927741550076388    0.3783210732540956 O
   0.8918180129451716    0.7777216642841289    0.6528556172030210 O
   0.6871450880835636    0.7749509331352930    0.4206228990157589 O
   0.7818198891828044    0.9207975392578361    0.5411785411182211 O
   0.1659711395273027    0.2720457550777695    0.9444831012274093 O
   0.4435246080568526    0.0263696812795763   -0.0498172241186629 O
   0.6213887088248976    1.0578792393348972   -0.1579931283205899 O
   0.3570155658362335    0.2177852647591131    0.9079525434350456 O
  -0.0256473676707358    0.1604752633608341    0.9387374406589719 O
   0.8285766843142026    0.3207363361670408   -0.0796256791384656 O
   1.1137840468787508    0.4872874319597076    0.9328077268968378 O
   0.1897219789632861   -0.4152369917226768    0.7236816868312518 O
   0.5774949392073013    0.5493049941717322    0.6805700270173241 O
   0.9250698095392736    0.5274634400025702    0.9402178685213129 O
  -0.1779266926108719    0.6375611934262551    0.7955032441679974 O
   0.1569004905988765   -0.0547759229239909    0.7199966218009378 O
   0.3256791845750223    0.7010238597692948    0.8208873805038478 O
   0.3644045950583706    0.9167174364807292    0.7634019664935030 O
  -0.0135380746531766    0.9415881824925758   -0.1312614025143706 O
  -0.2277647742895442    0.8984463786262745    0.8945566718590506 O
