Li1 Co1 H90 C51 N3 Cl6 O45
1.0
  14.3740400916999995    0.0000000000000000    0.0000000000000000
   0.0000000000000000   14.0280597339999993    0.0000000000000000
   0.0000000000000000    0.0000000000000000   14.4984853775999998
Li Co H C N Cl O
1 1 90 51 3 6 45
direct
   0.5822522747333017    0.6219914608612829    0.3573595830089159 Li
   0.7202626731560448    0.6614808849515837    0.5491902416994442 Co
   0.1390767333155233    0.2203699888379731    0.1556378221608091 H
   0.2816059030499942    0.3298056505837802    0.0832654347925988 H
   0.3001351403625986    0.1389567341430313    0.1383042874187407 H
   0.3354634124948870    0.0916094877957554    0.0323594276630338 H
   0.5032336416451795    0.1262550488509347    0.0745914252857646 H
   0.7983590185703170    0.2612516225688322   -0.0034215512798766 H
   0.6958220845839524    1.0520730341081679    0.1971180171147701 H
   0.8328281028945004    1.1179681056667505    0.3051313688004227 H
   0.1345672147955750    0.3616903166374840    1.0234995106265645 H
   0.1360330518090787    0.4575311546075001    0.2996894210420796 H
   0.2983785013217364    0.5094031179294378    0.2788920762059175 H
   0.3324983449336375    0.5819417312013565    0.1278811296843833 H
   0.6331890326196787    0.5614107379306373    0.1782077659499422 H
   0.7502131948780892    0.3199375717029578    0.2747819917075695 H
   0.6579913844793941    0.3538289300957150    0.0892046758758804 H
   0.7522870724942520    0.3978863415780776    0.0323490817547479 H
   0.8708236835743792    0.4516351859868691    0.2008177139177805 H
   0.8192640667045232    0.5519325918062846    0.2545557410087849 H
   0.1008787043343015    0.7204455611566046    0.2439015246560440 H
   0.1672246998871226    0.7548794036950170    0.1074569272737299 H
   0.3270705042220305    0.8033372811841207    0.2739791492245896 H
   0.2620352048882132    0.7266089224224855    0.3525342513844079 H
   0.2718529039554008    0.9463342485507554    0.3310464896019720 H
   0.6596436687257498    1.0235266771925766    0.0270043855342916 H
   0.4049442260746885    0.6885573308181067    0.1447697903701612 H
   0.6836223134074926    0.9296861871346805    0.1676977025859838 H
   0.8886245244213271    1.0078088941077501    0.1756812951465442 H
   0.7780411400798681    0.6934311338454983    0.1622129917400594 H
   0.9411803817294067    0.8718064792209703    0.2648354354815790 H
   0.0446634722321880    0.1956031995179983    0.3539288798213369 H
   0.0420657335476020    0.2573986307064580    0.6314254524092517 H
   0.2173122184558043    0.1263348888303215    0.4060019054055428 H
   0.2259138363176742    0.1338006397599504    0.5268697032727213 H
   0.3658167437237273    0.1229894511226209    0.4046245201490902 H
   0.4959962887968268    0.3141384803430293    0.5272162222275745 H
   0.4198773971685931    0.3372286300958804    0.6589124615430271 H
   0.5579298157885909    0.4113806525226762    0.4698404358378308 H
   0.6144949147317538    1.0122293201093380    0.5445682416591135 H
   0.6038542041852235    0.2843909594518412    0.4718378168914918 H
  -0.0524330984672288    0.1148272389442336    0.6796504898383504 H
   0.6688519357930184    0.2106651542007185    0.5883947506668554 H
   0.7403982786054220    0.3710301685118274    0.5401913706724351 H
   0.0036882143198287    0.2999469240070175    0.3989687569528401 H
   0.1844147173368914    0.3540099957632530    0.5164813629683818 H
   0.5340706921314897    0.4809651152715857    0.6455621014910007 H
   0.6808207350243035    0.4753132431307909    0.5864973110872355 H
   0.3535543596705634    0.8446245305245433    0.5976853763075248 H
   0.4806982237714639    0.9466664398935614    0.5519988799081575 H
   0.4557779509939560    0.7359608928651287    0.6461187113567780 H
   0.5598543964787459    0.8623846487963637    0.6080623223182056 H
  -0.0294785221689114   -0.0896814425412540    0.6890045703831728 H
   0.8039517398572446    0.9462216171512632    0.3974003172567093 H
   0.6870729786125132    0.9278441647531125    0.3569712665845880 H
   0.3096676029914681    0.2718232912680011   -0.1000592319416569 H
   0.0266163540702044   -0.0570169109746108    0.8314422075718548 H
   0.1870361097748990    0.0627095538285936   -0.0754352804941784 H
   0.1855020942956509    0.2392492925351269   -0.1144455622767038 H
   0.4473181165128891    0.2445058997494001    0.7849270039187932 H
   0.5559711458655636    0.2102367271684730    0.6299770252492364 H
   0.6454889843988649    0.2350826436108759    0.7096584519577714 H
  -0.0767248075324916    0.0814484247048616    0.8406886906705047 H
  -0.1781660161765361    0.1108174185509210    0.7962571529462079 H
  -0.0989134196391299    0.3083557846931535    0.8336341606740113 H
   0.2470359424244544    0.6011026133972406    0.9027482766594063 H
   0.1433545841916667    0.5172641480427275    0.7514952358839838 H
   0.0589788629426131    0.6022424716743796    0.7406658288176029 H
  -0.0218098361699312    0.5874392840677077    0.9685903267176049 H
   0.5957527936383556    0.4286532479203656    0.7332174645790293 H
   0.4273318079895196    0.4162930923972354    0.7526477700670245 H
  -0.0626842177809341    0.4521065270080351    0.9053457893663670 H
  -0.0554099929051891    0.4950224406422534    0.7908896957275227 H
   0.7444368091528301    0.3924472429823487    0.6633274054721974 H
   0.2853598928577142    0.9126859743809528    0.6756411055139844 H
   0.2901525607200905    0.7854089286700211    0.6885445223280632 H
  -0.0096211961715521   -0.2097500786846878    0.7286735416598956 H
   0.0303967804258660   -0.1648372388517518    0.8933272925743355 H
   0.3273223471261066    0.8190899942599289    0.8333196450621223 H
   0.4419713942615454    1.0040991864940971    0.7241654845561529 H
   0.3472833322193425    0.9428277051703635    0.8248953168085859 H
   0.4386723913578745    0.8643371640065474    0.8730617274240650 H
   0.5271594132310389    0.9285527445701708    0.7703040971476105 H
   0.4247458961816443    0.7094811082731308    0.7664167945410172 H
   0.5360039690545203    0.7674862790115917    0.7472382394879770 H
  -0.1934866914073754   -0.0365828662502899    0.8785926499936660 H
  -0.0372710425240396   -0.0598419631023792    0.9366380235676682 H
  -0.1746722176564527   -0.2057381197204987    0.9226517350196731 H
  -0.2063432020905973   -0.2331360640754454    0.8056415814886686 H
  -0.0990073389541860   -0.2809181531675962    0.8536341808449459 H
  -0.2163195204454350   -0.0627689537752577    0.7636689213003025 H
  -0.1190893756090497   -0.1782453653900302    0.6775275094580995 H
   0.1531298456424216    0.1524454135176553    0.0388835574280740 C
   0.2420477832470355    0.2121635795281395    0.0232936530957763 C
   0.3237638486334291    0.1589316989858777    0.0695508987689114 C
   0.4057136687595176    0.2285763981478068    0.0866444084387487 C
   0.7972375523786853    0.2977812645661493    0.1278025007814110 C
   0.1801897395566313    0.6137258844238679    0.2194534536494245 C
   0.1126631434286248    0.3290721207731635    0.3173733372114279 C
   0.3953853268978774    0.6001787507786214    0.2578595343880578 C
   0.6894279184752137    0.4467184689705571    0.2653210034437936 C
   0.7293867606890779    0.3765947299323070    0.1005755188092193 C
   0.7251276936759458    0.4596807747667950    0.1682591405422945 C
   0.8505983330017263    0.5779055351005679    0.1122526006278186 C
   0.8203618791427335    0.5090244483129174    0.1911594636693549 C
   0.2558295731082165    0.6948397391961092    0.2007390850148082 C
   0.2615635212170431    0.7615930905331003    0.2826441922775761 C
   0.1881318351172190    0.8423334082589243    0.2856431262260268 C
   0.3497509752601103    0.6444849493396091    0.1737755788402955 C
   0.7320394595654376    0.9877270007210821    0.1777953090729474 C
   0.7836477753393967    0.9996010590839989    0.0854511803497837 C
   0.7989086204880521    0.9584435497100799    0.2537797978873481 C
   0.8102485081577770    0.8471480441587348    0.2342929347673904 C
   0.2112436393059264    0.1797877550298147    0.4640288632627962 C
   0.1168992523869656    0.2348010651121455    0.4802670422082835 C
   0.0475443602592022    0.1656232872582377    0.5295986779876338 C
   0.2973794780889925    0.2400077723393019    0.4587761766533618 C
   0.0669432208593622    0.2611147540327404    0.3876123982911013 C
   0.5653230746999365    0.3420004945781620    0.5088278945466777 C
   0.7329605645516164    1.0733076171972338    0.3810592999828609 C
   0.7047819872402952    0.4033792608741967    0.5960514125255838 C
   0.5241231756999358    0.9370015252460002    0.6144029846429770 C
   0.7543658200008247    0.9741178485204188    0.3539068085503271 C
   0.2574331584504690    0.2195309561974524   -0.0832981707914041 C
   0.2961689624727151    0.1271176057710962   -0.1329233544751842 C
   0.4668887451048072    0.3649651815062623    0.7112117176550830 C
   0.6235549979908229    0.2489869185924868    0.6390379717259606 C
  -0.1233693135810833    0.0527559321127139    0.7883073570193811 C
   0.1112320913466233    0.5769652767718960    0.7911945551583449 C
   0.1309788012618056    0.4803904812770881    0.9417544200786173 C
   0.0601253742849264    0.5328665908716183    0.8729175744352824 C
   0.1721015472837343    0.6649097269234654    0.8014045871820145 C
   0.5518900385619968    0.4132760678904592    0.6730408338981475 C
   0.0214090498243215    0.3661235740643304    0.8071403587356749 C
  -0.0163840825542144    0.4604383278569235    0.8479625539226575 C
   0.3310714670434162    0.8482636652992741    0.6670560708184082 C
  -0.0154455851022844   -0.1012839024028638    0.8768876443081624 C
   0.3795185282424532    0.8733597945342196    0.8248035830884515 C
   0.4802087997852277    0.9385904834071902    0.7103254181785975 C
   0.4632818259874786    0.7602080094621302    0.7217921331953849 C
  -0.1630074387264971   -0.0435995172958678    0.8118180887353053 C
  -0.0597567179457069   -0.1525404563122600    0.7192146225777769 C
  -0.1524843012484444   -0.2175401795305757    0.8528265102714325 C
   0.6132162206497320    0.3517972877631033    0.6057882916769816 N
   0.4145253876076609    0.8545225493976357    0.7272327014992900 N
  -0.0967059678859989   -0.1288828724201952    0.8177731935446251 N
   0.5201070327344425    0.0085530978107539    1.0336764357437194 Cl
   0.6070488522943877    0.7281166148903710    0.4657654584549326 Cl
   0.8365083486474356    0.6008880434526385    0.4907900034712382 Cl
   0.3864956898031692    0.9765593836043470    0.3926101617203731 Cl
   0.7787013580797804    0.2992932341757877    0.8754164561499183 Cl
   0.7120805615680917    1.6390979082638686    0.6934146862218098 Cl
   0.1194580319482691    0.0940203700304546   -0.0154641885245750 O
   0.1054897948542362    0.1717987670924185    0.1152087714886878 O
   0.2208435847019101    0.3013569550715459    0.0618707861847352 O
   0.3918706574188928    0.3168437725017175    0.0972193061612982 O
   0.8255949242379280    0.2435528099954696    0.0624356727771412 O
   0.8204314490057379    0.2843096937585367    0.2104697566212346 O
   0.1568086999980967    0.2984499243935141    0.2494379650433976 O
   0.2029731739919577    0.5288981874676126    0.2328817528772041 O
   0.3556024964374144    0.5319757335301920    0.3054755426827310 O
   0.6404862155502152    0.5083249930649318    0.3033139375782130 O
   0.7028215085008298    0.3664329539844544    0.3109381822576457 O
   0.6609432337666729    0.5245364295937350    0.1281508130270337 O
   0.8976080808310913    0.5480161556745764    0.0444662095391042 O
   0.8288514895251661    0.6680669703940397    0.1186884453088197 O
   0.0960296848828915    0.6428738926126960    0.2200093737879827 O
   0.1065166460321819    0.8141869640972260    0.2655182654284433 O
   0.2315608220977452    0.7528755627837990    0.1224550456520785 O
   0.2039248897178586    0.9293040958047577    0.3130653010012110 O
   0.4684324307950128    0.6366727499279980    0.2894759403823148 O
   0.8810170599017908    1.0139722553736310    0.2452616667320203 O
   0.7319608456202426    1.0236842185804740    0.0122738813169364 O
   0.8664289553283883    0.9811979438353310    0.0739217001560622 O
   0.7468668844675754    0.7979915668499961    0.2061913786814371 O
   0.8968866413517352    0.8178296631567508    0.2539480913287975 O
   0.0023406460734326    0.2050799199284334    0.6050440760076213 O
   0.0368653862880195    0.0843825439473282    0.5061295988984686 O
   0.3059908357316830    0.3255933788141652    0.4784262292333479 O
   0.3745540228184558    0.1945966454921570    0.4263502378221001 O
  -0.0921213139140058    0.0537204275779854    0.6952500503517148 O
   0.6742275991073721    1.0907355441262481    0.4415580332750413 O
   0.7881176390374324    1.1421653222766353    0.3510189206841443 O
   0.0980632119785115    0.4189199702904545    0.3439747365959367 O
   0.1295832298099364    0.3153061400415619    0.5346923824730762 O
   0.5895520317487694    1.0077982012533682    0.6098225061812336 O
   0.3662842532031172    0.1205400746121459   -0.1816077502321735 O
   0.2408066568910362    0.0504056427195137   -0.1180114519992176 O
   0.4940506284381815    0.2946753467966092    0.7747514582560764 O
   0.4874381520993348    0.1929221444959097    0.1037282619275192 O
  -0.0388857590443728    0.2947174053571791    0.7973393349529050 O
   0.1031112012381142    0.3623782236027368    0.7794305677101447 O
   0.0201018320984679    0.6105814723785521    0.9213895342088027 O
   0.2109110953607652    0.5089677048989960    0.9516382111276739 O
   0.2401888765075567    0.6627939674697140    0.8640725125781226 O
   0.0925984992395122    0.4109397504936515    0.9930604689952343 O
   0.1627847512301787    0.7336476720337867    0.7500937101748641 O
