Li1 Co1 H90 C51 N3 Cl6 O45
1.0
  14.4870427449000001    0.0000000000000000    0.0000000000000000
   0.0000000000000000   14.1383424353000002    0.0000000000000000
   0.0000000000000000    0.0000000000000000   14.6124663672999997
Li Co H C N Cl O
1 1 90 51 3 6 45
direct
   0.7388965477214715    0.2941592861137793    0.2870195269010534 Li
   0.4166416829980620    0.9059445812841650    0.7040107347395611 Co
   0.2720296985585517    0.0208309226451234    0.9989349379284234 H
   1.0366032692342733    0.2705136571067106    0.1670719454357994 H
   0.5256346657485177    0.3156717089025082   -0.0039238288019817 H
   0.5311446929780640    0.1085462970375025    0.1220419016731337 H
   0.4440820658974599    0.1785573329513456    0.0883590183303580 H
   0.6497120245064185    0.1615998995678251    0.2066723787544987 H
   0.5829653449371593    0.3756554024564694    0.1323290083272430 H
   0.8400786886049881    0.2617601557280058    0.0616989056424831 H
   0.2269224940374601    0.6398865184515552    0.1615451576937434 H
   1.0732373849296131    0.5594301279513585    0.0980610081544205 H
   1.0357659692957286    0.4136534211392444    0.1714764038196371 H
   0.3234294226507677    0.4436945664816819    0.1438280938187942 H
   0.5378767087329243    0.3920795342854048    0.2422673280892637 H
   0.3938178392486950    0.6864160181443558    0.3818714133082418 H
   0.9616183313743761    0.4653313107747203    0.2444189155906287 H
   0.8495471496577650    0.3742500043278748    0.0235198613951372 H
   0.7990641067843351    0.4459998579364018    0.1745730747622824 H
   0.7796212153012435    0.6516835166331502    0.1111792590493526 H
   0.0397034702684568    0.9553251931341697    0.1347344886285465 H
   0.0630733191714834    0.8950246307520202    0.2651717435101247 H
   0.3065743609035411    0.8639750220720134    0.2412332795159295 H
   0.0309342547538051    0.7386123773269901    0.3111283933404903 H
   0.5271092938265994    0.7077445438452967    0.2559563245236801 H
   0.4409268325758704    0.7973844719910256    0.3503880217687063 H
   0.5849776258776751    0.8662008841307387    0.1473340043688875 H
   0.7215852161808581    0.8605580727216156    0.2923040557450549 H
   0.8128440067622155    0.8200653485836992    0.0146431942576670 H
   0.8043246697123232    0.9330552558030530    0.2349687655249957 H
   0.7320966782288051    0.9053638908646501    0.0355849019959852 H
   0.9046888382733538    0.8039976941864757    0.1660337907794474 H
   0.1464664602889350    0.2414649902011346    0.3426925378460440 H
   0.0904177542625896    0.2183816619048021    0.4942866592160768 H
   0.2833950270730936    0.1847751764080517    0.5338364508442224 H
   0.3265390980202187    0.1994381399731721    0.4226817724228740 H
   0.6275183990949667    0.0616794169182603    0.5928166379212413 H
   0.6581485289160589    0.2014709100897201    0.6873893106832143 H
   0.2947292933475412    0.0261448411857027    0.4935552289611599 H
   0.5628400505527937    0.2571613139403248    0.3643644440143737 H
   0.7172082014155554    0.0982353287845323    0.5105032919215785 H
   0.7253644553923442    0.2301291493319925    0.5896919087446405 H
   0.8812547940741322    0.0192437493182154    0.6253299719510930 H
   0.8730488405131923    0.1447528044369774    0.5757258201412346 H
   0.3006525173975432    0.3901889307636467    0.3354487230553477 H
   0.2437050772244664    0.3489811298728320    0.6266014889922941 H
   0.0691566863259722    0.3400741451554733    0.5144207825464399 H
   0.3824739091662180    0.6326926058365903    0.5761731094513148 H
   0.5938303643045807    0.6254067446777313    0.6472160787835218 H
   0.4172532639919208    0.5714124378137243    0.4764830938588845 H
   0.4616467962900433    0.5239930884049777    0.5792191387034064 H
   0.5622506963174027    0.5755968038573909    0.4110163905690989 H
   0.6152391504496472    0.5345644124964661    0.5159426953735425 H
  -0.0563499496394725    0.6818758819654688    0.5791076585494711 H
  -0.1709827307558689    0.6429533560386647    0.5883047370317693 H
   0.1505597732613756    0.9659013975714495    0.3144502145019489 H
   0.2153445617462720    0.8217911520229396    0.4449480341080408 H
   0.1915860897060644    0.7066729896606864    0.4082468375735441 H
   0.5706192089348364    0.7699307586737640    0.4586235489032153 H
   0.5106575234965987    0.7161500553501876    0.6512243001561347 H
   0.6191474705255254    0.7381483908285714    0.5899998649709809 H
   0.4575671507032443    0.7794969437211930    0.5211415371084328 H
   0.6492571352570359    0.6410401190291787    0.4621085868646343 H
  -0.0479962778700837    0.8367179371793866    0.5357962158339359 H
   0.7166525324538666   -0.0134326412922230    0.5678083339967395 H
   0.0991779962412141    0.1352729095615103    0.8268626855927901 H
   0.0957666720068463    0.1023319900632539    0.9478367878125121 H
   0.2012450658314203    0.2578608301704104    0.9191865935553085 H
   0.2179192763140972    0.1834079722899976    0.7577997379265180 H
   0.3143316376631173    0.2109897062722192    0.9608975535451940 H
   0.2011056308869965    0.1752641604869589    1.0154756090187520 H
   0.2670293681753545    0.0694780680334510    0.7487896230909670 H
   0.3569096855685222    0.0546913275823194    0.9154849597146966 H
   0.3318403869963307    0.1540806305667738    0.7973194182791993 H
   0.6619719455356793    0.0530744478027687    0.7594517519940420 H
   0.7759206670979966    0.2436936814458259    0.7013321999175691 H
   0.8034494048136631    0.1551670379777055    0.8239884274802796 H
   0.8700523697520853    0.0506293238316809    0.8197352098209335 H
   0.7141206147501715    0.0914771108083263    0.9229936168600457 H
   0.9396918412277363    0.2907168740896878   -0.1047507503473438 H
   0.8914563239931371    0.1359681820126469    0.6920818792254726 H
   0.8240291742842099    1.0249450940882179   -0.0151464380369962 H
  -0.0615366534632361    0.4024642735624377    0.7350883084074969 H
  -0.0548817410910102    0.5757255318188425    0.8187038986362779 H
  -0.1464587470653346    0.5354309921578421    0.7545456671348543 H
   0.2779750113126209   -0.0314206056638473    0.8851854887786476 H
   0.1461958736641126   -0.0331216537258855    0.7858990327121572 H
   0.0573896195062092    0.6900974963825717    0.6823552529033029 H
   0.1150887658895707   -0.0535561566615806    0.9148122464469352 H
   0.7531934614289232   -0.0295696107456128    0.7243748534666986 H
  -0.0119081673284033   -0.0744468658342880    0.8187086890664654 H
  -0.2254348376413618    0.7468601617142782    0.7340234642115288 H
   0.9834647499687726    0.2918669381848538    0.0220998410181230 C
   0.5773933312818247    0.1873285167423377    0.0170986319023546 C
   0.5184302899599019    0.1854867166784926    0.1041366423265321 C
   0.5390625270053282    0.2474954000875953    0.1869577054913548 C
   0.4703500908284947    0.2256972295163037    0.2671522442190785 C
   0.9202593038246762    0.2690778452289819    0.2268476176628141 C
   0.8891066380979958    0.3175036068154724    0.0628315002082462 C
   0.5301503561590419    0.3550200273171906    0.1762216670939581 C
   0.4464213977125697    0.3835269051102837    0.1270177899436252 C
   0.4570217667943867    0.7282547275055814    0.3794022887201612 C
   0.8994082574573049    0.3547385233135767    0.1665614224472440 C
   0.9663894914528769    0.4378453659563415    0.1774179059464982 C
   0.9419973497147432    0.5218196370162720    0.1164822652669347 C
   0.1781036969610881    0.7331548775986380    0.2355251397739174 C
   0.1717400793737476    0.9375402228556037    0.1691331991107713 C
   0.1441637128899364    0.9042032173221117    0.2670721756002299 C
   0.1982334090862671    0.8165196712718499    0.3002431672601109 C
   0.6649131945366185    0.9610351977099847    0.2035373843703533 C
   0.6902261591255505    0.7448995358398625    0.1365767512092319 C
   0.7413718631209946    0.8937621065147070    0.2269913305684396 C
   0.7703128973529533    0.8204168749399706    0.1573275260872189 C
   0.7933928320150987    0.8710805226255419    0.0668260346374662 C
   0.8778282838557182    0.9390276673772114    0.0714070545910724 C
   0.2187786649567091    0.1116145492175947    0.4194468633519604 C
   0.2639003651898447    0.1986961859535970    0.4600788815941831 C
   0.1359950340171099    0.2670592210422638    0.6208358640880319 C
   0.1272720667265987    0.2826430846393068    0.5166598980508026 C
   0.2080394131480699    0.2951212093422084    0.4513583824808260 C
   0.7287882045227498    0.2025382204953815    0.6594672618145134 C
   0.8608296455320553    0.0958524469046958    0.6354521509373179 C
   0.6990333396003177    0.0614247901813232    0.5739652686126049 C
   0.2652353512419020    0.3862054369235638    0.4683229382080331 C
   0.4378240599264403    0.5886591554622650    0.5463331092049657 C
   0.5883578878719486    0.5946605661925745    0.4762916135208178 C
   0.0741646097011924    0.7851404624268077    0.4294787085117919 C
   0.1735106270591287    0.7835299483156805    0.3961482639613835 C
   0.5672805013150893    0.6868495908936404    0.6105672348075030 C
   0.5015957361938577    0.7400552621696338    0.4710330898692627 C
  -0.1633897387327919    0.7971439911839183    0.5937377692115839 C
  -0.1218622848145801    0.6968981521482671    0.6113378097205237 C
   0.1264175099880015    0.0901806363394215    0.8827416850358439 C
   0.2390843964424230    0.1999381985926569    0.9508458623174428 C
   0.2620531973122307    0.1335449842327954    0.7902535337526106 C
   0.2888219455535873    0.0334851641744066    0.9256488838782697 C
   0.7367290936348840    0.0450848266348752    0.7417292133417358 C
   0.7963886125042037    0.0776254163189472    0.8221749074807193 C
  -0.0137546449340152    0.5276717374572275    0.6906960762069407 C
  -0.0830890161847389    0.5806553883645416    0.7486281171589307 C
   0.1067406162961987   -0.0071553849302316    0.8477209029764116 C
  -0.1092199530961570    0.6806678195580005    0.7179837352493805 C
  -0.0350833595268382    0.7510084556368788    0.7577792075114287 C
   0.5215639660868659    0.6486867013986987    0.5261356290136369 N
   0.2301467545592594    0.1123996483231508    0.8844491312241092 N
   0.7570410375686168    0.1014591861927528    0.6511770802014293 N
   0.1975893853083098   -0.5011121575829668    1.1214070761024992 Cl
   0.4112437559416564    1.0190660456509364    0.5987424000632006 Cl
   0.6780345750244974    1.3126718922341762    0.4299413271984722 Cl
   0.3457638635506474    0.7742968999157439    0.6897715231807499 Cl
   0.8484323603743770    0.3500830978065765    0.8287145290338506 Cl
  -0.4883732486804944    0.8943046029236814    0.8142467455203776 Cl
   1.0561041435655412    0.2972247091079056    0.0662060161017675 O
   1.0070237334003740    0.2413765781396981    0.2262077530591956 O
   0.3955876966620739    0.1877762354214522    0.2496972853101035 O
   0.6330157253196744    0.2301178325881286    0.2166761656803748 O
   0.6276205593512773    0.1191345255151376    0.0032693442981609 O
   0.6814320938188233    1.0450492895623862    0.2151582836581014 O
   0.8602525781383015    0.2305719169356665    0.2714519974859604 O
   0.8791101189636140    1.0203639347128242    0.0297248371823118 O
   1.0055127279877816    0.5781522660811514    0.0882283080209557 O
   0.4380594426791558    0.3702594375228770    0.0437943306430511 O
   0.3842140848835068    0.4225435722001055    0.1798665001194894 O
   0.5243310870725558    0.6814147246530160    0.3204361991948370 O
   0.8615116342701280    0.5438568738016879    0.0992736713390321 O
   0.8085201429410742    0.3819354880044267    0.1963715851569965 O
   0.2471743843070104    0.7025713773065243    0.1860707915594944 O
   0.1030414486369560    0.6962912917585670    0.2361129939926428 O
   0.2527573042599783    0.9333077606505157    0.1424949855323250 O
   0.1057956339253267    0.9726178850546574    0.1160107500670490 O
   0.2912530835449761    0.8384854711116251    0.3060991259907664 O
   0.5880665930870633    0.9355576707899517    0.1635715096630633 O
   0.6033547373895276    0.7583714121133104    0.1376840249297180 O
   0.7117812829350617    0.6555729400398647    0.1215361691147658 O
   0.9463867893760838    0.9155100590351026    0.1224223986994565 O
   0.8459328854547804    0.7682084917169810    0.1782582842708227 O
   0.1736956199556909    0.3016467267727135    0.3625187596978401 O
   0.1503554527487546    0.1149508667679625    0.3657139766329144 O
   0.2507679403499321    0.0283954586216302    0.4384737677096107 O
   0.4955254842074087    0.2479282655403884    0.3536147186735841 O
   0.3079424800116992    0.4203118395805008    0.3976517746930944 O
   0.2702605314171748    0.4275778964375980    0.5432337693083588 O
   0.0079295597398883    0.7629313525939593    0.3704387094921461 O
   0.0591574061035820    0.8152253186924195    0.5077462419488130 O
  -0.1155683846994514    0.8585953249577253    0.5473743434235812 O
  -0.2361823727140261    0.8337904370011012    0.6267144062752857 O
   0.0792967820367903    0.2139561077575367    0.6573232021320143 O
   0.9965647320245866    0.2709634976752995   -0.0646267914438658 O
   0.2054115476360832    0.3067413834009303    0.6658672765450370 O
   0.5748224822372112    0.2689752872377155   -0.0288723892185735 O
   0.7571998001290994    0.0395785234486101    0.9012539603219211 O
   0.0467187046257778    0.5667485247488261    0.6462237753875359 O
  -0.0193817422951173    0.4316960595296609    0.6892219924035247 O
   0.0493610658498085    0.7430117615040703    0.7276905155036305 O
   0.0095786195529002   -0.0080437493235456    0.8238016007029664 O
  -0.1977204167571311    0.6891341585611596    0.7613645023332007 O
  -0.0639733136306417    0.8125510306580883    0.8090368105178674 O
