Li1 Co1 H90 C51 N3 Cl6 O45
1.0
  14.9233909865999994    0.0000000000000000    0.0000000000000000
   0.0000000000000000   14.5366010417999991    0.0000000000000000
   0.0000000000000000    0.0000000000000000   14.5844333155000001
Li Co H C N Cl O
1 1 90 51 3 6 45
direct
   0.9983941991922938    0.6726257392828107    0.3988008675948065 Li
   0.1863997931701821    0.0846361552375420    0.2463506522246267 Co
   0.1254907142070844    0.3166848982896738    0.1593359583694138 H
   0.0171520664123749    0.3067630465730816    0.1420325778032455 H
   0.2992816443200058    0.0592099913814118    1.0190025445695901 H
   0.5192337318145542    0.0930535287107600    0.1985853407497107 H
   0.4579755364874426   -0.0024529790352962    1.0006672418385745 H
   0.5235801970420781   -0.0346448235149225   -0.6836073177971260 H
   0.4652116934772960    0.1227282785893317    0.3547100218218280 H
  -0.0724569240108312    0.1723244667165892    0.2267763572332266 H
   0.1646058188454432    0.5498398834374483   -0.0041616522964587 H
   0.1989914353893485    0.4986037658706022    0.0971312788748854 H
   0.0763115430214604    0.4474025257829237    0.2579383496239073 H
   0.3021710680467390    0.6436327168569980    0.1744027076387506 H
   0.0458379060036843    0.6059526568192370    0.0749946628668515 H
   0.4326715690219334    0.6199311652350421    0.0454412348607101 H
   0.0431052831007116    0.7022791636810236    0.1496194341182183 H
   0.2814653182424581   -0.1809658234435704    0.1798571533672285 H
   0.6511138790121446    0.6439993775354242    1.1284528033124868 H
   0.2837114565383789   -0.0484609831125124    0.9538248321801929 H
   0.1996668850917018    0.3169428678101427    0.6588891355406465 H
   0.3009173315456449    0.2567499797007465    0.6196891208652461 H
   0.3419562616755277    0.1236831097744270    0.3533462389740665 H
   0.5287713094420388    0.0516408216914954    0.5540583912171682 H
   0.4796057410629204    0.3222240198331808    0.6021231315355320 H
   0.3561594679166777    0.3772176182473677    0.5456281013772928 H
  -0.0067339257404858    0.2180999542660229    0.5947611725428649 H
  -0.0768044613807398    0.1981915864730408    0.3394745995607621 H
  -0.0968092981010311    0.3528879968329104    0.5578067027776799 H
  -0.0246990115739088    0.1065704436646060    0.5447278949917593 H
  -0.1667786503037302    0.1258617483646266    0.4995515768073725 H
  -0.2575991616216334    0.1456889417485011    0.5754967970322029 H
  -0.2349635555249147    0.3060551782089151    0.5695596448558495 H
  -0.2242689352376550    0.2687926848349532    0.4535899692838498 H
   0.2111374684298791    0.4596336518548809    0.7226955227940342 H
   0.3145496219669488    0.5211454177366581    0.7604707306531208 H
   0.0191301691121237    0.3607667299473894    0.3578503563832898 H
   1.0481054210363190    0.5233389841631088    0.6626307961742486 H
   0.2568676915817610    0.4399379197386373    0.5708006941039382 H
   0.5069715187448629    0.5753439196928239    0.3597715828988392 H
   0.3730048350470925    0.4922639069355600    0.5920843458773742 H
   0.6125690201046414    0.6076153563684989    0.6535258829337133 H
   0.7158444754876635    0.5451537811082916    0.4277800532002440 H
   0.7538331605331098    0.5865932481658128    0.5379754214557916 H
   1.2121539273173816    0.6618907676377006    0.6509279074635432 H
   0.2731220402226167   -0.0111929863887805    0.3928685150564293 H
   1.0249337437472565    0.8215209310663768    0.5366359796291943 H
   0.3221109061349586   -0.1242207839650804    0.4020639357559412 H
   0.3045639558315639    0.9222370472884612    0.6112383297145872 H
   0.5358357226236450    0.7266294226571184    0.4010923518970785 H
   0.6523743164031430    0.7486001707764086    0.3743604253582766 H
   0.6386374920993321    0.7486792814293525    0.6404873235405346 H
  -0.1411510968647424    0.0059575152507093    0.6025646982293270 H
  -0.0412890747989699   -0.0169357318737775    0.4003031542813050 H
   0.8574677836150020    0.7753093030476707    0.4205832703202091 H
   0.7048255321290358    0.7638829730877041    0.5204384356527041 H
   0.3348111027705747    0.1901635749960505    0.9011330351541625 H
   0.0179126174165127    0.1198906138641745    0.6573313101861398 H
   0.2688488827306458    0.2611643541350093    0.7464845855909595 H
   0.0614724223283924    0.1448586238519520    0.9744337919867122 H
   0.3076155410939811    0.0776517164606883    0.7656886227956370 H
   0.5455970429650340    0.2967187453241068    0.7025103024545418 H
   0.5943935263282235   -0.0233333759814048    0.9269214899993898 H
   0.5473546863869313    0.0650476696499414    0.8475642757036542 H
   0.4410779024157743    0.1735352036659897    0.8510467558865503 H
   0.4895934844741757    0.1568923860427825    0.6614754547471605 H
   0.4098436473849614    0.0162508430767767    0.7580133160093916 H
   0.4301480138839747    0.1606222813494013    0.9749315830110835 H
  -0.0787242663383212    0.2142957637375090    0.7562950456139717 H
  -0.1978473263450080    0.1945318588759895    0.7543175947678459 H
  -0.1429965219443861    0.2846148154237088    0.6905694888327388 H
   0.2794054646858770    0.4219619156336473    0.8268929206034465 H
   0.4020927280326598    0.3269864811403962    0.8009097375889058 H
   0.4520625372180920    0.4247596810729720    0.7444769655918415 H
   0.5635059083321599    0.5883412496365096    0.8768242401306895 H
   0.6816759677766573    0.5533690440612062    0.9109709216798949 H
   0.8580983373549965    0.5199678935031197    0.8930525017902264 H
   0.9885043557825403    0.4076992967859659    0.7927380111034250 H
   0.1407493106081614    0.7833737742168871   -0.0633761573319184 H
   1.2143451183160869    0.7473378399229145    0.7302789507961669 H
   1.0431621745539184    0.7130100078138061    0.7810625488954398 H
   1.0565505525827057    0.9889472773629823    0.8113976322291067 H
   0.2282924166738725    0.0535759370543723    0.9180181615538479 H
   0.5607421933000313   -0.0406930049121547    0.7541009253963564 H
   0.5914370937024472    0.8176341902913130    0.8595510287175134 H
   0.3117030839356030   -0.0385872857064077    0.7889353265012705 H
   0.4240287612233698   -0.0809410655363426    0.9234870061962539 H
   0.9788316212056861    0.7913983461002713    0.7057788559162205 H
   0.7661366644863914    0.7272850091984699    0.9593553864537193 H
   0.7808544990721915    0.7825441442390594    0.8543660483782615 H
  -0.1056062263673935    0.0214377502350035    0.7171965089986359 H
  -0.2226004136514848    0.0497456056144510    0.6823175398268014 H
   0.0817828196283197    0.1839158971696558    0.1024513347400344 C
   0.0431012625667690    0.2578561530045169    0.2699491008276468 C
   0.0703021849552859    0.2638781934903415    0.1653759599309678 C
   0.0016535781527240    0.0878693732274182    0.3240081090142786 C
   0.3877548339044333    0.0970228197323739    0.2218066749403281 C
   0.4036694474271411    0.0890532813466898    0.3258388280708513 C
  -0.0313174805323840    0.1783987890252288    0.2885716961746562 C
   0.3102690934960832    0.5526106136710278    0.0235404867760698 C
   0.2112801973848407    0.5601837044976553    0.0564742312424748 C
   0.0759342829198484    0.5823845614292038    0.2234426658275875 C
   0.1855427493514224    0.6482094401094758    0.1106991697705637 C
   0.0785335581137256    0.6375804079474383    0.1378692346903206 C
   0.6020365613530658    0.6159508675138882    1.0104194205433064 C
   0.1843225172998497    0.7403121260227857    0.0600485902094836 C
   0.2801619951560722   -0.0918253155439639    0.2746616596575435 C
   0.5974122772301097    0.6415531385626585    0.2998954134852549 C
   0.1219472836256916    0.2474183622469869    0.3375938271367250 C
   0.4767586669603823    0.2950753074990400    0.6718632426524328 C
   0.4278636805155995    0.0106931477277960    0.4699389761216122 C
   0.4046940134935083   -0.0090377370351035    0.3659980846788904 C
  -0.0328164696039754    0.1469836047818940    0.6056563507484605 C
  -0.1906103652483661    0.1720293495851729    0.5546890636472190 C
  -0.1952004748328102    0.2657273190130622    0.5239146077399747 C
   0.2778501881390893    0.4514095147504621    0.7551417611745878 C
   0.3289518446382565    0.4278271106510268    0.5933487076527750 C
   0.5621269992076535    0.5978152662655679    0.5200399971344365 C
   0.6349841669235088    0.6581354193383956    0.4781470427231973 C
   0.7243773886917965    0.6080349867884616    0.4737979536205999 C
   0.8024300243860503    0.6608912217357240    0.4358734770204586 C
   1.1959042692994588    0.7367542103964795    0.6588514240994062 C
   1.0939127044221004    0.7478104400844133    0.6389411544496839 C
   1.2492031475982450    0.7997909544995242    0.6017864712146416 C
   1.0480256804464578    0.6539246688456227    0.6091264890051327 C
   0.3170932797746203   -0.0572690944194005    0.3621371187584556 C
   0.6024895415105963    0.6966932636644716    0.3844835475122990 C
   0.2689192420746410    0.2958836119965090    0.6779046155391228 C
   0.3987121290759414    0.1506481478099941    0.9062659051382463 C
   0.5387483984383462   -0.0080774025002382    0.8802628379092334 C
   0.4505395589606431   -0.0125873976367548    0.9275166451084180 C
  -0.1369161344452260    0.2096915237361811    0.7143372960900560 C
  -0.1518102024355092    0.0461512302959185    0.6652226006813067 C
   0.4168018514615844    0.3573216329913682    0.7331505056309707 C
   0.6293065029075970    0.6082234765180842    0.9119987298693341 C
   1.0785857589439993    0.8535731280455894    0.7863421506690765 C
   1.0426019801579192    0.7726828293699372    0.7310283799829961 C
   0.2910864559670492    0.0279564680375708    0.9511754320174224 C
   0.3483234472625916    0.0258789534993951    0.7975383347420263 C
   0.6517859782695457    0.6914224304222523    0.7632689195931482 C
   0.6608362001742905    0.7008716819773456    0.8664042260847212 C
   0.8255413936659741    0.6428099660663826    0.8598006098922673 C
   0.7594290736921889    0.7163072022447586    0.8850473913087706 C
   0.3267117371432497    0.3854698912274857    0.6902924811552649 N
   0.3731643162268148    0.0489524353288495    0.8939349495152485 N
  -0.1261658967717607    0.1451200329660271    0.6370823232278230 N
   0.6211642515848845    0.0720837023308889    0.2647387509733786 Cl
   0.6015896119964491    2.0510071052144792    0.6602385194744799 Cl
   0.0140046584243261    1.3970027769218736    0.6766395681011539 Cl
   0.9715758976173121    0.8421701873221453    0.4039117963767140 Cl
   1.0841059520471601    1.0936203020696980    0.8573994195791146 Cl
   0.9701104129952421    0.4223017474819449   -0.1098263680014013 Cl
   0.0428747724880037    0.1892582739588852    0.0215863484572562 O
   0.1252206683439412    0.1112936936047102    0.1228477391504722 O
   0.0772503376970525    0.0465206426492298    0.3081741033313445 O
   0.3129226458981852    0.1079462811071065    0.1886878015805619 O
   0.4573988579022787    0.0931862970239613    0.1615410491881172 O
   0.0150439664484827    0.3504307511606045    0.2916180949643014 O
   0.0924955323183210    0.4970991500434837    0.2119948435921799 O
   0.0618570534088991    0.6186014183468653    0.3003321805410740 O
   0.2414194599963923    0.6531755253581812    0.1911575581505150 O
   0.3615168293951640    0.6162576792635658    0.0594740049774956 O
   0.5279271313318953    0.5860525440509101    0.2933685915004176 O
   0.5262823979048853    0.6013284671749930    1.0413606295870894 O
   0.2215573522310625   -0.0479815037638010    0.2282690446437730 O
   0.2293987335970721    0.8093000549833663    0.0836045277332874 O
   0.6688752577924768    0.6368594691275680    1.0640533179377751 O
   0.3147995651603791   -0.1680577165580308    0.2391340536963766 O
   0.6567922131170467    0.6539301721953928    0.2394672857044269 O
   0.4676202613444968   -0.0712393478105504    0.3250818565957740 O
   0.1892791655620590    0.1925162570227263    0.3208691457779528 O
   0.1209153465804297    0.2942917680755360    0.4077103670034605 O
   0.5020741599565269    0.0623448369941492    0.4878543790959816 O
   0.3817716093088856   -0.0199660138408849    0.5334370894844249 O
  -0.0490875704695919    0.0546332681289340    0.3884789032960627 O
  -0.1079367958761084    0.3048932834887235    0.5106881768031627 O
   1.0606334048013946    0.5917251218263396    0.6757056956835314 O
   0.5093523516287499    0.5597593274385161    0.4680060933424068 O
   0.5616332106306057    0.5869433987949292    0.6077085388144988 O
   0.8747989652634786    0.6206039497444248    0.4181015832215726 O
   1.2792030316997873    0.8743014949543018    0.6550905649139001 O
   1.0039338248761769    0.6455905335376760    0.5387971194772885 O
   1.2728572889604173    0.7910323733405662    0.5215063551023715 O
   1.0778118061600530    0.8237972541149938    0.5767974989237079 O
   0.6483410507697460    0.7336228043773484    0.5408000769709440 O
   0.7977568237667929    0.7503598668653667    0.4333006653665344 O
   0.4460837352098811    0.1998694202341701    0.6846371362943615 O
   0.3350416133832825    0.4991028509028693   -0.0370713985729835 O
   0.6713954624854834    0.6128394111376733    0.7356984277336764 O
   0.8078657862764169    0.5635829860668413    0.9086945219541190 O
   1.0310610374757465    0.9283650272573584    0.7742717468219207 O
   1.1472893130437767    0.8458711900424717    0.8370990079281975 O
   0.1347888690382884    0.7332547678614795   -0.0154195460005290 O
   0.5387211258164357   -0.0742737572899853    0.8110253174546802 O
   0.6086041035482683    0.7683695789876982    0.9036219902760199 O
   0.6256679196895633    0.7614518683268058    0.7140260052841819 O
   0.8831107491007697    0.6484110002948020    0.8021850699653947 O
