Li1 Co1 H90 C51 N3 Cl6 O45
1.0
  13.9014906185000005    0.0000000000000000    0.0000000000000000
   0.0000000000000000   13.5668844349000004    0.0000000000000000
   0.0000000000000000    0.0000000000000000   14.0218447404000006
Li Co H C N Cl O
1 1 90 51 3 6 45
direct
   0.7995840239540712    0.4432367465319478    0.3476691163291922 Li
   0.5779608121310188    0.5545389402851100    0.4700366814938777 Co
  -0.0153609564729571    0.1118956769171587    0.9989257925416473 H
   0.5877807662457475    1.1160377896748557    0.0413449429039579 H
   0.3333167596814143    0.0984084241231941    0.0852585656404791 H
   0.4604368684881834    0.1678746309389336    0.1202389843429335 H
   0.6026965048302169    1.0278392054131757    0.1982936212514846 H
  -0.1635328364912639    0.0178143861001925    0.8875010813908782 H
   0.9826284232801175    0.2370791711931987    0.1413788561278456 H
   0.8321503157586007    1.0821796107978874    0.1805406076781152 H
   0.7458480599124967    1.1178141739372589    0.3212631756805128 H
   0.2836717238403250    0.2939035661896526    0.0105230355157813 H
   1.1649534752876329    0.5411017358278331    0.1398269918472987 H
   1.0839535285264199    0.4145148979844945    0.1662864204652066 H
   1.0233981519051729    0.4715025802861974    0.2620962104658963 H
   0.4044817899036731    0.3439150484320014    0.2735084035804690 H
   0.3444292370580792    0.4815567456809515    0.0445207019302791 H
   0.4394039441763912    0.4082583399363072    0.1672870020762393 H
   0.8176741703204855    0.3715956851914586    0.0588690279690297 H
   0.8842634322495694    0.4730383418753801    0.0206536568876413 H
   0.8576677231888462    0.5459688075801462    0.1839160551228891 H
  -0.0023889662778899   -0.0032103378420442    1.0416377189028370 H
   0.1733094582313191    0.8209575139336031    0.1674474659839245 H
   0.0582182033502913   -0.0443229457275489    0.3048338110523156 H
  -0.1393922598286865   -0.0750971446236477    0.9781532048121037 H
   0.2406813700429646    0.8390102954086157    0.3169092549853205 H
   0.2622049611607268    0.7137781532648088    0.3346636949045361 H
   0.4331226033909796    0.6808332275418312    0.2225536245747204 H
   0.5041552737066288    0.8576254757185717    0.2828994646311310 H
   0.6741873993877702    0.9735061709175199    0.1110775649734921 H
   0.8709785259709414    0.8558793121012965    0.2205246476086562 H
   0.2105248917555136    0.2534513899635311    0.6397804665710545 H
   0.1984038894382684    0.1145189763320522    0.4229352471086358 H
   0.1176413272921708    0.2015839178569784    0.3910492857192754 H
   0.2863066930681035    0.1852743516436187    0.5530881644877466 H
   0.1742000102116603    0.0236034823644726    0.5738211711200613 H
  -0.0521239205337957    0.1133912303065430    0.5414653714089985 H
   0.5510506044226340    0.1410836604884892    0.5948634095318085 H
   0.5185949338487481    0.2696717684193178    0.6106944220775705 H
   0.4490957105989576    1.0107571700267877    0.4127397270007786 H
   0.7898188841050146    1.0110321041885622    0.3832521661516199 H
   0.7221966394265203    0.1925737430753944    0.5713376177328479 H
   0.6837122772324373    0.3175022045901101    0.5665874581616116 H
   0.7818139871444032    0.2908623373653058    0.6471354189264218 H
   0.2982291555254342    0.4055632480620121    0.3437195646813667 H
   0.1131367743835305    0.3669874053538880    0.5501078861596320 H
   0.0573175805074907    0.5844492709838908    0.5345479506419196 H
   0.0224594481461218    0.6550306933137447    0.4377079110365985 H
   0.1688833141803986    0.8428077774500686    0.5203316329112246 H
   0.4749971056278349    0.8490509204801747    0.4616228812996649 H
   0.7142766254494956    1.0165042522234509    0.5140785255902333 H
   0.3765970104481426    0.7874656682426989    0.4970016783969324 H
  -0.1236076216181637    0.7882211843708995    0.4991595257101909 H
  -0.1553315577126935    0.6853412632882454    0.4218348212883767 H
  -0.2561135557335052    0.8406466327789622    0.5824768795697710 H
  -0.0363903559828885    0.1062982237683246    0.8037560377293478 H
   0.0690285548531732    0.0360182708008452    0.7792934932959671 H
  -0.0494465098142238   -0.0029943707927147    0.7396731715561793 H
   0.3854363502982499    0.2233420452602487   -0.0091127545744280 H
   0.5281670871991893    0.0720692891718589    0.8895421822966343 H
   0.4987577230367643    0.1817097896963232    0.7111284253112867 H
   0.5799295218723742    0.3091332971563646    0.8099984403247642 H
   0.6638266399589701    0.1739305533870270    0.8932578132257009 H
   0.6909575434246803    0.0561039434773965    0.8450701451613685 H
   0.7672213074406861    0.1599369205149416    0.7504149821230892 H
   0.6865421895835379    0.0911886382932191    0.6797980256289786 H
   0.5820249086765227    0.5919476764201681    0.7631479714911420 H
   0.5509279557048244    0.5649716966544277    0.8808742785899403 H
   0.5906488759394619    0.3838063000009906    0.7040138122309856 H
   0.4135937623875037    0.6285500372925418    0.8824026081640266 H
   0.6730616208342693    0.5930518356006992    0.8418950993079702 H
   0.4802908544796354    0.7522608279352698    0.7406758926859810 H
   0.6929184842149955    0.3615248394747716    0.7607017883650963 H
   0.9098880224302760    0.3871121437424340   -0.1102585043853435 H
  -0.1350085572695594    0.5139736946208754    0.6766386695798875 H
   0.0976269268486864    0.0378027630412096    0.9776168987739734 H
   0.1159055422125558   -0.0932147899223497    0.8749043080511271 H
   0.0524670215386370   -0.1631984331497934    1.0274427250425411 H
   0.0818653077523566   -0.2493913984994403    0.9435329384357871 H
   0.3328117778638056    0.7139041954676597    0.8239409709703021 H
   0.0262108444122603   -0.1435093143044342    0.8083331815494532 H
   0.3390024808870822    0.7375087305793616    0.9891232307143881 H
   0.4806976453882646    0.8392026756129672    0.8338647721944789 H
   0.6464774213306427    0.7464695204042731    0.7172517280285545 H
   0.6505302241232456    0.8487465027621778    0.7992823039830839 H
   0.5553018751404195    0.8131428973568400    0.9718437639619207 H
   0.6647438077900970    0.7453638870459307    0.9806635735012235 H
   0.5525703695024941    0.6834609494901580    0.9962863395534561 H
  -0.0340683028386709    0.7065406773011002    0.6698000544208050 H
  -0.1416495717142364   -0.1016426644685401    0.8503504774835967 H
   0.7190804268426446    0.7302115504143026    0.8258993438169847 H
  -0.0712801396262727   -0.2887637394789142    1.0078618492674063 H
   0.2782780576459805    0.2064155356329341    0.1630607393342722 C
   0.3609778221208818    0.2910923091038410    0.0322241743911301 C
   0.3663671722313150    0.2718026924452961    0.1428758060933179 C
   0.6999119788457526    1.1260002833224250    0.1168556919960061 C
   0.9627010638621754    0.3355970001327397    0.0068188153534834 C
   0.9039080881713289    0.3181913827168101    0.2313926897829452 C
   0.6742622115088974    1.0279836748386659    0.1658249975839962 C
   0.3038918576169091    0.4352110276926318    0.2065386134148127 C
   1.0201920209064810    0.4610431928947218    0.1847846997431585 C
   1.0259216222985792    0.5605535857544920    0.1334811791780407 C
   0.3833610332842883    0.3660210817986969    0.1997007114286532 C
   0.8914583441295152    0.4021107973372525    0.0626267361005560 C
   0.9207760634435593    0.4155516135301667    0.1657800676898443 C
   0.3006713396718464    0.7585474592108040    0.1910734585785729 C
   0.2879575951641318    0.7779505875608053    0.2986213617196670 C
   0.3921867055353435    0.7926142342480461    0.3429329349472476 C
   0.4523410460265096    0.6959192261719588    0.3574053530746082 C
   0.7504964822848432    0.9923056234538663    0.2369932367476209 C
   0.7330702934934330    0.8778010732416016    0.2477521634646840 C
   0.1265705855570944    0.1389416801289274    0.4394423475854449 C
   0.1281869589818333    0.1658181528924169    0.5447813402319905 C
   0.2169184507226159    0.2319880981224853    0.5674441214767738 C
   0.0587605912284636    0.0577078489358984    0.4084785187855822 C
   0.0346574206264498    0.2174689208607346    0.5828369605786168 C
   0.5436098196292144    0.2018595891076584    0.6501842331724409 C
   0.6364518777522780    1.0216808276072094    0.3862817247287169 C
   0.7332055307893168    1.0369341454188994    0.3333528830719786 C
   0.7110949522596335    0.2612527389399942    0.6138566308183538 C
   0.2306745294948817    0.3214861701246701    0.4989519210722924 C
   0.0195784621354057    0.6495902401017952    0.5180025242522260 C
  -0.0823098920613065    0.6400088214184011    0.5568065767912130 C
  -0.1152610346812500    0.5333536046703515    0.5425790622456262 C
   0.0664604849260180    0.7516350394544481    0.5506278605378245 C
   0.3430732673626485    0.9319520467775839    0.4652965063435641 C
   0.3978120015662549    0.8404424591521218    0.4404308052567859 C
  -0.1514959978102869    0.7126172382385493    0.4975289271389399 C
  -0.2614870802029308    0.7087674228848015    0.5303070678550300 C
  -0.0057950758311336    0.0344409005429436    0.7946666488251340 C
   0.6233712661121126    0.3267364543989847    0.7519055135322541 C
   0.6491116712111026    0.1211107624144888    0.8349288261956627 C
   0.6900461303721017    0.1452681142053619    0.7383067322356242 C
   0.5941743971475817    0.6108311570917485    0.8358787725291591 C
   0.4264355507179167    0.3773729880332497   -0.0114305665743256 C
   0.0158464882468676    0.0399373725117158    0.9791602049794436 C
   0.0416386863527919   -0.1137449272089546    0.8804378167610365 C
   0.0322771003494311   -0.1901220796032388    0.9582913389052888 C
   0.4853404568515265    0.7572000606914375    0.8191256273938994 C
   0.3973242840842910    0.7101103988707346    0.8649013446324921 C
   0.5895835225607177    0.7411573206618912    0.9569191942013494 C
   0.6564562073333028    0.7686676898841636    0.7927189735722970 C
  -0.1196799852589851   -0.0453062223275679    0.9047356182491937 C
   0.6439222996552210    0.2336502336045265    0.6924140546376519 N
  -0.0163500590359370   -0.0208179176180977    0.8886984987286715 N
   0.5791203280737589    0.7200065545168034    0.8549083656347799 N
   0.4515121421113665    0.0421221040278001    1.0312168361512974 Cl
   0.0233953190075305    0.8582829590223326    0.2092237094700786 Cl
   0.6185545164672298    0.4217130134006460    0.3877258998978838 Cl
   0.5085507016270480    0.5037048668241545    0.6062406571731519 Cl
   0.8107857003982338    0.9583479375746473    0.6168590888243750 Cl
   0.8257322989826682    0.4864822685834758    0.8278427400322835 Cl
   0.2131843187921222    0.2430178965053078    0.2124679330970122 O
   0.2724614152283399    0.1181329232360203    0.1228905612708163 O
   0.0990792890848002    0.0047399030933423    0.3441617318936548 O
   0.4551270062564478    0.2190853568306310    0.1713813278274430 O
   0.6442539187690637    1.1553423184750178    0.0472749757590805 O
   1.0231614866373764    0.2835526266888522    0.0437055452792382 O
   0.9565628731931514    0.2339819236120292    0.2099604170995845 O
   0.7744507479919212    1.1732019826567734    0.1286144871511788 O
   0.8550406667815715    0.3142649101168839    0.3026500755619506 O
   0.8447504033899874    1.0147544031616478    0.2073009952695482 O
   1.1156976063458688    0.5942731919172146    0.1241264899464540 O
   0.2708817285168461    0.4735540903534906    0.1305215115474022 O
   0.2797520003016503    0.4586385877581085    0.2966102140766790 O
   0.3864664556583861    0.4697342944195996   -0.0153095141027696 O
   0.4710645777068903    0.6480828932899220    0.2817106053684142 O
   0.9632599967286739    0.6068302385123606    0.1028147434870880 O
   0.8471623749490215    0.4815218076668280    0.2146017464827641 O
   0.2299904301949589    0.7889066770530717    0.1343541028358483 O
   0.3678641340011778    0.7142034535633177    0.1505994688498997 O
   0.4352878388197576    0.8548193782550991    0.2674742474785817 O
   0.6547563896196145    0.8454465557319789    0.2756308061994521 O
   0.8130279059900947    0.8220955792037901    0.2414954974108065 O
   0.1332972023326766    0.0762802780893319    0.5989677197039347 O
   0.0402467492914346    0.3008093521458585    0.6188588257005943 O
   0.3822388514673802    1.0157642149622670    0.4413778988985901 O
   0.5565392244630244    1.0174145570218194    0.3490997412128213 O
  -0.0505176179715162    0.1776624345158850    0.5753373767544557 O
   0.2979363811667921    0.3241161033397135    0.4426917773747167 O
   0.1647377155837053    0.3946083379119946    0.4993156392630456 O
  -0.3081871081219548    0.6318256603888571    0.5075538776787923 O
  -0.1363055404848706    0.4792035156410559    0.6145255870201703 O
  -0.1154646099723942    0.4988142819357539    0.4601359870724075 O
  -0.0228745392150120    0.0420528176706773    0.4373242240040000 O
   0.0462676863475380    0.7923879479540388    0.6296633954847323 O
   0.2669922175655497    0.9314309249213518    0.5137980774699749 O
   0.1353502195797637    0.7839740780970541    0.4936210247898202 O
   0.4883029449134322    0.6755114456436770    0.4364976565861904 O
   0.6444301588621038    1.0120057986328088    0.4802180094605663 O
  -0.3014684041668765    0.7864094198410293    0.5653185095796369 O
   0.5491580735623111    0.0978740346666620    0.8285288123842531 O
   0.9571433864792058    0.3330252969412356   -0.0874811875691192 O
   0.5056154048937828    0.3655043824758982   -0.0495660622883329 O
  -0.0882869489309795    0.6603008789885095    0.6565136428644690 O
   0.3931225763967522    0.7591474495799312    0.9509556422188438 O
  -0.0660742230820648   -0.2330213909958246    0.9629718927992359 O
