Li1 Co1 H90 C51 N3 Cl6 O45
1.0
  14.8957455966999994    0.0000000000000000    0.0000000000000000
   0.0000000000000000   14.5096721753000004    0.0000000000000000
   0.0000000000000000    0.0000000000000000   14.5574158402999991
Li Co H C N Cl O
1 1 90 51 3 6 45
direct
   0.9182336130546006    0.7395940761479073    0.4423212190912659 Li
   0.2569944735930561    0.0661246909033052    0.2578414989636408 Co
   0.1343393175863127    0.0278005996845797    0.1185750232209089 H
   0.0846425773194811    0.1894548377446828    0.0146506717702999 H
   0.1417488157737986    0.2680720515740789    0.0807132209583007 H
  -0.0359864968235464    0.2124470870504878    0.2026572541214982 H
   0.3113569756070135    0.1584375966545549    0.9774410566681160 H
   0.5165399239971299    0.2858787943370083    0.9903307070056812 H
   0.5171770857919784    0.2662601567440391    0.3540591254549051 H
   0.4887931423864420    0.1882942326120136    1.0982118046694844 H
   0.6222598417935828    0.2614047748202539    1.1160233450448163 H
   0.5542268592603347    0.0881224311791568    1.1319822214380328 H
   0.6892984464419616    0.1659505162217915    1.1250496723436656 H
   0.0023029594710318    0.0271058906740509    0.1286241968932731 H
   0.2143004039426661    0.5625743634370725    0.1439682663662104 H
   0.0512115552355431    0.5537612766591588    0.1716709853394212 H
   0.2222483108957916    0.6163824709234056    0.2546774758632984 H
   0.5002707685911938    0.5858938427410908    0.2539809236653506 H
   0.5855735278086646    0.6238657550864234    1.0897501380281429 H
   0.4067264883835152    0.6632898022384861    0.0695010661507042 H
   0.1980085037873786    0.7843249282415096    0.1980176944124854 H
   0.5486337857576254   -0.0556306443417844   -0.6746481783883428 H
   0.3597734845570437   -0.2013892786133594    0.2544968119303000 H
   0.4005542562247995    0.0446838205485917    1.0716823708581025 H
  -0.0092600736703343    0.6699012541611079    0.1875941411071020 H
  -0.0055657302322864   -0.0544962286360995    0.3514157991652573 H
   0.2066217013723604    0.4194896696605865    0.6594354400954016 H
   0.3195734156103332    0.2125022226862441    0.5774181361248231 H
   0.0375418803154028    0.2931773741202424    0.3932728160070214 H
   0.2051393989352879    0.2487938765319046    0.6108801190305722 H
   0.4418761891219592    0.3265041091531105    0.6252569838736175 H
   0.4047829804327340    0.1373371888506364    0.4637227510264544 H
   0.5122894486121295    0.1659539621990263    0.4392812564711496 H
   0.5393316666323701   -0.0286913727112785    0.6170075801801714 H
  -0.2774601428823824    0.2115904171099250    0.5499374345780191 H
  -0.2122737449477187    0.2004929920230849    0.3974322080766205 H
  -0.1235182011975023    0.3264296760448395    0.6042614992798558 H
  -0.2006328372217963    0.3290410375933451    0.5058690362415477 H
  -0.0966843648242125    0.2007645350291845    0.3921881454739253 H
  -0.0048675443017812    0.1631227473029427    0.5239291097383958 H
  -0.1583449238098251    0.0973349067185799    0.4319791362895082 H
  -0.2296612599477990    0.1052634111403293    0.6007780513550107 H
  -0.0741940505378153    0.0737010164516615    0.5656722327395093 H
  -0.2153618750249530    0.2162638514357146    0.6513110585913309 H
  -0.0562983367402424    0.1684474713261029    0.6393693787006767 H
   0.2361180429383266    0.5795421485824257    0.5374810342120966 H
   0.1152110370883480    0.6174631293842283    0.4225845430800872 H
   0.3213229084323490    0.4584055040900659    0.6537325048415928 H
   0.2166346274814800    0.3651445410819874    0.4982506511368933 H
   0.3373576881920755    0.3557487395536747    0.5045433888731063 H
   0.3439454752459669    0.4967905891058468    0.4726662339514649 H
   0.5020803322565380    0.6238016599098567    0.5619978168550691 H
   0.6531075759346517    0.5345473346326404    0.3680911488745088 H
   0.6553666102194112    0.5453627409425873    0.4887961846635935 H
   0.8784746096428343    0.5725903030285537    0.3992264825746870 H
  -0.0387241912702772    0.4174944488416570    0.5089764558891180 H
  -0.1042496121808111    0.3772399211760157    0.4088579997023252 H
   1.0025972987688894    0.8514856461562030    0.5783042824121530 H
   0.3242620026667255    0.0099276941587429    0.4237032169009530 H
   0.3795395310492199   -0.0950836377026192    0.4592309510588407 H
   0.5283988134265475    0.7635422395386364    0.3195983389043670 H
   0.6402951927772568    0.7688083819488056    0.3301022636172060 H
   0.6574987626379539    0.6624834435655508    0.5894257617856971 H
   0.6017647280701293    0.7888681046278249    0.4925947709378770 H
   0.2737294532811642    0.1848268903183922    0.6881479536751047 H
   0.4241032620615876    0.2559360089486804    0.7190407992827035 H
   0.4269873070206743    0.3779835630632782    0.7360795376632709 H
   0.4717119564633710   -0.0029664634583042    1.0023074205867646 H
   0.5333474076087904    0.2040464837475755    0.8878386152520357 H
   0.6177551998765736    0.2833501362421371    0.9316135549110286 H
   0.3905722114164523    0.0803483065375249    0.8946097345963855 H
   0.6085847962124387    0.0825475292087525    0.8911833022853765 H
   0.7134771622814554    0.1212403399915979    0.9314576206418628 H
   0.7129212988675532    0.2436641948202321    1.0299283942823070 H
   0.9401116719865549    0.2298003392093219    0.8255926775155118 H
   0.6610850215232986    0.0258260547290588    0.9886552722810318 H
   0.2824863160480000    0.3799450133053069    0.8081301001742602 H
   0.1935730091307944    0.3059502333386258    0.7620875877288517 H
   0.2946542198849287    0.2557051284739511    0.8005380933776938 H
   1.1069398434176332    0.6373574451559788    0.7336539698023701 H
   0.4761140187552059    0.6032829330631666    0.8346883852601131 H
   0.5672356743439467    0.5231095159145501    0.8686992293159217 H
   0.7087180852993871    0.6340479286197096    0.9188090845266640 H
   0.8659811094825449    0.6146126170156299    0.7290219663795283 H
   0.7503172114376099    0.3964919067912058    0.8520094539694346 H
   1.1785999018598559    0.7324926062625018    0.6993168315709943 H
   0.9905791021074440    0.7750276816621111    0.8137478554748681 H
   1.1931476798541314    0.9596245469558387    0.7586755810550780 H
   0.1648614554040211    0.7579804322817243   -0.0412012739953192 H
   0.6150322747476036    0.7871857785418123    0.7735648994875406 H
   0.9775807598127896    0.8788322322958583    0.7366002344739656 H
   0.7514148402802789    0.6780461659532006    0.8104965916160057 H
   0.1213074086603838    0.1956824078033517    0.0808128265487370 C
   0.0719617753566813    0.1551432424181187    0.1611801123936050 C
   0.2166970614156501    0.1629270157960079    0.0611225186572443 C
   0.0757487626970463   -0.0021594155899220    0.2539266557919405 C
   0.0703546050512685    0.0447589428523096    0.1562060152877475 C
   0.1029733146583688    0.1982145118754577    0.2547736467782024 C
   0.4304439987093003    0.1689085430801146    0.3258968468954743 C
   0.5197292239010249    0.1248158859703910    1.0719894308506890 C
   0.6604727661688556    0.2145353492547560    1.0748044909169512 C
   0.2132349990660203    0.6273000159985910    0.1794333520423890 C
   0.0485920153308978    0.6225521485645304    0.2031539082034668 C
   0.0501884443143029    0.6223123085489908    0.3078565571296920 C
   0.5947660854494405    0.6755698867122978    0.2313505335182206 C
   0.2998483204083117    0.6750364494363560    0.1488434448167380 C
   0.1282838973044315    0.6785995898971040    0.1625182619809839 C
   0.1119805844945107    0.6942298534385551    0.0579708603888181 C
   0.3598312191628355   -0.0871792551215132    0.3210367810172887 C
   0.2741067422166872    0.4081586073172292    0.6308012371178345 C
   0.4567533229022981    0.1214078144852075    0.4150871272476802 C
   0.4692794498281860    0.0175060872934401    0.4064654047265343 C
  -0.1528796049057459    0.1749707062315148    0.4287655851679903 C
  -0.1333156295338410    0.3086194873046754    0.5337745384581848 C
  -0.0652612986231023    0.1488915505188065    0.5688973930643264 C
  -0.2224645742025920    0.1804408504939822    0.5822383597668340 C
   1.1409126309303383    0.6421749213301814    0.5895624618718820 C
   0.5025374251865831    0.6013635237434020    0.4256743771889323 C
   0.5892611579204575    0.6594227265856317    0.4167749268042458 C
   0.6678419843988125    0.5844927083974351    0.4244967643359325 C
   0.2760254108603253    0.3960253214736185    0.5253476994267409 C
   0.7599313659671909    0.6221772262413879    0.4166560870308286 C
  -0.0657782247447263    0.3544523629179558    0.4702188902476894 C
   1.0345325917632453    0.7539293414445335    0.6742601866278571 C
   0.3775597711366624   -0.0383380413822822    0.4080693982001121 C
   0.5869504310235358    0.7179457579636610    0.3276821912371568 C
   0.5228343386936840   -0.0297031116274058    0.4797180349803132 C
   0.9400834760162845    0.7042025115559677    0.6598764524337472 C
   0.2748324527848373    0.2372195281957729    0.6335421081925993 C
   0.4086626116754160    0.3217362550510883    0.6885134031517401 C
   0.5615088713822408    0.2372808665905518    0.9492629786012365 C
   0.4500208636676146    0.0665575056439918    1.0234499092933080 C
   0.6449992204840352    0.0924726328403252    0.9527429918505493 C
   0.2657526790251428    0.3170228473893755    0.7733334023566645 C
   0.5350755520533158    0.6359287429944448    0.9660846454881635 C
   0.5445601393861781    0.5968548071294343    0.8662832785465112 C
   0.6009490589301640    0.6423727204234569    0.7047175153779619 C
   0.6165810391145990    0.6480310150429426    0.8104656795362151 C
   0.7097660355277703    0.6258602867099058    0.8432908735982783 C
   0.7488221536806531    0.5340859872004500    0.8193340117605792 C
   1.1160122325184474    0.6904261837668205    0.6807276806551528 C
   1.0185985118973417    0.8184490624065024    0.7593501513296192 C
   1.1035194036907836    0.8682296495399305    0.7986874902008978 C
   0.3089301081658826    0.3230967268633739    0.6773926107133025 N
  -0.1416978886956557    0.2026625792900935    0.5241334042390562 N
   0.5952467596092884    0.1630386654584144    1.0136088769582006 N
   0.5930609005807068    0.3031355591332690    0.4554541131500276 Cl
   0.9337924179828578    0.9069658796359341    0.4640396341910631 Cl
   1.3383435000941835    1.0449042131709312    0.7801416161967630 Cl
   1.0270989256012419    0.2415021887031400   -0.1916180803860663 Cl
   0.6151584852811949    1.9441037155697674    0.6978090090123206 Cl
  -0.2036068407526981    1.2700774604040272    0.8530597777472079 Cl
   0.2629679912946281    0.1054081421841895    0.1063420828451169 O
   0.1506567283813687   -0.0103732469267100    0.2921827588056553 O
  -0.0219824982559142    0.1766799109399587    0.1489828926433488 O
   0.1838413713917534    0.1813733319337098    0.2864750150061014 O
   0.0476346950069552    0.2497091280854584    0.2940546569707515 O
   0.2488377821934046    0.1892790929057097   -0.0165403036735013 O
   0.3746005369235214    0.1367630890433244    0.2692343177042355 O
   0.4671227937688131    0.2489523914847039    0.3100217765852455 O
   0.0012268132723782   -0.0341987335278814    0.2811698151789315 O
   0.3531172215753528    0.6256190683034722    0.1007257014147219 O
   0.5323411471364499    0.6174458994980544    0.2045325869621267 O
   0.6001401031164537    0.6100563459158224    1.0230988854539083 O
   0.4675780244221550    0.6788373623263028    0.9870189928574503 O
   0.0426325956144611    0.6719267995797032    0.0132032995009943 O
   0.3173761439271184   -0.0580800449602560    0.2542453936813367 O
   0.1288491593750904    0.7741689441352075    0.2004872261201995 O
   0.3083386641228297    0.7592120245454297    0.1763222229452438 O
   0.1825416714288130    0.7437485463021412    0.0229110664254492 O
   0.6578888068933612    0.6947949937050567    0.1785527012359107 O
   0.5165898711444660    0.0045822942721740    0.3211006659821892 O
   0.3809687982088790   -0.1751667702476848    0.3220383324025034 O
   0.4990894379967791   -0.0016163295777229    0.5592823623792432 O
   0.0145292692463777    0.3007026992055242    0.4603345123073643 O
   1.0833075923352848    0.6269492155160918    0.5261630227045950 O
   1.2277884433291948    0.6277045737259526    0.5872172654184368 O
   0.2801621624985684    0.4873016083531060    0.4811047027942611 O
   0.1244781126505529    0.6132156178446558    0.3494525386310023 O
   0.4703657331494844    0.5914721906887299    0.5113768819251224 O
   0.4662037394045231    0.5620996456132111    0.3608508528524486 O
   0.8179512881247945    0.5515397929749946    0.4165915151308217 O
   1.0562663141807200    0.8115136886238126    0.5996817029251049 O
   0.6753266718403528    0.6482715442539294    0.6563201893876176 O
   0.5747174079219349   -0.0955695204927212    0.4651344026702242 O
   0.5942807119612143    0.7193462031118699    0.4979124042904738 O
  -0.0221832267109345    0.6262055736288293    0.3520189281887268 O
   0.7796108105506793    0.7039626715404279    0.4096624007119867 O
   0.8952612819431048    0.7072783908357196    0.5901600954145000 O
   0.4096508133001310    0.1193560796396279    0.9528446582463050 O
   0.5211434532098731    0.6278561967242822    0.6826435426670623 O
   0.9221018316426494    0.6576108317555918    0.7335275737427820 O
   0.7936658303978484    0.5179423350786089    0.7509867164085013 O
   0.7287123848842283    0.4628427511361846    0.8738910848505262 O
   1.1293871924159993    0.9370044631913883    0.7416828673266432 O
   1.1440705796006232    0.8407872652331488    0.8670340986178691 O
   0.5907078797283793    0.7448050829223204    0.8223791950875043 O
