Li1 Co1 H90 C51 N3 Cl6 O45
1.0
  14.1222922136999998    0.0000000000000000    0.0000000000000000
   0.0000000000000000   13.7823713786000006    0.0000000000000000
   0.0000000000000000    0.0000000000000000   14.2445579566999996
Li Co H C N Cl O
1 1 90 51 3 6 45
direct
   0.9410243323465554    0.7365488064747802    0.3910882314027659 Li
   0.5686335107702786    0.8223199678756044    0.6065227860817048 Co
   0.1962465129358691    0.2243546559847596    0.9317719102794011 H
   0.1130135658892339    0.1961621200759305    1.0152388738464082 H
   0.0137039085915710    0.1670590006647958    0.2778070748442350 H
   0.4572906086262058    0.1527407099600183    0.0235963081073993 H
   0.5481320230784200    0.1530897065055234    0.2375074739900019 H
   0.3964193996898785    0.2267990829323828    0.2839588978959839 H
   0.3678723342489790    0.3142542796390643    0.1848234944462901 H
   0.6532105738933101    0.9827691343690869    0.1320278933271786 H
   0.8316801850485703    1.1664000880328158    0.1262432280360213 H
   1.0318120019825234    0.4391626827512486    0.2279192508654115 H
   0.4134003540824920    0.4641750692651735    0.2574877359865585 H
   0.6173169673647426    0.3959056855609320    0.1793350826445587 H
   0.5161456448641393    0.4690669777871487    0.3357955362981391 H
   0.9953108453572602    0.4379647756896499    0.0386062508974761 H
   0.7786087722312572    0.3656264260245088    0.1590599712035499 H
   0.9313708003322734    0.3859806881680744    0.2543988370446784 H
   0.9151439728079361    0.6264204433429648    0.1532612654626569 H
   0.2081801280636250    0.9850706251016070    0.2861513141222320 H
   0.1712307439194707    0.7055896929609385    0.1528646227576200 H
   0.2578930209408120    0.7651193615108612    0.0711183163057375 H
   0.1143794914562808    0.8850696918703331    0.2523749062152602 H
   0.3464324719788672    0.8006749264088504    0.3213591458797705 H
   0.3700313322033212    0.7279573967131875    0.2137447148346159 H
   0.5817002988814172    0.8532050738059918    0.2764528734672154 H
   0.7190716951564504    0.7440678318408291    0.1244685151894139 H
   0.6978470953914617    0.7312630687741466    0.2401653311249924 H
   0.9580130758429727    0.8571731862953211    0.1547004115605783 H
   0.7431478150139731    0.9310363824054385    0.0683937670345019 H
   0.6978711708032188    0.9742814803372389    0.3225722407369452 H
   0.1408858117005867    0.0712496538023016    0.5069067359162048 H
   0.1610659634555215    0.2713719639790987    0.4394407322029777 H
   0.4049718356664427    0.3387174137934313    0.8068877260591898 H
   0.5510912452335500    0.1742624054543484    0.6391808721672187 H
   0.4297241913542038    0.2497719075140523    0.7243755130742183 H
   0.7293009127518675    0.3184835953641149    0.6328444172014439 H
  -0.1776559612586202    0.1531187290872702    0.3356200306764413 H
  -0.0464485076837353    0.1391407281534738    0.5390591973258324 H
  -0.0856177864119705    0.0778123850997939    0.4274565063309699 H
   0.7023619431962782   -0.7214346891086321   -0.6288858558356644 H
   0.0503530581891064    0.3230684377155635    0.4647122780869749 H
   0.1050750529124777    0.3688450303402275    0.6121733650778850 H
   0.1033359584631946    0.6181337706897133    0.5095335355763796 H
   0.6118999997193777    0.3598785037095576    0.6126416140765745 H
   0.4470375988591700    0.6623888544663019    0.6356777799581320 H
   0.4065650614444912    0.3625406000202817    0.6237118066707806 H
   0.3078254249251968    0.4745195735658900    0.3350970239237821 H
   0.9256982084620750    0.5484875557074042    0.4429906493119334 H
   0.1719884112894760    0.7506566834618934    0.3679713329352276 H
   0.1949740566144677    0.6896766113891749    0.5649213547279667 H
   0.1058808711059974    0.0805216431058565    0.7407452734212091 H
   0.0073749077008167    0.2049436277479646    0.7816093003548221 H
   0.2815138322759857    0.1462026478570108    0.7852605193086217 H
   0.0321230147865029    0.2643274578246098    0.8939202618366080 H
   0.1211567198659261    0.2537015650825672    0.8025534392257426 H
  -0.0380589347867050    0.0457533157377489    0.8706426002195944 H
   0.0468387561729044    0.0239914583794642    0.9691391632063086 H
   0.2013441273252783    0.1001880700620232    0.9832112039540326 H
   0.1326166158623423   -0.0138387513629294    0.8288357570862213 H
   0.3589424807881038    0.0412707779869576    0.8898309808510509 H
   0.5368783259027007    0.2538285388777095    0.8485099372785370 H
   0.6064950697798915    0.1195664478943531    0.7387431052888813 H
   0.6902874160997082    0.2036934800392217    0.8564652560988517 H
   0.6724284172783036    0.1614561912585785    0.6457546107335290 H
  -0.0310494494636375    0.1296176935178092    0.9615678506862683 H
   0.7735309846515304    0.2308223383270312    0.7603064279931514 H
   0.1397493106455788    0.5451318196929319    0.7995080656780436 H
   0.6804242863830694    0.4168274117341016    0.6973216725007565 H
   0.5923174846562975    0.3670920664027215    0.8248328248665393 H
   0.4415629210356226    0.6140742370678814    0.8954310142281821 H
   0.5599793207740230    0.5865680852173637    0.9023487438130199 H
   0.4163078141023441    0.5241537897111734    0.7045279333276653 H
   0.5721204093030982    0.6399892258741315    0.7538709878567391 H
   0.5051883570769709    0.6711159447975609    0.9877413550612945 H
   0.3820654975801806    0.7293867588642167    0.7223579004471812 H
   0.3913607308194882    0.7793360731795250    0.8840105124130673 H
   0.8642025258307874    0.4472763808172892    0.0089542251004010 H
   0.7243038486115617    0.3287423524470605    0.8316073418640718 H
  -0.0363000135277395    0.6037117242551910    0.7484963036978677 H
  -0.1925083660117609    0.5624263761558425    0.7065637985393589 H
   0.1340682215712309    0.6890366634616583    0.7867326604634223 H
   0.2725691087078487    0.0309010095288305    0.7378136275163701 H
   0.1351813553148274    0.7554483117082881   -0.0427048016125960 H
   0.1194013391086896    0.7991360040117270    0.6598463081108832 H
   0.6165918726106440    0.7852109692896184    0.9537922496225721 H
   0.4800724626716764    0.8340900759030139    0.9416156695891834 H
   0.5477369030854640    0.7636363075836005    0.7107373222233310 H
   0.4638927238203349    0.8602002415715111    0.8138384507009068 H
   0.6456530189025939    0.8358212729042097    0.8357310219514817 H
  -0.0473152225069937    0.7186121253907219    0.6897896732399765 H
   0.6762875641629098    0.7081110297501906    0.8724467980106472 H
   0.4554236312544713    0.1885669104327962    0.1503394478726331 C
   0.4252822778850046    0.2676113629492587    0.2183619167302398 C
   0.5757215952317298    0.2716462273766059    0.3113841083649582 C
   0.5070617073518174    0.3334730332717868    0.2495085484016928 C
   0.7775267949028759    1.0446060981678793    0.1702326590808275 C
   0.4618946770745930    0.4203553242147868    0.3041827616954569 C
   0.9151588429151979    0.3131782674208021    0.0816416333827334 C
   0.9239145036910064    0.4209244570428412    0.0589487564972168 C
   0.9584726329673965    0.4548460505884863    0.2369865733048031 C
   0.8063967541014599    0.5124848979376058    0.1679777628532551 C
   0.9117974905736885    0.4887828084330939    0.1430629847970451 C
   0.9489734668284986    0.5324293612269068    0.3149777614748410 C
   0.1217033733328832    0.8320969501015534    0.0778928333032699 C
   0.1999668721526987    0.7770715862387320    0.1249058751986846 C
   0.2423034837276942    0.8257758317971030    0.2111830347803158 C
   0.2880637604746294    0.9228614466919123    0.1845195187095096 C
   0.2634154955377009    0.6657416882225995    0.3052322853132093 C
   0.3119734767508892    0.7556159171178758    0.2635342556652887 C
   0.5818553728571473    0.7866504893442592    0.1638976081600262 C
   0.6871597368723125    0.7825256549134969    0.1823664157425219 C
   0.7227545250549526    0.9589256323350138    0.1386893847043376 C
   0.7329030192109486    0.8804993608097579    0.2154794123994763 C
   0.8374738620779004    0.8543253454614177    0.2272958548971411 C
   0.0845054459673533    0.0842865975229584    0.3820475858178724 C
   0.1126623481177174    0.2303195220982681    0.5703926371810204 C
   0.0882201403814166    0.2550721565055593    0.4708604506217924 C
   0.0340348857201611    0.1811030279720662    0.4108234875514325 C
   0.4553041039161004    0.3205514543135735    0.7492959073103226 C
  -0.0587354648840451    0.1460393958346851    0.4625826226710459 C
  -0.1434079799336903    0.2173587626546965    0.4580551392492339 C
   0.0846994654621024    0.6423371527374465    0.6534768580882291 C
   0.4015538352972695    0.3865074480267786    0.3843993611486220 C
  -0.0970840553114988    0.6103941737023888    0.6081212912841278 C
   0.1175949751265555    0.6775829015752888    0.5541717758034780 C
   0.0764451397311197    0.7759368032924326    0.5377949250293705 C
   0.0619807739674770    0.2180190263894360    0.8359683055520171 C
   0.1576500873873856    0.1621382219296280    0.9626236925064019 C
   0.2510286961886334    0.0741874646396201    0.8014744306635448 C
   0.1429789563227695    0.0614080963319660    0.8021146751714983 C
   0.0110166677792626    0.0753004806496094    0.9215778417487100 C
   0.5536793519974464    0.3075195895447223    0.7964128485337824 C
   0.6126824506014861    0.1766814376429431    0.6857551500083890 C
   0.7113944712072942    0.2546143252785037    0.8037967210498492 C
   0.1105401713813569    0.5330679305817905    0.6623967558053946 C
   0.6669717960135739    0.3477107863122170    0.6644438533768769 C
   0.5081334172251848    0.6405725797672419    0.9175138335726774 C
   0.4309201728382588    0.6717188889333504    0.7071282246187389 C
   0.5245111409332118    0.6979850509787365    0.7531029752561899 C
  -0.0222817509819504    0.6444216996714096    0.6792459975108637 C
   0.6279859152749009    0.7682356612259226    0.8789868394975914 C
   0.4586557552828723    0.8066056909888063    0.8713060114696120 C
   0.0965042063269228    0.1279155190983601    0.8818679397833814 N
   0.6346526800306015    0.2725575364434550    0.7339167006921937 N
   0.5268243631428691    0.7292329391809588    0.8518122510564015 N
   0.4681009641754202    0.9502725495872091    0.6046189010975279 Cl
   0.5495851157980348    0.7064074042016543    0.4973240306883605 Cl
   0.7095371240002626    0.8758644545047959    0.6410047265879015 Cl
   0.5080566591477002    0.0838556121840186    0.9219330651270262 Cl
   0.1687339821001823    0.6263943230193927   -0.0885405517976624 Cl
   0.7466189229090814   -0.4739954127809604    0.8140876686837174 Cl
   0.0768268058175055    0.0551551810946207    0.2995641557548594 O
   0.2533463086204346    0.9999410704241172    0.2332321570454452 O
   0.4116924160484241    0.1836185602449690    0.0714784538414612 O
   0.5234873694532551    0.1285104820241693    0.1681041269008774 O
   0.5556347711023714    0.3652723505271980    0.1689507660199473 O
   0.9773583772902101    0.2543835957536167    0.0585464976122856 O
   0.8076536322152537    1.1009679519201401    0.1031902136147809 O
   0.8393814844094838    0.2887115054437168    0.1294795517001275 O
   0.7886666295429907    1.0602449163421355    0.2543539076055238 O
   0.2893064765815072    0.5862996263362060    0.2823632007835081 O
   0.9561281127224549    0.6227498123165398    0.3016372281583530 O
   0.9507068964750153    0.5807106026563185    0.1151372322949889 O
   0.7820628857180664    0.5928006846474864    0.1954738775933952 O
   0.7492750073061746    0.4323538399605436    0.1743149198415168 O
   0.0651148260979848    0.8857343089923345    0.1155886327539955 O
   0.1639366022573920    0.8398242124916354    0.2765027170637775 O
   0.3443272896508058    0.9353375290203123    0.1205645681403695 O
   0.5401403317656944    0.7546690553883869    0.0946620444452448 O
   0.5294618245008678    0.8229127541077825    0.2329113327689817 O
   0.8673018810443510    0.8156825034301141    0.2995669638448065 O
   0.8881278203146548    0.8751497734292812    0.1487704276146553 O
   0.6885483216504250    0.9040780317853916    0.3049486682285458 O
   0.0093420104614472    0.2231197451314338    0.3234792537898791 O
   0.1379946379886881    0.1471096035365979    0.5899557574159258 O
   0.1352316304393792    0.0358101792312996    0.4423204284437942 O
   0.5666530249131125    0.1847453619812880    0.3267864817251511 O
   0.4325877491526162    0.3460659314917178    0.4553892790578940 O
  -0.1952416333465462    0.2047484508857175    0.3778291326947458 O
  -0.1730249849970926    0.2676287764983068    0.5186032097911020 O
   0.1091678729111978    0.4798808570468106    0.5945041611078442 O
   0.1989875693744582    0.6858180591459396    0.3704220934366147 O
   0.6530484189141220    0.3211921278056338    0.3398925395310509 O
   0.4459929384190122    0.3906874253628597    0.6737484594168038 O
   0.3074756233543719    0.4203236896006827    0.3778038598852213 O
   0.9386401584822491    0.4890676650729386    0.3998733408024676 O
  -0.0764436383317945    0.6227323987674918    0.5229232806691916 O
  -0.1789532010921245    0.5774549945488726    0.6363369790732287 O
   0.0933482030856952    0.8386785460771811    0.6049965891954213 O
   0.0190599796071971    0.8036076582943632    0.4759396535159735 O
   0.1235826716506346    0.2993838343165542    0.6325025322503767 O
   0.1156094617569342    0.4990755944931377    0.7497599441740914 O
   0.4001135591939136    0.5772569154284508    0.7462435135377556 O
   0.2921445427674709    0.0298707078768196    0.8859122913297839 O
   0.1403412825346670    0.6954840299967071    0.7175251776481124 O
   0.1183229022820372    0.8230905174209815   -0.0149896558565771 O
