Li1 Co1 H110 Cl3 O55
1.0
  12.7121468508000000    0.0000000000000000    0.0000000000000000
   0.0000000000000000   11.7632141145000002    0.0000000000000000
   0.0000000000000000    0.0000000000000000   12.9716506787999997
Li Co H Cl O
1 1 110 3 55
direct
   0.4126056351425735    0.7069836505865125    0.5729316201480934 Li
   0.5710651010095237    0.3770134602781143    0.7574609494733135 Co
   0.1271046853347447    0.1012344114209484    0.2984561437294384 H
   1.1028037663455530    0.2794788928688764    0.2912288445736556 H
   0.0870789519970293    0.4169472738963635    1.1387393328083737 H
   1.0563835977520109    0.4039924812251874    0.2945591840246403 H
   1.1070752714372820    0.0138875358137561    0.0645698731903783 H
   0.4394870112005047    0.4163709008121022    0.0970706713107761 H
   0.4981623874964495    0.2799285998918472    0.2264606804591929 H
   0.5433286372840586    0.1539511259144479    0.2319164240459102 H
   0.5955881028013400    0.3876372573784286    0.0946136979625739 H
   0.4934668784923002    0.4825543428902618    0.1829881869451934 H
   0.7120074627544437    0.3146589037036609    0.0997033354832559 H
   0.7222134493216800    0.0603630139168118    0.1815157451971887 H
   0.8527909213633548    0.2289663378633896    0.2039569908958378 H
   0.8471113142248126    0.1937540229324370    0.0850457560658005 H
   0.1366876457449553    0.5020813189160453    1.0598287897058754 H
   0.1777908524756987    0.9054778697065941    0.2232367268517814 H
   0.2570992503279901    0.6830777693143724    0.0800455443266727 H
   0.0635289565860527    0.9330043600729359    0.2255579426126413 H
   0.2714154789033819    0.5980831419728895    0.3191898195475479 H
   0.6307104157544743   -0.0206715562883670    0.1351685211709850 H
   0.5795451792579287    0.8026190771841876    0.0345440877568754 H
   0.4504049152830292    0.6608108958688631    0.2289545804878817 H
   0.5629634010206254    0.6776651329906387    0.0875948533872417 H
   0.5722120355258664    0.6395190960629521    0.2682649206000603 H
   0.3688081549423695   -0.0997363417243101    0.3157376760147911 H
   0.7193516195751404    0.5118337555276165    0.0090861866634003 H
   0.8874506845938489    0.6517580979716682    0.0404161700296804 H
   0.7339777879306687    0.9187650545251835    0.2804985216990594 H
   0.9869696733884429    0.5932783327217911    0.0903097738605132 H
   0.9627880773442897    0.7817591321375755    0.1909971907776657 H
   0.8979367182720716    0.8299763960995441    0.2816070930255677 H
   0.2383825061940103    0.4701096148954231    0.3427866621992124 H
   0.2738847707050279    0.1688195112296832    0.3804780873004956 H
   0.0850012541612512    0.1292954495680918    0.4044110475448984 H
   0.0747709601341007    0.3488400378806180    0.5790858099252255 H
   1.0473764645475363    1.0499281860453464    0.6000507593163201 H
   0.3911474185878432    0.1995441071166604    0.3497603313366215 H
   0.3824714646915853    0.1359721961813484    0.5205219448620417 H
   0.5486636920781850    0.4089545604181564    0.5446962005342589 H
   0.5653548145526431    0.2876645808162978    0.3603480355078771 H
   0.6328422350543981    0.0687411662687712    0.5843858293061329 H
   0.3695601915662540    0.0504835712008326    0.6166708491829357 H
   0.6256719277042856    0.2342880126531765    0.4594325723818612 H
   0.3852876687852115    0.0096777170076054    0.3932883305081374 H
   0.9975579714611269    1.1581894135979600    0.5559044887930242 H
  -0.0224114445768907    0.3655642085099275    0.5049017277426315 H
   0.7094516395420998    0.2550051395904139    0.6140173703888873 H
   0.7346495863373605    0.0623317785566947    0.5271779982925514 H
   0.6865475617795245    0.4041438004125008    0.4200644138764363 H
   0.8760521378573565    0.4626949747170651    0.4040710753926104 H
   0.7479982364113109    0.4696106016204063    0.5052039252113321 H
   0.2857946394138268    0.5272955160829909    0.6067831330259149 H
   0.1342946589145612    0.5036038619749125    0.6622248048538005 H
   0.1187921633634185    0.6601554627597696    0.3812482282985359 H
   0.0287222472872096    0.7348280812677713    0.3561774020750467 H
   0.2624988103555460    0.8882886901140237    0.6060230138827040 H
   0.0731978977525296    0.6746319483820189    0.5376099782579971 H
   0.1734886680656312    0.6764520291687495    0.6055273175246061 H
   0.2985061036453646    0.8803563342891833    0.4919426985363694 H
   0.2987790709136574    0.5453076000200523    0.4883695218337504 H
   0.4623604096447416    0.5013927316029899    0.5728907618168660 H
   0.4691751515618041    0.8262350716986092    0.4280086611084728 H
   0.5646664965129998    0.7366277594674484    0.4327428311474767 H
   0.8071935878206320    0.6499694711733116    0.6531149388139196 H
   0.6951338376683316    0.7481977265423685    0.3363287331295600 H
   0.9000213386207053    0.9930814778675429    0.5199977247632757 H
   0.6879352109474454    0.6178141438692080    0.3748026338194426 H
   0.9803539537159860    0.5375495162929604    0.3963735199717580 H
   0.8276574798015234    0.8996376291625309    0.5670927333421310 H
   0.7703673927259349    0.8890367849726519    0.3941355626971726 H
   0.2069228318609663    1.0128549851535562    0.7367581101316020 H
   0.0095957375911153    0.4029536495010469   -0.0337218578754131 H
   0.1804630997678909    0.4044931947157919    0.7420935914603670 H
   0.0841707886133068    0.3292050981650097   -0.0938208398248807 H
   0.1889101387503931    0.0337692448197764    0.9030098889838137 H
   0.2284038612421533    0.1506484571351632    0.8441353464209200 H
   0.4970532121411386    0.1768589806365545    0.8102152223831129 H
   0.6475297620466032    0.0172703697580051   -0.0163236095268939 H
   0.6647329931425560    0.3525048525801022    0.9385874736280135 H
   0.3676344743536292    0.0496071950761056   -0.1179997209685575 H
   0.3926609316258702    0.3858732837060951    0.8780400522205281 H
   0.4789217350031527    0.1800213816298464    0.6847207852980561 H
   0.7642747947636068    0.3394820512854145    0.7010409904317011 H
  -0.0609658292730647    0.3841713679027159    0.7982159785047387 H
   0.8081981388339170    1.0928926339488336    0.9036805823454703 H
  -0.0437704646689936    0.2339182157628318    0.9482007451450921 H
   0.7128208580150051    1.0238893843183221    0.8385153985973833 H
  -0.0350455811932320    0.0940318731371673    0.9778114716062778 H
   0.6876937096466790    0.2399828847644836    0.8728826515429614 H
  -0.0498221568735372    0.3666599974562590    0.6769630987482278 H
   0.1514034921079343    0.7249957345235740    0.9640275666563688 H
   0.1333082008326039    0.9203887604115243    0.6909990918926903 H
   1.0592470007969270    0.7969896633730105    0.8043100371528947 H
   1.0980209392815174   -0.0966002940726290   -0.0126606986779568 H
   1.0622520006957124    0.7430197199697500    0.7012838276833353 H
   0.2879358985040085    0.6346335265714338   -0.0344142138617394 H
   0.0326058949967145    0.7325931478776196    0.9932528371625795 H
   0.4147563340230132    0.6648013018534094   -0.1662765375053664 H
   0.5250351104133109    0.6372960641819150    0.7292432608334078 H
   0.5278261417329158    0.7715544381796520    0.7064867121635890 H
   0.4667554186590124    0.6937389711576180   -0.0562882225770472 H
   0.4467068774494715    0.5069226828022811    0.8820642123904678 H
   0.4773224772036158   -0.0078256624255889   -0.1707879140023947 H
   0.5263204951867705   -0.0090692001064995   -0.0204967869690271 H
   0.6721392952491174    0.5476139424648914    0.8495856936242676 H
   0.6837738367420590    0.5559211958268397    0.7304088796412525 H
  -0.2010224240321124    0.8604833643912840    0.7136299819211872 H
  -0.0924679826622696    0.8020461045311018    0.6824905371425705 H
   0.8342731994739805    0.5222892312847393    0.6945360357355417 H
   0.6796337020647535    0.6401923814357176   -0.0044330642278227 H
   0.3010792331398482    0.7384265875593317    0.2161358572492304 Cl
   0.2478097100649645    0.3195742269679657    0.8654048060164449 Cl
   0.6102819229870503    0.9340839969711835    0.7317255971834473 Cl
   0.0666774412967592    0.4650684756776218    1.0811367948968977 O
   1.1054233081421383    0.3574788332821858    0.2533855498261122 O
   0.4828722872261110    0.4028252832241686    0.1581293614969406 O
   0.5021538454771923    0.2094589143168657    0.2658404026432670 O
   0.6685207089835643    0.0023247946550841    0.2001309550867552 O
   0.6706053293321983    0.3750735142924445    0.0601086830586877 O
   0.8073454111139475    0.2033075343202366    0.1510508483397782 O
   0.2290316072943080    0.6388152068096066    0.0157162603625447 O
   0.1320173095148272    0.9714207312790812    0.2167949869322378 O
   0.5702045067976725    0.7229359233389648    0.0196062818601532 O
   0.5910113778246033   -0.0283842442592649    0.0210157401051151 O
   0.5205315438110735    0.6135321509113555    0.2117563066888036 O
   0.9487857217949753    0.6653470710570905    0.0824779255849475 O
   0.9700016503997512    0.8168898367203142    0.2598203515384662 O
   0.7703485131454190    0.8623791047716716    0.3235485554864062 O
   0.1317994076897059    0.1595252827190218    0.3511919147533989 O
   1.0042680890361635    1.0779222356983309    0.5419556086943860 O
   0.0065890070641159    0.3124860281824636    0.5554373161755944 O
   0.3456263900163724    0.1671864541576096    0.4036262592205691 O
   0.4180201415047046    0.1063767134662233    0.5847242596346010 O
   0.5293522411579534    0.4650421223360111    0.5992921819969292 O
   0.5969096734374550    0.3043691989663477    0.4313081640830594 O
   0.7032339643588535    0.3332966669770295    0.6504352490149328 O
   0.6772540882705581    0.1172233238193175    0.5421105619882860 O
   0.9552362451379179    0.4571429207151325    0.4014021783603629 O
   0.7376128938291733    0.4687392411316633    0.4282707711578558 O
   0.1815156363816539    0.9796157704122356    0.6639786294489372 O
   0.2475280896556019    0.5438700677405748    0.3715632619738320 O
   0.0488186954323097    0.6764681812168336    0.4072071450422876 O
   0.0979508371020462    0.6543118217845307    0.6120345849564954 O
   0.2895556091824377    0.8366769457310298    0.5569691181406654 O
   0.3330722556224672    0.5617775884189871    0.5563600977318048 O
   0.6485815120111781    0.6858389194289456    0.3539957213698878 O
   0.3782605315873449   -0.0734841629410179    0.3870362349184416 O
   0.5037389435913422    0.7710911294319789    0.4731501789075144 O
  -0.1689326436993492    0.8122065928837430    0.6612018047492968 O
   0.8299938278903697    0.9598422631262223    0.5131581942981978 O
   0.7850321068916832    0.5727312273433327    0.6587449084922855 O
   0.0098672888908695    0.3421675418063309   -0.0871308662703332 O
   0.1770089231826639    0.4333467033484049    0.6689579494753053 O
   0.2402586645077808    0.0655150071909371    0.8479436512560738 O
   0.6655251488750368    0.3161873975170853    0.8673397949104198 O
   0.4496088263046075    0.0502797153518564   -0.1270718123248510 O
   0.5019996622363122    0.2260309156510678    0.7443500506207912 O
   0.4620654161991802    0.4242131452107897    0.8855410251043432 O
  -0.0935008530463286    0.4004653839883142    0.7322105007748060 O
   0.7316194136645539    1.0758989791488591    0.8979218703781426 O
  -0.0878354055931734    0.1601985680917872    0.9703182078415622 O
   0.0893161822881669    0.7725703169933573    0.9550464429054495 O
   1.0326897242045192    0.8111592600816635    0.7345949313122818 O
   1.0928998530665714   -0.0058669290576739   -0.0100830776158474 O
   0.4111133616326269    0.6454205443681759   -0.0910887280160173 O
   0.4779423567638889    0.7023012568577353    0.7143692864428295 O
   0.6293180466914245    0.5433999581305505    0.7858682824430669 O
   0.7308815367260563    0.5839007936473279   -0.0269766870281132 O
