Li1 Co1 H90 C51 N3 Cl6 O45
1.0
  14.1962169946000003    0.0000000000000000    0.0000000000000000
   0.0000000000000000   13.8545168043999993    0.0000000000000000
   0.0000000000000000    0.0000000000000000   14.3191227519000002
Li Co H C N Cl O
1 1 90 51 3 6 45
direct
   1.0088422146158902    0.7715073757610490    0.2908014302305968 Li
   0.6591363738353208    0.7255678450660583    0.6736663651144434 Co
   0.1478931318673575    0.0740084924415670    1.0446555724871591 H
   0.1962433367325756    0.1711587589577214    1.0025587198765469 H
   0.0716094289335455    0.1773278662031546    1.0146523378306929 H
   0.1439920925960456    1.0383777439016233    0.3167897541277869 H
   0.0398573079162730    0.2685768081798610    0.2681750441304421 H
   0.5160289769300198    0.1166862709846785    0.2258596027100101 H
   0.3794421425122613    0.2273108435798953    0.2657119044108444 H
   0.3661562086559569    0.3123921218837076    0.1690153382880157 H
   0.7675730087913487    1.1771794088856575    0.0824325202284741 H
  -0.1464092165392097    0.1436471535093850    0.2712380809351361 H
   1.0232953608363264    0.4419650276258897    0.1884725358291870 H
   0.5387345089828625    0.5037698535962952    1.0338434576193363 H
   0.3827296380484139    0.4746700946013109    1.0592535338023705 H
   0.5193389404236657    0.6304840526394879    1.0503179305383354 H
   0.6071422404488862    0.3964773351356071    0.1850868535607976 H
   0.4539343118276682    0.4827115226476948    0.2533955074460514 H
   0.3682750830019494    0.5994717837840671    1.0699175949076321 H
   0.9780220320160870    0.4250806423165653    0.0078664997745797 H
   0.7735520664538433    0.3629922265208725    0.1082804723979524 H
   0.9105491270608899    0.4137557435694527    0.2390021676045689 H
   0.9095094134522844    0.6299145632728510    0.0767778442121479 H
   0.1706928678902092    0.6850222231630555    0.1379079857135783 H
   0.2240317257202937    0.7919267093252594    0.0801223228390697 H
   0.6169159710175848    0.9658923577868896    0.1411323452501201 H
   0.3487093071261893    0.8619392556806793    0.2808399261306985 H
   0.5692581337037883    0.8943323016696575    0.3171026224562190 H
   0.3589324531977945    0.7947315707685439    0.1800628027689672 H
   0.7107980242791659    0.9966527232342544    0.3215351565646075 H
   0.6948796989896920    0.7633670702136061    0.1440152034192438 H
   0.7163466855901309    0.9316710271772630    0.0729074953814106 H
   0.6769101230035660    0.7626294046461750    0.2727842650403783 H
   0.9229418652154926    0.8570491537048036    0.1440585021611250 H
   0.1173117452792870    0.1593351780770099    0.5331696297447397 H
   0.4662486488138172    0.2534106350850860    0.6253442708081992 H
   0.3806614814394265    0.0330550612962956    0.5579342753270221 H
   0.3881261461483634    0.1824330604873419    0.5615047454518917 H
   0.5165333739819051    0.1040182001686497    0.4795583147709827 H
   0.6043083868937242    0.1594470549487827    0.5498875533317998 H
   0.5941761101009198    0.0323275007366377    0.5530207760003496 H
   0.6905503766058922   -0.7191378983809665   -0.6349773503333885 H
  -0.0459902105080774    0.2204156193473432    0.5121118453242527 H
   0.3188231761828975    0.5296129779040509    0.3516927302848761 H
   0.1857201107170233    0.3437494045759505    0.4374004947383344 H
   0.0911188517681888    0.4350170408170370    0.6172732456481792 H
   0.0871494844345227    0.4118399062743137    0.4546601414556731 H
   0.5728793096846537    0.5135825379301743   -0.3813654452662197 H
   0.5030627521907095    0.4469988372480234    0.3529023015903321 H
  -0.0772372673943404    0.3333434119285408    0.4667323893856004 H
   0.9223508626967800    0.5757416166016512    0.4060668713192275 H
   0.0352821453906011    0.8558452142072743    0.6201931172579433 H
   0.1758541020434959    0.7064679368024975    0.5207896115640535 H
   0.2598053406342654    0.6945873348064954    0.6192803518444150 H
   0.1422944572324014    0.8104412489242540    0.3576337366910620 H
   0.3161295008175135    0.7661206848317560    0.4265702223335935 H
   0.4580764716736587   -0.0538855384377536    0.6130795529869418 H
  -0.1132454518419608    0.6845819335386594    0.5780167905049748 H
   0.0793974192158901    0.1604149703361848    0.7736305895156952 H
   0.2626687795360138    0.1031051405377297    0.8693473470117603 H
   0.1973309504261302    0.0104602639158065    0.8024703450758047 H
   0.0165785710439284    0.2094444680509135    0.8641920032606771 H
   0.1755469779694093    0.2895410903775453    0.7712561423802735 H
   0.1276616856934050    0.3311434073790988    0.8762381322721148 H
   0.2889560643909826    0.2917483127896822    0.9081192752659777 H
   0.3745281573268746    0.0147556140056126    0.6890681466216756 H
   0.3967432305481391    0.0592154828481244    0.8890433860000828 H
   0.3858466656351880    0.3045513576381079    0.9821712977517337 H
   0.5842548050057966    0.1633880079802633    0.7264349608651670 H
   0.6148189334750251    0.0498539149326841    0.6962641181756123 H
   0.5641012669111881    0.0335696949064505    0.8601428725279786 H
   0.3714850931065663    0.1940740294418694    0.6805152483665259 H
  -0.0234623779086144    0.0498337049171380    0.9130308890022779 H
   0.2921618480175158    0.5373533416795629    0.9939576343118841 H
   0.0985954914983629    0.6305100369451899    0.8106503154573323 H
   0.4511072206374401    0.3508958104302893    0.8229611254876891 H
   0.3681616725067018    0.4925608015454377    0.8361644482942425 H
   0.4919588080864484    0.5073851366629767    0.8061297871315724 H
   0.5934047778506334    0.5897579841691097    0.9517434560781098 H
   0.5130005405503595    0.3586997635761444    0.9321396015079859 H
   0.8586972851032754    0.4202767937998951   -0.0170826543174611 H
   0.0641327892033714   -0.0432269205960183    0.9314133000312687 H
   0.0400263670396235   -0.0000691541854557    0.8163343228794491 H
   0.1925888420161498    0.8722875054265288    0.6941117516840329 H
   0.2330158093003429   -0.0075526342258843    0.9200850920948938 H
   0.1663050792262507    0.7390544215117023    0.7945606426476325 H
   0.0986624107346892    0.7574412049409950   -0.0123072221080454 H
   0.4842178021521351   -0.0283747245284766    0.7800346131132883 H
   0.3592635273143558    0.6771092802905057    0.8735822433144652 H
   0.4807692778009912    0.6928499952558042    0.8529657568777644 H
   0.4324816248114128    0.7124724767784842    0.9639467176205680 H
  -0.0246288858597326    0.7615597173947731    0.6793978614792686 H
   0.4492004450499511    0.1921670701178452    0.1360642973496039 C
   0.4148860921356996    0.2655388097715273    0.2082083817253682 C
   0.5636044444124420    0.2707255659041684    0.3111246026093926 C
   0.4955639234505957    0.3320232648416217    0.2467519440345025 C
   0.7412145782219698    1.0601482613623412    0.1487438450527555 C
   0.8931198358564713    0.3031034543814869    0.0577620144914431 C
   0.3680602370326915    0.5420390337839157    1.0177272468710641 C
   0.4524715277628784    0.4206507512661240    0.3019634268674923 C
   0.9102849721806547    0.4068221203073630    0.0354952872956242 C
   0.9521806405989550    0.5576024058627976    0.2744973588119045 C
   0.9490847454025996    0.4691331494242956    0.2027541369819438 C
   0.7924831662040251    0.5052578881695005    0.1354483378280033 C
   0.8943638292391249    0.4881086072992687    0.1088461495096264 C
   0.1743424317155372    0.7700623596495062    0.1366977160413178 C
   0.0787958505019681    0.8011749567963878    0.1100270877760964 C
   0.2093172422716779    0.8154020859545409    0.2327378173678830 C
   0.1897007486589127    0.9294262718791120    0.2352917447720703 C
   0.3191852444720731    0.7987692431601379    0.2445646592026964 C
   0.3413129704796066    0.7062990388154341    0.3012776306654381 C
   0.5586184682170284    0.8061834317204619    0.2103153543746527 C
   0.6671061026752670    0.8008725283494665    0.2114522955324369 C
   0.6983637257567394    0.9620228615960896    0.1402726557137365 C
   0.7182965008127729    0.8936011321786520    0.2242072668504784 C
   0.8225693504432817    0.8699027235920943    0.2249524242309181 C
   0.0970464872806643    0.1671910998342692    0.4009988234187113 C
   0.0462280192145296    0.2659430100824484    0.4066905128756780 C
   0.1161938418261320    0.3050219622858232    0.5683621487789895 C
   0.4248232465236369    0.0159934774578085    0.6250642257195803 C
   0.4224359908193256    0.1916567672253073    0.6284659704244742 C
   0.5554304357984471    0.1003861716605159    0.5478361008434760 C
  -0.0508098043495935    0.2610038266402465    0.4448379615332796 C
  -0.1288348162539152    0.2198995421646493    0.3786420069051074 C
   0.1114841364147938    0.3379202586634527    0.4693923987073967 C
   0.3631680886507375    0.3923927466364956    0.3545553358166683 C
   0.0240587328391724    0.7783145420687220    0.6205967732709650 C
   0.2387638194942585    0.8332583564757496    0.5755747414628740 C
   0.1167531457592165    0.7250690907538324    0.6555039396288814 C
   0.1955896414556205    0.7333992260901544    0.5902317846097491 C
  -0.0012916827072293    0.7442094190484851    0.5269622662393039 C
   0.0870698857639452    0.1850134464008114    0.8427996313041370 C
   0.2112233838874544    0.0465113227186206    0.8667417404640373 C
   0.1611762480716061    0.2681928178844860    0.8443639729462973 C
   0.1326256842027830    0.1322191115043605    0.9976540898082921 C
   0.0443740041617862    0.0203285257924372    0.8922642537026019 C
   0.5061459679528136    0.0439309368051511    0.8045151630794856 C
   0.5549699610112213    0.0931221146442482    0.7210547430030235 C
   0.0963653198961648    0.6200253695944047    0.6746245243702665 C
   0.4520804376575276    0.3840806559569111    0.8931197530381582 C
   0.4411515401872356    0.4877083046342030    0.8660098520528837 C
   0.5338493342897468    0.5725578173668782    0.9944555698435181 C
   0.4253931166519307    0.6646981653864196    0.9036671868870620 C
   0.4864898863286638    0.1030964791024957    0.6318719053301952 N
   0.1175082765101819    0.0965217279736024    0.9006823671644761 N
   0.4392735750920176    0.5628728892027010    0.9405584133366647 N
   0.5633993193427768    0.6335963950335805    0.5818343428052891 Cl
   0.5646595142247517   -0.5789236976675171    0.6597409310319999 Cl
   0.6616990283801081    0.8670033081475050    0.5840512383896075 Cl
   0.1806166384308812    0.6947122038311192   -0.0923386611742368 Cl
   0.6141462190466931    0.7729372343609325    0.8172771180655725 Cl
   0.8097194482426188    0.6671089315265560    0.6807275518751048 Cl
   0.1058706691065445    0.1323028387116227    0.3215749634724661 O
   0.0482053065447160    0.3133831344317338    0.3191243943553500 O
   0.5073614326084019    0.1218463210253479    0.1593150233730137 O
   0.4237969167622967    0.2081409220481930    0.0544182342313258 O
   0.5475023377676258    0.1866923212636729    0.3298394362373425 O
   0.9463206287358196    0.2373761531081001    0.0400996196379286 O
   0.7676843060475543    1.0893293584520358    0.2294094011774654 O
   0.7488990197912623    1.1101615537624010    0.0706880856765958 O
   0.8059684489432803    0.2850984958887607    0.0933326293136685 O
  -0.0945756893199582    0.1744060753842107    0.3059301503172555 O
   0.3549109593010955    0.6269639010031268    0.2579502557452337 O
   0.5491666543957097    0.3636266766517647    0.1643481529333030 O
   0.9328071694760059    0.5682242126047885    0.0656263230773205 O
   0.7686486474636660    0.5882790441029002    0.1528404647281624 O
   0.7366767495860379    0.4309507856891708    0.1483520612754110 O
   0.9791434575343116    0.6422534995499868    0.2533598907390200 O
   0.0556439079721363    0.8065313327023619    0.0203784394446427 O
   0.1620588775780983    0.9620243051686287    0.3160250424768202 O
   0.1563813086855786    0.7658817735765509    0.3059517996881961 O
   0.2038002795463412    0.9783056380497842    0.1618514916070876 O
   0.0226646994845450    0.8257705457159366    0.1719023866579666 O
   0.5053885126389022    0.7650538847254321    0.1561381527791804 O
   0.5196642594859029    0.8571942327449735    0.2793125979291787 O
   0.6862231674611344    0.9303891347626275    0.3092816126122227 O
   0.8624151769909576    0.8328671483176796    0.2922002589400821 O
   0.8564199178291418    0.8819161342616848    0.1395456558702148 O
   0.1447908969538766    0.2257034255577145    0.5962524048316522 O
   0.1129612905050684    0.1151308215739018    0.4738916268456185 O
   0.6366296736262766    0.3202956815347540    0.3379761078769889 O
   0.3495700998292487    0.3148967202388794    0.3895490996583472 O
  -0.2140709041821481    0.2323965496348061    0.3966961855359664 O
   0.1001205456735869    0.3691295751704477    0.6393688729768868 O
   0.0919838709493320    0.5636957255499332    0.6094627113062510 O
   0.2974696000777063    0.4600863380652597    0.3745551643649640 O
   0.9245796254729503    0.5243541153230867    0.3588579736994133 O
   0.2245065000917029    0.9023910453686468    0.6375489290842665 O
   0.0401679540554295    0.7741036409724477    0.4540635965312386 O
   0.2914863159371279    0.8461754435547566    0.5107808419988240 O
   0.3395575732488176    0.7093348718649594    0.3943273253349810 O
  -0.0766497869406976    0.6885683591051186    0.5139608901616179 O
   0.2491743394275772    0.2387042398439837    0.8823223038732304 O
   0.4265124289311136    0.0962452838323831    0.8404461351728515 O
   0.0790945216198872    0.5876229403839229    0.7594202217770012 O
   0.3705031413651056    0.3615378271878261    0.9428001707792245 O
   0.1316056941585685    0.7775436743328940    0.7459885330253645 O
