Li1 Co1 H110 Cl3 O55
1.0
  12.6081457408999995    0.0000000000000000    0.0000000000000000
   0.0000000000000000   11.6669764499999999    0.0000000000000000
   0.0000000000000000    0.0000000000000000   12.8655265061000001
Li Co H Cl O
1 1 110 3 55
direct
   0.3979239274039252    0.7126654674099390    0.5294005457041074 Li
   0.6672973999029482    0.5441128001076920    0.7570375567981669 Co
   0.2927062350277500    0.1098167319091486    0.1080264186965873 H
   0.2462156556796278    0.2054089365201384    0.1782637307546326 H
   0.1111728004501909    0.2539227911958287    0.3238924385352015 H
   0.2918369557359944    0.2723054459409662    0.0184714362826367 H
   1.0090383734406188    0.0202063684631848    0.1503542627799056 H
   0.4009029538818757    0.2566347191863921    0.2183203891242418 H
   0.5818764330032492    0.2924434826471258    0.2364393522222134 H
   0.4481351172973259    0.4324866212445299    0.2711118547263664 H
   0.6624251529237017    0.3061539757372185    0.0930414120659926 H
   0.3501651203299663    0.4960729328462817    0.3129756680529823 H
   0.6958939919323692    1.1287167057751282    0.2154849047013771 H
   0.7120367304589206    0.3066939613990564    0.2696653534898118 H
   0.9054466140462856    0.2007136326224435    0.1094006337348616 H
   0.8552806330211605    0.1164182709051410    0.1918449860508814 H
  -0.0507146048784773    0.2425719497359575    0.2842329656206591 H
   0.7392738838879138    1.0274736797810200    0.2770991728484408 H
   0.1703710374739582   -0.0179515040505632    1.0884254714690924 H
   0.2902824051777455   -0.0635373507589449    1.1166714977648449 H
   0.0871904475956295    0.6198642172625625    0.1950216924204670 H
   0.0428171899019835    0.6782135250645852    0.0233507546665549 H
   1.0510508954153361   -0.0930608525399055    0.2131414327893877 H
   0.1458765553870185    0.5999190325784878    0.0331404045452663 H
   0.0793067347925996    0.7720133201263125    0.3099932794207094 H
   0.0064808792806806    0.6134983862935628    0.2982603744417775 H
   0.6372461927083085   -0.0188243094465147    0.1253681108453085 H
   0.5096540762259075   -0.0431516063444184    0.0978367851873917 H
   0.3421798065440222    0.6034332249809247    0.0548455403488883 H
   0.3644542952572177   -0.1109618057898797    0.2523011204835622 H
   0.3975463936969219   -0.1891637293053763    0.1558526774749015 H
   0.5122048081622997    0.6801446166457292    0.1212905474455420 H
   0.4380567122240252    0.6042209183511295    0.1919071677268214 H
   0.6332765368184943    0.8112317073375083    1.0821451221991509 H
   0.6741231458745249    0.7418649777937968    1.1775629039291058 H
  -0.0124444254313323    0.8522149048308056    1.0639336638582186 H
   0.8449936326433601    0.5810872469019169    0.2193222913778254 H
   0.7623399243649523    0.6240486775817569    0.0687663853228646 H
   0.8736893669277717    0.6780618148072117    0.0811284134081195 H
   0.8365070556161850    0.5254224392473168    0.3270349449830200 H
  -0.2465618016625254    0.6947696568805537    0.3201576516240542 H
   0.1950146295124034    0.4119011678471332    0.3396617115535896 H
   0.2132211132188341    0.2171549103452592    0.3671576713833156 H
   0.2638122162333578    0.1516829345275656    0.5318435082976009 H
   0.2519349740855120    0.0437389436060788    0.4533041652306141 H
   0.0829376414255627    0.1089764970769269    0.4958939496238297 H
   0.4516011305317890    0.2829723055625093    0.3367018637788448 H
   0.3463001586614219    0.4577690927798179    0.5945754920696863 H
   0.3700800233743910    0.3282908165122764    0.6284963735659145 H
   0.4579620976119709    1.3070576845983091    0.4977967089075942 H
   0.5142146199554644    1.2002862339710989    0.4502067404978520 H
   0.5596368423638104    1.0189281924024112    0.5032438237199397 H
   0.6237834676186568    0.1380538678467976    0.6259274930786425 H
   0.6373564388958578    0.2687475404135233    0.6464995232924476 H
   0.4383454144705572    1.0094141593128869    0.4997803043700807 H
  -0.0306463089371315    0.0547100808624672    0.5135551001326928 H
   0.9372435180667956    1.1986491345836221    0.6170782633214289 H
   0.8593097742639690    0.3328386957530887    0.3947709991263783 H
  -0.0247249782724789    0.2100425277707662    0.4097536739441252 H
   0.8286232634993510    1.2116259328696941    0.6573486712020820 H
   0.7391747416329234    0.3651966936986489    0.4379452912734301 H
   0.1654654786970349    0.5469498676325861    0.3352102808272336 H
   0.0702716234970136    0.6664461232370106    0.6604103414711785 H
   0.1474937638504213    0.8745163126647093    0.3499729879663428 H
   0.2670315635374050    0.5333679425572168    0.4669382749514119 H
   0.2234684566946383    0.5881970581161154    0.5752875134640425 H
   0.5647081669910776    0.6565832422675372    0.4114628927615264 H
   0.4621585909812031    0.5869525197335939    0.3838347968704279 H
   0.7005687475396749    0.9064826067254127    0.6347813864615516 H
   0.9804933353837928    0.8599315570744981    0.4246539580412516 H
  -0.0913002715193733    0.6854861890974332    0.6379363292445581 H
  -0.2990358143838261    0.8142453416026223    0.3705698908505239 H
  -0.0510524816834845    0.7821273372845455    0.5679376393679325 H
   0.8658214375717362    0.9062940403038184    0.4623857990016534 H
   1.0770261662228118    0.4875025889848266    0.7388968301136164 H
   0.3168001824045286    0.4911864911666982   -0.0155393754624197 H
   1.0616868765307026    0.1573022138910720    0.8300606079383249 H
   0.2477813101704357    0.2214567961179008    0.7043611272965312 H
   0.1028003559869605    0.3104935747941790    0.7922860170757142 H
   0.2062597406424306    0.2615203037458775    0.8459169353030290 H
   0.3418284463923364    0.1287909709460329    0.6848578446379452 H
   0.5776989749469751    0.2857030901952322   -0.0470576347274205 H
   0.5393896144806580    0.2137718573178400   -0.1411060204989864 H
   0.3822951423272440    0.2947602782724397   -0.0585186503283046 H
   0.5780725429637789    0.0141436151608929   -0.0558083065282691 H
   0.4922351785931203    0.4251196740008848    0.7070162848591699 H
   0.4431248642991327    0.0018441131763834    0.7964793938469191 H
   0.5449693405915157    0.3695585778781614    0.8035082550409887 H
   0.7379318943243641    0.2811500682338311   -0.0053999536565457 H
   0.9128148664371695    0.3460237742230122   -0.0101084278858186 H
   0.9070328901261313    0.2271052175647445   -0.0643753869309049 H
   0.6945940386849356    0.4505341420312887    0.9400677653857062 H
  -0.0296851842603529    0.4785962540448944    0.8721342844212384 H
   0.9449607511952457    0.1395683990602381    0.7838891590109643 H
   0.9877902053510836    0.3950441868767122    0.7058830238151631 H
   0.3240597748839431   -0.0230692824446389    0.8010551879251551 H
   0.2400022122748716    0.7864455083390522    0.8463211161966391 H
   0.1908252743855305    0.6625625120722688    0.7225111812324728 H
   0.2657950613331652    0.6586437589835026    0.8817802169014335 H
   1.2067597554130047   -0.0675349588967414    0.9455941618348751 H
   1.1190862764799245   -0.1101569700177118    0.8637786217167988 H
   0.3685405424389006    0.7502493265939524    0.7291537387647650 H
   0.5467523149052624    0.7068884779483720    0.7108319079490392 H
   0.6594762656912683    0.7722670276753666    0.7325457491872929 H
   0.4225302419544940    0.8541734242550906    0.6685405956003357 H
   0.6274771114705778   -0.0000412081873363   -0.1724836714492679 H
  -0.0235695347759192    0.5288329201178769    0.9895721521434516 H
   0.8083831738585580    0.5192288894180463    0.9102905153199309 H
  -0.0460596777221697    0.9850033789174231    0.8209976286700675 H
  -0.0499968149523471    0.8685104721369349    0.7525970078651004 H
  -0.0559405914235295    0.8389552569123425    0.9474751575320607 H
   0.7821493400500673    0.9023427166513223    0.7394191561915124 H
   0.3189614835633185    0.8577784713879320    0.4251016661080197 Cl
   0.7928416339662683    0.5259615677890565    0.6324091555244400 Cl
   0.7264313927454817    0.9835291323485958    0.4493260925123515 Cl
   0.3069906511267618    0.1919332943369402    0.1291091159240498 O
   0.1900519647966056    0.2684766904625063    0.3108397274844428 O
   0.4538266758718127    0.2983670396454773    0.2600365209705003 O
   0.6572523066273244    0.2751287995442898    0.2215958089043822 O
   0.7271491826716120    1.0498873703477820    0.2074440367313838 O
   0.9190727255721614    0.1644703092719451    0.1813603782164454 O
   0.6743071538997871    0.3204833095381794    0.0175055994010984 O
   0.2455311775511743   -0.0224131570095009    1.0588192210121523 O
   0.0821972470652947    0.6261837637462618    0.2747246100984814 O
   0.0733078352276425    0.6113504433275856    0.0627996648809454 O
   1.0434209074712775   -0.0546344442994054    0.1455173056627216 O
   0.0757610904989281    0.8544897015713099    0.3245352416102314 O
   0.5831192803118084   -0.0371608511303715    0.0654860687357439 O
   0.4265038635345079    0.5130636245520149    0.2840168842967675 O
   0.3884419621366467   -0.1084041594169842    0.1798633543681895 O
   0.4362991183275560    0.6628770751482918    0.1342989540521934 O
   0.6414759978752175    0.7360348468861442    1.1085101527977177 O
   0.8532739937801556    0.5996001839019741    0.2954140082256233 O
   0.8335327879664739    0.6076391133025730    0.0933132237169454 O
  -0.0376485281225910    0.7975272140881025    1.0083510182773365 O
   0.2309921641413472    0.1238102460556522    0.4614662874686905 O
   0.0088151638459777    0.1241205235311845    0.5096531999674568 O
   0.2191577514476572    0.4872214535926316    0.3606744543956196 O
   0.3032589366489245    0.1978902790191198    0.6542543555531168 O
   0.4995145995235329    1.2824840513841957    0.4388173892784888 O
   0.4006317006722221    0.4008194620980829    0.6159947476181742 O
   0.4960858637769461    1.0545843884856734    0.5323293026408822 O
  -0.0261569890035598    0.2723328737841071    0.3573259711462497 O
   0.7857969818956728    0.3636658772033434    0.3769186399639995 O
   0.6744792648544503    0.2004779245954508    0.6282523104878499 O
   0.2855021622111301    0.5579947172174159    0.5388016378352887 O
   0.4944282052735072    0.6428736062975425    0.4368112529584740 O
  -0.3114817365062967    0.7366074031117120    0.3411517399633022 O
  -0.0441537670122349    0.7471302665567650    0.6375896664011925 O
   0.9406936685404603    0.8919629922626612    0.4859114588226094 O
   1.0306513850285184    0.4256699451039005    0.7613304242508757 O
   0.1500944634833286    0.2381157823456479    0.8012261875339901 O
   0.3067439851963458    0.3125335206277887   -0.0532845077560537 O
   0.5169699815061566    0.2769664650347349   -0.0998850102474004 O
   0.5640300339669435    0.4191344043554661    0.7423393631478454 O
   0.5615046824478288    0.0234236544636207   -0.1313567109825411 O
   0.8833735823952306    0.2641079493222085   -0.0025763614792045 O
  -0.0709927651451867    0.4912773458971026    0.9373473170633305 O
   0.9052959178187002    1.2320511048087357    0.6736775793039302 O
   0.9913831206719346    0.1182835356627466    0.8471916596597994 O
   0.2998103724513396    0.5726908984203872   -0.0041358779117801 O
   1.1965282746979991   -0.0921240202726217    0.8718078306225533 O
   0.2708544888898335    0.7112075061229767    0.8205312661005174 O
   0.1362216860270367    0.6178396995907196    0.6798102470935145 O
   0.3814885209406423   -0.0086201232539558    0.7516860463125791 O
   0.6234654192646477    0.6954922091232987    0.7365152719251138 O
   0.4241680720069348    0.7687562637533224    0.6732718438684216 O
   0.7274339192279443    0.5162323975548953    0.9013596721130460 O
  -0.0834410666817770    0.9082911301325203    0.8109475152962624 O
   0.7092115727607151    0.9025741390778242    0.7119231963617866 O
