Li1 Co1 H110 Cl3 O55
1.0
  12.3393349064999995    0.0000000000000000    0.0000000000000000
   0.0000000000000000   12.3417498723999994    0.0000000000000000
   0.0000000000000000    0.0000000000000000   12.3210438523000008
Li Co H Cl O
1 1 110 3 55
direct
   0.8100556901194600    0.2514294948757189    0.6466277956402822 Li
   0.4715090803018233    0.6011124851015418    0.4192639429033193 Co
   0.1257935265605233    0.1389154661231684    0.1384784801233785 H
   0.0378642331082109    0.0488421773680606    0.1731281417200544 H
   0.2564820938309136    0.3198646850823209    0.2265213450789724 H
   1.2278164559192890    1.0018157930708120    0.1819999549617219 H
   0.3372449556505601    0.2579326245639559    0.2942818376158244 H
   0.3500779001487749    1.0751441305721141    0.2663751111954152 H
   0.5769029293102443    0.0414824430565487    0.2171236023724253 H
   0.4646707862900812    1.1265874029252376    0.2957671013823829 H
  -0.3677087607298748    0.0069015283230202    0.0611059773202135 H
  -0.0870388521616548    1.0153308943914940    0.3061517734551242 H
  -0.1304658280935362    1.0392902196944058    0.1869402831295043 H
   0.8738913835315147    0.1903230871298824    0.0074749613185418 H
   0.7614979676376451    0.2476796214397407    0.2936228025456356 H
   0.6848666088841114    0.1524151725442645    0.3270461070104700 H
   0.9757688355599704    0.2645256928760896    0.0251168188271833 H
  -0.1632496047772297    0.3221560943470024    1.1271122473610580 H
   0.1862287125450751    0.4812080942898821    0.0422012479164204 H
   0.1240219561991025   -0.3447169248839005    0.0491546360405936 H
   0.5016411743585412    0.4924609556293085    0.2345450158965668 H
   0.3924156763707984    0.4356456735785758    0.2847152780440072 H
   0.4740797212837202    0.5974258117796531    1.0152467255333184 H
  -0.2601681185433185    0.3893823798071741    1.1613057787736869 H
  -0.1773897510105643    0.4404958772060100    0.2924394612496561 H
   0.0400517091921757    0.6676711180744088    0.3051891926752671 H
   0.1127053008803105    0.6756059734241353    0.2000487503938141 H
   0.1252959308597400   -0.2125209221397022    0.0419514314206025 H
   0.1282142404990246   -0.0248830244394088    1.0332646794227172 H
   1.3315740741135706    0.9213247759726977    0.1833123437652875 H
   0.2490935270490869    0.8894978467235136    1.3309586121746328 H
   0.5957759076161760    0.6746506793919361    0.2246424458332986 H
  -0.4785405041230777   -0.0715765651413430    0.0890060484603572 H
   0.4071668766080265    0.7697271484608895    0.0820285552357103 H
   0.4490159717102254    0.7912022231253594    0.1973152157677107 H
   0.5715404036553856    0.7772771313209684    0.3059188386458333 H
   0.9429307609740741    0.7476808419959953    0.1284768924756731 H
   0.8637206570741359    0.7192715804548832    0.2751714438194379 H
   0.8808447566792688    0.8523070103554500    0.1664777311718683 H
  -0.2056692330607827    0.7155978712589616    0.0348961038816317 H
   1.3001461241520440    0.0549042836960550    0.5942491167120736 H
   1.0023829118038212    0.2030068638729253    0.6323838726331225 H
   0.3662489500077822    0.1392590154612960    0.4512303902856550 H
   0.4135448540757216    0.1908092418536479    0.5633483257917549 H
   0.6073389295360074    0.2844402108772719    0.5864567574646810 H
   0.7135042950055779    0.0858986729807905    0.6144657479477056 H
   0.6921457694450820    0.2879907608765063    0.4932974429001335 H
   0.8260849170995797    0.0991755584868273    0.4015682019731139 H
   0.9454754686295458    0.1712188270016426    0.5162127091214525 H
   1.1654387017022003    0.5505459117669421    0.3491749138931031 H
   1.2297209345786388    0.4356432428049570    0.3569778241945751 H
   0.2975621037213154    0.5239459560561107    0.4841634765455708 H
   1.0767710378215758    0.4160714638840293    0.4463931378000327 H
   0.3444309183196899    0.5676172348919691    0.5928580008126849 H
   0.4697512870200660    0.3894852825570379    0.5854982347825468 H
   0.6384629733284888    0.5928729727915888    0.5671296612498949 H
   0.9901051025743954    0.3422950537789899    0.5191337278623509 H
   0.6861462564599045    0.5588291780020340    0.4439753231767661 H
  -0.0003797244126612    0.4725278016970484    0.6306713553940850 H
  -0.1056257534604586    0.4573176409061706    0.4054956289492760 H
   0.8606248662321289    0.6282310058510565    0.3610237476242441 H
   0.2593687972286175    0.7024878988747509    0.6404213409829744 H
   0.1784341271214041    0.7819952629151129    1.3445288909598017 H
   0.1755660633020683    0.8947078048465344    0.6070905611462207 H
   0.1687350630383832    0.8123005278789107    0.5150139470541262 H
   0.5863702142883401   -0.0005026081199289    0.3469673087318795 H
   0.3349247333519564    0.7654011816772491    0.4247732163718435 H
   0.4506254587814886    0.9729949205302451    0.5594825819009799 H
   0.4955889843040626    0.8970737578355267    0.6476999450586558 H
   0.4398550241505272    0.8060032036904012    0.4977881338402255 H
   0.5730575032512593   -0.1256572268708945    1.4730813106238489 H
   0.8736077377737393   -0.0151294642680754    0.4618090394295479 H
   0.7006211046874142   -0.1294443721690280    1.4528882163550092 H
   0.8648552401052378   -0.1736431288801721    0.5658675928580924 H
   0.8747017999823021   -0.2158778205073033    0.4421280770933305 H
   1.2011861713464225    0.0429785842189371    0.6790024876535354 H
   0.1936505064013841    0.2960431036178095    0.9016605702710959 H
   1.0393703186177476    0.1184831933411757    0.7798567671201274 H
   1.1349913556461262    0.2069746966767251    0.7648775168055896 H
   0.3744471228239452    0.3029554135318825    0.8360898272654871 H
   0.5132925316715083    0.3300245085511477    0.8537993657279502 H
   0.4710884741638648    0.2958162314133855    0.6740629711052976 H
   0.4991653521013864    0.0792987174767368   -0.0271531030820532 H
   0.4573835215646029    0.1565912416214104   -0.1353392288664503 H
   0.9023126884606211    0.0094587264777632    0.8781479520649753 H
   0.6999460277839085    0.0502586701815388    0.7376655367153302 H
   0.8592957832528378    0.2779946094980139    0.8530770243332851 H
   0.1000247146748436    0.5020114651776825    0.7604931480258360 H
   0.1912500528741525    0.5246614137579190   -0.0866939998432522 H
   0.2218894676290631    0.5492770479379141    0.7406474269220712 H
   0.2145730279113565    0.3821727052537312    0.8159665322774804 H
   0.3466117489887582    0.5936346151921548    0.9968067294807447 H
   0.6389978481860084    0.5509591432821429    0.7272524579585291 H
  -0.2762265205156663    0.6200627962339225   -0.0055900761839382 H
   0.6739186930504275    0.4319006616898353   -0.0604839640807615 H
   0.7099133397121399    0.3685214806103949   -0.1652871784414467 H
   0.8795318820289936    0.3747758611316386    0.7641251454877754 H
  -0.0565490402835595    0.5377697656263838    0.7295201229660508 H
   0.7228986425031028    0.6437207056080995    0.7111150265538935 H
   0.8417502670932956    0.6413247730778083    0.8546434500543003 H
   0.1979457135905561   -0.0744092266651502    0.9359190312472905 H
   1.0125698465902160   -0.0399624096095937    0.8761838327671220 H
   0.2947143003132492    0.9795255989861621   -0.1963356841188766 H
   0.0003194218594329    0.8152976717509254    0.6699561762097861 H
   0.5294117148776653   -0.3149123992855812    0.7689599631147641 H
   0.3578538459940779    0.6888237101054473    0.7372921917248292 H
   0.4514601877257994   -0.3052857254971506    0.8691389751202760 H
   0.5361803130746398    0.9823047834903551    0.8139171929274475 H
   0.3809580085895694    0.9704588133879348   -0.0951616265517250 H
   0.5278419382124906    0.8583353289301426    0.8048960416895796 H
   0.8876441507013731    0.7110758220700690    0.7658344162486347 H
  -0.0755593031362545    0.8874316891475101    0.7493106539407848 H
   0.1374878359453822    0.2968355358175473    0.0765394910938458 Cl
   0.7824901849623851    0.0462870291657362    1.0064650020610981 Cl
   0.6208615384338422    0.5122020784456811    0.1114961883642317 Cl
   0.1150311960940696    0.0576389850430234    0.1517663153070377 O
   0.5859593331477910    0.0656391471773091    0.2941170788482771 O
   0.3860109551602274    1.1390005535387178    0.3074357555746299 O
   0.9007080638880625    0.2640046970637875    0.0063023090519644 O
   0.3113229750556816    0.3348901070781678    0.2846917410772147 O
   0.1166260956692188    0.6612238961794048    0.2789470979407659 O
   0.4549093201403497    0.4938918710329250    0.3016156318205364 O
  -0.1922787220444263    0.3552899695452428    1.1930888001389504 O
   1.2851047948254342    0.9695513245702392    0.2273061811785692 O
   0.0991356878283300   -0.2773431724908533    0.0834900385496131 O
  -0.4436326259218710   -0.0012921233913242    0.0888552495489766 O
   0.5460447021136212    0.7062904390724704    0.2790607246770054 O
   0.4125909939131451    0.8266542460980884    0.1341947521671512 O
  -0.0769613235961163    0.9980399913828998    0.2284067372810027 O
   0.8703984886286221    0.7786861697620155    0.1460127443555986 O
   1.2641960503951251    0.0079404490702859    0.6538715000755472 O
   0.3842572139607240    0.1226625034498135    0.5290444141210647 O
   0.4830202355688044    0.3115579213689137    0.5932370271399979 O
   0.7453447469405551    0.1987927126757510    0.3559746624374897 O
   0.6848828172131273    0.2906216681899508    0.5714661444765191 O
   0.8919798787130845    0.0597473570542073    0.4341896263279157 O
   0.9512456337591505    0.2230015974035290    0.5742524343730194 O
   1.1975230889888644    0.4958227155441472    0.3996568379456574 O
   1.0039064947313010    0.4156614734003204    0.4822155896386088 O
   0.3685578264760749    0.5199951386676427    0.5253491103346488 O
   0.6211419425258146    0.5805157299713417    0.4871810780122727 O
  -0.1730540229988530    0.4842822126598262    0.3618597157551486 O
   0.2267900559069732    0.8322045125277450    1.3824883370592236 O
   0.1613497379223597    0.8116766293167450    0.5936509531077273 O
   0.4844279289438217    0.9005983795828268    0.5670866454140329 O
   0.4080129513826483    0.7499438922351239    0.4480025793569101 O
   0.6255327788561794   -0.1223740619697312    1.4142875908153785 O
   0.8947677113037924    0.7000441611299560    0.3480605602584119 O
   0.8410208922875871   -0.1607365312220699    0.4908682656032429 O
   0.2330140542490186    0.3047728219408927    0.8335981552636649 O
   1.0907669299266700    0.1493232285011157    0.7254336185591534 O
   0.4528427581908424    0.2859732187728793    0.8172586305924319 O
   0.4792493678232916    0.0856371217394046   -0.1068351504612395 O
   0.8308177491721767    0.3157688315345962    0.7870842391645011 O
   0.9651847967126899    0.0066568304453916    0.8356677851023120 O
   0.7465028320487299    0.0950250935584663    0.6906946788125751 O
   0.2029330164287003    0.5386262081980840   -0.0090366185799441 O
   0.1775353752774811    0.5014483359559874    0.7854756092271684 O
   0.3090424631631665    0.6503810253236874    0.6856748119294248 O
   0.6467737940313113    0.4158219044591630   -0.1347670370875302 O
   0.6506662242444421    0.6149362946718149    0.6841960411192229 O
   0.4122263065102909    0.6395033133794334    0.9830335458094343 O
  -0.0233166170527102    0.4690582774851084    0.7052113059867093 O
   0.8571562838227598    0.6361512765590700    0.7771930317748570 O
   0.1266703971602750   -0.0855591852547128    0.9777580187697453 O
   0.3051159954591026    0.9409978371277431   -0.1216431490518736 O
   0.4719702072623213   -0.2706002064722253    0.8011999262836192 O
   0.5665766028943142    0.9175732820209737    0.7672523155929942 O
  -0.2361716874355103    0.6827038323911122   -0.0311789795089714 O
  -0.0694033797760751    0.8200854855221430    0.7111970001278947 O
