Li1 Co1 H90 C51 N3 Cl6 O45
1.0
  14.3886447858000004    0.0000000000000000    0.0000000000000000
   0.0000000000000000   14.0423128959000003    0.0000000000000000
   0.0000000000000000    0.0000000000000000   14.5132165138999998
Li Co H C N Cl O
1 1 90 51 3 6 45
direct
   0.6029008998235326    0.6160167496642002    0.3574230600040880 Li
   0.6776299668070440    0.7067268776497339    0.6207402920139523 Co
   0.2361957598643327    0.2170062702982302    0.2496895332216201 H
   0.0676823219349392    0.2458028085179466    0.3487695682106102 H
   0.4088249432917626    0.1544011990028398    0.1926835622015078 H
   0.3936754970968629    0.0581770221156748    0.1096034263236211 H
   0.5266415288866058    0.0391089382476548    0.0332640429113443 H
   0.3885784222095616    0.3067315177941662    0.1095944689708609 H
   0.7969879762350676    0.2973584180081310   -0.0253094648418012 H
   0.8968542264199426    1.0773189616303882    0.2791206382830590 H
   0.7481063747729119    1.0356691277080319    0.1406323853120506 H
   0.1468266761776577    0.4959824638242841    0.2819256677512689 H
   0.3191806425809028    0.5823342641999929    0.2748989690244685 H
   0.7585868614514644    0.3171364988740751    0.2488034443254969 H
   0.3729042566882491    0.6532976451890998    0.1087076910476023 H
   0.6463004005615224    0.3617972328036764    0.1365891740815284 H
   0.6404047793085940    0.5835377696428132    0.1894058601184140 H
   0.7047589984713208    0.4220006342139123    0.0440307809290912 H
   0.8642250242268816    0.4712982460198791    0.2095909100499319 H
   0.8133084847677233    0.5896756474011963    0.2138339391497197 H
   0.1224004702887715    0.7536016343140856    0.1718935464451095 H
   0.2910501267452867    0.7814674141824610    0.0446715761650124 H
   0.3009773994055284    0.7902651101828165    0.3329150538250760 H
   0.3288410381267833    0.8784642558065845    0.2443991828760256 H
   0.4436510167309047    0.7816931604696646    0.9941943774545566 H
   0.4236289782214605    0.7608810619096524    0.1289995401851069 H
   0.6617764932245200    0.9026048658694025   -0.0055075139975653 H
   0.9150546896253757    0.9808441137870856    0.1126454811264083 H
   0.7865721238576495    0.6735500068981909    0.0913593658325227 H
   0.6823941402938793    0.9235252087059286    0.1318459112814407 H
   0.9699306012733746    0.8364519459845857    0.1773816475785637 H
   0.7353796723818210    0.8881115269508953    0.3202596924292000 H
   0.2809226962492744    0.2716418567352769    0.4217527004463578 H
   0.2302473191825204    0.1577952267782724    0.4168661200021072 H
   0.0279148519252064    0.2659120314140158    0.6359912186288769 H
   0.0326880603143508    0.3483386237126355    0.4106242231825263 H
   0.0671367528339668    0.0328307702098424    0.5917894388658866 H
   0.3273926737873865    0.0746750165498853    0.4978703549264633 H
   0.6029064597634151    0.2549458892163896    0.4858954767295074 H
   0.6957060263576057    0.1347149833452530    0.5276275076283730 H
   0.6870491999605202    0.3193305818736780    0.5388565828539728 H
   0.2049697474991231    0.3298886716341823    0.5815704085180685 H
   0.4260211423559153    0.4202828972443108    0.5940956126880675 H
   0.5369411090212306    0.4463134381323952    0.5303726606385166 H
   0.4987145068506901    0.5206244157993772    0.6331255547727519 H
   0.2260433096388490    0.9584560640170373    0.3704663436771937 H
   0.2702093870881415    0.9488892639467138    0.6189908521171740 H
   0.2806189845331917    0.7471112505236338    0.6618504070204065 H
   0.4322093554451614    0.9640911755963487    0.6512262976196872 H
   0.3548024824157307    0.8150145943010257    0.5895948874396404 H
  -0.1561622477203346   -0.0811461801590178    0.6062913929846324 H
  -0.1055063304431693    0.0409989402862612    0.6124202893540076 H
  -0.0034723986965964   -0.1409931588034954    0.6736768687723973 H
  -0.0082713218076975   -0.1027159886546279    0.5559698120104541 H
   0.8551796970305051    0.8948162628941808    0.3298674868052056 H
   0.2237741591742951    0.0398780423176228   -0.0078984381574003 H
   0.3388947994193523    0.2574903418478668   -0.0447296946530259 H
   0.2243106933729584    0.2167527508085001   -0.0333228504264931 H
   0.6151876719714191    0.2625906412451913    0.6976853302782450 H
   0.4230479645037371    0.3508880612778996    0.7479912014337361 H
   0.5055343291105906    0.2434506319039613    0.6241454641170948 H
   0.5355577264792108    0.3357958181715751    0.8066487704974002 H
   0.4341921690057655    0.9908773612331766    0.7724454634961870 H
  -0.2167183329508141    0.0912727096598323    0.7091156014273814 H
  -0.0642126569356844    0.1043047508454002    0.7722194625957761 H
  -0.1500817584663123    0.3002981046755639    0.8031430004324894 H
  -0.0026085230373496    0.0015139918941849    0.8062629153015768 H
  -0.1015914377733891    0.0373592264884778    0.8658072622884996 H
   0.2087254868897661    0.5334887495696883    0.7492893285568282 H
   0.0590032557783236    0.5089237080015919    0.6684009879966462 H
   0.0397679487622563    0.4829885929888553    0.9818160049671111 H
   0.4946321209919489    0.4542931064983320    0.7879878485893853 H
   0.6776091170324844    0.4219428089819851    0.7490764191719899 H
   0.6068978016065800    0.5202218467894210    0.7184133335924574 H
   0.6792875238845205    0.4595806969793616    0.6343609804265226 H
  -0.0279250142999246    0.5946805209231728    0.6892385466253870 H
  -0.0468044851635106    0.5769619298445874    0.9256272201295821 H
  -0.1219547175931229    0.4789951625322264    0.7826857847824890 H
  -0.0881475031374528    0.4148664106182217    0.8786713989064014 H
   0.2633616261303313    0.7862921179547137    0.8195521816620199 H
   0.2986651594068849    0.9003894188678558    0.8517331940208368 H
   0.2669811469938526    0.9945163628975620    0.7352152602891653 H
   0.1921297613329257    0.8970203157613573    0.7076507297375227 H
   0.4542082305798359    0.7413657582676141    0.8282297894052367 H
   0.4961434516505152    0.8899452704510504    0.7270682034402060 H
   0.4584221785160473    0.8598070729092789    0.8771334903401907 H
   0.4044972250857051    0.7321806616986821    0.6804396701063399 H
  -0.2594117213237237    0.0143971971995460    0.8076547501150830 H
  -0.0872321980342928   -0.1541868542704362    0.7879265251743348 H
  -0.2674388845291137   -0.0226209211014480    0.6871749103548664 H
  -0.1960562063623947   -0.1226571480687412    0.8377135588968705 H
  -0.1881749915789210   -0.1615787989429058    0.7204955735956335 H
   0.3113876918430640    0.1998253399352242    0.0894783217528831 C
   0.2278245753787118    0.1466603089652921    0.1303713932116866 C
   0.3991485629187197    0.1366940020586242    0.1222388059325705 C
   0.4901237047397095    0.1710423322500721    0.0811652093642925 C
   0.7849979658784106    0.3145870613088110    0.1183265098577742 C
   0.2121914144140328    0.6612443417787038    0.1988978979356726 C
   0.1489818478746200    0.3661455193325877    0.3326718272462801 C
   0.4323101293555320    0.6672276865896952    0.2479828130072365 C
   0.3797791223529866    0.7086852444945596    0.1659472422666150 C
   0.7010338387500317    0.4499235271808169    0.2778686759780388 C
   0.7147404805454169    0.3943054102943861    0.1146856904743252 C
   0.8615347083162267    0.5544129379265642    0.0808882204558620 C
   0.7227968334351901    0.4767005903888150    0.1779190887441750 C
   0.8206072958485030    0.5244526313076427    0.1763894485035889 C
   0.2843941837134236    0.7501869546701075    0.1808639907208709 C
   0.2797029844375463    0.8235381189431055    0.2650886006706555 C
   0.1806971349494915    0.8753857031265184    0.2686115964139513 C
   0.7851119446460023    0.9512998354993449    0.0301730671819437 C
   0.7496402231880025    0.9586419308339462    0.1277985658881062 C
   0.8244401794050160    0.9240664300884986    0.1931748385490474 C
   0.8393707029670414    0.8143067337032959    0.1831584510817501 C
   0.7975745498926736    0.9344991843709340    0.2976396206011817 C
   0.2357648645234373    0.2219555974151536    0.4618476028715150 C
   0.1397175980453691    0.2640248779090019    0.4836718483581473 C
   0.0763690330088933    0.1823517227455914    0.5256729443533862 C
   0.0912099025403129    0.3000282061176771    0.3934357522628594 C
   0.2989494113333788    0.2056078631279461    0.5456732661099035 C
   0.6389327852246964    0.2621939829424393    0.5495792920377677 C
   0.7843286881150522    1.0315515724001110    0.3482996517042680 C
   0.4970646641898004    0.4471603783827774    0.6014840506609526 C
   0.2596302114766742    0.9303403253259221    0.6891200339580983 C
   0.3476850643736183    0.7831622916699830    0.6611200382568834 C
  -0.1043957324516357   -0.0322211914414830    0.6429641732391161 C
  -0.0068479771977720   -0.0776866361109583    0.6316110731291446 C
   0.2976101608141765    0.2007852957558879   -0.0164396185278080 C
   0.3092651847929115    0.1152160587713713   -0.0791500452018899 C
   0.5736099550351859    0.2865731576936268    0.6367780876175027 C
   0.4931084194671440    0.3792957746622433    0.7587352015560149 C
  -0.0708831948097392    0.0318786478565580    0.7986946412463526 C
   0.1017682283772207    0.4721069026909119    0.8646180014528007 C
   0.0374557087636128    0.5607551979702073    0.7169277910885368 C
   0.0161444591939090    0.5200508635605327    0.8191215397023955 C
   0.6346182718758600    0.4511220476898503    0.6956402977403804 C
  -0.0415982964560148    0.3548339924368741    0.7551350347735545 C
  -0.0620032758248676    0.4446006860965805    0.8163261566140813 C
   0.1128762932700127    0.6336384906006415    0.7318762347910212 C
   0.3249824398483136    0.8351857728027311    0.8198119448920654 C
   0.4299749546048731    0.9355182472636416    0.7186248649230248 C
   0.4117425217451156    0.7977403744628661    0.8687370056682168 C
  -0.2326406107893842    0.0204560281507379    0.7380106433774796 C
  -0.1517469604611274   -0.1249131866739805    0.7748605036057610 C
   0.5517942799196404    0.3885919640412818    0.6678518333697331 N
   0.3425671397117575    0.8673471413285572    0.7221471716391852 N
  -0.1354479966955165   -0.0273836692680643    0.7409383196757906 N
   0.5503942175579731   -0.1107146709822945    1.0343908424794717 Cl
   0.8197712198886687    0.6812431839980646    0.6274348796614903 Cl
   0.3465313768479951    0.9561914798110206    0.4407636481391555 Cl
   0.6114875319796013    0.7256062461672524    0.4812477130903861 Cl
   0.7417680433068378    0.3237550666761880    0.8694088071252308 Cl
   0.6018653610204129    1.7496327086596606    0.7414475107288505 Cl
   0.1855454025270500    0.0805316016160115    0.0925327790441074 O
   0.2116729500199877    0.1581797788132564    0.2216295921596256 O
   0.3213837687593518    0.2939651023660965    0.1185842060064135 O
   0.5469872253964612    0.1132911621962571    0.0385268321715229 O
   0.5046705924498408    0.2582402183160856    0.0814229055129317 O
   0.8144336776014485    0.2705537169029519    0.0413297945583266 O
   0.8066754764878755    0.2739406233444033    0.1944419594510464 O
   0.9098735206473513    0.9770925950457976    0.1826437478116069 O
   0.8447138051941442    1.1002112018463044    0.3196822876897356 O
   0.2344040692371903    0.5820835932438553    0.2293763242429182 O
   0.1026008293746282    0.4499567838105090    0.3122718008485177 O
   0.2264422353254199    0.3486427046736321    0.3050948942062004 O
   0.1254042278103036    0.6817267225753871    0.1764032290462969 O
   0.6760071593538330    0.5097904455604418    0.3367040140426358 O
   0.3872023370886377    0.6019727669199060    0.3020797114616937 O
   0.7208223597844099    0.3632393029348663    0.3041964028216399 O
   0.5158867300640844    0.6858378686827249    0.2667560463383215 O
   0.6494598363997650    0.5392209249311632    0.1407019770527259 O
   0.9231833217336217    0.5140222270654210    0.0385020271946485 O
   0.8251212720406248    0.6351788351407717    0.0490737705330775 O
   0.2529409088055159    0.7943057550837407    0.0980077886619890 O
   0.1118178197148777    0.8547929416531268    0.2198711949100870 O
   0.1701457590374369    0.9378383778747115    0.3347237500554987 O
   0.8614325444208855    0.9835616148343057    0.0094643566275226 O
   0.7758358799445011    0.7552580565981091    0.1839108687136059 O
   0.9250876011433853    0.7866068809166820    0.1715683256372011 O
   0.0657947223448233    0.1064375903727650    0.4831164924870157 O
   0.0211935795997236    0.2066247896204593    0.5932632679085055 O
   0.3115114005054501    0.2675841206327979    0.6065229061021264 O
   0.3364352210138220    0.1230402684164989    0.5495201735095504 O
   0.6852679342206575    0.1753101477049961    0.5828210616715315 O
   0.7299253713570676    1.0414765755696880    0.4138013273038518 O
   0.1521273838631564    0.3472234228111820    0.5407873746927881 O
   0.0677678060106330   -0.0142519294067598    0.6423771221197561 O
   0.2568015920614416    0.0331654729069581   -0.0679002991622282 O
   0.3598807925059285    0.1210541283691465   -0.1470860536708389 O
   0.1716566727005121    0.4451831400029015    0.8259987195408143 O
   0.1998198531829379    0.6024904879003381    0.7370680542562537 O
   0.0200148723446291    0.3529717636007942    0.6970190410383140 O
  -0.0053370635346969    0.5998897767304093    0.8730020836363375 O
   0.0956029500399900    0.4517478705201168    0.9566182826255646 O
  -0.0949160349519371    0.2783836236152644    0.7643893582291003 O
   0.0982480914390995    0.7192241066533147    0.7399716146048256 O
   0.3833110741633581    0.7733248809083745    0.9605588288129123 O
   0.7266088672171437    0.9223501885990331   -0.0357654516214831 O
