Li1 Co1 H110 Cl3 O55
1.0
  12.7751821372999999    0.0000000000000000    0.0000000000000000
   0.0000000000000000   12.7940300323000002    0.0000000000000000
   0.0000000000000000    0.0000000000000000   12.7930585793000002
Li Co H Cl O
1 1 110 3 55
direct
   0.5071447513678494    0.5913079770096484    0.6401751183138976 Li
   0.6306827160745940    0.4929511655262397    0.4627218544264576 Co
   0.0241302132045494    1.0142005281714459    1.0467041721568269 H
   0.2693297466698342    0.3064180720463135    0.0072551680291828 H
   0.0747700156783736    0.2690006204074307    1.0478141490956472 H
   0.6918794952357583    0.2032777795295249    0.2337719139689612 H
   0.9278440370796294    0.2651472606860968    0.1544335764081292 H
   0.7991773783710436    0.1290056387262745    0.2468243047608070 H
   0.9525168751348853    0.0992015035915807    0.1713544713339340 H
   0.9744891646085855    0.1694385592911018    0.2776503967039878 H
   1.2363093065096631    0.3873308100488442    0.2210822198669833 H
   0.0616849576178762    0.3956229587879174    0.1793494319890423 H
   0.1002606894316032    0.4710917514640607    0.2748692009657325 H
   0.1155041511613126    0.5629189550139962    1.1176098116782269 H
   0.3666575175490982    0.3338754095008238    0.0839172886566069 H
   1.3495131719776550    0.4196091460350355    0.2229981025972992 H
   0.4231576904814702    0.6268026568606041    0.1021278673509748 H
   0.4969311983556357    0.5835434180904334    0.1935446300235327 H
   0.3528784576415261    0.5958913647187563    0.2800141785793347 H
   0.9201181198332660    0.3525200429273343    0.0713371070681001 H
   0.7826241897176650    0.4641517958929202    0.0878917096040941 H
   0.7102322668424692    0.4939594482930796    0.1873959831215888 H
   0.8239003135594066    0.6080697009901765    0.1949547697401748 H
   0.0846133195662176    0.6810826607566990    1.0955666076819368 H
   1.1357080010889309    0.8072305591065875    0.2041894652015994 H
   1.0442181117520559    0.7585344095409609    0.2478318824186516 H
   0.3231755543152337    0.9270739545128088    0.1978805751500370 H
   0.0107407915773951    0.9289576455733393    1.1381834687414312 H
   0.6504648215102673   -0.0003347642446662    0.1724746100334618 H
   0.3368004089849604    0.8700942539681363    0.2994168881394735 H
   0.5714929533085334   -0.0434347881314220    0.0872446399491959 H
   0.4020894977068125    0.7715904989497154    0.0213639129302693 H
   0.6312079532045139    0.8030020244022436    0.1937345767813731 H
   0.4779631713329530    0.7739025147825157    0.3043500321260192 H
   0.8150080724328931    0.7279740623311372    0.1703015565898559 H
   0.8686981093050377    0.9129970765044474    0.0533951115259707 H
   0.7454372443657918    0.8977555928196584    0.0597383952291585 H
   0.6739697701499634    0.7124230592853648    0.2535349751972663 H
   0.9099108289626905    0.7251282037620952    0.3308456506599997 H
   0.1326131048850984    0.2454443211616784    0.3349939940503653 H
   0.2603240042261248    1.0121370657648898    0.3569176019398672 H
   0.2940644233737691    1.1256040496890338    0.4153805563118719 H
   0.2548775065361353    0.0226839405150143    0.5467635238470654 H
   0.1438160762761777    0.1342846633830471    0.3788224496557551 H
   0.3048525278813052    0.0945066576479370    0.6337341253731377 H
   1.0227233105782829    0.1697629293284960    0.4861368961182616 H
   0.3452809142987497    0.2968956620087861    0.3453754051239373 H
   0.6352305964394745    0.1559213172990638    0.3627504525859777 H
   0.3393811941076817    0.3231719798813623    0.6285899294334359 H
   0.4422681812264262    0.2610492556112585    0.4116480634366136 H
   0.6014964394334686    0.1342823185394033    0.4785765461518745 H
   0.6631628792175123    1.0546178164453144    0.6168312089470462 H
   0.6863061891775913    0.2966643041025965    0.4714492435264073 H
   0.8946155480109235    0.2508069785750803    0.6111351512335368 H
   0.9993655222670890    0.0954148155911860    0.5856291318576875 H
   0.3207294052377377    0.3429491727878348    0.5077142224698075 H
   0.1756715907906667    0.5734527742765553    0.6330978428180674 H
   0.2236043711940166    0.4679520058249942    0.5983203893074664 H
   0.1090471003644279    0.5379573128110516    0.4547050069021332 H
   0.2617447276103345    0.5982088518533921    0.3651642615909615 H
   0.0619640925814075    0.6360593179518326    0.4078796135619286 H
   0.4260828933943030    0.4464529160694145    0.5419179273373844 H
   0.4157785393283325    0.5430886123182639    0.4646244487004637 H
   0.7607004318416623    0.3537839136513499    0.5568346103821080 H
   0.5661990953209797    0.9938863660705399    0.5703685122967097 H
   0.4295990859242589    0.7699913155846345    0.6336192193097527 H
   0.3945984107718886   -0.0805882103760114    0.5611205283789753 H
   0.3965154088809407    0.7410113929907411    0.3813785233106440 H
   0.4673159650122807   -0.1470191940343488    0.4774188871051189 H
   0.9347402205589062    0.7806415954148362    0.4348215678931390 H
   0.1237490433959576    1.0192497581511246    0.8206753470657893 H
   0.1633140370350092    1.0240254230390251    0.7065830062113737 H
   1.1668934664481123    1.0873987305858297    0.9907832213095008 H
   0.0972007721967745    0.1818849893524648    0.7725234531163044 H
   0.0858024219865774    0.3052378340789273    0.7675543521303322 H
   0.1270288400790643    0.2552496756655593    0.9412016457958595 H
   0.2654041666302686    0.2413470977013880    0.7456776446748651 H
   0.4510516176419728    0.0855362238041633    0.9302269442317490 H
   0.4085105411892764    0.1972656004267866    0.9375824956361849 H
   0.3736695506486851    0.1915949868814972    0.7680045962970650 H
   0.5817104201592712    0.1654445089511391   -0.1353688955354380 H
   0.6794781064886322    0.2285020442205766   -0.1489496978840743 H
   0.7341857413770151    0.3330781626619271   -0.2600966914811131 H
   0.8086801783073001    0.0429952106420928    0.7189741008833309 H
   0.7019709364860235    0.0828268351351914    0.7852686460652233 H
   0.0095096545312877    0.4701905498902883    0.7937247943216725 H
   0.1915476853793944    0.6130024704022126   -0.0442571420188854 H
   0.3036196687462472    0.6579015364939570   -0.0502969799138689 H
   0.0782830771375103    0.4558674632993264    0.6851151142059088 H
   0.3374853307266592    0.5291727469067776    0.8565385456242925 H
   0.3606857827291887    0.4194434437508726    0.9070659465576328 H
   0.4721933905808816    0.4652179181363075    0.7912445430351395 H
   0.5623838855277907    0.5447628306799469    0.8087673268643891 H
   0.6541453952582310    0.4024792816024286   -0.2103540911439528 H
  -0.0020853269263549    0.5852027857757055    0.9511367210722016 H
   0.8666081195332250    0.4746082353152333    0.9328142848426612 H
   0.7824715500152292    0.3970017268504798    0.9224961893550360 H
  -0.0803435458116237    0.6128875730636658    0.8601342455669498 H
   0.8357592442871074   -0.3360456379221970    0.7176186783397293 H
   0.9241728565441234    0.3563030573393537    0.6704915588739018 H
   0.2024876468216614    0.6710889371467651    0.7695562189897116 H
   1.1970456784369590    0.9726264503666293    0.9986703109663294 H
   0.1478175847831088    0.7502352262709563    0.6964493857642849 H
   1.0670905840862748    0.9079947433976449    0.7168158992438360 H
   1.0048918622629679    0.7970062592050119    0.7346099239165859 H
   0.6199556674480322    0.7393160710362640    0.8698660856291417 H
   0.5143454314842929    0.7224222541971342    0.8349487124903374 H
   0.4716751983603048    0.6868798958587544   -0.0330469221085309 H
   0.3335049569477577    0.7150438128646005    0.6844569447816223 H
   0.8163231221769549   -0.2439761338624007    0.7896569633430663 H
   0.7240989967329786   -0.0865081589620930    0.8064684239227902 H
   0.7761201728584923   -0.1382166509954723    0.9114042367058388 H
   0.5637051974134910    0.4475151302400621    0.3068091782172365 Cl
   0.3820545583024891    0.9438474027115560    0.0383354368746145 Cl
   0.6882192734481195    0.6104755105687294    0.5753634085214010 Cl
   0.1342553515297661    0.2374929563655062    1.0126310068306466 O
   0.3445419815854198    0.3189481348643059    0.0085269514654227 O
   0.7182313700178073    0.1299427945692521    0.2544229567483225 O
   0.9197971850742984    0.1567826565308914    0.2231849226595373 O
   0.9719295142138936    0.3211030461729706    0.1182240963116700 O
   0.1167017857496547    0.4421477831393726    0.2059982586075361 O
   1.3089736325461288    0.3547617134508201    0.2244293475092569 O
   0.0983046312140817    0.6128492739508168    1.0611729560565195 O
   0.4204500969905713    0.5922677996745161    0.1721314551911082 O
   0.7808386965830191    0.4817772039489197    0.1616804751403848 O
   0.2848974307828713    0.9163189383331833    0.2661887122998176 O
   1.0643195864112873    0.7907048827195367    0.1825847802635333 O
   0.4058851383073815    0.6993841653966649    0.0047574072472769 O
   0.6429502515441996   -0.0561908938766780    0.1186180599575612 O
   0.6077366635761241    0.7443942207542164    0.2341572792019460 O
   0.8240568671003663    0.6781273761509460    0.2261474667427266 O
  -0.0230818964560235    0.9899001318760569    1.1054000653512039 O
   0.8145853778723018    0.8620670725608143    0.0411007880829051 O
   0.2431939157743095    1.0683038871797068    0.4111821857918693 O
   0.0875994218064838    0.1854257032546235    0.3561257662785819 O
   0.2862633604277450    0.0185950021689320    0.6191113517150312 O
   0.6064028274071470    0.1921538412832728    0.4235654637248207 O
   0.3641260467917791    0.2683667310090531    0.4131621657820325 O
   0.6045969823121764    1.0588697995860965    0.5624431206187528 O
   0.9719060311827497    0.1542744554465587    0.5431459370351920 O
   0.8678527201838551    0.3182775095821752    0.6360017613587134 O
   0.0970477411104863    0.5703779026449676    0.3874794881046527 O
   0.1589814177889483    0.5123985170934825    0.5932496707144191 O
   0.3230354388960748    0.3783953925368183    0.5765429544373727 O
   0.3393616249150618    0.6009265256365722    0.3576664455366205 O
   0.4672228156554096    0.5076705306930062    0.5118015952959282 O
   0.7036124003629864    0.3649414613231634    0.5054512765276352 O
   0.4381359505127938    0.8031481863227079    0.3595080692463816 O
   0.4647805804164375   -0.1095517190643980    0.5458974291652253 O
   0.9660900671360950    0.7477778301322395    0.3763429800431228 O
   0.0995995638281302    1.0275348723592663    0.7495875775255546 O
   1.1438644405729337    1.0179522780015478    0.9645346117281027 O
   0.1183761258702191    0.2464103967429296    0.8106863362903072 O
   0.3297688066927534    0.2149863654576346    0.7115005167199079 O
   0.4368514287092191    0.1465739889202746    0.8880243703395609 O
   0.6583574682777528    0.1586335197804083   -0.1285292489053834 O
   0.7340550191703136    0.0359974937558596    0.7291843253726764 O
   0.0314284731430731    0.4231881590500430    0.7334381947396200 O
   0.2481715356091246    0.6264978271869083   -0.0958044710576994 O
   0.3735145626431349    0.4649021458589405    0.8448056203766218 O
   0.5432139044372699    0.4866865249245175    0.7637476002345189 O
  -0.0346746078873222    0.5562455300037025    0.8889389288032367 O
   0.7042777529120653    0.3485384984201387   -0.1902095730521658 O
   0.8258180944361635    0.4241792462968283    0.9754702295971844 O
   0.2054167635730182    0.6977357403150638    0.6953292470647572 O
   1.0569302592779872    0.8346871149465498    0.6890141036219901 O
   0.5626813372556142    0.6894138902231690    0.8787928015737386 O
   0.4135891380580105    0.7098726510154434    0.6823175033157413 O
   0.8667020516578009   -0.3019180019155847    0.7734731869055063 O
   0.7373872612896417   -0.1530931206863742    0.8433986073555819 O
