Li1 Co1 H90 C51 N3 Cl6 O45
1.0
  13.5046170472000000    0.0000000000000000    0.0000000000000000
   0.0000000000000000   13.1545994079999993    0.0000000000000000
   0.0000000000000000    0.0000000000000000   13.1978842445000009
Li Co H C N Cl O
1 1 90 51 3 6 45
direct
   0.7549114490228178    0.7694093065156150    0.5934564947759722 Li
   0.1371190324855552    0.3773844458525225    0.6993386175550345 Co
   0.2596823006045262    0.2205260014406666    0.1766260469492633 H
   0.0306302668305404   -0.0016700464467690    0.3346544067501273 H
   0.0980553553626724    1.0268196536479433    0.0443002917262024 H
   0.6510869573619670    0.0605918267275600    1.0077350184172544 H
   0.4313230062904823    0.1889180453863654    0.1373076236030174 H
   0.6705299374244369    0.1261673697939187    1.1436689277290926 H
   0.7159573640486667    0.0666497839125988    1.2646496827061937 H
   0.7950495734957652    0.0955902319028642    1.1646139515585898 H
  -0.0117145103668675    0.2371855737471196    0.1642308783775907 H
  -0.1213140639733786    0.3083910868112693    0.1701613743987706 H
   0.2829002858983047    0.5575766300826605    0.0392805477450708 H
   0.3237677905503103    0.4556991073672990    0.1123278621584974 H
   0.1329686000960917    0.3254832074472853    0.2800896002509261 H
   0.0878418113933825    0.4543341095104217    0.2506568523343893 H
   0.5907594414351888    0.5275595244488801    1.0794427241727731 H
   0.5729144333792242    0.6231950478867825    0.3048079561598249 H
   0.5984405181837891    0.3333283722295164    0.3262666986941082 H
   0.3735167021745239    0.5756731902755332    0.3297013401230093 H
  -0.0021266783278356    0.3667813103503364    0.1289115808777467 H
   0.8228608026988822   -0.4462187414411305    1.0507040268957406 H
  -0.0600661220947532    0.5119060033029019    0.2263976609315381 H
   0.2413152488671038    0.9440052732010947    0.2098116691206747 H
   0.0450386724387796    0.7357176686136302    0.2127341072391992 H
   0.2517583439587369    0.8632449271768808    0.3136965020681501 H
   0.6445232762379342   -0.1724110876854761    1.0242338750495774 H
   0.5346352287047620    0.0034262699001377    1.1690123838318682 H
   0.5653331002957195   -0.1241207536131457    1.1655087919573395 H
   0.3966806318814279    0.7535388118297004    0.1298018750932681 H
   0.6009618780921073   -0.0493332234507525    1.2729691980137898 H
   0.8325300883619714   -0.1005191227028812    1.1503798518711124 H
   0.7211940915880576   -0.1866312090436559    1.1675235088246345 H
   0.7713517523075403   -0.0929985592154187    1.2655286114636448 H
  -0.0344948675532110    0.8254649853796596    0.2598946966540808 H
  -0.0061378990689104    0.1754140233716800    0.4729284638786787 H
   0.0801859112194907    0.1791457979759409    0.3725218399493745 H
   0.2345353453955734    0.0822184830153210    0.4046345628789318 H
   0.2327715041909878    0.0176418301160023   -0.3992988406453212 H
  -0.0537771618300406    0.3245626168899905    0.4409137869674092 H
   0.2485283375211206    0.2042662892771839    0.4300242385111941 H
   0.3770703016458950    0.1229266781789331    0.6509505586685401 H
   0.3736640591853184    0.2413848654386937    0.5772288937429315 H
   0.4731432961977105    0.1400324822418948    0.3825173814737650 H
   0.5919286711841563    0.0458243682915502    0.6091855310483208 H
   0.8995886355858457    0.0644657569339796    0.6356776561134203 H
  -0.1343444223600672    0.2642886415747249    0.3661988567761605 H
   0.6893449840941744    0.2077441602925625    0.6676933938007764 H
   0.8954974421956965    0.0714899160994656    0.3832803825588971 H
   0.7281583764449540    0.1766766996026186    0.5022932463559537 H
   0.1994480861016681    0.6633650282571950    0.6806007656828256 H
   0.0945609948906156    0.4106146481902812    0.3761989444837792 H
   0.4022150353923736    0.5246349960153800    0.5208893330811635 H
   0.6360713520107555    0.4059843285499158    0.4630268768076707 H
   0.5022298373878172    0.5938486582304597    0.5549864649898278 H
   0.6617270221263206    0.5009244298228196    0.6132664881928303 H
   0.6727210399115774    0.5475532917877813    0.3331534085876184 H
   0.0029582492758122    0.6363691472739981    0.5065253640928007 H
  -0.1670561977814659    0.4417774367546138    0.2762761102196755 H
  -0.0837713481578924    0.5024096137797038    0.3606699402734710 H
   0.1266781588563964    0.7782252344206088    0.6538813314563164 H
   0.2550920186451535    0.7674875452201227    0.6218360435779771 H
   0.0965840067172016    0.8715826953291591    0.4329321288433884 H
   0.4175697840146601   -0.1360215341040205    0.4605004870180425 H
   0.3911388234955680    0.7517888535614159    0.6757772652777110 H
   0.6631991112592829    0.8153035204916672    0.4209693780664376 H
   0.3769214636601177    0.2838300956340304   -0.1233629457296154 H
   0.5604803155206349   -0.0202498596679425    0.9012906843123054 H
   0.9249799516669704    0.1567650328253918    0.9594053022155220 H
   0.7717042243534608   -0.0111397380836152    1.0020825972701990 H
   0.8259212375009612    0.1088692375633306    0.7319408128788275 H
   0.0759458798435642    0.4568745137419392   -0.0513248839928481 H
   0.1498435695382834    0.6957042874627080    0.8692969198438858 H
   0.4603309373284988    0.3586670381715056   -0.0488108446676565 H
   0.3590179570923301    0.4615652685179815   -0.2009647780404883 H
   0.9771776554253420    0.5484460593769531    0.7643566146902645 H
   0.7455005934942378    0.4957438083621193    0.9137017645252767 H
   0.8037273464078299    0.4118051063345615    0.8306823972008054 H
   0.9007067716979046    0.4791848092437176    0.6820176594556130 H
   0.1643741555826085    0.8066061822868700    0.9273016716524211 H
   0.3295746934581021    0.7827924582589463    0.8963800487286506 H
   0.0685054615296785    0.7930154985681948    0.8278470942608214 H
   0.2205171766953176    0.9464386426262811    0.8410946721877804 H
   0.1522494133979385    0.9141381531304477    0.7354792588247723 H
   0.3030393242027186    0.6681625897824528    0.8326683215743217 H
   0.2837555489509060    0.9311154850181965    0.7196176255416014 H
   0.6482516307572826   -0.0449545268281118    0.6878913281864404 H
   0.4671696355068488    0.7087559961977977    0.7732739530923683 H
   0.4809830594157242    0.8652176212282268    0.8338935179543201 H
   0.6938204904923756   -0.1328378567679755    0.9056754780358992 H
   0.9577354158503635   -0.0132203791697554    0.7979892782124484 H
   0.7941735767934038    0.7186954854931148    0.8067543194764076 H
   0.3195855171987154    0.1660264322965083    0.3001943378804121 C
   0.3605381779122354    0.2657573294002356    0.0374370704460379 C
   0.6919692717638013   -0.0175587857019447    1.0223941862365682 C
   0.7195842717816894    0.0706939967654544    1.1832525450969833 C
  -0.0431881907025958    0.3120361997115405    0.1795598505258583 C
   0.0803599257799767    0.3860779831053902    0.2993502631943772 C
   0.3417564531796122    0.5005151433190644    0.0425303110560253 C
   0.4457298568749896    0.5532209672287118    0.0508581610328731 C
   0.4949587981827211    0.4401150524187821    0.3363364945445594 C
   0.2714027366188757    0.7940691224430177    0.1668168989372288 C
   0.0660662957329090    0.9356735865719037    0.1533927775615747 C
   0.1093137271823697    0.8850251419225886    0.2460182300472214 C
   0.2171657303091067    0.8672990225047529    0.2375986987086050 C
   0.0407571737633330    0.7923769386440597    0.2705994427620698 C
   0.5875442447474010   -0.0507737842319858    1.1917061728098111 C
   0.7572587943706501   -0.1130402185486301    1.1825122749279922 C
   0.2362799339253818    0.1605264548547019    0.6182021277842402 C
   0.0014558001557013    0.1847757679737320    0.3913059113510700 C
   0.2893484509736747    0.1415072515904925    0.4044989350792907 C
   0.3417816297543208    0.1625173934753088    0.5857969337336689 C
   0.3689856592144655    0.1113824269790337    0.4810263148690401 C
   0.6511847017108359    0.0389218395878042    0.6671122400447721 C
  -0.0558993989804782    0.2827217380514245    0.3722157302786760 C
   0.7440573833734412    0.0569535555407618    0.6042135219910854 C
   0.6084052583559587    0.5854529635707778    0.3721551145023001 C
   0.5397882071088723    0.5068890356284729    0.4260256430528356 C
   0.4623669076861848    0.5738363422461431    0.4899049879827880 C
   0.4198845479128693    0.6644422180339801    0.4391566113799916 C
  -0.0879240020098302    0.4584798077797915    0.2890546735769258 C
   0.9302218626188012    0.6317920409606440    0.6350237634257652 C
   0.1955197999596335    0.7479354484954149    0.6740966928776885 C
   0.0502331921911590    0.7439740963946198    0.3801003273907749 C
   0.3623827322533868   -0.0082289690960994    0.4887965906268939 C
   0.6481501839709568    0.6712884926491712    0.4289444442247775 C
   0.7477472325432354   -0.0183577457974994    0.5133434266195651 C
   0.3864567210872580    0.3334728084028327   -0.0517370712722044 C
   0.6278075116063999    0.1190284218801655    0.7528623480949791 C
   0.8311698128402150    0.0409264616353569    0.6746589042035752 C
   0.2182927522710627    0.4192321664045613   -0.0915366323434342 C
   0.3322404484272490    0.4386983616156652   -0.0573781269611892 C
   0.8125828363178379    0.4880365421158860    0.8715556152110939 C
   0.8183949226380696    0.5730153366293981    0.7876830808341313 C
   0.9064292590316734    0.4851421172216665    0.9376987926953021 C
   0.7146378153389389    0.5747091168281664    0.7275204073866128 C
   0.9110143575786060    0.5546629723716783    0.7196418718521516 C
   0.1436471702099996    0.7750369959422485    0.8525950003607035 C
   0.2218278395551481    0.9034209890703805    0.7671009939656847 C
   0.3198476497706815    0.7500464971969901    0.8195412175029096 C
   0.4109520473037527    0.7589604896617617    0.7557863016079130 C
   0.6473312048054357   -0.1113586774150743    0.9696455799370305 C
   0.8410612447507330   -0.0572300811792231    0.7281432344888756 C
  -0.0242494826217896    0.3574218463194421    0.2881658947558138 N
   0.6925601807819622   -0.0301414569689495    1.1409078791151690 N
   0.2239863605926657    0.7936555788731017    0.7792180876632329 N
   1.7165655229302770    1.6126656958552972    1.1270874821014574 Cl
   0.7235207032861297    1.3096234004300438    0.3834591990992060 Cl
   0.2455886021801446    0.4742942004152286    0.6225422173727567 Cl
   1.0327697538444274    1.0748948538410710   -0.0963707405094145 Cl
   0.8338822185213219    0.1907782312606018   -0.0128315929025195 Cl
  -0.0061971380682247    1.3204029001017528    0.6468483860022992 Cl
   0.2792452396406077    0.2784471875116488    0.0814009353542940 O
   0.2385117632245509    0.1816377020608395    0.2423055137441958 O
   0.4321031098627035    0.1996831014407429    0.0661515214125198 O
   0.4046171768145716    0.1775220313117117    0.2685104715687143 O
   0.5225683185931727    0.4914086706485893    0.0624554744479976 O
   0.4508238184260328    0.6477796049659834    0.0571447747402616 O
   0.5271449755827031    0.3529496462793388    0.3047541596582913 O
   0.4190426136351137    0.4792644011771187    0.2961899081535773 O
   0.3678504918901037    0.6502380606739036    0.3571019441365430 O
   0.8944044826583464    0.5222554252638022    1.0269752235361789 O
   0.1347391056881002    0.9955720278365470    0.1035825210218603 O
   0.0945632163530899    0.9510248712242655    0.3380943520594613 O
   0.2273911220782595    0.7261347086092885    0.1231144395645938 O
   0.3664183890816787    0.7974405668043738    0.1808933976061287 O
  -0.0212008956195735    0.9282085169826101    0.1292540600142706 O
   0.2000419570697947    0.0723238449527706    0.6473621047070852 O
   0.4617663723306353    0.1479156565434197    0.4575627434159831 O
  -0.0396916087680647    0.0943815291893228    0.3446938947123905 O
   0.7434590694803660    0.1627690164930335    0.5743776791616487 O
   0.5906194892993085    0.4547747158580749    0.4994828716540044 O
   1.0063402743003180    0.6036703180159662    0.5792504298850687 O
   0.0101046940556003    0.6623699390420845    0.3972538344079579 O
   0.0865037504963690    0.8003551367438190    0.4559679423395324 O
   0.2960380149712507   -0.0503480776158957    0.5391197551353853 O
   0.6958671979186873    0.6593078921677795    0.5117492317008782 O
   0.4329682954476899   -0.0595007698618320    0.4409472014141365 O
   0.4245007469344421    0.7463010391657835    0.4842281159469371 O
   0.7072773696741277   -0.1042980291110664    0.5225998345207717 O
   0.7877017161183083    0.0140377674965684    0.4338185588031659 O
   0.6388348513287712    0.7590699570773277    0.3789812086194343 O
   0.8862954041396995    0.7119039445857066    0.6258056192333957 O
   0.1862318653546306    0.2410595039535392    0.6222580809209945 O
   0.5941997463203712    0.0920013730911478    0.8330108007108457 O
   0.6489432460742781    0.2163099855606033    0.7330220467899331 O
   0.2008809293975846    0.3581425068052517   -0.1660288753262220 O
   0.1556926802330866    0.4739222392594200   -0.0418309380179683 O
   0.3753042389788352    0.4983369698064165   -0.1385426515285573 O
   0.9849742482226054    0.4488156594422385    0.9003731129974148 O
   0.6941455645011132    0.4896034465392518    0.6798779225495426 O
   0.5477924325987326   -0.0851609963370464    0.9379230710678931 O
   0.4507525094806081    0.8585089410728789    0.7681041850647063 O
   0.6599261565471636    0.6463626100867123    0.7309702027596080 O
   0.8255746893549721    0.6638956411465358    0.8429328456063805 O
   0.7751437887511518   -0.1243062400672992    0.7274143297779551 O
   0.9221150055626288   -0.0771729157622707    0.7771927630350721 O
