Li1 Co1 H110 Cl3 O55
1.0
  12.6285752046000006    0.0000000000000000    0.0000000000000000
   0.0000000000000000   11.6858809008000009    0.0000000000000000
   0.0000000000000000    0.0000000000000000   12.8863730137000001
Li Co H Cl O
1 1 110 3 55
direct
   0.4230792085202007    0.7557798616444377    0.5845477233114156 Li
   0.5177993159448521    0.2273943635877792    0.7123059372207686 Co
   0.0666009101322559    0.1148422153017259    0.2484267686102640 H
   0.1459774814207468    0.0648188576308479    0.3294425826713721 H
   0.0609093733725256    0.0712945354716874    1.0382975871236479 H
   0.2272249684394139    0.4787831998199616    0.0060887580094557 H
   0.0615272578031586    0.4016559376434065    0.0253870974053131 H
   0.3652405380315503    0.0894039105197861    0.2195357843430700 H
   0.3791399682646666    0.4972174113123321    0.2390889976275311 H
   0.4734229717476168    0.1223530739819638    0.1764375441004855 H
   0.4015177896278448    0.2727858924338148    0.2669152913114699 H
   0.6133199887409886    0.1945735601536330    0.1333121433838384 H
   0.5919121897122015    0.3907633056646495    0.0534967446749442 H
   0.6232704382544244    0.1178650083885168    0.2306878749931867 H
   0.3629409912078181    0.1402635765599655    0.0454794383397820 H
  -0.0336039807202812    0.0111328749201178    1.0731173148719422 H
   0.6746610337480160    0.4491902232240488    0.2138080283700332 H
   0.7122551401541819    0.3572827316864212    0.0467840723110419 H
   0.8573348479055862    0.4031021272925619    0.0086211230097011 H
  -0.0505561702215972    0.4237218821955495    1.1500124970109766 H
   0.7618870257663999    0.4653807014264278    0.2826823345116001 H
   0.9523099326295633    0.4426293143245963    0.3096418210661687 H
   0.9742997450589850    1.0266717205357332    0.3275948944215684 H
   0.8733303182359542    0.3307190517520527    0.2953049708288222 H
   0.1972793891580512    0.7773511922218991    1.0198129444901651 H
   0.1030723245664220    0.9059790648452712    0.1033405602557240 H
   0.1920903635602838    0.8551493494782991    0.1706104583937340 H
   1.0333642070363191    0.7464985758842365    0.1567834490552203 H
   0.3075459851468666    0.5575303655502749    0.1400448368971925 H
   0.5327241983600389    0.6324917661871777    0.0162571738903784 H
   0.4094941447089238    0.8024019352925357    0.2844586295152963 H
   0.4053210690336249    0.6652560912089901    0.2563258104812220 H
   0.5123434352232562    0.7567767911954826    0.1311028328222294 H
   0.6074000810088187    0.8237678898251466    0.0726442580782641 H
   0.4299556770523252    0.5502566306284873    0.0027003724681107 H
   0.6858594466892073    0.9740184370371929    0.1211558912069489 H
   0.9952680645811702    0.6148585212697242    0.2858476937602137 H
  -0.0311501013635101    0.5457768656501862    1.0975074205801856 H
   0.7625545595034544    0.9210913188121853    0.0375637199377495 H
   0.7471371432988868    0.8268262814263783    0.2101661968050066 H
   0.9176821149292171    0.7325407064360863    0.2086653866096600 H
   0.8081598626092407    0.8837565210589297    0.3025172407127680 H
   0.2500913643171384    0.2998895402194359    0.3768220896397720 H
   0.1324818972207239    0.2584258282311656    0.3529169923969326 H
   0.2221016668038950    0.2511871783837066    0.5352359426168456 H
   0.1820250950766548    0.4660627210420354    0.4223771887647077 H
   0.1629184265815335    0.2072409834533062    0.6334924495993677 H
   0.4242004751532601    0.3390641650411437    0.3677605794789333 H
   0.3602185938317882    0.1297149494563331    0.6040621359186444 H
   0.5679641199497599    0.3751752638604985    0.5788378156499057 H
   0.6086575466961763    0.2937419506102451    0.4379269481723368 H
   0.4650831552367536    0.0581117038727915    0.5805481495023068 H
   0.5930983884525427    0.4063710293397653    0.3833499155773394 H
   0.6311200965408075    0.0721187779983540    0.4168993091530471 H
  -0.0578396522066826    0.2154132385713147    0.6035817835345081 H
  -0.1145119203291631    0.3461718876600104    0.5963827058808213 H
   0.7089768605914233    0.1722132432705376    0.3686956758002325 H
   0.8486086061709003    0.2419880430414458    0.4544870772150959 H
   0.8710418573817580    0.1530191404122204    0.3667509858573481 H
   0.2453924969438511    0.5409334139257960    0.3464923762608031 H
   1.0892929233449273    0.5918213191721424    0.3698690082797382 H
   0.2491300523873827    0.8773376639238322    0.5651970495621073 H
   0.0683223236446909    0.8918423470913969    0.6023983628789220 H
   0.3030023213470819    0.8665554215691822    0.4602016409578737 H
   0.2926725733045250    0.6091328082859969    0.5503084536945171 H
   0.3310086478146291    0.5478759799752622    0.6492998455038197 H
   0.6225039226465137   -0.0329108736315866    0.5509835854783596 H
   0.4892933289932224    0.7539194969715003    0.4035316998329643 H
   0.6042302855765186    0.7272651092839897    0.4648647063476553 H
   0.5540670652815443   -0.0999861764396393    0.4743856165269248 H
   0.6815588823642456    0.5946435283217960    0.3754345774219439 H
   0.7339678033452062    0.7261697703781204    0.3617208660609486 H
  -0.0900261810442305    0.5309743872175884    0.5951581565073689 H
   0.9337726078556070    0.9621836424526844    0.4205582130160560 H
   0.8792533933879915    0.8875457090864209    0.5801027177276797 H
   0.9189015715781660    0.6153137715024760    0.4568717668377950 H
   0.9394660450672579    0.7879058094601731    0.5376959055533753 H
   0.8126195897825392    0.6680688872899213    0.4988199550072132 H
   0.2750997278801920    0.3518299976956411    0.7038923983697100 H
   1.0131085569842986    0.4814830390762252    0.7257915005996378 H
   0.1182934399247074    0.1345635355818447   -0.1303268182066841 H
   0.0804438019207391    0.4071129503017876   -0.0943477262226878 H
   0.1470322322365908    0.2276664868472061   -0.0431660632909373 H
   0.2843493857479656    0.0967080239815411   -0.0468997748596500 H
   0.2121005385725808    0.4284677802986359    0.7844876130896196 H
   0.5623371985553246    0.4507356779615485    0.6935357216028560 H
   0.3891553498853841    0.1998380327699668    0.8904359663266792 H
   0.3751909875449861    0.3264857380275723    0.8251111461383260 H
   0.6516948641444684    0.0548617991097368    0.7287031034191520 H
   0.8366595147211353    0.2416072416249522    0.8960310239835815 H
   0.8927782762217877    0.1621652202762282    0.8084423751993164 H
   0.8536052110117232    1.0138613897381850    0.9147795112222440 H
   0.7933078308510040    0.4521288121324509   -0.0898716800971660 H
   0.6963570679847364    0.1490562384801265    0.8045925720043243 H
   0.1474804221478279    0.7467133649978094    0.8228684669942973 H
   0.1226098413490062    0.8090236012719230    0.7205534091732730 H
   1.0854445082060369    0.5841548025645782    0.7740688552391940 H
   0.2893333209093189    0.7875968896593771    0.9363759681697597 H
   0.2514256399362805    0.6105567488636269   -0.0084407763910265 H
   0.1208250002537266    0.9727348367568773    0.6782723111932015 H
   0.4027990109642079    0.9726150340640479    0.9351809073110039 H
   0.5329047412924807    0.5730456700052080    0.8587901339759897 H
   0.4520824803910120    0.8619455850958093    0.7919955441340757 H
   0.4470367805422444    0.8497539496333730    0.9594546109875504 H
   0.5514571113108070    0.6653887299046227    0.7710129139003754 H
   0.5511118625452605    0.8546393323002538    0.7104939455940189 H
  -0.1570741247973452    0.5192559723918284    0.6981467940851463 H
   0.7016442835983931    0.5711690463953868    0.8129199733519273 H
   0.8922873261423409    0.8914401523368981    0.9340401674003732 H
   0.9557703388346973    0.7557901304466801   -0.1809857584147607 H
   0.8184096333001458    0.6169276849215927    0.8316917409969293 H
   0.8510000081707870    0.8080711698639289   -0.2140322952135374 H
   0.2837665804923641    0.9268846347440091    0.2737364503689138 Cl
   0.7288690492136597    0.8991246393483867    0.6464146271448235 Cl
   0.0326384881605538    0.1056581408694208    0.7394850356084723 Cl
   0.0290332991932809    0.0422219304294144    1.1050425120987044 O
   0.0953469083243377    0.1293598200454458    0.3192077400310276 O
   0.3684491343572261    0.3257583645353936    0.3206076684655702 O
   0.4025527440695176    0.1535736557333167    0.1817183162718058 O
   0.6080106011882600    0.1121994534712604    0.1510432768654692 O
   0.6474172636135452    0.3518719286381313    0.0933154740764976 O
  -0.0419091139835963    0.4651847384502996    1.0797289502723313 O
   0.6864224555706376    0.4638900136342214    0.2903734047525929 O
   0.8945916240958740    0.4060740898082524    0.2696259066229206 O
   0.2788040254151158    0.5376414070735469    0.0276192305252701 O
   0.1409278222971450    0.8326846331057380    0.1133414348123574 O
   0.3449745938649609    0.5662152050468894    0.2143535658919198 O
   0.5444800771978925    0.7745178585364827    0.0621132886692825 O
   0.4553393798696656    0.7303808350310754    0.2813188787136560 O
   0.7105288963264491    0.9016490532330070    0.0907411267434868 O
   0.9772137713369926    0.6933001901333222    0.1708843911749942 O
   0.7845641683070472    0.8121273467497258    0.2756578599054588 O
   0.1759737394199878    0.3056537612115726    0.4074009033665724 O
   0.2393609376613555    0.2224285419699988    0.6047380437160316 O
   0.5700506577874095    0.3736537696615645    0.6581906326848360 O
   0.5604462488944870    0.3577953160650271    0.4385376708319737 O
   0.4369628016539800    0.1237213918807801    0.6186814550862423 O
   0.6388834426358039    0.1395875470789994    0.3649025215939998 O
  -0.1046382807475117    0.4767208820362548    0.6531387845091865 O
  -0.0980714275074255    0.2714706300132516    0.5631693261699456 O
   0.8247167581111051    0.2188284710504740    0.3871741103253580 O
   0.2053468075603180    0.5483586136806607    0.4081132838005580 O
   0.1420768038540441    0.9105657965135985    0.6312047616697495 O
   0.3145143088551458    0.8417588313540482    0.5337871253289903 O
   1.0089117256599940    0.5738996920583779    0.3548740985565314 O
   0.5685968120682731   -0.0165382953361068    0.4929726929483009 O
   0.3536945007599119    0.6042303109487120    0.5981551208167942 O
   0.5303723891084947    0.7667803160467410    0.4678888311311432 O
   0.9083461448700568    0.9906710113404854    0.3546327583441463 O
   0.7038353462916669    0.6670497086673508    0.4112786430491716 O
   0.9492454539078542    0.8691482941354195    0.5501897236221861 O
   0.8851843870896972    0.6430994389037048    0.5212661467861169 O
   0.1157325809619148    0.3865642212809775   -0.0289851141747103 O
   0.1591428620995932    0.1482835111113766   -0.0627950154973559 O
   0.2844254038247833    0.4036908719544666    0.7609022334271747 O
   0.3579000424888517    0.1115308688719201   -0.0254788521759334 O
   0.6303781284368691    0.1262766121721280    0.7627056889049334 O
   0.4273908588146984    0.2604735985450289    0.8392423527863410 O
   0.8265784091381693    0.1673184475349347    0.8546074209703443 O
   0.8013475343294311    0.3813074502663256   -0.0412437225381386 O
   0.1001800743000027    0.7453595945688367    0.7653262866452051 O
   0.2322160302954688    0.7396595535907158    0.9578172224083460 O
   1.0690847845909179    0.5010074550733437    0.7775717803797288 O
   0.4061833990925244    0.8946149236968783    0.9063054433147028 O
   0.5478098273334964    0.5853091870833419    0.7841950559832879 O
   0.4766561155772649    0.8334565047409678    0.7220363710570928 O
   0.5092955854558509    0.5523266500138760   -0.0044716223128679 O
   0.8797522620171069    0.7638853695478696   -0.1548395340549819 O
   0.7759464107028199    0.5515051458344742    0.8101185644557530 O
   0.8718178752492709    0.9592056898023524    0.9719872297335934 O
