Li1 Co1 H90 C51 N3 Cl6 O45
1.0
  13.5123169999999995    0.0000000000000000    0.0000000000000000
   0.0000000000000000   14.0931230000000003    0.0000000000000000
   0.0000000000000000    0.0000000000000000   13.7733419999999995
Li Co H C N Cl O
1 1 90 51 3 6 45
direct
   0.4149653149789189    0.8272725434951500    0.2977556275012992 Li
   0.6627453174758999    0.7954389768683633    0.2675728338118664 Co
   0.7441896796826185    0.5820099597512914    0.8584613247823222 H
   0.7034386382439074    0.6797825762252979    0.7852942372301508 H
   0.7379637763086819    0.6991448573889548    0.9091748640235607 H
   0.9067781706127824    0.5853790086129241    0.9244290870000904 H
   0.9150464232004031    0.7112515487163490    0.9499481266057286 H
   1.0018935360974732    0.6557854905545065    0.8699301767138288 H
   0.8748504545889503    0.5389709669035032    0.7518324296310946 H
   0.9593815309395125    0.6254770429520837    0.7065458339740638 H
   0.8304872650634233    0.6281234691558427    0.6684764481997180 H
   0.8171444571645263    0.8200036741324118    0.8296587298856007 H
   0.8310214613822337    0.7826907797512304    0.7077128542949125 H
   0.9672319913749804    0.8838673387012942    0.7351756908381423 H
   1.0244971880100209    0.7697668082510880    0.7508789711313346 H
   1.0408883154532269    0.9003006948850159    0.8756018357781284 H
   0.5925629157456860    0.2290245185541913    0.9368185085362725 H
   0.6661503789468527    0.3231660775258968    0.8873476894714442 H
   0.6961644964368435    0.2756563389108290    1.0044394679228903 H
   0.6494149715404102    0.0712629705992064    0.9401303038870304 H
   0.7565869191789980    0.1032465415933714    1.0110528359783704 H
   0.7702021437182091    0.0403979919851689    0.8977916957264257 H
   0.6191928512334340    0.1508552029241496    0.7845084359337043 H
   0.7406649992003593    0.1160544025621574    0.7471825864775594 H
   0.7049440647373799    0.2395596100310768    0.7421195770786785 H
   0.8586762773549496    0.2345619491151819    0.9602305932721339 H
   0.8356523370492270    0.2934701996143793    0.8486085831601364 H
   0.8981742827673448    0.1552686484039059    0.7541788891904375 H
   0.9120286535610437    0.0859918784502200    0.8609248488856227 H
   1.0577064059405947    0.1440671226668496    0.8532512377896373 H
   0.7873138522431053    0.1815972385964417    0.1843415018664316 H
   0.7920943765602895    0.0536096853763357    0.1810447362738833 H
   0.9045023196243842    0.1216649155761998    0.1762541865293115 H
   0.8319982657304443    0.2648346871023548    0.3326724545139444 H
   0.9528770639409955    0.2140691066132041    0.3152209274989324 H
   0.8898543440033267    0.1991544202090622    0.4295168696166841 H
   0.6867953001694677    0.1676091431260481    0.3232878178731058 H
   0.7313071022534477    0.1113417771206566    0.4314301735918559 H
   0.6987315846719701    0.0401015481096702    0.3280469170082322 H
   0.9718194792203291    0.0466892902304195    0.3251397772595787 H
   0.8714014184243902   -0.0282555179572335    0.2939787808942811 H
   0.9506655934729773   -0.0527963823206538    0.4571919749034040 H
   0.8181572708810784   -0.0493159635376772    0.4549568528829096 H
   0.8633620836456103    0.0400711786876479    0.5787764516411485 H
   0.4799802224888596    0.7424807794553414    0.6843739899873247 H
   0.4742626161005548    0.7463434775954200    0.5557154574394507 H
   0.5567752443936892    0.6010987663983347    0.6979091421675291 H
   0.6885189608858348    0.8843931093200562    0.5553237311612533 H
   0.6120219285856009    0.9867774779230976    0.5475934468192252 H
   0.4289538818546072    0.8926149754032515    0.4902840479819640 H
   0.4493885926447700    0.9989114087771744    0.7912259638946015 H
   0.6585881059480769    0.9158948857538530    0.7078463433203067 H
   0.3807437695548439    0.2627519294339515    0.5664393049994693 H
   0.3982288973830321    0.2892859020672707    0.4416765110457578 H
   0.4436104829393804    0.1549168676098264    0.3777057071551698 H
   0.6498490258924505    0.3250431433827690    0.4989088349073159 H
   0.6224309080374595    0.4468768377314240    0.4957966766526236 H
   0.4645084236848500    0.4473042539967897    0.3753458644967939 H
   0.4470822820394164    0.4617939175014650    0.6796560740305440 H
   0.5467228233322236    0.2785539883530428    0.6446792593983363 H
   0.7635373193213273    0.4771183512696227    0.3055553285469859 H
   0.6769055943551354    0.5388656758335253    0.2329840056247786 H
   0.6732510575351363    0.3591557896713169    0.2073631018528401 H
   0.7320755811161033    0.6667160834401288    0.1305940896552195 H
   0.8509675527890591    0.6328600949555325    0.0882375032871470 H
   0.9867614340308920    0.7371063503809623    0.1418066276144163 H
   0.9241117196998857    0.5813439852898465    0.3751400444423728 H
   0.9291138544188980    0.5152877967502305    0.1871982210272568 H
   0.3991180957344325    0.1124623186784079    0.1325364918695840 H
   0.2835728187845208    0.0656287999473218    0.1004504338888848 H
   0.2498716844786871    0.2716033571835000   -0.0236059345654816 H
   0.1737884183741397    0.2045420315993836    0.2797175376898359 H
   0.1693362677918228    0.0962973806444462    0.3459227622460838 H
   0.1170129156975817   -0.0350497693094710    0.2560877795672248 H
   0.2522692422032431   -0.0318116261385074    0.3974977706935615 H
   0.3487798339840606    0.2404656859945095    0.2626217848943270 H
   0.1642649140040157    0.7646749517477424    0.2839543213259353 H
   0.1075751456985505    0.6685903096141288    0.3467516678232487 H
   0.1969134523708998    0.6063014869025126    0.4718830360852144 H
   0.3166268627356804    0.5521122188460287    0.3353563158454934 H
   0.2898575736492860    0.4918285223225540    0.2252821283316714 H
   0.1863657431956340    0.3783871012833706    0.2419189518418987 H
   0.1178649361171737    0.5181702870258068    0.0580769605517673 H
   0.3321756786789416    0.6478209563629012    0.1484301159442639 H
   0.0661737006318013    0.3373321335519458    0.7214716101582317 H
   0.0992600580640611    0.4552591700221448    0.6893590371893764 H
   0.1622255997990574    0.4124844982904073    0.5331260982265597 H
   0.3094749975152300    0.4597274663678164    0.7807584281287722 H
   0.2714938296666664    0.4952724318094718    0.8971731392424582 H
   0.3542446569304139    0.6217163960039233    0.8009470729761883 H
   0.0231000782471282    0.2999286900426541    0.8812410655307913 H
   0.2463934741909918    0.2899530366690193    0.8050248610685773 H
   0.7530841453764000    0.6578147150209360    0.8435654963043827 C
   0.9254599081711893    0.6555515473752693    0.8956276457812490 C
   0.8823703321939531    0.6127328293381104    0.7277396589731091 C
   0.8643880882901135    0.7793868271780499    0.7800813673253738 C
   0.9692254496397620    0.8197025563460987    0.7812525739940241 C
   0.6673803648922683    0.2588447400906101    0.9320694077007600 C
   0.7271417736869258    0.0935853827430584    0.9375107544704836 C
   0.6970083280313806    0.1724413190745585    0.7814178526896377 C
   0.8382335516551307    0.2234949230202560    0.8838012059818162 C
   0.9125049360520479    0.1591194556380442    0.8329777987070967 C
   0.8292960496708299    0.1184034702599275    0.2058652889037388 C
   0.8809309454477718    0.2055054901599880    0.3509138936650233 C
   0.7293434686293994    0.1080262983584263    0.3522287815114153 C
   0.8949473846713335    0.0291379753089503    0.3427804130616955 C
   0.8858360975397485   -0.0058700835861576    0.4469659476980968 C
   0.5219855595454134    0.7616061074610645    0.6185552881791507 C
   0.6146709605761913    0.6993468041114804    0.6092666289706594 C
   0.5469298189200268    0.8682729782461984    0.6253538981316227 C
   0.6122436055933264    0.9085529467102500    0.5419535244242102 C
   0.5891683373029215    0.8836058572681157    0.4378220231516795 C
   0.4440870947595442    0.9209037045940774    0.6294286905821405 C
   0.4375629279567672    0.2749662399171567    0.5098735150844290 C
   0.5023365696645513    0.1863748368619219    0.5044421491893543 C
   0.5006417411610459    0.3605077625448951    0.5418178449355283 C
   0.5925164255693527    0.3761465155735886    0.4768087135279150 C
   0.5826767792673899    0.3701338397458107    0.3675163290071502 C
   0.4372248808253981    0.4513788980625514    0.5400350270834776 C
   0.7542575666334649    0.5140885799407271    0.2353551926613018 C
   0.7761901012239426    0.4429902846941731    0.1543843810746876 C
   0.8268589694868764    0.5980027031623862    0.2369598424260430 C
   0.8116118442159106    0.6654915358363082    0.1497626552800330 C
   0.8450495914209236    0.7670928743047228    0.1644947580623497 C
   0.8088143839431832    0.6453399058533725    0.3363621131312938 C
   0.3187210113557875    0.1217402104558372    0.1436326303376479 C
   0.2892034985561692    0.2179994171625409    0.1040384977008485 C
   0.2965933177855434    0.1113012502622733    0.2512085977390237 C
   0.1861090366663245    0.1274658604767729    0.2744364962403461 C
   0.1141695336188457    0.0920770208278179    0.1965906640523411 C
   0.3326328645190902    0.0138917704755717    0.2887468800237444 C
   0.1782237376461787    0.6951913823501008    0.3178976671021456 C
   0.2532353637055733    0.7109924322664323    0.3997143198796632 C
   0.2197811922263221    0.6281165963001955    0.2416607726723115 C
   0.2567396613030911    0.5339244048320588    0.2843513476976031 C
   0.1837928735686115    0.4751237181425295    0.3421768718151339 C
   0.1446984495701218    0.6096912025815711    0.1596106181056130 C
   0.1281980965958688    0.3882451476510919    0.7188974847208469 C
   0.2065253190848024    0.3436955166005433    0.6532553813010669 C
   0.1679601396266829    0.4062674348332871    0.8225667967875916 C
   0.2450044977482396    0.4855511727244557    0.8220197588936657 C
   0.2149518842697370    0.5825347525881949    0.7817114284971650 C
   0.0855735607742181    0.4304582681922239    0.8966633406765039 C
   0.8576499456014834    0.6760573394555628    0.8122289869807924 N
   0.7329928205503171    0.1865251342800315    0.8837138241394137 N
   0.8334561222919801    0.1154219884407452    0.3145544806772387 N
   0.1268747595249579    0.0211196517620686    0.8584534399857348 Cl
   0.1265215070072734   -0.0818640133914960    0.3905265882456124 Cl
   0.4877039222806867    0.5704359239609275    0.8187418260579022 Cl
   0.4746472725588070    0.0475231018703236    0.8749264978681282 Cl
   0.8053057436411535    0.9717530145731360    0.6927675926438187 Cl
   0.5335631461280845    0.7356659634631727    1.1920187438894640 Cl
   0.9945429173989925    0.8446555962081648    0.8776582713186095 O
   1.0081237496130382    0.1985241858742026    0.8492367654850943 O
   0.8881062433629999    0.0680710059792993    0.5164935285858726 O
   0.6915468227987843    0.7262071827514738    0.5707707243456236 O
   0.6062547555685676    0.6098107083859269    0.6423397444135199 O
   0.6623949230912803    0.8852364277243588    0.3788410249306232 O
   0.5012136319774025    0.8656500904732044    0.4112258564406518 O
   0.3900042102327824    0.9149769522340789    0.5511293773145254 O
   0.4118050864259624    0.9616409400528186    0.7024686085628310 O
   0.5953894702144717    0.8801200301735818    0.7148452699424729 O
   0.5569303628681891    0.1640398966219198    0.5726036062997637 O
   0.4971484875613857    0.1333871513077690    0.4245124719911841 O
   0.6470339187572346    0.3294487275815303    0.3177711291856399 O
   0.5077948200889604    0.4129984986294379    0.3245155961421708 O
   0.4109886150539541    0.4887863314610963    0.4628966854957933 O
   0.4093421587134168    0.4876768648084601    0.6238297306492498 O
   0.5331523350140468    0.3474106846296594    0.6395057002142254 O
   0.8475353205523525    0.4506155349669480    0.0991279073735336 O
   0.7137107055732930    0.3694868603644486    0.1459222605523046 O
   0.7844809013879707    0.8311512338322740    0.1866205268118660 O
   0.9379513476482235    0.7904772001209384    0.1496487729702784 O
   0.7381171874520115    0.6978000440356619    0.3530044785063785 O
   0.8717989712645138    0.6199620637668457    0.4065683702619161 O
   0.9270428091644092    0.5632313710736789    0.2399469547768436 O
   0.2860617783019744    0.2913902965297330    0.1542368453495165 O
   0.2736749937112932    0.2133539485889678    0.0100154007647527 O
   0.0709036237086504    0.1463618056835238    0.1412254150082093 O
   0.0990711992621251   -0.0021768574644527    0.1924818007132909 O
   0.3731599710101532   -0.0440510786714910    0.2347293728711594 O
   0.3206279485598214    0.0004562267710287    0.3839100626412965 O
   0.3550875012775381    0.1822956494454777    0.3029422677517192 O
   0.3231460237352336    0.7659631587689967    0.3914429874753709 O
   0.2384542821190474    0.6641840357172785    0.4829573766483109 O
   0.1521483362179854    0.4987580219089835    0.4234569104578976 O
   0.1556220617085878    0.3914917084027437    0.3056301542501449 O
   0.0874036954580032    0.6706544007314773    0.1290688752228762 O
   0.1532735126033529    0.5227451140531448    0.1227940858507688 O
   0.3031965842719647    0.6803944455746253    0.2038934581018899 O
   0.2683735742730133    0.2874116631210840    0.6852113198089468 O
   0.2066152651688086    0.3621953466240236    0.5582378663072477 O
   0.1322597197801088    0.6015515758998200    0.7496870708648634 O
   0.2858947255307880    0.6486216702997625    0.7845581232209292 O
   0.0877331807712919    0.5044524091643846    0.9451332871862181 O
   0.0130737807586959    0.3687313826750820    0.9068215622613597 O
   0.2131799927429174    0.3219646404845824    0.8614608415299642 O
