Li1 Co1 H90 C51 N3 Cl6 O45
1.0
  14.1003159999999994    0.0000000000000000    0.0000000000000000
   0.0000000000000000   14.1245150000000006    0.0000000000000000
   0.0000000000000000    0.0000000000000000   13.0908189999999998
Li Co H C N Cl O
1 1 90 51 3 6 45
direct
   0.4311505657036339    0.1639918786591965    0.5361217140042958 Li
   0.7726466435220317    0.2755774715096412    0.8742477571494953 Co
   0.6741869756677794    0.5667733532797409    1.0258790790706067 H
   0.5496438001814995    0.5388844905471091    1.0022118264716668 H
   0.6054470240241424    0.6378253462154275    0.9395775092452200 H
   0.7863314325721494    0.5421569951251424    0.8916564945249033 H
   0.7171622345201342    0.6065696535420861    0.7996546999847757 H
   0.7534379194054941    0.4874040729894089    0.7729268122949374 H
   0.7175479570812455    0.4145815895271448    0.9837725485319139 H
   0.6830200883441193    0.3580807503832875    0.8622891715178401 H
   0.5970226114081415    0.3790103992951263    0.9615153077893751 H
   0.5299765352776491    0.5705396064926831    0.8064006193959293 H
   0.5049044716444653    0.4545584559894623    0.8503303796347654 H
   0.5086379950633730    0.4403472678530909    0.6700821766766465 H
   0.6225678601812895    0.3968065360120330    0.7037276537090613 H
   0.5845059997236941    0.5873941915881713    0.6368588153269861 H
   0.7692585024335624    0.6250132121350715    0.5826350146618023 H
   0.8283718088303837    0.6997602742465848    0.4911785992916104 H
   0.8956653219686708    0.6189481210505281    0.5682680403724167 H
   0.7608455285682960    0.4589812995348867    0.5601778994881833 H
   0.8882115613579157    0.4555794800741831    0.5459200535887021 H
   0.8135629350434416    0.4039325357366253    0.4499166293568035 H
   0.6668062786677973    0.5676483957148264    0.4576996015298967 H
   0.7097414185611159    0.5072011966428581    0.3471418740110913 H
   0.7236285576862249    0.6333853693383454    0.3561282819661628 H
   0.9619877611253536    0.5526682105544862    0.4188368076894196 H
   0.8942597016974655    0.6355153787581379    0.3461810143429529 H
   0.9595626374614584    0.5137970195790793    0.2371065981433247 H
   0.8342883046025352    0.5160560550220662    0.2307305616249067 H
   0.9311176430372200    0.3635098012214932    0.2595017874741068 H
   0.4152526290900147    0.7832449829250774    0.0524335009138848 H
   0.3123680043766395    0.7926416368986828    0.1341020489245172 H
   0.3514089783519745    0.6777735971819210    0.0877121950887870 H
   0.5555635008463641    0.7060237055927231    0.1160384716953156 H
   0.4876283226560313    0.6042556880714135    0.1571823764426045 H
   0.5634785950896419    0.6658513513561350    0.2457187185920148 H
   0.5146731576795868    0.8593524521018951    0.1690054082941641 H
   0.5169725104033129    0.8278881894351771    0.3023034059213560 H
   0.4125595171058578    0.8810768851178253    0.2465551429593519 H
   0.3373514621941806    0.6353105809296815    0.2522514809806781 H
   0.3202309352499618    0.7504534130906442    0.3056643232176688 H
   0.3674278945237823    0.6600576161376160    0.4456040282888336 H
   0.4743368219549122    0.7191637702250308    0.4121492421520762 H
   0.4295392011072660    0.5293549208592295    0.3559039041025623 H
   1.0165789050401424    0.0922588018066461    0.9080292447707053 H
   0.9153822921415378    0.0175956271772871    0.8974733253893434 H
   0.9437231995368047   -0.1241970113664080    0.7938411179621383 H
   0.9481788471974671   -0.0022056353793387    0.6473982162613355 H
   0.8662075615893999    0.0917641002186624    0.6260134923567425 H
   0.7408051252184703    0.0904135773865510    0.7384023879636560 H
   1.0587662723303506    0.1850088679151107    0.6071093878847458 H
   1.0858361082120429    0.1018041957546861    0.7380545495281846 H
   0.4929624655220493    0.2566607264037031    0.1981937761113342 H
   0.6144328893054596    0.2259050870065273    0.1818202344711970 H
   0.5871141036839175    0.1117991456697805    0.0633837661341128 H
   0.6129498218337802    0.0761877791910023    0.3692390002489531 H
   0.6545645615318125    0.1629264020746907    0.4552960360998040 H
   0.7511797927081918    0.2782220685099630    0.3350565522294671 H
   0.4466389958920070    0.3329957786161153    0.3802634174378242 H
   0.4457142393120835    0.1380876107958397    0.3458475310062725 H
   0.1108596679677250    0.4399862763429400    0.2736783107305968 H
   0.1611967363000943    0.3352101413747658    0.3230909815497411 H
   0.1707560312832705    0.5273349633598039    0.4081481739225025 H
   0.3362755621930743    0.3289716298223337    0.1910420555047014 H
   0.2917749311433872    0.2774930863112822    0.0760720563014430 H
   0.2290015854963818    0.0637496862724136    0.1738920337986493 H
   0.1572096256566165    0.2846300329604238   -0.0060101564310071 H
   0.2733686294690134    0.4515390390395706    0.0800307895174473 H
   0.1795496597381222    0.7745212610840090    0.6026008166486757 H
   0.0585424837287335    0.8046852780431752    0.6071044806287521 H
   0.0864882857944460    0.6358679770597433    0.6838530988779237 H
   0.0190815915047578    0.7688410030362104    0.3688537371114825 H
   0.0639271885821566    0.8773240865261568    0.3218674041708162 H
  -0.0027520595992317    1.0107729171585715    0.3874782311175489 H
   0.2132789066571274    0.9542852529803678    0.3462470911865789 H
   0.1842434446150001    0.7196954564457612    0.3983892864151586 H
   0.6291963407061232    0.8838861660028681    0.7022075700534856 H
   0.5100234214609092    0.9097113253092229    0.7327176725917608 H
   0.5220190689343417    0.7770405051076089    0.8460072971752187 H
   0.4044239391514347    0.8343094754049962    0.5621031548904618 H
   0.4287276873794885    0.9112204702249954    0.4572916950421513 H
   0.2984108930608363    1.0298126894976571    0.4770114627663861 H
   0.6930398098879487    0.9373151970173843    0.5083141551342204 H
   0.5891130056943404    0.7799904322378503    0.5304305742826327 H
   0.1489744619907809    0.2788552180375751    0.7160962335511629 H
   0.1811229563933177    0.3815857556878944    0.6487628520415720 H
   0.2401059791851474    0.2403651424491390    0.5561338454072278 H
   0.3374046404350087    0.4517888394751961    0.7703847322310391 H
   0.2904771488809187    0.4961595219375674    0.8857263002414134 H
   0.1396240616167751    0.5798857397935433    0.8537524329073681 H
   0.1434050818435559    0.4546965081632892    0.9831906292493999 H
   0.2954925237136530    0.2946719239563270    0.8653165329075286 H
   0.6162928192531288    0.5660135055964753    0.9692552818887803 C
   0.7313857313552405    0.5368907817365765    0.8327123810970116 C
   0.6619915426008892    0.4053689992187342    0.9260892271140561 C
   0.5578594174768849    0.4979874954998455    0.8105481628002037 C
   0.5777991620897007    0.4607851108515938    0.7031268524910473 C
   0.8283329118297774    0.6304520806555128    0.5286339830991476 C
   0.8199755735970741    0.4605402104072246    0.5059248027186076 C
   0.7219449081850364    0.5666582753460915    0.3988185055495764 C
   0.8968047233835044    0.5622358615499364    0.3742326511427589 C
   0.8950870200355794    0.4963904169452898    0.2816324394982468 C
   0.3734224814536071    0.7486115671936346    0.1126588718398750 C
   0.5170104818927462    0.6731910391259451    0.1794823547709276 C
   0.4727436498586273    0.8335786396913452    0.2338157345235619 C
   0.3732255007618269    0.6958944324813984    0.2880339984839757 C
   0.4230452984174255    0.6655855432912209    0.3864527964216754 C
   0.9775698119105984    0.0446208899916209    0.8559340099347490 C
   1.0456836875145210   -0.0326300662359026    0.8182248444501448 C
   0.9467973583003388    0.1040073581287570    0.7639312475407383 C
   0.8956405175600320    0.0441215638200674    0.6844789023513350 C
   0.8187593646837419   -0.0196449053294927    0.7284042564487372 C
   0.8816966187140770    0.1821901502458668    0.8017878675123382 C
   0.5487284441001181    0.2061901955571572    0.2221829359950665 C
   0.5149746339018217    0.1068244014042252    0.1922238173180761 C
   0.5616198878096066    0.2135487937107929    0.3378791960991899 C
   0.6412214527674416    0.1485010784441094    0.3738104208758826 C
   0.7383307955651490    0.1422638993268087    0.3200362154575661 C
   0.5811560230281363    0.3169363139194514    0.3672388244005207 C
   0.1755141593989809    0.3964818784928190    0.2729801848150219 C
   0.2581752430229223    0.4505923360908322    0.3197223993395676 C
   0.1902444129620925    0.3596357354571113    0.1637285344790116 C
   0.2755596512872477    0.2913571786358682    0.1570061414797653 C
   0.2639829788211839    0.1957068586071805    0.2093645332656421 C
   0.0977653706484309    0.3079253085858170    0.1280654976590846 C
   0.1127839978905437    0.7716627452340842    0.5583163864690208 C
   0.0911236570868341    0.6686246741923528    0.5382909900442441 C
   0.1292043107402699    0.8292539665963752    0.4604888426002987 C
   0.0401849376992686    0.8406927367063578    0.3920801005651366 C
  -0.0467781374545081    0.8881341780585033    0.4387390322943125 C
   0.1623525855732595    0.9292601091081711    0.4919355366535890 C
   0.5550126826944871    0.8690409971599025    0.6801148873878708 C
   0.5386989624913371    0.7634197853873212    0.6930663948527590 C
   0.5397428958329729    0.9030380108626739    0.5693006358120145 C
   0.4341435454354356    0.9038570435869833    0.5408818149574904 C
   0.3761714631076353    0.9812257999655210    0.5931048737286797 C
   0.5844561710531877    1.0026283458228478    0.5601604666598782 C
   0.2045056316468369    0.3336781645245872    0.7101814798600455 C
   0.2975256497797638    0.2861704943497175    0.6832519378657668 C
   0.2054050802833071    0.3868223411564928    0.8116897353786651 C
   0.2711017533224078    0.4749709678527015    0.8068722545166961 C
   0.2359320890397066    0.5590972730745091    0.7465090320170189 C
   0.1030282314240333    0.4180612955559890    0.8396325241377183 C
   0.6425637042460609    0.5013869559414961    0.8823952267615953 N
   0.8163902475660829    0.5537586451640995    0.4503153309200899 N
   0.4355724623476523    0.7373813975205520    0.2053254888024958 N
   0.3975080310256877    0.4864416689705806    0.0340328584483522 Cl
   0.7705932611723028    0.6205945974074154    0.1493279603056157 Cl
   0.5539508306054985    0.8333733979538412    0.9600411074356769 Cl
   0.2082394805903641    0.9344807542064276    0.2096721572576934 Cl
   1.0911631037205123    0.2218319050247035    0.5175206005063550 Cl
   0.6939859362017134    0.2014720753243563    0.9983701417000723 Cl
   0.6234174255385483    0.5286485390825809    0.6397849645618047 O
   0.8943345865440179    0.4001330070448437    0.3095991022410439 O
   0.4735853926961637    0.5799540493956783    0.3775713016886110 O
   1.1276528582763676   -0.0102203665046198    0.7981283531610972 O
   1.0141383391691363   -0.1220566277850956    0.8081997230272606 O
   0.8316710866621713   -0.1040527621656390    0.7490775985826403 O
   0.7335579876365892    0.0201898592624242    0.7426471315507456 O
   0.8999859747824092    0.2269862653691118    0.8833097371524272 O
   0.8015852134094016    0.1992695515562835    0.7560707408757237 O
   1.0324802011529388    0.1444335603735774    0.7184826266408542 O
   0.4609289323728631    0.0612253843760299    0.2480478165651820 O
   0.5413514753853743    0.0715365681582695    0.1022929474466036 O
   0.7698307073401760    0.0669581107740691    0.2892046555681504 O
   0.7898055951370169    0.2222586913603759    0.3140100730137664 O
   0.6611736517110681    0.3512136614956337    0.3685984604935719 O
   0.5056349715850340    0.3694696278066893    0.3901140050901322 O
   0.4743160210026499    0.1887144309025832    0.3903966627298109 O
   0.3422076483959651    0.4392134937022616    0.2966935338423058 O
   0.2381227420718798    0.5122769149949573    0.3941879847242560 O
   0.2798904152219000    0.1814985392418784    0.3001585981747972 O
   0.2373542926272007    0.1297758910659941    0.1419063742306726 O
   0.0271686421779484    0.3018140198088217    0.1822851541985265 O
   0.0988323651753620    0.2711065944565176    0.0341245303292330 O
   0.2027713960453085    0.4383094350496283    0.0949541392329999 O
   0.1004578500226520    0.6308313750950032    0.4530120560065799 O
   0.0595217624909967    0.6171148396953807    0.6162958085357380 O
  -0.1106103281656950    0.8448355508136031    0.4810772885943959 O
  -0.0530746935033229    0.9837553112443154    0.4300493208255343 O
   0.1443518889931261    0.9635225528097778    0.5748701337937681 O
   0.2141456134741945    0.9774873685928331    0.4223243075929780 O
   0.2034010798055873    0.7866746036943569    0.4019955947752391 O
   0.5550653169758749    0.7065528543811946    0.6215626631152719 O
   0.5091610329867785    0.7314063569616372    0.7811190613818738 O
   0.3590493014482796    0.9828931811109974    0.6835957055093345 O
   0.3478616543061872    1.0528183438510985    0.5279476830288464 O
   0.5438912801670545    1.0772860689375883    0.5809454534510026 O
   0.6752793752991068    1.0019863860812213    0.5299279838793891 O
   0.5903817793870719    0.8441130792809524    0.4980166932259930 O
   0.3658344068317335    0.2788904525217326    0.7413494442173556 O
   0.3039893744225307    0.2490052656675291    0.5882297349004673 O
   0.2663320247574593    0.5850227317539752    0.6641388495249992 O
   0.1631662708835745    0.6107346100025381    0.7906761257641711 O
   0.0346727087534776    0.4059645729428586    0.7848616759577839 O
   0.0958959217651576    0.4705688492666828    0.9277654683026326 O
   0.2365955989922495    0.3238660817734272    0.8916461086200947 O
