Li1 Co1 H90 C51 N3 Cl6 O45
1.0
  13.3849269591999995    0.0000000000000000    0.0000000000000000
   0.0000000000000000   13.0380114918000007    0.0000000000000000
   0.0000000000000000    0.0000000000000000   13.0809126990000006
Li Co H C N Cl O
1 1 90 51 3 6 45
direct
   0.8253683425598831    0.8009056637177707    0.4850039546540971 Li
   0.1483112299119075    0.4114275593922974    0.5567987889756957 Co
   0.2150736412962883    0.0043524464935232    0.0629294276662308 H
   0.2839839911854989    0.1334587907438463    0.2162115453699352 H
   0.1055183180233368    0.2957297015595502    0.3329136467543976 H
   0.1458218625734404    0.3454918911701400    0.2103900861375208 H
   0.5966730340736457    0.1326810647841494    0.9232065550306138 H
   0.3755227798344608    0.3104850191262661    0.1003457770649555 H
   0.5781282933547292   -0.0261314965717186    1.1292594553153206 H
   0.6543095084714192   -0.0596726543069329    1.2363735407190948 H
  -0.1045508148580618    0.3227913436068751    0.1461361598756130 H
   0.0224719178906881    0.2657113202867503    0.1412389480774716 H
   0.6430991372488206    0.1526848820966308    1.1291073252579009 H
   0.7057778505923669    0.1815566161211596    1.0099206877598013 H
  -0.0586514235597234    0.2554597569955181    0.2531187559835269 H
   0.7856326008840997    0.0670069395129355    1.1413037219215829 H
   0.0269665259063598    1.0090332606068089    0.2520599613627924 H
   0.1906842665170993    0.5067863494027174    0.2772034668328001 H
   0.0494814040912469    0.4803060076560378    0.1268829161765511 H
   0.0078554765312133    0.5525816764259772    0.2349831712992766 H
   0.2443416381403604    0.4200561758090534    0.3622403465671199 H
   0.4259713181087674    0.5698840848601069    1.0144616553028796 H
   0.5376132422339412    0.3992194093918079    0.2715685389270711 H
   0.6351566209897439    0.5558805690544314    0.2531638598698976 H
   0.5627912653211993    0.6620539683393317    0.2555925894800591 H
   0.6796514472831851   -0.4578476369923704    1.0391258364211180 H
  -0.0846284050598736    0.4982611229853373    0.1540713859862448 H
  -0.1431412383676177    0.4048644419986812    0.3197754197854845 H
   0.2785286009377539    0.8530938367706893    0.3154416243306510 H
   0.0238503340790050    0.7808282155451997    0.2047184635445750 H
   0.5975583582921581   -0.1538626311122424    1.1507548972978585 H
   0.3800988227360547    0.7028492997696285    0.1467064564727740 H
   0.7913151122815729   -0.1998880545732823    1.1264133236380678 H
   0.8687492292669934   -0.1135021819493500    1.0752792770014648 H
   0.8293586519700730   -0.0911820604965483    1.2019072912780702 H
  -0.0388470569906702    0.8661456737097061    0.2916382394167066 H
   0.2565568710286967    0.0256448038575735    0.4512254217514367 H
   0.2695027765631978    0.1514952835133073   -0.3270326581131477 H
   0.4380488588000812    0.2214399986697211    0.5870495833281609 H
   0.4109394841201847    0.2454260183320511    0.4628634475913033 H
   0.4982282607837692    0.0601094152964121    0.3888546974164008 H
   0.6332223556718295    0.1143454466455742    0.4960082296089330 H
   0.8728889604862149    0.1494742698014716    0.5478645500055868 H
  -0.0512916523558701    0.3332446247752279    0.3982989925388233 H
   0.1115967972147438    0.5599025780880160    0.4196652386434522 H
   0.3507837580221377    0.6362003325903527    0.4433335412400797 H
   0.4770325605110083    0.5591040667501063    0.5170530149640898 H
   0.5872004384900851    0.6406741743289249    0.5269606569598894 H
   0.6440046334115523    0.4208791540681805    0.3925830305321572 H
  -0.0268484857254297    0.6887558929555936    0.5291302303415824 H
   0.6823828779522834    0.4820638677418657    0.5457006337215062 H
  -0.0458235612543573    0.4754083282790745    0.3874381295953024 H
   0.2073134196442302    0.7441539113155454    0.3712962895831646 H
   0.4960463811150179   -0.0675603601940369    0.5625597019742024 H
   0.3593829831319085   -0.0576731162626233    0.4223806454974950 H
   0.6204094355473665    0.7785985810631098    0.4205915501538812 H
   0.8481237898573112    0.0017423859009702    0.4559760076952409 H
   0.0769570863359844    0.9693623337691312    0.4053053843792800 H
   0.2508130966895206    0.1892916913712027   -0.1221127062962596 H
   1.0191908421452718    0.1874202403439241    0.6620955699950581 H
   0.3737864984135131    0.1344965256782349   -0.1093934103397382 H
   0.6121142838189750    0.0509991303365696    0.7010179305149721 H
   0.6173604835340759    0.3364406642959943    0.6729296763958167 H
   0.6284378693466364   -0.0915678555238931    0.9601909773818910 H
   0.4713798587644369    0.2537693151659599    0.0275763899508003 H
   0.7324309657783852    0.0592342818447216    0.7581614966559758 H
   0.8050537005129869    0.0304499844665492    1.0070913744808565 H
   0.8141512473558781    0.2162267803777485    0.6511337966616911 H
   0.1687566160417065    0.4685319729348269   -0.0890607312583823 H
   0.2480629882942933    0.6138257549806098    0.8359733453718388 H
   0.3489301804811002    0.3773602478026925   -0.1888328213281962 H
   0.2642931851913097    0.6956273395758352    0.9462989803797328 H
   0.0258458623386225    0.5631230078311872    0.9453961381796696 H
   0.6788512934958206    0.4816665678926320    0.8904917124315409 H
   0.7923438814367558    0.4247394053060057    0.8626641434861546 H
   0.9064767418293915    0.4906398687731827    0.7016287441626018 H
   0.9281548578837014    0.5917925637857199    0.7944257857706233 H
   0.0835421054600087    0.6659341612684312    0.7952972845920222 H
   0.1276432052866514    0.7715629989839183    0.6955573023735230 H
   0.1491614400052975    0.8730002465911770    0.8335117434377122 H
   0.2716410026504406    0.9211563630660612    0.7972252846162045 H
   0.2524985746953974    0.8120407973300787    0.6447458631953675 H
   0.2648198970681463    0.8672654763735694    0.9225177651726486 H
   0.0582375221005009    0.7289759832914401    0.9155855271792759 H
   0.2152170862329587    0.6777327396096720    0.6645242996052197 H
   0.3954369714331523    0.6760706763407732    0.7509127669853581 H
   0.4025016345641682    0.8127333876077969    0.7565912698321571 H
   0.3950043952960057    0.7459340907558381    0.8747000008932634 H
   0.6884329669999744   -0.2047522932679549    1.0066800881949682 H
   0.7642443631393112   -0.1133472503479114    0.9347004013286243 H
   0.7470078103584666    0.7031967453906767    0.7276567444890643 H
   0.9349154476333380   -0.0048322363145350    0.8355031946918736 H
   0.2800661513526894    0.1343814774593448    0.0213314128700921 C
   0.3444535030825124    0.0733476303500308    0.3253285491176260 C
   0.4183403463215217    0.3168686612984137    0.0260283328338418 C
   0.6708325721141377    0.1197036256933482    1.0547012021993465 C
  -0.0363748731602417    0.2992110606631641    0.1899427361586125 C
   0.7506649091345159    0.0432287736327335    1.0680458367838541 C
   0.1104051582877165    0.3663079489079853    0.2832428007705641 C
   0.1726961220368256    0.4491363772062111    0.3382641908341964 C
   0.4685854468028318    0.4228227019792969    0.0129397965872014 C
   0.6112297067095078    0.6151181299728083    0.3079757844273340 C
  -0.0073638818277041    0.4847039175701427    0.1847573181712892 C
   0.2507996487267077    0.7367938932590840    0.2097739211813388 C
   0.1228295817086972    0.8642136306204786    0.2968672323450998 C
   0.1377964172103512    0.9325024184130011    0.2034624349800501 C
   0.2162525793695479    0.7997367738138474    0.3039042030915705 C
   0.0229874231318473    0.8145427125968749    0.2831869942670886 C
   0.6309302251212842   -0.0771277700769360    1.1584286737620708 C
   0.8065837798374709   -0.1194524758303450    1.1284070683101803 C
   0.2895252989734373    0.2321095704895872    0.5548742290784399 C
   0.3338946109472917    0.0235938776088263    0.4298989282246259 C
   0.3886763816835158    0.1919784507763491    0.5260468828009262 C
   0.4049775539398223    0.0803440960347996    0.5064430519444139 C
   0.3918725141787026    0.0198847230318101    0.6076796422705030 C
   0.8409724620770570    0.1394083176367154    0.6209455361720245 C
   0.7392871854858020    0.0900004765403071    0.5984287587286190 C
   0.4580265546676111    0.5001499846430746    0.3376449679874130 C
   0.5564257468346425    0.5547111422588200    0.3868823579784981 C
   0.5190298759773900    0.6171590853759183    0.4816694595004574 C
   0.8933492887969170    0.6365853606295715    0.6413386085927580 C
  -0.0651550077978254    0.4030934664158999    0.3459219133727512 C
   0.6996620159487019    0.6751395527558895    0.3413075564552393 C
   0.0103254190345063    0.7365070396999848    0.3670244164130095 C
   0.4641033902191188    0.7132626975554328    0.4550378468587316 C
   0.7424788353267177   -0.0235521155042030    0.5757017513063672 C
   0.3171802873890127    0.1862567193568824   -0.0720405121709925 C
   0.6594010566141723    0.2046444926880211    0.7336096930173388 C
   0.6826548256447209    0.0949406470594472    0.7036599479945814 C
   0.9095645435130303    0.0865221853891970    0.6899185521045422 C
   0.2390595771910920    0.3530398213174553   -0.0344368669729320 C
   0.3460306502768413    0.3003201254932644   -0.0571975111917991 C
   0.7588577069237206    0.4979516432765229    0.8761945449246973 C
   0.7703288192030795    0.5601234706682849    0.7708517426517839 C
   0.8793678901258266    0.5632544695959723    0.7272194661330642 C
   0.8021153206383798    0.5557830848636252    0.9622940416430035 C
   0.7059661220717468    0.5101908486262314    0.6888360588316467 C
   0.1071066718533431    0.6692598217824804    0.8756555917062007 C
   0.2197012347219982    0.6811512056869592    0.8763069224042987 C
   0.2083377061451421    0.7583715702059817    0.6906814958095914 C
   0.2305522464938757    0.8610643773753941    0.8434529457828620 C
   0.3690856883013778    0.7474097759101348    0.7946406025853716 C
   0.6981984293292370   -0.1266621642141234    0.9874696549643259 C
   0.0016036680413296    0.3904381623379910    0.2487964276184487 N
   0.7159504873512408   -0.0731256260358131    1.0865338433599159 N
   0.2569476090593145    0.7578170377909316    0.8025865313131083 N
   0.6817642716628924    1.3425496102997692    0.2629154729977607 Cl
   1.4713726148549040    1.7137565234892458    1.0227401296335186 Cl
   0.9405777870865919    1.0758057128743603    0.3713238105985772 Cl
   0.0130209884694370    1.3135958085457653    0.5747224618412691 Cl
   0.2332059778222776    0.5040692939665967    0.6496423105208585 Cl
   0.9651576746722962   -0.0426493528518306   -0.0707118587046844 Cl
   0.2626540279462327    0.1119486087520308    0.2868281775007051 O
   0.0715285920138650    1.0051630385233468    0.1883877987878008 O
   0.2966362828652529    0.1687655551449604    0.1116324512747212 O
   0.4292577013766093    0.0739581528982742    0.2842496112510750 O
   0.1810629962335522    0.3391174528555035    0.0352922124107817 O
   0.3975811743927563    0.4955857917032673    0.0149495951849713 O
   0.4701524333141466    0.4290176650724648    0.2688523676003779 O
   0.7490698313231031    0.5700936260161120    1.0478392956898059 O
   0.1978370885154438    0.6860254152272690    0.1549925755299164 O
   0.2083855211240322    0.9262376594003732    0.1445200646927733 O
   0.3534853043294297    0.7445550461054089    0.2025519480534834 O
   0.2430887362716301    0.2178972805160325    0.6420602707746883 O
   0.2604933885876352    0.3114989774287507    0.5051358037123155 O
   0.5037404320660553    0.0661249031681115    0.4660361619847853 O
   0.7025376386635158    0.1385416210544101    0.5158578384225327 O
   0.0496323201183689    0.6509318735251646    0.3560649364975935 O
   0.1391046051484232    0.4920952287421423    0.4328192137489625 O
   0.3738933350069708    0.5343548172036594    0.3515690728408858 O
   0.6185715472962773    0.4771092778459581    0.4344291931505994 O
   0.7829826051009237    0.6586884244427338    0.3102133958749081 O
   0.9804323191005554    0.6362026335547304    0.5941859355191771 O
   0.7401359013611016    0.5130949571265050    0.5929979450205334 O
   0.1302274554738536    0.9206110345085223    0.3931625008011224 O
   0.3682339839898975    0.7059563686677868    0.4609723715961327 O
   0.5041991936281257    0.7960383570705942    0.4310983093657599 O
   0.4484643807095360   -0.0636019344760922    0.6203622435398075 O
  -0.0335395943338664    0.7610445238248613    0.4517201884507432 O
   0.8280915550294847    0.7041547135599681    0.6162470872629742 O
   0.8036991918141151   -0.0502233605954276    0.4959732932088120 O
   0.6907490050399647    0.7553105205953796    0.4089234805388559 O
   0.9993483730149156    0.1257697347813592    0.7074479099770651 O
   0.2347592175271614    0.0513181973969581    0.0021737282523240 O
   0.6113477499386428    0.2563433273165939    0.6646229165771148 O
   0.5843449877194904    0.0943308914993297    0.9872449000051230 O
   0.3313798419012892    0.0426696392889277    0.6771518588436991 O
   0.6711478521311944    0.2286788326022850    0.8239688313433946 O
   0.8885797446526271    0.0046032516107036    0.7333184289375555 O
   0.2281480495865566    0.4287944715278181   -0.1058951834917372 O
   0.0937991655409855    0.5731671008343543    0.9187550307876264 O
   0.3846711300924228    0.3233236333662732   -0.1563649033951862 O
   0.6316668746398101    0.4510954182774715    0.7070389171091279 O
   0.5562241021033544    0.4416361537203289    0.0196258743871615 O
   0.7464855811359010    0.6664825577784739    0.7945419856134764 O
   0.8929256779683123    0.5728205755990574    0.9694326872519706 O
   0.6984614117131327   -0.0931371132295538    0.6179847335972194 O
