Li1 Co1 H90 C51 N3 Cl6 O45
1.0
  13.9898611414000005    0.0000000000000000    0.0000000000000000
   0.0000000000000000   13.6531278965999991    0.0000000000000000
   0.0000000000000000    0.0000000000000000   14.1109803436999997
Li Co H C N Cl O
1 1 90 51 3 6 45
direct
   0.8038067680545019    0.8149207663300899    0.3677696407689313 Li
   0.3863022666899163    0.1289438919515585    0.7328031022675656 Co
   0.1145325928116864    0.0098847274648037    0.9502040145556779 H
   0.4041952248451071    1.1169673033018090    0.2253202891973071 H
   0.6679676785315716    1.1772582495402157    0.1647511452269815 H
   0.0069561140469091    0.0344182997375292    1.0172574705845099 H
  -0.0589173060453633    0.2062778192388680    1.0840543888029397 H
   0.7673246332540613    1.1360830694454040    0.1026208056867226 H
   0.9187128406561011    1.0893172290580886    0.2715743398800012 H
   1.0665284607754768    0.5036497497406737    0.0749125961593412 H
   0.1390389118190594    0.4155214461671287    0.1973307384800648 H
   0.5411466199043626    0.3623438882112845    0.0302608437896835 H
   0.4210860286645046    0.5021083447117762    0.0680066266500358 H
   0.4331040178568673    0.3985254873101268    0.2284391369972510 H
   0.4337087415145571    0.5713963501537803    0.2770743121079867 H
   0.6644358350414470    0.5348381340599945    0.1909307579117183 H
   0.8587937327016020    0.5923871445102420    0.0209950098918725 H
   0.8537500800672528    0.4773912467283875    0.2352572316764739 H
   0.9212153672820728    0.5719376180636664    0.2917430307199018 H
   0.2025441883204023    0.7701317623281364    0.2247710715092915 H
   0.0606936023894680    0.8378598321889832    0.2210222178710950 H
   0.2272492226668270    0.8698429794433749    0.2907161708103088 H
   0.3631412076397209    0.7311436268597388    0.0981335200086393 H
   0.3646651684413694    0.9792325648417454    0.1458417573956017 H
   0.4764296801971687    0.9216076743435083    0.1881754567878415 H
   0.3782592990819662    0.8342233028620760    0.3683280711407458 H
   0.7317931869462064    0.6327639727487939    0.0376529595363807 H
   0.8889755905293735    0.7429826721850414    0.2086134414618659 H
   0.8381566443787147    0.9261077420543880    0.2468871819706977 H
   0.1400460697784978    0.3054104143665420    0.3646748876804617 H
   0.2309862147264043    0.1364960075386158    0.4140151874358109 H
   0.1213682575143905    0.2762163715787894    0.6165624187680442 H
   0.1661113749530357    0.0394515785964428    0.4707315870414069 H
   0.0579709163231080    0.3294598484952421    0.5319034531325806 H
  -0.0058796102097528    0.1045026062236851    0.5127596471446001 H
   0.3522583262114379    0.0114279635759404    0.4579440984612417 H
   0.7161511446279722    1.2884078711868352    0.3018337541517130 H
   0.8245560805077170    1.1672707945751186    0.3597142117887082 H
   0.7936644229257066    1.0479369677524948    0.3959923432530860 H
   0.2062368625705507    0.4252894642366886    0.6308831813995520 H
   0.3590482434979574    0.4946616994616926    0.4234603143337096 H
   0.6177741853365611    0.3442191037755052    0.5123313615221416 H
   0.4434500819483595    0.5973552368414426    0.4356685377033149 H
   0.5025808332573904    0.3892131889882410    0.4236870880887612 H
   0.6548796286825165    0.4919711072195187    0.3952815492645962 H
   0.6081057548473031    0.3888528320035807    0.6307123924152788 H
   0.5171344516201547    0.6220279713643418    0.5809936639561871 H
   0.4450709700880491    0.4225930857746390    0.5300208057648618 H
   0.6177749001399392    0.6140832717452155    0.4179199480306055 H
   0.6204868641556307    0.5663279145158756    0.6422899012786469 H
   0.5022855479819865    0.5149963071869406    0.6488443714676223 H
   0.7081410579754047    0.4224400805427375    0.5592046037696444 H
   0.7071467664767682    0.5559163809041968    0.4918569796604315 H
   0.1189029006640688    0.6485237313645161    0.6254533673020356 H
   0.2352850422409983    0.6898131709910493    0.6457014289562042 H
   0.2482065429030063    0.8437610440292432    0.6490116171119729 H
   0.6623929269874546    1.0244947204942894    0.4765705860331947 H
   0.4359768126325829   -0.0607071550180383    0.6564823950049536 H
   0.5995824393694149    0.0006963567888621    0.6589428902472634 H
   0.1135354420995383    0.1622432211194350    0.8968951740869258 H
   0.1242381930765945    0.0626550527306660    0.7880813310653438 H
   0.2662145844020364    0.2689594264486794    0.0466842243313102 H
   0.0233915881145945    0.0848536289320561    0.7251055506195332 H
   0.4702121774556586    0.2830741407807695   -0.0438353546694693 H
   0.5799016864857985    0.0086981861738491    0.7884859804845140 H
   0.0392545046765949    0.2083864935454471    0.8122873034131474 H
  -0.0770139831632511    0.2599519666979636    0.9280737307345811 H
  -0.1078806226270354    0.1189088288482444    0.8008267247672276 H
   0.0319299144634182    0.3031193642689457    0.9661242408282840 H
   0.0500873498684260    0.5854634563476533    0.8642730607547703 H
   0.2769330610534061    0.3623160557612498   -0.0472497170189648 H
   0.2869674708721409    0.5757828907658341    0.8509883707166543 H
   0.0078932212753149    0.6353392068099029    0.7498352286079090 H
   0.5009931119944346    0.3491036987566016   -0.1682115466314665 H
   0.7960111224152997    0.4769235956488432   -0.0772051127253106 H
   0.0526284758768035   -0.0451466181499331    0.7778793467599605 H
   0.1821043857298110    0.7438850295124834    0.8731562139409317 H
   0.0096330526970844   -0.0765679893733605    0.9430301685482178 H
   0.6552763445572422   -0.0930843511702902    0.9208920893792910 H
   0.4600813406612473   -0.0591177756344757    0.8774755453066799 H
   0.4088407319979748   -0.1833003082263092    0.8512810505942678 H
   0.5311362274791248   -0.1820969209787546    0.6787962238340454 H
   0.4693531267561177   -0.1626361789413079    0.9590226789552465 H
   0.4838241781807025   -0.2872457199113059    0.7630433825036949 H
   0.5303246397238754   -0.3166748736585625    0.8934326223144818 H
   0.6035353020491131   -0.3209522817691643    0.7908904909560454 H
   0.6536773294009158   -0.1530112782595583    0.7055165501909832 H
   0.6346120937059954   -0.2104501308023000    0.9573197497884061 H
   0.7059959330383750   -0.1985590827414062    0.8645848746679662 H
  -0.1302525387480470    0.0964282659820286    0.9321847137128756 H
  -0.1258943825530886   -0.0105040070514328    0.8509189212541699 H
  -0.1189507825403240    0.6975974678060280    0.8527394893064434 H
   0.4003974744984097    0.2897048557850979    0.1551160953092271 C
   0.3810699059638059    0.9935457684885568    0.2895008052168292 C
   0.7492308153496852    1.1649409255340528    0.1745782441685452 C
   0.7792375463498751    1.0827582924775341    0.2453592937960376 C
   0.7946229742554490    1.2635637473663539    0.1917726554773473 C
   0.2098037314261916    0.4118604535815069    0.0803714656442237 C
   0.3879363072117590    0.3655109280520794    0.0751684253017588 C
   0.9861173695838010    0.5188738069365169    0.1804757791358555 C
   0.8934166639161664    0.5432187777386122    0.2226294768600231 C
   0.7521708016429218    0.4884820898777957    0.0581972444080855 C
   0.8292187429416539    0.6233133910962093    0.1671967584416159 C
   0.7912991385482887    0.5895057534987511    0.0642655683596691 C
   0.7445738713427713    0.6453347185368518    0.2376539468001753 C
   0.2358897658986881    0.8444356147261377    0.2151027141962640 C
   0.1715488842485989    0.9049755881490658    0.1487430441242930 C
   0.3405941646911277    0.8369984911036976    0.1917067493547854 C
   0.3758697113897002    0.7464485446472618    0.2534416521596731 C
   0.3967870026367180    0.9349474746719998    0.1996232794100395 C
   0.7256251485984458    0.9869084615881676    0.2214495446657703 C
   0.1964655003948773    0.1188202044678706    0.4830510004177860 C
   0.1102008843417097    0.1860377686004486    0.4921158560751826 C
   0.0574898536497921    0.1958582288653370    0.3936374395404721 C
   0.1245426993155730    0.2895876665217937    0.5362524776868809 C
   0.2843198391604587    0.1163533704753181    0.5516639512133884 C
   0.6771428946900897    1.1482202149592367    0.4014257006905251 C
   0.7737785929529755    1.1119340244428952    0.3526275319433461 C
   0.2125828869594044    0.3488576013036629    0.5074819181572410 C
   0.4313284462662036    0.5217225314408618    0.4075592220966860 C
   0.6301352801503082    0.4042949344724591    0.5590790986695831 C
   0.6429445566819885    0.5427325155391894    0.4490706540264685 C
   0.4899184488198654    0.4501026061456840    0.4719333462095835 C
   0.5533905584444745    0.5575475089628115    0.6007201459737371 C
   0.0530044624535704    0.0358553330787964    0.7825629334697604 C
   0.0360028641106009   -0.0015756500534473    0.9520500946553947 C
   0.2841189794112733    0.3474652463690304    0.0311615607980290 C
  -0.0082527574243275    0.2326468683480948    0.9547855530757046 C
   0.0384003146400236    0.1731030036632522    0.8818359794155312 C
   0.1837019712793816    0.5417794006120789    0.7619541598114628 C
   0.0510659156927492    0.6480989202850387    0.8144614967897045 C
   0.1541076818282307    0.6517544928672326    0.7748802638494032 C
   0.4676560405763456    0.4388504592996665   -0.0765921149186867 C
   0.4703691482774420    0.3523513062159181   -0.0056395676389365 C
   0.0133078568627858    0.7385792856163875    0.8632787995724660 C
   0.1593957972178161    0.6947006957037284    0.6722367929691782 C
   0.1168907291553255    0.7991346401301241    0.6688288086315435 C
   0.5770266043392738   -0.1372376034188186    0.7275469118262606 C
   0.4663197871417294   -0.1410652977314907    0.8809225063834641 C
   0.5434831691859897   -0.2869893683978280    0.8161899380039882 C
   0.5581781685088656   -0.0245960159637578    0.7210980331669810 C
   0.6447001137780713   -0.1664045461894322    0.8926304101559869 C
  -0.1010628280087784    0.0678670452161184    0.8643765262805126 C
   0.5775812202801740    0.4874517032801938    0.5198872008333063 N
   0.0061898448258175    0.0657686249700783    0.8717629726833335 N
   0.5584901801833119   -0.1809008580601565    0.8333921446606203 N
  -0.0216195805907572    0.8075729995209192    0.3321356885024969 Cl
   0.3774487120514458   -0.1977050659850771    0.6104529920733575 Cl
   0.7396495908725289    0.9016144535909234    0.5073541240595896 Cl
   0.3076202848693416    0.1265305255603885    0.8669171010050749 Cl
   0.5167951358862799    0.2209945934111832    0.7502540513867698 Cl
   0.7990390295240161    0.5813178861582686    0.8198820982034219 Cl
   0.1966220423346338    0.9643736986876738    0.0894161951308593 O
   0.1929937003884950    0.3820507277016700    0.1663711602396312 O
   0.3931608051007127    1.0878933795089429    0.2910053073479996 O
   0.3975647087118557    0.2012416106483718    0.1380109761664766 O
   0.4324042253499190    0.3263909546624645    0.2353330591508193 O
   0.7627077182363090    1.3270363821034683    0.2580316946955142 O
  -0.0109404181251711    0.1784439043383392    1.0384402653102818 O
   0.8754150556475371    1.0520547054918445    0.2292583571873748 O
   0.8697438056474061    1.2809004340064127    0.1432239378607250 O
   1.0519178797315292    0.4917057467814244    0.2358836941748039 O
   0.3962780626316646    0.4580769692970841    0.1179918142713131 O
   0.4535724840629117    0.5116753099514798    0.3129888968962974 O
   0.6885189904491127    0.4542406322762433    0.1110915141058840 O
   0.9977422169183275    0.5210529412876577    0.0869089278015702 O
   0.6622992877449519    0.5933744640535795    0.2349666778028140 O
   0.0799582682268180    0.8766326323860594    0.1580067520181503 O
   0.3580582408195881    0.8016066011529464    0.0948453005603913 O
   0.3876232233322459    0.6706864183540194    0.2170168264224963 O
   0.3806310166897851    0.7645608777238150    0.3450738398961745 O
   0.6437687249766887    0.9827570319356178    0.1987062630380496 O
   0.8801835089814010    0.7048412291440161    0.1495509256266642 O
   0.7764962753956902    0.8992882467143358    0.2268878627791012 O
   0.7435245399840377    0.7165704095349711    0.2923659498783091 O
   0.0929033574002962    0.2606873293251971    0.3325864013406620 O
   0.0388320558802655    0.1367223293033720    0.5570895841697961 O
   0.2962306078461389    0.1609299689375328    0.6314458637792738 O
   0.2429777561937853    0.3462149834161541    0.4257160045284884 O
   0.6496036649503552    1.2332996201180553    0.3854027175601614 O
   0.3514949162038578    0.0603954972475827    0.5192004732095714 O
   0.6297357050620711    1.0904525000463476    0.4607779199978052 O
  -0.0145587528240196    0.1496212050286815    0.3707467549719680 O
   0.2520543294861555    0.4101237086993392    0.5728210212913217 O
   0.3647638113075174    0.9560474015299133    0.3697928878647822 O
   0.2672217423614749    0.5220340351513821    0.8066030775091823 O
   0.1432991399512477    0.4824755541871411    0.7114821172848090 O
   0.1758963183928890    0.4856525551153168    0.0461342979753101 O
   0.4942155608063525    0.4202713467387150   -0.1634422110955378 O
   0.4440776793141415    0.5257675385936735   -0.0570449259012244 O
   0.7768493882643649    0.4346292287921612   -0.0204138777805475 O
   0.2187566437341880    0.6915204720708117    0.8410145775022918 O
   0.0717208741000835    0.7961770760974856    0.8983684948267765 O
   0.0305217518089868    0.8142960010700996    0.6759636778998541 O
   0.1797898523922228    0.8748008177140363    0.6634053725458878 O
   0.4573308487434877   -0.0111185182508840    0.7012319435564773 O
  -0.0773013341211604    0.7465379014605312    0.8849661659032277 O
