Li1 Co1 H90 C51 N3 Cl6 O45
1.0
  14.5326335466999996    0.0000000000000000    0.0000000000000000
   0.0000000000000000   14.1559713973000001    0.0000000000000000
   0.0000000000000000    0.0000000000000000   14.2025512197000001
Li Co H C N Cl O
1 1 90 51 3 6 45
direct
   0.9989385768759370    0.5539798704238512    0.4579203771839928 Li
   0.2040771387972866    0.0950572138522867    0.2361824688825769 Co
   0.5014925168229351    0.2519641429255998    0.1632674000346946 H
   0.5703449582462043    0.0690441632699554   -0.6761437603675013 H
   0.4586208860205829    0.2571492339334835    0.3268753296281415 H
   0.6701757284461067    0.3404321091888591    1.1034977708625402 H
   0.3764161709452981   -0.0184786188286515    1.0622446191620687 H
   0.2935082798099301    0.0339791023095556    0.9728515248960923 H
  -0.0129977629995970    0.0022575067088717    0.2377554257164881 H
  -0.0911859314653202    0.0634486447585866    0.1549956467290599 H
  -0.1063793235845441    0.2598696406734509    0.2216787366436622 H
   0.0666705226060016    0.3874673836545164    0.2319543552802330 H
   0.1792702103874071    0.5546629037338681    0.1245468919025214 H
   0.1653264197214673    0.6523457091868193    0.2969124030090330 H
   0.3679916827335382    0.4774794332863087    0.1976063010149300 H
   0.7634733400347428    0.7305734739173426    0.2547601170753904 H
   0.2238271723392234    0.6754066486898664    0.1440863391262761 H
   0.5550394047630568   -0.0322028624391646    1.0589311299676256 H
   0.4691306810628368    0.6765785922841552    0.3119477298807153 H
   0.3673833965635475   -0.1710269632264002    0.2861657422409105 H
   0.5989739055504233    0.7931760304730181    0.2546129604154587 H
   0.6017249554459241   -0.1836802806832413    1.0789317619390131 H
   0.3831458527807151   -0.1769008095112167    1.0168450293260096 H
   0.1683059209839781    0.2077057884534018    0.5639066874401437 H
   0.3125777759965266    0.0747301029869113    0.4133076882242001 H
   0.1518863230333930    0.3363059352682802    0.4101913467081344 H
   0.3483641321534321    0.2157115972262010    0.3593159801051430 H
   0.4023392081421966    0.0001792318117063    0.4564950698792092 H
   0.4920876350745037    0.1443501927949463    0.5847529421320000 H
   0.3389928093603293    0.3319282773696622    0.5853873351970644 H
   0.0104260712907335    0.2067485952223823    0.3976654281426559 H
  -0.2969407927842442    0.1264658673117592    0.5411373979654862 H
  -0.0817134570127280    0.1242406579555148    0.3857957297066335 H
  -0.0867153033584997    0.1932306249871148    0.6439071030291397 H
  -0.2215174363445645    0.0155444790204910    0.6312107925416349 H
  -0.1473519386364945    0.0579802810675745    0.5471984921075440 H
  -0.0614858775409570    0.0800663669478860    0.7095298200736121 H
   0.2145425509685401    0.5783169498323127    0.3827561349653648 H
   0.0928206349568560    0.3743005020065674    0.6620256787708743 H
   0.1613581093794580    0.4357791512334224    0.5358747519208569 H
   0.2724474033337940    0.4401730566924193    0.4845780736881844 H
   0.2803468662653470    0.4255650870804263    0.6491202509245192 H
   0.6300811373227854    0.6662889416546137    0.5275981403331478 H
   0.9720948531457267    0.5407591599019513    0.6358944581008008 H
   0.7480191555417335    0.6259971111618798    0.3196118458776369 H
   0.7884763788048569    0.4871632618384169    0.6553641995382720 H
   1.2155104728014823    0.7360729198977751    0.5921283775998689 H
   1.0685942244051396    0.8044581951170116    0.5491008263841157 H
   0.0574182422420938   -0.0669097706555593    0.4382481369168739 H
   0.6610989152466193    0.9027199082104208    0.4101983876966479 H
   0.9900564978236299    0.7783759157991527    0.3491023221674909 H
   0.7781850575849696    0.9014829743746164    0.3829117408115127 H
   0.7633611786708192    0.7026389727162859    0.5017087072086274 H
   0.2851876956837681    0.1849592039229035    0.5895936217350166 H
   0.0503156066689675    0.0790123947702616    0.9745019326036517 H
   0.2049262622517758    0.1415238237046816    0.6704023428053597 H
   0.0991925013981609    0.2677553587825798    0.7457261338237031 H
   0.2496800226703538    0.2050991146360869    0.7926472812775249 H
   0.2827387245536813   -0.0237922774882294    0.8320233054403029 H
   0.3981926782096584    0.0823226585935509    0.9810521642177408 H
   0.3498077796473692    0.2439597469841378    0.7237019217535419 H
   0.3930470175997148    0.0195434981207130    0.7911764187770592 H
   0.5263104067697918    0.0034322759658350    0.8783861025050058 H
  -0.3111777168307451    0.2195248290055684    0.7202546537773428 H
  -0.2098402685790197    0.2842671186215819    0.6860495315788633 H
  -0.0406899220777694    0.1565874314229531    0.8517514511562188 H
  -0.1369078577675824    0.2262979424365751    0.8995907435121981 H
  -0.0601949896960447    0.2726840209027440    0.8039248325795637 H
  -0.2449681067894535    0.2925992914332970    0.8062469505913088 H
  -0.2549731756940511    0.1196016262594967    0.8756830670146815 H
  -0.2606569356082172    0.0480233522179667    0.7719319889720193 H
  -0.1632189870457872    0.0362933200400498    0.8493230142179200 H
   0.3000411631785855    0.3250195321302749    0.8010718240339021 H
   0.1496754367616961    0.3803671997689251    0.7725128705243813 H
   0.9784096067452792    0.7207592410328019    0.7640833990760446 H
   0.4965901569188571    0.5976860904094333    1.0142905586933195 H
   0.3431696159800616    0.5862810094390950   -0.0658463661939009 H
   0.5466472575580725    0.5004363177613638    0.7614704882386927 H
   0.6345324984468460    0.4942270653170726    0.8461165480488818 H
   0.7732375716548419    0.6053040769801442    0.8468720461163780 H
   0.6760542225074532    0.6512620675511118    0.9099395884293091 H
   0.2875362032608927   -0.1481066004414142    0.9448938718056226 H
   1.2234649842552066    0.8185172797544643    0.6842421098274534 H
   1.0830926289319533    0.7017333478290779    0.8102032820370326 H
   1.1097484995802547    0.9679164231013756    0.8065729483594829 H
   0.3704764354030362    0.6656559932155042    0.7863040547257319 H
   0.3848674953116163   -0.2097237071393245    0.8921350407752756 H
   0.3735350689161680   -0.0938263268780927    0.7718897430409385 H
   0.5156135155628089   -0.1184993069369968    0.8541679184140446 H
   0.6031190592699073    0.7428813541122143    0.7051672235906606 H
   0.6325713948445005   -0.0562344170709354    0.9661597694128822 H
   0.8817698617543301    0.8192314659954685    0.8300856254013936 H
   0.0493288619090506    0.2357469584204244    0.2351643419435279 C
   0.0472659185406886    0.0663287014396686    0.1108352708713731 C
   0.3858115774668507    0.1953957890115240    0.2083719724520389 C
   0.4085424884843525    0.2012533877359617    0.3176593797628492 C
   0.4538932501258760    0.1082820215850649    0.3601348470692606 C
   0.3656665707783363    0.0133623610200342    0.9914819805027567 C
  -0.0222555482157219    0.0618938238718901    0.1911461940538134 C
  -0.0226684121320052    0.1559573086465182    0.2487175407331230 C
   0.1198405139580137    0.5039214194626437    0.3078646606417491 C
   0.2760049140791014    0.5759833763124976    0.2391009586214138 C
   0.1928554975527077    0.5823040305077347    0.3083265494882333 C
   0.2406513769277661    0.6012718563434956    0.1376191911766459 C
   0.3152572628132049    0.5977984105007484    0.0674754554076688 C
   0.3556855856021885   -0.0380004158317670    0.3201166847540532 C
   0.3437765259369980    0.6566138726567967    0.2655715549378369 C
   0.5647183799844434   -0.0789040022935509    0.9944251137013909 C
   0.6831905753004093    0.8997225865283431    0.2633930730917665 C
   0.0503465714626888    0.0589579603529848    0.3889529089560774 C
   0.2162277238535029    0.1961248099815698    0.6194952917540577 C
   0.3761670763824738    0.0373543563743606    0.3927585632476125 C
   0.5082845548718414    0.1264001706545748    0.4481379797927912 C
  -0.0114653497636590    0.1365005018849184    0.3648452683847778 C
  -0.1837961246333447    0.0847484899996916    0.6050661939933859 C
  -0.1177083094473567    0.1305150419244553    0.6774778321625545 C
   0.2722189519667839    0.3633623617932061    0.6081642289393165 C
   0.2194377408026052    0.3940504712706566    0.5208862476227891 C
   1.0518567212390164    0.6517318339707634    0.6222912682927602 C
   0.6155909900742973    0.7180310637204793    0.3974204017423869 C
   0.7719274168271696    0.6993046907602626    0.3283032420986749 C
   0.7100067747695339    0.8669646791417510    0.3626174996191132 C
   0.8740878404853529    0.7002943791120400    0.3539845436027370 C
   0.7107843351452007    0.7650691638488113    0.3947821433463863 C
   0.2846805611732669    0.2659271550321162    0.7546977613875776 C
   0.3587531645001732   -0.0397000519305365    0.8233558485802107 C
  -0.2402545770785530    0.2452383593443925    0.7451480686667465 C
  -0.2128541751678875    0.0896566660654650    0.8200134913328624 C
  -0.0978392334762249    0.2123688382821539    0.8344925801119799 C
   0.1318108151041196    0.3305027305503285    0.7149520853278419 C
   0.5130366942399798    0.5686297304849951    0.8789578307723003 C
   0.5875967522307111    0.5436689566826834    0.8093984970499419 C
   0.6395522355623232    0.6255767938390336    0.7659443323401570 C
   0.6930071030165708    0.5849282234336322    0.6798027665697052 C
   0.7144512548283232    0.6568526411528002    0.8381665679183130 C
   1.2534801909689992    0.6730613486699517    0.7245602182533349 C
   1.1990716078681372    0.7461054352239285    0.6665826065367976 C
   1.0905675301362616    0.7415116141307040    0.6695869963354989 C
   1.0456568814294962    0.7518047968385887    0.7645290936489478 C
   1.0457119299516673    0.8470946192139914    0.8051696793487466 C
   0.3615544461721550   -0.1539083923280286    0.9444002985108276 C
   0.5064766375445676   -0.0637916518941425    0.9080568281008049 C
   0.7604401664631152    0.7488032366624989    0.8167147882142977 C
   0.2231645257535887    0.2953380649806492    0.6737439959538568 N
  -0.1660058184806992    0.1655801028848551    0.7677996328134586 N
   0.3978630751831589   -0.0569945203304017    0.9182782311258220 N
   0.7483666493379384    0.3373584946145672    0.0362500795480937 Cl
  -0.4118614638816887    1.3424622491130949    1.1865363729951022 Cl
   0.9191588180129419    0.4561236399242466   -0.4341731491132937 Cl
   1.1019467477755553    0.8116756440035986    0.3971479154869152 Cl
   1.1195953039836102    1.0862177358830201    0.8395423770738467 Cl
   0.5153285018392680    2.1351100784340939    0.7074604735495006 Cl
   0.1307139732998605    0.0539763170576719    0.1211728502068625 O
   0.1357653633155861    0.2251909890838021    0.2393319030446559 O
   0.3080748068829305    0.1617506235451088    0.1844980926993868 O
   0.2967602712571878   -0.0189879445257474    0.2581911907780085 O
   0.1312919827826570    0.0529470694284503    0.3575592534710301 O
   0.4467106565742962    0.2088996309334186    0.1463176283861974 O
   0.5075782616891904    0.0619355023963404    0.2957295169387686 O
   0.0054469324603575    0.0712093272943646    0.0270313132873961 O
  -0.1100083974086739    0.1926951619102788    0.2405584432437039 O
   0.0107384716540545    0.3167869639278393    0.2289210974286264 O
   0.1138684374089764    0.4572306639185865    0.2288612490262618 O
   0.3188945939156604    0.4886523860679290    0.2454336236904365 O
   0.4005480668520544    0.5974586245641282    0.0809786631788182 O
   0.4185571908803301    0.6262125679408178    0.3047863404636562 O
   0.3216016049934243    0.7382522122355573    0.2453336416535451 O
   0.5639660731183226   -0.1779434790381427    1.0212639537170689 O
   0.6244021941543092    0.8528215310397290    0.2142483814653882 O
   0.3996026084837657   -0.1194847567947621    0.3222754518322858 O
   0.7264655947921660    0.9678337724681437    0.2294069256360564 O
   0.1943411195448003    0.3152286109627995    0.4605670847662093 O
   0.4639702949732123    0.1677092397101632    0.5170748197206728 O
   0.5898145195676794    0.0947153086686606    0.4541319029044304 O
  -0.2424771611612112    0.1554705882508191    0.5709596456340952 O
   0.0845853760400593    0.4789315413347836    0.3850430480345427 O
   1.0833327781099247    0.6354016229586041    0.5416068910795649 O
   0.6923265656612305    0.6240954401818767    0.6018681770105639 O
   0.9043837946622184    0.6354652003687825    0.4047268355228236 O
   0.0115552541017682   -0.0109023107823908    0.4347059564155130 O
   1.0572452834530399    0.8164969309421281    0.6168964628937328 O
   0.5615429747936561    0.7274708963006361    0.3293657272653588 O
   0.5847796441086049    0.6734209142452940    0.4744119213000327 O
   0.9246891301715562    0.7701412283497111    0.3191098233966259 O
   0.7521877048831400    0.7683215015872713    0.4867125676626156 O
   1.2307313891817917    0.5940197930891450    0.7445474723465468 O
   0.2874949168692644    0.5887633540987276   -0.0228484575397894 O
   1.0005136527165577    0.5981600953230968    0.6735412154846685 O
   0.5416876609530672    0.5866165568817032    0.9635940331985705 O
   0.4279353947387042    0.5701587671997859    0.8609054403225924 O
   0.7412805283214634    0.5045658824771522    0.7020572189642571 O
   1.1235553570472940    0.8951421873328229    0.7985976206702656 O
   1.3339680114484200    0.7112063819456612    0.7512540139056352 O
   0.5747037002317120    0.6913539824096179    0.7359771811279405 O
   0.9679538280654058    0.8796250607552786    0.8343419029577914 O
   0.8437333972536808    0.7544503235176793    0.8552846191922823 O
   0.7287074458575840    0.8053348569618051    0.7591652685993797 O
