Li1 Co1 H90 C51 N3 Cl6 O45
1.0
  13.5988597573999996    0.0000000000000000    0.0000000000000000
   0.0000000000000000   13.2463995009000008    0.0000000000000000
   0.0000000000000000    0.0000000000000000   13.2899864029000003
Li Co H C N Cl O
1 1 90 51 3 6 45
direct
   0.8429678357747633    0.7669843606868202    0.4525095827176860 Li
   0.1350658372442228    0.3936142234156344    0.5623490479921927 Co
   0.2762217895993787    0.1967222302500351    0.1377556865747062 H
   0.0464731153916121    0.2447299926579855    0.2711960036854162 H
   0.4213096892614330    0.1586824595209578    0.1452786438576560 H
   0.6245392283039326    0.1602353343227938    1.1261291582837305 H
   0.5907363942280933    0.0266631889349255    1.2468824797205242 H
   0.7166682760587082    0.0456706180844762    1.2843467768917654 H
   0.7605873994745518    0.1554393140913578    1.1385731138293820 H
  -0.0852614588270215    0.2128685045629507    0.3019168778550775 H
  -0.0826730065135218    0.3299229539546252    0.1529069436110612 H
  -0.1865434798619479    0.3195231468228351    0.2381681294127820 H
   0.8362194758653920    0.0012041953437171    1.1664384546034847 H
   0.0579586371769961    0.3955022836389653    0.1907911057716888 H
   0.3351429060969573    0.4199700644859780    0.0583440176681296 H
   0.0202378275539050    0.5072817902059685    0.2497693451947904 H
   0.5521694842550270    0.5725112889796763    1.0577867256833624 H
   0.6137750905297824    0.5530294667696134    0.3264308231762638 H
   0.5275198440660699    0.3749276361672895    0.3130493196435594 H
   0.8205365433398216   -0.4088151461106142    1.0196956408129119 H
  -0.1465989543877138    0.4428232933939112    0.1971417518477137 H
   0.0092677901639083    0.9628307867155488    0.2031635789266741 H
   0.2907391832281034    0.8624955975262375    0.2430695640738277 H
   0.0719436332276033    0.6961839896172114    0.1884382064494460 H
   0.2675328258106535    0.7751216662235191    0.3369620604369324 H
   0.3955362048478390    0.6545266320867739    0.1254185783919453 H
   0.6827742578672797   -0.0851906019687333    1.2580337326644446 H
   0.8703208643842087   -0.1670573764025197    1.0752216569899469 H
  -0.0118530982873242    0.7981218784683105    0.2389469112479343 H
   0.7418527404998269   -0.2585177011434189    1.1682097129995703 H
  -0.0081307273751266    0.2485823602388163    0.4008808617243917 H
   0.2320555866445191    0.0951769009015877    0.4178084937911114 H
   0.1481095779081029    0.3407523117729707    0.3390169910570300 H
   0.2840121486360876    0.1393330506508278   -0.3582734138434489 H
   0.6169363849887982    0.0896199191727036    0.5573880195907179 H
   0.4395792357110759    0.2028265305162702    0.5568914050871425 H
   0.4088726171085295    0.2544699978564724    0.4380085144579061 H
   0.4744841474807340    0.1112680658997080    0.3394014910741923 H
   0.7134768320130864    0.1742753759195585    0.4605126759320471 H
   0.8784516931428356    0.1511498466027666    0.6427953304478847 H
   0.9301633816627010    0.0609177801518952    0.5676688427501898 H
   0.1818910866665866    0.4627595787205057    0.3042697771773203 H
   0.0893517103916597    0.5324925654039618    0.4223687693371251 H
   0.3170774208737338    0.6189214851962581    0.4424123564352936 H
   0.5200387021310161    0.6480765774893570    0.3311516707451003 H
   0.4190764137852686    0.5181380685471305    0.5747824692907986 H
   0.5302136728615366    0.5977512041715203    0.5957832432222977 H
   0.6033153900447769    0.3989530326516985    0.4441132611100393 H
  -0.1176752058516673    0.4907028700258034    0.3640546389456231 H
  -0.1678132330218482    0.3684889054016799    0.3900734767018864 H
  -0.0124053504712555    0.6648298091871420    0.5015336358843492 H
   0.6637329555360975    0.4814751549782771    0.5778215995634366 H
  -0.0623720397468212    0.4000431401936776    0.4585451795624275 H
   0.2844173296658429   -0.0044999961986614    0.3620614089153637 H
   0.2109935266549571    0.8646743027659548    0.6535823994225164 H
   0.0624862226583080    0.9239522975106136    0.3383021671503685 H
   0.4029684456241291   -0.1422581847446144    0.5576941147120126 H
   0.6164834058339356    0.8251805520328250    0.4552180881223375 H
   0.8691545901315921   -0.0471025162239451    0.4253163269050887 H
   1.0490777633718020    0.2423527429005808    0.9415969905559398 H
   0.3557733122490124    0.2132180335047349   -0.1337284136056142 H
   0.4656086239329364    0.2742112113071337   -0.0909804390948178 H
   0.6223294842124365   -0.0328390176795170    0.9890515161574395 H
   0.5398688205976219    0.0234834569634462    1.0709357233348475 H
   0.6618497094068723    0.0188316268570227    0.6630376385921051 H
   0.6148538574456642    0.3219864577019749    0.6845959751708002 H
   0.7853210908281207    0.0920726611421567    0.7929820905761312 H
   0.7116097637108205    0.1317755253026607    1.0254834571182179 H
   0.8118409613491585    0.0115964532543023    1.0322629975382396 H
   0.1110969158923698    0.4756350774542115   -0.0831707998029859 H
   0.3162052889294693    0.4422213184950372   -0.2368127929621691 H
   0.3209086244400216    0.5296749695736787   -0.0229096395789812 H
   0.7580092421418444    0.4974684065773706    0.9106654314453678 H
   0.8381997889563735    0.4104255841166966    0.8482605519475961 H
   0.9560655533361990    0.5898061772989086    0.7589722739896092 H
   0.9421173250741358    0.4855905374258846    0.6904560263129899 H
   0.1566904443985085    0.6835481031645472    0.8593335504848924 H
   0.2776410262371782    0.9655288783741592    0.8128933223846346 H
   0.1490942192853120    0.9675475401243339    0.8316337478786482 H
   0.3255391597292567    0.7004289167006940    0.8063161899971307 H
   0.2316121671146781    0.9288192804213751    0.9318505547001639 H
   0.1910492074371336    0.7649943859772238    0.9587324482679438 H
   0.1781407722350955    0.7315777583139916    0.6838059066423848 H
   0.0960640378682577    0.8387706600457813    0.7074718450764053 H
   0.0507205303242184    0.8772346970065705    0.9145224707564701 H
   0.0188524172815660    0.7494777167127921    0.9600364375629380 H
   0.3542687743417908    0.7935742276145138    0.8866601397672376 H
   0.3647233273364002    0.8173731474627777    0.7573748306697751 H
   0.5799656382520053   -0.1045347263840199    1.0912066244353344 H
   0.7795073681035387    0.6839308486796326    0.7161008982991366 H
  -0.0545522664792769    0.8201610748537257    0.7874937478654056 H
   0.7424689686358247   -0.1722119846411856    1.0299251471403474 H
   0.3182841396937487    0.1240541818543485    0.2801410843195137 C
   0.3675662127466246    0.2275321118312354    0.0197751294495420 C
   0.6938340086613238    0.1240179455925653    1.1059071661873838 C
  -0.0172903188572153    0.2560130586707420    0.3206407495323051 C
   0.0352670287991627    0.4275555219526030    0.2620560394809763 C
   0.3567248626165320    0.4546778354518743   -0.0200909760480820 C
   0.4653316154140458    0.4671111762996126   -0.0028072864312230 C
  -0.1249066945025071    0.3633108945772789    0.2107820968792513 C
   0.2708007468564469    0.7071975484329551    0.1878701095552044 C
   0.1407288120357743    0.8364636180455816    0.2574932056178229 C
   0.1330708170378238    0.9044805912569651    0.1586608998365780 C
   0.2456589330500393    0.7924576977983178    0.2578701811728097 C
   0.0592403622856410    0.7544451042655780    0.2504518139140978 C
   0.6666376108310759   -0.0022910940741247    1.2420367260795762 C
   0.7917936923234117   -0.0320244567115145    1.1051870751571995 C
   0.7911201064372850   -0.1487693880337904    1.0921674982551310 C
   0.3003488124419710    0.0736495417138608    0.3792976944205178 C
   0.2860748215734077    0.2378511422961337    0.5386000394957560 C
   0.3810592557865127    0.2017681297033514    0.4994699768881281 C
   0.3906335879233780    0.0923776496788324    0.4558227539027515 C
   0.6708607590232432    0.0953845044847208    0.6234634822268860 C
   0.8646409764099271    0.0783821484871762    0.6183724311190205 C
   0.7646745068491061    0.0788871913857801    0.5627719227664494 C
   0.1196939602097348    0.4167850480596553    0.3369778618075008 C
   0.5731699949665664    0.6018579805069542    0.3748311736732093 C
   0.4351748958569637    0.4818777549451314    0.3726754152599615 C
   0.5150038682389507    0.5303639869930445    0.4415152148101225 C
   0.4668386535308884    0.5787036131651598    0.5398195290805207 C
   0.4066525780362409    0.6739190715177715    0.5415569273968169 C
  -0.1011605859492309    0.4103719846461422    0.3867649706833697 C
   0.9115868241787153    0.6278288112958509    0.6157862734693408 C
   0.0445053033487356    0.7038758911028247    0.3591833021332790 C
   0.3770081808447315    0.0081139975125088    0.5372638455026512 C
   0.6347606735191729    0.6852051572190100    0.4111052514175481 C
   0.7406842601798975   -0.0251833524556869    0.5064572677088123 C
   0.3866185454143700    0.2720732718619225   -0.0821986392899261 C
   0.8693273987377491    0.0070586163880719    0.7068683832099394 C
   0.6678163861317975    0.1884580977970948    0.6872934948606756 C
   0.2146658933747348    0.3763317913113901   -0.0946004578473954 C
   0.3355789720690895    0.3747849558865179   -0.1034349288875148 C
   0.8241949382999525    0.4940772964121556    0.8579242187194428 C
   0.8058007490471453    0.5460753506723492    0.7575591799930720 C
   0.9077953298240549    0.5582281624601156    0.7053333929261608 C
   0.9093101627120689    0.5289508482757103    0.9175390276425819 C
   0.7323254711322978    0.4853653441573441    0.6998021607810354 C
   0.1577147949873452    0.7627356589927351    0.8850664586784911 C
   0.2180580895458070    0.9316819451022510    0.8512394865228309 C
   0.1747875499198800    0.8153325929711089    0.7065553655834433 C
   0.3199203062839581    0.7805359676716317    0.8114260522604345 C
   0.0515573651914805    0.7899838180094911    0.8953132712689301 C
   0.6024682601967223   -0.0307735507578723    1.0668439208038734 C
   0.6892475947183416    0.0119142754670261    1.1283616662111673 N
  -0.0506953254610082    0.3656156718111171    0.2979748121213934 N
   0.2164476604075785    0.8227346043624564    0.8116058869064263 N
   0.6369880661491703    1.2967502038144725    0.3588875907697864 Cl
   1.7035458701670749    1.5937214675705387    1.1121660138248690 Cl
   0.0087890735570650    1.2986677060005021    0.6131376627836054 Cl
   0.9359381305314262    1.0081759388045515    0.3252291665668548 Cl
   0.9741155960882342    0.1987023909720651   -0.0233219801061923 Cl
   0.2366875926452960    0.5083589961289087    0.6339390384674567 Cl
   0.2477193999200467    0.1654918570477251    0.2293893393927605 O
   0.2805831846764715    0.2308756619028599    0.0583447701143472 O
   0.4055399847548986    0.1325848018158197    0.2460304399398416 O
   0.4397216005883185    0.1841671204642627    0.0641235570650427 O
   0.4833084167313011    0.5632410718167667    0.0392567144678309 O
   0.4607112280344487    0.4118591812234960    0.3073299759440494 O
   0.8885304793385250    0.5936285744715561    0.9937407609851393 O
   0.2133547540352547    0.6533761307751560    0.1378693059535546 O
   0.0565621965680939    0.9630300861553566    0.1436157377168960 O
   0.1990182579261666    0.9028273118131047    0.0980904842171650 O
   0.3664462659075735    0.7024226660208928    0.1767813096473398 O
   0.7645318478295554   -0.1897797773069730    1.1863444192884653 O
   0.2484621092486361    0.2037112992414776    0.6235108863385909 O
   0.2360441563457755    0.3024513379902058    0.4924572759586778 O
   0.6090541064807290    0.2560742073625012    0.6485628307053172 O
   0.4848986971214075    0.0805231076208693    0.4111896006385342 O
   0.7788506954001422    0.1501654281576553    0.4845587501951680 O
   0.3308866668951004    0.6835330047221375    0.4798738996533786 O
   0.0990584065672835    0.4559195313556467    0.4317025636872031 O
   0.1035065736253403    0.6341271265470504    0.3789282433277064 O
   0.3510273261037491    0.5226826544171180    0.3710523887687310 O
   0.5743136202614399    0.4559763014991071    0.4913395772982218 O
   0.7265301323019878    0.6910278715343044    0.4150501764468588 O
   0.9779747431738155    0.6033466869285490    0.5481546015660597 O
   0.7223437518983646    0.5217819643843896    0.6079796439623790 O
   0.1288770830764917    0.8950712419472504    0.3437288092712560 O
   0.3527252625787123    0.0289430537387878    0.6269360215208261 O
   0.4248107180865955    0.7400630829482339    0.6035575175419053 O
   0.5797692982611802    0.7648441564752475    0.4408579530391026 O
   0.3991085631827769   -0.0843896295988996    0.5034951879288503 O
   0.8192614364331146   -0.0775794771500119    0.4754799598682139 O
  -0.0171028031356408    0.7404412989305965    0.4184847924514351 O
   0.8591633112726376    0.7048829572115506    0.6077192975711107 O
   0.6571566688771123   -0.0531313242781317    0.4898073861143725 O
   0.1563470332535073    0.3065641537026036   -0.0925899215541326 O
   0.7199413445948977    0.1927392611423606    0.7638180276305572 O
   0.8222043302281787    0.0299969250189837    0.7933974408882125 O
   0.1848553057790063    0.4715356238633463   -0.0922490634175877 O
   0.3683964294119488    0.4027027308241434   -0.2005493999541194 O
   0.6845435238520183    0.4158965047238454    0.7305568950304859 O
   0.5313242806822978    0.4057390275927307   -0.0126041361835741 O
   0.9913074786556516    0.4917243551470306    0.9062779175509009 O
   0.7636170652505798    0.6432926360118488    0.7768142786998818 O
   0.9218818049710437   -0.0702303103070984    0.7007208976126500 O
  -0.0067386989008497    0.7675671605638339    0.8088895560611123 O
