Li1 Co1 H90 C51 N3 Cl6 O45
1.0
  14.3028975945999992    0.0000000000000000    0.0000000000000000
   0.0000000000000000   13.9586296230000002    0.0000000000000000
   0.0000000000000000    0.0000000000000000   14.4267269542999994
Li Co H C N Cl O
1 1 90 51 3 6 45
direct
   0.6324000598462624    0.6585158113482814    0.2904763838932262 Li
   0.7167375160869769    0.7271364443093943    0.6657077178713400 Co
   0.3304668346772280    0.0778463460130451    0.0534953963948122 H
   0.0996520659798418    0.2071119006364655    0.3094217760716325 H
   0.5093596557351108    0.0566644672766958    0.0731290943844712 H
   0.6769735454482775    0.3166727988982905    0.2734662886181605 H
   0.7154461693596554    1.0090838923250081    0.2163341336525235 H
   0.1846439350720848    0.4222945568945554    0.2132176956591782 H
   0.3173331323097495    0.2807788742415004    0.0772443729357371 H
   0.3360922682278658    0.5585532765088397    0.2297023772334084 H
   0.5964618874164976    0.3917238625266158    0.1335599878755376 H
   0.3641844780295845    0.6498545026621630    0.0935010055553831 H
   0.6888655413795226    0.4236954107411093    0.0501959647114661 H
   0.9899996277779405    0.4470663295784763    0.1769759339861217 H
   0.8291105502480279    0.3815136911953868    0.2155716599441873 H
   0.8410577797425967    0.4945701331687236    0.2665118352402170 H
   0.7354477108730344    0.5772764611665491    0.1072387023058528 H
   0.1951159390145970    0.7387600781747600    0.0464390488031183 H
   0.0898344748888579    0.7059574311838591    0.2150358488746019 H
   0.3091417851211747    0.8383056666407259    0.2441893776917976 H
   0.2716312040342657    0.7558312381980450    0.3236141844154373 H
   0.3944552673669466    0.7695424695416034    0.1109671987396172 H
   0.6626212088925363    0.9138374364831444    0.0423861544643527 H
   0.6781509292538049    0.8863419007202639    0.2011227831712149 H
   0.9038003110419055    0.9590574915349626    0.2076308428508233 H
   0.9488408348755668    0.8082962737910308    0.2898303607148903 H
   0.2885103013222968    0.2646132472355234    0.3771987571635606 H
   0.2224069125686111    0.1563590675050036    0.3971506146369709 H
   0.0449191005214610    0.3059912345881147    0.5951359240594012 H
   0.5927703277412096    0.1709894435172377    0.6191808790307439 H
   0.3215728326640955    0.0825523953727732    0.4894140922931601 H
   0.4926737570616767    0.2993709572044571    0.6237113591740947 H
   0.5267591580635032    0.3032903963956692    0.5090321249139024 H
   0.7292223988751623    0.1722861324106930    0.5375204993942623 H
   0.8949531526837434    1.0529707219454891    0.3428617934455115 H
   0.0078168283077277    0.2638158910264540    0.3682701900389428 H
   0.0121809789693088    0.0915296376511644    0.6986791604935505 H
   0.1977398828519751    0.3645399619397868    0.5237781584857509 H
   0.4319336871385028    0.4403114401268185    0.5767962825843721 H
   0.5110872916799650    0.4651612577212659    0.4744772323468525 H
   0.5143395207959424    0.5473007392439214    0.5733846979501089 H
   0.7221573968829680    0.4119457616401862    0.5729833595163574 H
   0.6613228705749207    0.4370083221814847    0.4697071968275007 H
   0.6717732005875213    0.5282684268196233    0.5584698111097598 H
   0.1582485842347457    0.8644171123803162    0.6388679501799864 H
   0.2315610017406843    0.9388714125565706    0.3246317402371079 H
   0.0934113724833226    0.0350885670533849    0.5856777842864480 H
   0.2983579562515454    0.7418986384190845    0.5783800097923781 H
   0.2625910777839864    0.8602111121076774    0.5339182963329151 H
   0.4912685872443672    0.7258189797375355    0.6954968724981215 H
   0.4204052539025511    0.8676308949085152    0.5943672119298149 H
   0.6972561488914794    0.9104452696817573    0.3899182049344430 H
   0.8080267105571214    0.8832370114030069    0.4359279479692038 H
   0.0928485494646471    0.0241741718645499    0.7772971314021870 H
   0.0351469547673888    0.0082420921399356    0.9094428361097799 H
   0.1432355423962115    0.2439951774268809   -0.0110653319637701 H
   0.3156586464343111    0.1282789471360128   -0.1947577251444786 H
   0.2976322291790171    0.3102989640446598   -0.1443110782851174 H
   0.4063318817995448    0.3193163248744508   -0.0734654870960941 H
   0.4116895374419183    0.0992238026874682   -0.0385109196742927 H
   0.6524708181035529    0.2593698958481205    0.6869717232810053 H
  -0.0916825906447856    0.1153392815041955    0.8199311953827680 H
  -0.1693200059066583    0.0527672365692943    0.8989324826193228 H
  -0.1898536074414187    0.0488241560888645    0.7774711140392709 H
   0.7556275379389131    0.3012156941661407   -0.0031328327654062 H
   0.1391489578693065    0.5011267939923045    0.7974000973014312 H
   0.0777271379765542    0.6116473136755568    0.7795998020013626 H
   0.1514898138974333    0.4929301440997192    0.9721715480946052 H
   0.5996975954046100    0.5228749174255528    0.6928212829397778 H
   0.5045781980236455    0.4450656317482263    0.7152941557561145 H
   0.6198921048101063    0.4022672327552738    0.7402769533887108 H
  -0.1426554788429961    0.3326843993230008    0.7391644349324565 H
  -0.0586046778043398    0.5487521711213471    0.7211076712032203 H
  -0.1021979424471213    0.5491060740569088    0.9414778223865702 H
  -0.1002221190300069    0.3548233920713150    0.8884380717609489 H
  -0.1259239041101706    0.4797974795795611    0.7883439891201462 H
   0.0400893099462924   -0.1120519514267221    0.8839928500413485 H
  -0.0090203194385388   -0.1202203750527868    0.7143639378319443 H
   0.2634678232068673    0.7957083618866646    0.7930831097964145 H
   0.2828541047743649    0.9203832079856311    0.8002136252851921 H
   0.4467436232789933    0.9800545383737918    0.7491216484054117 H
   0.3505886315436656    0.8392842727337977    0.8748618808050632 H
   0.4965433226258527    0.9104452696817573    0.8329161226357348 H
   0.4523029863013517    0.7203628567471735    0.8091373403043931 H
   0.3705251512673093    0.6947220875838265    0.7194558758877972 H
   0.5293621271299989    0.9024294398315522    0.7106063287656799 H
   0.3350351397753970    0.9403672614016173    0.6442766614037573 H
  -0.0470245068002118   -0.0622877540261819    0.9692200816854272 H
  -0.1201970925002682   -0.1976470300461385    0.8259408745202913 H
  -0.0881958845651148   -0.0246372099402469    0.6822832031326539 H
  -0.1930487642058252   -0.1228703486532791    0.7631033367425489 H
  -0.2010261687314004   -0.1183018486126358    0.8870704711913604 H
   0.3720856742209539    0.1340366756645764    0.0157009609884164 C
   0.4330768121515892    0.1711577981525758    0.0902154370303705 C
   0.7122300378243667    0.2973686116479889    0.1274830724200975 C
   0.1963674336772420    0.6267139789342629    0.1784329519269607 C
   0.0892807409375647    0.3544766531627888    0.2906080838973933 C
   0.6627225869518009    0.4559453530462086    0.2859271884861253 C
   0.4205765478647567    0.6658746999193160    0.2184579695091984 C
   0.6706132957577290    0.3991529585626000    0.1182758558129787 C
   0.8716585721418405    0.4884337141710548    0.1205258464104874 C
   0.7115546502019560    0.4697473669403628    0.1905784649428409 C
   0.8180834140361636    0.4554901507683625    0.2044742016983111 C
   0.2520792217767977    0.7853398655579473    0.2518723400401606 C
   0.2548485906922932    0.7247472412930001    0.1677361389569194 C
   0.1619778984976220    0.8388451178765115    0.2686141832014752 C
   0.3570628441560079    0.7057288987214214    0.1444245450614129 C
   0.7399160362299977    0.9355114838768440    0.2035370521949742 C
   0.7894123005580931    0.9342978976970024    0.1092946086866941 C
   0.8058712032694484    0.8981718585642567    0.2845256231786199 C
   0.8120133153428206    0.7897851443335772    0.2941099176924068 C
   0.0849990910414541    0.2699690738473862    0.3571228244230665 C
   0.2419651872573437    0.2265930393545481    0.4263720729300003 C
   0.1467166552036470    0.2711239150055353    0.4466145715178700 C
   0.0881613873314783    0.1988460462427158    0.5114124777207990 C
   0.2992333033563675    0.2165712819343570    0.5141947928035723 C
   0.5544131349855872    0.3094091918868302    0.5823062641797683 C
   0.6298530235021194    0.2377911300139953    0.6173966905532370 C
   0.7933926129125277    1.0316075933251374    0.4182843063583024 C
   0.4977349692755802    0.4744031176662735    0.5520552584331100 C
   0.6624611014748012    0.4520179617849869    0.5432958218401596 C
   0.2771370813908743    0.8168408088364679    0.5931181413639766 C
   0.3622638881757935    0.8701153794844837    0.6376563101416484 C
   0.7742146807357944    0.9263393800630826    0.3845808889760891 C
   0.2101324766482783    0.1543560055458318   -0.0743735239669310 C
   0.3536152909819841    0.2674258442497253   -0.1070469086849736 C
   0.2983250957771631    0.2036710184512358   -0.0288025498934219 C
   0.4091753615721577    0.2190743929806182   -0.1834107300486015 C
  -0.1357533809046545    0.0467064696971221    0.8326700515753173 C
   0.0249881740700525    0.4160477402402670    0.9113815988027042 C
   0.1022627257956611    0.5603958642624127    0.8294101298932213 C
   0.1535061885382535    0.6128143336796666    0.9103813719289503 C
   0.0047097655810269    0.5065003157509455    0.8524604032541435 C
   0.5780146463414014    0.4482910200002231    0.6932108376889460 C
  -0.0297412955931813    0.4039368092559354    0.7054291322860765 C
  -0.0570070994221366    0.4898019716945964    0.7670245310771474 C
  -0.0088238557512744   -0.0556201940640889    0.9055632312501817 C
   0.3160795401700163    0.8516966659757902    0.8061747833685483 C
   0.4749455311324264    0.9090461352016919    0.7603861577092051 C
   0.4308436982116516    0.7420906343436403    0.7376672138324508 C
  -0.0340327337157036   -0.0447932000050891    0.7268303829632423 C
  -0.1541950986234183   -0.1267532513066093    0.8289242261936361 C
   0.0454078126830190    0.0241777538780678    0.7148900446906964 C
   0.5766959624960302    0.4181480180463128    0.5930044634656430 N
   0.3936197723268009    0.8423325662374730    0.7370031685482816 N
  -0.0807896929665681   -0.0442229434530502    0.8260490071552917 N
   0.5333281067243306   -0.0604680911591231    1.0139925378389332 Cl
   0.8597826568682717    1.6962659624183942    0.6451278593254273 Cl
   0.3384057854561856    0.9819358118733573    0.3706061322181185 Cl
   0.6341982968699064    0.8183280608490718    0.5753511869596998 Cl
   0.7765925205948200    0.3195620510017740    0.8412499602678504 Cl
   0.6505516265678207    0.6762474946642547    0.7882670485913960 Cl
   0.5031814181146889    0.1160614154293905    0.1118780082421207 O
   0.7553793364834724    0.2598541840757315    0.0507775242035517 O
   0.7121041891990727    0.2416124220348188    0.1961459093295290 O
   0.2388140775117901    0.5506291462046912    0.1783573977140437 O
   0.1756289785468643    0.3708543353690215    0.2630093082872869 O
   0.1086033990333860    0.6367615268517824    0.1946570061245233 O
   0.0150055814481277    0.3910160566554922    0.2633011277702047 O
   0.4194802665066409    0.2520124400824931    0.1294939235363553 O
   0.4050440308673705    0.5756967932051851    0.2489846441593161 O
   0.6487373088865003    0.3671075492293689    0.3149864478266540 O
   0.6356022082009629    0.5250515637597988    0.3322772720579706 O
   0.4950929172193404    0.7044823580172159    0.2428030618584590 O
   0.6920984527315173    0.5651327189383940    0.1610672666406437 O
   0.9600882061816955    0.4724982315335984    0.1170253989313072 O
   0.8311828576112009    0.5301173905572579    0.0531959521748110 O
   0.2107554273434832    0.7821396946811160    0.0985007536083191 O
   0.0811376357220192    0.8036203133448525    0.2570654791518473 O
   0.7364712796920916    0.9167675235407311    0.0356313305664100 O
   0.7407298573402317    0.7432984893018535    0.2932795145082370 O
   0.8744873695748359    0.9516312611097927    0.0963145335391440 O
   0.8948797409856554    0.9399051816578170    0.2760053260669204 O
   0.9014832980184387    0.7547838574454309    0.2896931154473898 O
   0.0976196106813452    0.1128497821093021    0.4907541051776652 O
   0.0380631470790605    0.2315483968551173    0.5796825921493831 O
   0.3154887507901644    0.2861296860344383    0.5644315237194494 O
   0.3290293637127598    0.1273820109511477    0.5396278380925204 O
   0.7359916565979160    1.0644338816052559    0.4753966370075227 O
   0.8584102076935387    1.0899177585765218    0.3843063984410880 O
   0.7019656841135894    0.2370518024239148    0.5509920928205225 O
   0.1411485526934208    0.3654963595490480    0.4888673293284913 O
   0.1653625273589988    0.9286003469955384    0.2969220593603343 O
   0.1064849471742718   -0.0061418413422717    0.6401239523249913 O
   0.1274820911455315    0.1805383751530750   -0.0386668802055432 O
   0.2128137515260680    0.0933643449749981   -0.1360715101296689 O
   0.3804427220994990    0.1348426287060887   -0.2208897786029127 O
   0.4821372207407499    0.2592251825020001   -0.2073246781736937 O
   0.0460838994644591    0.4010052177526711    0.6605145787596532 O
   0.1000338068099000    0.3972516257873346    0.9502989500341041 O
   0.1693386447592569    0.5608579440062130    0.9856146527304903 O
   0.2635307475195143    0.2726211966559893    0.0338436762993197 O
  -0.0897053689096124    0.3324515684443417    0.6937847724439483 O
  -0.0374767910945804    0.3467602796426745    0.9167293121298081 O
  -0.0443502235127161    0.5755714227320609    0.9117968003947891 O
   0.1783074567885364    0.6957293497850410    0.9088432545118610 O
   0.2016328003277334    0.8140547187222980    0.6522396595504547 O
