Li1 Co1 H90 C51 N3 Cl6 O45
1.0
  14.1797102509999995    0.0000000000000000    0.0000000000000000
   0.0000000000000000   13.8384073748999992    0.0000000000000000
   0.0000000000000000    0.0000000000000000   14.3024730989000002
Li Co H C N Cl O
1 1 90 51 3 6 45
direct
   0.9687024189532575    0.7677015786346419    0.3361241455346444 Li
   0.6313175277730858    0.9498323637545745    0.7703889021995383 Co
   0.1758096305264200    0.0955830502503586    0.9927805108399091 H
   0.3605602321697258    1.0233061365995761    0.0985414578062304 H
   0.4129110903226735    0.1519088960564142    0.2284840199875176 H
   0.6406907799515374   -0.7709819868326502   -0.7091531220135676 H
   0.0193170110920061    0.2219263463128244    0.1989814299751334 H
   0.8069445297299398    1.1819334945411804    0.1387624738516473 H
   0.3290031698546871    0.2971857292595217    0.2866396965791394 H
   0.3191306126922354    0.3920441883608883    0.1884035390779546 H
   0.4450330442933393    0.4694964031254319    1.0860112402934436 H
   0.5748904932401641    0.4131364999320462    0.1870750974952564 H
   0.4262696143437579    0.5125723643867839    0.2893000756434375 H
   0.5193791685327718    0.4626091727225411    0.3578043121642777 H
   0.7453988433546872    0.3585258804057900    0.1563146830579913 H
   0.9934370569530194    0.5568001417183082    0.1683552580556988 H
   0.8512507947296560    0.6610650300765630    0.0998943706812414 H
   0.9260865975222529    0.4458534873522312   -0.0080890521380458 H
   0.8064247729881205    0.4225202387165780   -0.0062005675512734 H
   0.9579299844467605    0.4375828101782384    0.2109262173429307 H
   0.1888987555307134    0.6848524494726032    0.1299255406075833 H
   0.2207146383671194    0.8189184550279142    0.3279773027338031 H
   0.2321810221734128    0.7299992631972217    0.0267301009242523 H
   0.1211780487601164    0.8950276467482230    0.1956113834337624 H
   0.3746811130943468    0.8442002660428560    0.2336810232949887 H
   0.6196663729133911    0.9766439750873186    0.1802014610744642 H
   0.3823223129554201    0.7536920185206912    0.1567670523758890 H
   0.5888498052780134    0.8437825879211320    0.3146320582659299 H
   0.7054939376842702    0.7978228193748186    0.1099289988890748 H
   0.7253018177486876    0.7387379855605585    0.2170531297582904 H
   0.7119750292138745    0.9635449243736660    0.0923432290532731 H
   0.9417046881658457    0.8533971336123742    0.1346512967430868 H
   0.1579686453777877    0.0284402082434608    0.3459748894602411 H
   0.0560039384545249    0.0874831297202470    0.5632056423877858 H
   0.1385507591779916    0.2775469086469031    0.5204853382994675 H
   0.0862450359388518    0.2945972811072459    0.4097337928117276 H
   0.2821975590028578    0.1897535689159444    0.4387986962816017 H
   0.0460361748332596    0.0448250416897763    0.3893296292812649 H
   0.5395226337336814    0.1244209063120200    0.4837660243480648 H
   0.4789194913006830    0.1076118911054070    0.5943389294019209 H
   0.5705994323564828    0.0179028685012816    0.5557765076314917 H
   0.5379721083977741    0.2746860303010460    0.6057453483388352 H
   0.6049848317313125    0.2668260217716479    0.4990395367322134 H
   0.7213186616051398    0.0431846795162235    0.5725318616421510 H
   0.7752753353634094    0.1498732571828908    0.5937690978809215 H
   0.7111421490075129    0.1352776469708118    0.4856108101985643 H
   0.6590917201245990    0.3104697723592667    0.6016593417023679 H
   0.1616485513191887    0.6621352399351674    0.5535847188559958 H
   0.0586577303398243    0.6193384076151274    0.4856243742863035 H
   0.2964905167863716    0.5298969736069784    0.3708964535516579 H
   0.3802432859881433    0.3500639239950838   -0.4119737481661945 H
   0.8685572132428759    0.5293545701499438    0.4031796815505633 H
  -0.0187655724334166    0.3733736872692215    0.4992687977821959 H
   0.0922909986900268    0.8023493518220145    0.6418013504326032 H
   0.7555732402532293    0.9109919115667818    0.3640780523335147 H
   0.0638313198350558    0.2393792217382196    0.7899058065887148 H
   0.1181652932634385    0.1602241592859614    0.7135064319879656 H
   0.0711840793875754   -0.0023277832215308    0.7817435818327054 H
   0.0777949337943774    0.0022724571294988    0.9063849629192468 H
   0.2400711692934578    0.0094669266448695    0.8713413731474506 H
   0.2339300000834693    0.0447787935932532    0.7494820284069914 H
  -0.0851075486337877    0.0118378642181853    0.8534123060394886 H
   0.0697101423585358    0.1603419474067936    0.9768147405552189 H
   0.1849043156587135    0.2441774617524886    0.7702637490188525 H
   0.2825269028270499    0.1259239694490200    0.8283369223963911 H
   0.1861342420599790    0.2167400558636665    0.9596114220592782 H
   0.5550826836990493    0.1503805409916283    0.7270334631987343 H
  -0.0569003432029297    0.1311738510308971    0.9013949168267644 H
   0.6478143387698763    0.0590542802622116    0.7085814096150574 H
   0.6413247844439329    0.2529732716099708    0.8070517923426654 H
   0.7156013374451287    0.1476822536101101    0.8220345158561591 H
  -0.1213713361793573    0.1660947770383591    0.7574841409932966 H
   0.7878912490057481    0.3091488111023264    0.7612674027848648 H
   0.1629948411701153    0.5456507373237064    0.7528192134986852 H
   0.3399695434439523    0.5406097670653421    0.9343612434710887 H
   0.4031076459969902    0.6724037626163062    0.8275671254582065 H
   0.1015358984573373    0.6679213103861088    0.7772366689684570 H
   0.4439342912353280    0.5998021999666693    0.7330757748606697 H
   0.3588232432211496    0.4204277291368613    0.9574523548975036 H
   0.4599409652774858    0.4371107905430998    0.8211682321082838 H
   0.5386755078201492    0.4447605147586195    0.9199588391753000 H
   0.6621552523993109    0.5122460262556929    0.8638077110139917 H
   0.6052471784178208    0.5155605695233811    0.7517963134800076 H
   0.5768605617045764    0.5912730392907030    0.9994045400791103 H
   0.4804355307415090    0.6774990021254343    0.9668423393478381 H
   0.6454983535051079    0.6257322069594424    0.8108560295276445 H
  -0.0651868312848504    0.5752589132430803    0.7305426465163984 H
  -0.1506208760259667    0.4676119377174183    0.6766883239335970 H
   0.0947508514925578    0.6824424900678461   -0.0360240810828462 H
   0.5118813425463414    0.6971031366656607    0.7775072515434591 H
   0.5907454716579456    0.6989277685987976    0.9348646529129533 H
  -0.0998687811480585    0.6792976195042769    0.6660020601704613 H
   0.0786934006723661    0.1260851151603426    0.2702942716737096 C
   0.3604100175347088    0.2527817755853049    0.1349890005770043 C
   0.5096874683804143    0.2743471184687129    0.2983621447767798 C
   0.7283371407022696    1.0861934310998429    0.1956477407823415 C
   0.8846019698685592    0.3401278095077045    0.0827609701633375 C
   0.3608578405076466    0.3300486149717070    0.2170636174549960 C
   0.4582693514306282    0.3644160090739085    0.2488721023830319 C
   0.4498439324421426    0.4469803511290763    0.3286708890759276 C
   0.8679711645964014    0.4369953148270937    0.0370388076059897 C
   0.9325006919141737    0.5140255662947200    0.1914778325722302 C
   0.7448748552146984    0.5125510469047928    0.1564922747222046 C
   0.8506019803436674    0.5170347276000541    0.1107847949402445 C
   0.9083344717351800    0.5609790908150729    0.2801778770489836 C
   0.2993107436663376    0.7153718574187832    0.2786403807119556 C
   0.1906576067031654    0.7561525617810205    0.0894395354254072 C
   0.0890349377986031    0.7739913197617800    0.0650052996409066 C
   0.2398786406767459    0.8343949469534561    0.1564622099916488 C
   0.2846990205540554    0.9123200990888037    0.0939275704355857 C
   0.3300969862815006    0.7864161599433073    0.2030073071504891 C
   0.5804416644987198    0.7917527567061652    0.1899578157297114 C
   0.6925317546250614    0.8027525774135751    0.1865283389070091 C
   0.6972236699619991    0.9823158705499688    0.1656242618335836 C
   0.7345206238939529    0.8985511736020747    0.2277484828585710 C
   0.8359620479102554    0.8873280613036394    0.2271961308320808 C
   0.1887513618278095    0.1041815830711096    0.5235866900512434 C
   0.1529861740332116    0.1556882326941592    0.4348371436460399 C
   0.0934031511755748    0.2409061315499892    0.4660671272237998 C
   0.1071121760116987    0.0859735629446736    0.3660469425950293 C
  -0.0013900410834283    0.2343743105426131    0.5093317357793363 C
   0.5479972074642360    0.0948828251639389    0.5557187553816333 C
   0.6082825013714026    0.2587817434826656    0.5726640765386184 C
   0.7167233631930721    0.1199290599372164    0.5624675182936519 C
   0.0492830676953161    0.6294797480308278    0.6430368011045126 C
   0.3806071862307196    0.4238807276435153    0.4089765811095896 C
  -0.1059626997451543    0.5521970108612460    0.5861808997245938 C
   0.0644864813182987    0.7682782345881640    0.5156706464959013 C
   0.0821885355603660    0.6673981287941916    0.5432163721389931 C
   0.1270046840395060    0.1949073411722345    0.7785140704271882 C
   0.0611810541148977    0.0432309276127466    0.8437223734633763 C
   0.2272726002968028    0.0682497025787135    0.8201320476737793 C
   0.1427617055896638    0.1525874423475887    0.9483070833702975 C
  -0.0428535117462747    0.0808284622064815    0.8468050571150164 C
   0.6270198376989390    0.1389681005480515    0.7021370695794108 C
   0.6926988948527564    0.2036070417041297    0.7699260451849351 C
   0.0915018429314166    0.5260438568027490    0.6399715969473817 C
   0.3956709637141090    0.4916461123872042    0.9558826962905788 C
   0.4770153621244119    0.4797677223711574    0.8879720634032704 C
   0.6153792613346680    0.5539110809386324    0.8188763207882394 C
   0.4661597101205817    0.6367905604140144    0.7993908794891794 C
   0.5432998618329807    0.6395719498439724    0.9484175537755956 C
  -0.0575928820366698    0.6114068590614201    0.6602541031960606 C
   0.6266079816104417    0.1533859446391199    0.6023808952357071 N
   0.1390994304739690    0.1190568497418516    0.8477587383354376 N
   0.5220494487662716    0.5753268401348486    0.8655088154196255 N
   0.3682225890216465    0.3565675625686411    0.6789061221969225 Cl
   0.6213370699573120    0.8397604487766409    0.6571665252859580 Cl
   0.1741241235889059    0.6030019901448596   -0.1149754618819366 Cl
   0.8500751712715657   -0.5724259011819446    0.8171297696968816 Cl
   0.5015408280079954    0.9736356809337943    0.8527417926301163 Cl
   0.7635176903164493    0.9188916645541294    0.8594588127801062 Cl
   0.1075867978397100    0.0904654093194772    0.1975390220882354 O
   0.3370625729015117    0.2745191035776581    0.0575541407215309 O
   0.4007994182955326    0.1667299657390432    0.1600385145682282 O
   0.6051272888030186    0.2934764873930696    0.3024768177842421 O
   0.4751950146318967    0.1985501013999348    0.3240577008850632 O
   0.0210645785360061    0.2028569553886461    0.2684568272109040 O
   0.9662270510241050    0.3048361761015497    0.0895723795836770 O
   0.7990522669108100    1.1101398283276811    0.1419514328299032 O
   0.8108698567651713    0.2976344803210972    0.1227827199713497 O
   0.6883532489326888    1.1328837750459193    0.2555961143308255 O
   0.2511489697011863    0.7566706849873805    0.3483045564884254 O
   0.3259897091249809    0.6305008192868763    0.2817370479592030 O
   0.4271645550566053    0.5203300490026248    1.0459440437997076 O
   0.5091889673620665    0.3985933524044605    0.1718224905865409 O
   0.8549892350124018    0.6025510712037595    0.0596209161522970 O
   0.7053042299996712    0.5895047722252035    0.1715658916071461 O
   0.7033570816086770    0.4277185970284224    0.1723783385119330 O
   0.9316981367280268    0.6466630837686745    0.2984369570132791 O
   0.2537604476047908    0.9359145772071616    0.0164416704561455 O
   0.1841468953863746    0.8767415829589043    0.2237855318634484 O
   0.3561793245982457    0.9625122910934867    0.1346170369338488 O
   0.0368378204458136    0.8152778626797383    0.1258626069038682 O
   0.5391261517252001    0.8105453816777131    0.2727581812197244 O
   0.5349044857714984    0.7684415481790111    0.1199908951083425 O
   0.8865300769677906    0.8901636477217103    0.2990053901747178 O
   0.8679662279652036    0.8765927218982206    0.1398301213762684 O
   0.2410951676504748    0.1975752782404094    0.3864350249905437 O
   0.1255702400600485    0.0716807332395191    0.5818942984091391 O
   0.2731212099292987    0.0982336442823373    0.5386187057392530 O
  -0.0359591536621167    0.1565084137809356    0.5359925165662148 O
  -0.0534002716837320    0.3168462286673855    0.5077141414066695 O
   0.0585808599397452    0.4695758559100056    0.5824270034838011 O
   0.3089541000946085    0.4818799596545472    0.4192440361842854 O
   0.3976167016390468    0.3641334621092129    0.4714251516346895 O
  -0.1024189037782053    0.5705495562893166    0.5013132693779683 O
   0.8527628143422210    0.5103044733535337    0.3374560830162443 O
  -0.1682058615853448    0.4843814758378899    0.6121414449696364 O
   0.0793076586399706    0.8332886057694432    0.5828835678803809 O
   0.0361904165258814    0.8060087324594027    0.4437933569606345 O
   0.7016736903702476    0.9068057362049353    0.3207484829845842 O
  -0.0604575385974154    0.1318480615630225    0.7584762771016380 O
   0.7794601881530365    0.2445604538018203    0.7298189954437181 O
   0.1582415705597199    0.5004511718639910    0.6961828545698017 O
   0.0865419390437444    0.6948774470204877    0.7119199930663118 O
   0.0468810440011014    0.7245145280001886   -0.0030682421352273 O
