Li1 Co1 H110 Cl3 O55
1.0
  12.9326230855999995    0.0000000000000000    0.0000000000000000
   0.0000000000000000   12.3591647628000008    0.0000000000000000
   0.0000000000000000    0.0000000000000000   12.5528108887999998
Li Co H Cl O
1 1 110 3 55
direct
   0.3806334964080970    0.3675079965817187    0.3860321395205245 Li
   0.6930194658483073    0.1649643742542113    0.6620404400272494 Co
   1.2711318836086933    1.1137736364541704    1.1864225930216101 H
   1.1075146509719449    0.2561088829341648    0.2100309219787853 H
   0.2065009955925813    0.3073372638281307    1.0825016456293479 H
   1.2079428465053141    0.3135528942104703    0.2443849805095934 H
   1.2381300712791261    1.0112100713324104    1.2394943715978655 H
   0.5313059460033910    0.0946279059989683    0.1603767046467831 H
   0.5015548276530529    0.1669717914604837    0.0583022759510370 H
   0.6355431135971032    0.2746174152169059    0.2133839558429021 H
   0.4227873577239051    1.0223839655761111    0.2629242544667627 H
   0.6814989878281991    1.1089755775935517    1.0258848443172126 H
  -0.0513871356801525    0.1485474072589406    0.2250442924238185 H
  -0.0389755004737784    0.2503924772258559    0.1400824452767725 H
   0.7291830497480621    0.3088753936584910    0.2670165649823169 H
  -0.1185204615532865    0.2477021659760149    0.3192917092359024 H
   0.8473508792660828    0.1839082110339192    0.0150628290408409 H
   0.2662166460749575    0.4800948927600294    0.2494571512420314 H
   0.1043623968522533    0.6208406497253983    0.1222115475163232 H
   0.2800313222483420    0.6276299434689822    1.1196965021547962 H
   0.2381179380561163    0.6585430356829454    1.2332328258216816 H
   0.5064849953056610    0.5096786071142966    0.3253604695060002 H
  -0.0116029405795552    0.6173622593304909    0.1023992519115278 H
  -0.1236663627026133    0.5379046245430801    0.2348962690922746 H
  -0.1512508672256916    0.5053093798213216    0.1088137514776642 H
   0.8223675485170594    0.3470333120171388    1.0114577967336644 H
   0.7127726124689993    0.3927184380621841    1.0561569485786610 H
   0.0251105704272471    0.7501900055015909    0.0060389696834863 H
   0.3275506844018929    0.9530912571741899    0.0680885302878729 H
   1.1836322331116498    0.8725194694270704    0.3329372585489117 H
   0.3609777778181814    0.8426630829250750    0.0174730143187051 H
   0.6493168081384946    0.6854955042674431    0.2631122601669127 H
   0.6771557080752661    0.7240539351279470    0.0250488474004294 H
   0.7926875680939548    0.6721426601904125    0.1435000065210255 H
   0.9994004663440140    0.9761429767254596    1.2746259452275992 H
   0.8070929983587120    0.9754147721766303    0.0330135973584811 H
   0.8964901757408720    0.9532692627305703    1.2234660890257512 H
   0.7856727498780729    0.8039145097657100    0.1306574646052673 H
   0.9073773715609353    0.8996410432901296    0.0285209780957853 H
   0.1154336233971161    1.1320434794681287    0.5069930950746914 H
   0.1937100869806857    0.2390243951024674    0.6544222259995590 H
   0.2740704278891893    0.3021087551675373    0.5868015147883870 H
   0.0244098618439984    1.0552340818899597    0.4841966072971753 H
   0.4990990226868227    1.0172622602493460    0.3636164429492444 H
   0.3341031060907578    1.1063783147027277    0.6149808606841823 H
   0.4331696289082795    0.1522094670233859    0.3550127922644117 H
   0.3348863965286644    0.1752652321554825    0.4333498283841364 H
  -0.1817288296151533    0.2232409660646781    0.4235687521703979 H
   0.7628900554432471    1.0194711473807945    0.5256176089043862 H
   0.2032990156287401    0.4586533143778375    0.3577930460505290 H
   0.1209908873430533    1.5228465873397767    0.4828216164562474 H
   0.0228490802557315    1.4878523131877086    0.4195608848930467 H
   0.3055350423998442    0.4909168214717960    0.5705764635385733 H
   0.5711702485959599    0.4072525917406487    0.3406829340682292 H
   0.6448428511061873    0.4629270659632993    0.6460910242530793 H
   0.5746908027556721    0.6506848994849133    0.6515790381019509 H
   0.4102477515723449    0.4285817029758547    0.5797266053687574 H
   0.8633491805101959    0.4197469635662263    0.3857230454033285 H
   0.7265973407407971    0.5779987578854482    0.5318202037406925 H
   0.8483715538742138    0.5457417237208126    0.4163281428116530 H
   0.2675210991536824   -0.0840825523847591    0.6568702832731230 H
   1.1585715785286770    0.9899464985065989    0.3702484236854697 H
   0.1248300156986368    0.6741913423211184    0.5744520895183615 H
   0.1283072685113374    0.8029597526905785    0.5868732118774274 H
   0.1963089410397222    0.7326847772639032    0.4179596499044806 H
   0.3209580543193745    0.7263979446590115    0.3920379656791312 H
   0.6325011939695372    0.9980781159685246    0.5216774555444619 H
   0.4718609289398373    0.9905452444689695    0.5521534981925139 H
   0.4884608096120761    0.7291465122727588    0.4030434688468132 H
   0.4623794804209724    0.7189654035639620    0.5322487930062888 H
   0.5032010520778337    0.8781266444530550    0.4952323825691187 H
   0.6509073594028320    0.6813309833643058    0.3811272619958471 H
  -0.0219859850022690    0.7613469083058190    0.5578661629203783 H
   0.8783036099959932    0.9924385762959254    0.4071787976157915 H
   0.7880512310103539    0.6916561147505379    0.5160707431815126 H
  -0.1117755035178878    0.7778957612360442    0.6451223169167130 H
   0.8841338270757715    0.9132341948682740    0.5215205185828959 H
   1.0129166725183540    0.2539768618384261    0.6949270981356999 H
   0.1506407114709178    0.2036093805444094    0.9576849799534598 H
   1.0793301134974200    0.2251828448615558    0.8002421555926340 H
   0.1057422406690788    0.0855803690378487    0.9169769660650382 H
   0.4531787174193435    0.1264795729647557   -0.1192188402149236 H
   0.4138680534778517    0.0062865802739244   -0.0964143860941808 H
   0.5689085264529424    1.0569574993221886   -0.1939431396813412 H
   0.4892881746353337    0.3276881536194096    0.9533831546110434 H
   0.3704924755856445    0.2857662268594803    0.9793454671868488 H
   0.3936370455633532    1.0470620086197659    0.7069602595796256 H
   0.9486760312732639    0.2121366558111988   -0.0487362998629930 H
   0.7139981952370958    1.0836502416176041    0.9135753375072385 H
   1.1430294879048648    0.5738868295330596    0.9845873210300154 H
   0.2256301388733021    0.3937476338245293    0.9919561885147101 H
   1.2655645675643428    0.5747355923905282    0.9535663805052574 H
   0.0998856561619238   -0.5079079564902457    0.8560344403808063 H
   0.1430761207956564    0.5464553641786652   -0.3113678354771774 H
   0.0691314930375953   -0.5811143597840409    0.7668161760477360 H
   0.2480238944233629    0.6095745162388458   -0.3200025549005943 H
   0.7353426663604644    0.5263650097926340    0.6939743234857869 H
  -0.1957878491038176    0.4591306929154033    0.8564486902285945 H
  -0.0965396152765150    0.4763454484497246    0.7819490416411697 H
  -0.1322871969496224    0.6526470061859252    0.7965393992608651 H
   0.0502330067535453    0.8616125835179403   -0.0635691529705091 H
   0.1747928110049861    0.9222801135970629   -0.1901846189469856 H
   0.2300723931336902    0.9346838644121195   -0.0797145407880559 H
   0.2555374513682178   -0.2030378400774304    0.7062592213756763 H
   0.5744286749585840    0.6828213753409094   -0.0126611128780570 H
   0.3460558243426428    0.6936206488000458    0.8274273018537374 H
   0.4087592677688205    0.6886996042822915    0.7178056392484510 H
   0.5912566609409732    0.7706816815056434    0.6946482761227656 H
  -0.3414180114872767   -0.1990561794276657    0.8539153930825050 H
   0.6532332603280273    0.9639253226284370   -0.2111759333493322 H
  -0.2426128432285037   -0.1784115804683591    0.7827520490384208 H
  -0.0667181322372830    0.7675617295719931    0.8238583800881772 H
   0.5439607646675357    0.2754006396649800    0.6648079476642040 Cl
   0.8618104362146046    0.1886269765103321    0.6898047394409337 Cl
   0.3921083533661752    0.6819677577864486    0.9964412397513406 Cl
   1.1837636836293635    0.2587110005219810    0.1932625661209109 O
   0.2384519770187773    0.3165789886689381    1.0060884813988706 O
   1.2965095659108585    1.0418836651614252    1.1899516830710370 O
   0.5502580177043678    0.1148372004613082    0.0861251279874376 O
   0.4905957206674166    1.0496269068639752    0.2925303724344593 O
  -0.0280674272185486    0.2240945836191389    0.2163538085978148 O
   0.9058463596487389    0.2329422688874132    0.0132534096047315 O
   0.9272882588028838    1.0026334399795336    1.2793977848203906 O
   0.2384365122519875    0.6000568827856487    1.1792449177743562 O
   0.0515157318349304    0.6425767463917833    0.0661369355241967 O
   0.2551740293486560    0.4261462633181039    0.3062778909407703 O
   0.6727273721049889    0.3424375321978615    0.2292043168567996 O
  -0.1226410486644454    0.5580718449648210    0.1567464420383772 O
   0.7727426583650687    0.4062525241602566    1.0145726369353030 O
   1.1478622275266970    0.9427345702575085    0.3080735047040677 O
   0.3391175567223709    0.9161874688718589    0.0018344293245544 O
   0.6017324939644262    0.6728433547896191    0.3211821224835977 O
   0.7514469012570880    0.7371632352392026    0.1610179952765322 O
   0.8523537313226034    0.9209531630858631    0.0758621676719161 O
   0.0977346617491218    1.0667963518930361    0.4675278307296345 O
   0.2466761399976264    0.2266020346156074    0.5977257612551566 O
   0.3652738900324053    1.0368833272594651    0.6325753263346653 O
   0.3836243823052565    0.2118202913905408    0.3810802605708096 O
   0.6900324461428454    1.0455894171988003    0.5507824905231994 O
  -0.1777211353015603    0.2741149540782138    0.3614734966212630 O
   0.1940912934820558    0.5721294292218853   -0.3641464526226903 O
   0.0970786463418958    1.4782561954664710    0.4232692176650741 O
   0.5068631088536732    0.4406876990420568    0.3630540191174396 O
   0.3488990217169591    0.4326928222120781    0.5384107594921389 O
   0.6683052220414277    0.5354829398601405    0.6507632845555371 O
   0.8949127695283059    0.4914047185195116    0.3763370998136342 O
   0.7544625307811113    0.6281251225621860    0.4755826003661479 O
   0.0993661173216184    0.7422428665253686    0.5380538673155829 O
   0.2460915718129696    0.7305050183144080    0.3618295921634963 O
   0.5162332110516511    0.9542644756139701    0.4962393283529731 O
   0.5359763055739295    0.7225190417622482    0.6614437609195698 O
   0.4355898649108930    0.7419758581907980    0.4575332565174206 O
   0.8683056382663470    0.9932153278146765    0.4855588519889405 O
  -0.0958900950713407    0.7938693325726944    0.5715133055020329 O
   1.0831189813609363    0.2613382007109236    0.7311763497201391 O
   0.0847332003373823    0.1633776974539291    0.9313004511866393 O
   0.4480714781869913    0.0551844638767874   -0.1548618530798112 O
   0.6437951131561740    1.0511885010631310   -0.2074891097040168 O
   0.4429046996024981    0.2629159772333867    0.9666789814564006 O
   0.7481134707755331    1.0885696679030279    0.9852246284881512 O
   1.1981691138941208    0.5353761365263122    0.9453690133249862 O
   0.0528581509161245   -0.5112633612280173    0.7977494867970005 O
  -0.1667906381344853    0.5030616551139356    0.7955945909541789 O
   0.1643703314269580    0.9446440844077716   -0.1176908955840431 O
   0.2136310263210475   -0.1433825143211805    0.6734060219087780 O
   0.6377731329682015    0.7111703784268285   -0.0410100622211486 O
   0.3393201451673180    0.6910775966923013    0.7473169577317499 O
  -0.0024355041503584    0.8076930822579680   -0.0411713010080570 O
  -0.3149601152248399   -0.1556988805903776    0.7960279600257112 O
  -0.1236926528061561    0.7353694247005869    0.7801534278778721 O
