Li1 Co1 H110 Cl3 O55
1.0
  12.4182703927000002    0.0000000000000000    0.0000000000000000
   0.0000000000000000   11.4912748629999992    0.0000000000000000
   0.0000000000000000    0.0000000000000000   12.6717750715000008
Li Co H Cl O
1 1 110 3 55
direct
   0.1135951426238266    0.6804850223083556    0.5161969020829301 Li
   0.5176876483684169    0.3760331628140954    0.7610315825041276 Co
   1.1071159478442301    0.0463995890670743    0.2493203215787525 H
   0.2170886211323557    0.0610078028641790    0.1191870142326650 H
   0.2469051727366484    0.1712334318827963    0.0583185095718813 H
   0.0398567739909218    0.4782837846126630    1.1729762367097110 H
   0.1329303634240717    0.3690095730938744    0.0442694912618581 H
   0.0310332988583131    1.0170725677384749    0.0710711033551666 H
   0.3152770130292478    0.3449165108966205    0.0387193611811736 H
   0.3871590039806397    0.3500134214394695    0.2271497891620385 H
   0.3950699285211257    1.0370181353741414    0.1460467081650093 H
   0.4129749984679604    0.4218139840260124    0.0539469041979357 H
   0.4429807873754915    0.0419764070784807    0.3094555430217099 H
   0.6487888362566302    0.0788037395585879    0.0699295111221624 H
  -0.0003108970474882    0.4670552654502282    1.0535928045177660 H
   0.6912480502474894    0.1186726840805879    0.2576806341160441 H
   0.7757268034735985    0.3564722348335321    0.2938192174965169 H
   0.7686259756439970    0.4929784117983464    0.2780219042653009 H
   0.9387430638692507    0.4402296952959066    0.3217758374649982 H
   1.1379737072488942   -0.0743598581260392    0.1939886891875691 H
   0.2611946022939491    0.7757111841612383    0.1935791175237165 H
   0.1512066605913017    0.7556803344300965    0.1307370929843923 H
   1.0825150984232361    0.6093345181434462    0.0567721595230968 H
   1.0235857969296736    0.7340386973650271    0.0089122506643919 H
   0.1109772257181752    0.7282882474986884    0.3105035414217027 H
   0.5869960119957663    0.9928802998383210    0.1766754083913034 H
   0.4495477244304246    0.5152527027757687    0.2957802687193949 H
   0.4096959588986547   -0.2663881601471706    0.1214881914422876 H
   0.4408371716256164   -0.2917221638561375    0.2374632613679912 H
   0.4117139532897844    0.9126629165636382    0.1817709849490994 H
   0.6285106500006739    0.5951689880398957    0.2645589127714182 H
   0.6752675639378454    0.5547504961373581    0.1591395857661235 H
   0.7092167361388171    0.9417632560809456    0.1519085546372579 H
   0.7450309023580872    0.7426025861565889    0.1711016036479684 H
   0.8418938278671904    0.7918355917843301    0.0900005744550356 H
   0.8713262680091650    0.8399251211523301    0.2714332456496839 H
   1.0614332575773566    0.4094750571714699    0.3587564496804050 H
   0.2459815336438209    0.3459982011484151    0.3571781388370424 H
   1.1635650327676892    1.0745596618925817    0.4081078622860875 H
   0.1535701137189815    0.2480656381023858    0.3654500659671056 H
   0.2702465875097066    0.0724089747586782    0.5401359317996319 H
   0.1698501586533263    0.4318389813716877    0.4912469642710545 H
   0.1775798985417754    0.4880242182315991    0.6033606967184716 H
   0.3247034465258814    0.0373728273511927    0.4420226056882625 H
   1.0313002367808397    1.0950534715705897    0.3884649946850187 H
   0.4210783813721653    0.3158353163395218    0.3423246554901572 H
   0.6253628686459548    0.2425057676126705    0.3869024669500897 H
   0.5227076711275159    0.1739929168292491    0.4264849245907797 H
  -0.4483003371284774    0.3358835705799443    0.5300300074695813 H
  -0.3816678694954311    0.4429378369399814    0.5729616407198868 H
   0.6077404467562976    0.0354133406738267    0.5891858870342322 H
   0.7912724466183543    0.0595483477384471    0.6335056446712750 H
   0.7954453304710414    0.1362599407087214    0.3389762690359635 H
   0.8977470166017285    0.0833496233376104    0.5144039409648702 H
   0.7593485161945938    0.4856676476749942    0.4617041419049939 H
   0.7798706977819597    0.4893617547698198    0.5841715934848694 H
   0.0327988023710155    0.6102917661538839    0.3492944761744463 H
   0.2156045175158944    0.8658560995296246    0.5090345274757507 H
   0.2928753426514203    0.7983762063720120    0.5699660067391845 H
   0.3291315994216602    0.5573472489220365    0.5124910282227148 H
   0.4823719412585278   -0.0091073070436223    0.4281445184425755 H
   0.4528444798323739    0.5034794224728485    0.5357308662358069 H
   0.4303349039284444    0.7028350229011489    0.6007541163606582 H
   0.4828985846471148    0.5916672007726216    0.3902469076271750 H
   0.5237255262394026    0.8629817448219192    0.5579929406814361 H
   0.6253419317528306    0.8335655134611675    0.4951185607698229 H
  -0.0448927898950982    0.7434493155330942    0.6516901530530770 H
   0.9083845688390878   -0.0014409687956656    0.4180551663763802 H
   0.8797412885148734   -0.0253880941826011    0.6628535456481804 H
   0.9604208009040511    0.7819515709638283    0.3441136708311087 H
   0.7529168636798480    0.6806442735682738    0.4906038026023842 H
   0.8139760914162431    0.8087301489430923    0.5821403074294618 H
   0.7937260894394923    0.7792390781924333    0.4144771356944773 H
   0.0635080547822190    1.0398376658776125   -0.0455526523271590 H
   0.2525927602803629    1.0433272699883902    0.8271920055916216 H
   0.3218536132656228    0.4778434505278616    0.7571726124921060 H
   0.2590831971488805    1.0282375604420351    0.9483352543739160 H
   0.1646900197633188    0.4108065021314424    0.7625814837523096 H
   0.1699532325887072    0.2349435083302124    0.7674292655076977 H
   0.0552934647649195    0.2749686583230065    0.8022665315978182 H
   0.1617508020747222    0.3065561022165240   -0.0574441197143056 H
   0.4957208211554777    0.3126441995629080   -0.0283645315807719 H
   0.6213236588032148    0.0215717084879897    0.7149228095261333 H
   0.6535769426611222    0.4578804783829146   -0.0297128825342566 H
   0.5925821361343404    0.2352750642320094   -0.0523112161050640 H
   0.4144993653404298    0.1857896932196983    0.7129846438104841 H
   0.5532972772471656    0.1658032249872222    0.6900628354323295 H
   0.6076285149045948    0.0598756395354704   -0.0608714217106675 H
  -0.1249678702850814    0.2236375391014786    0.8348941625072309 H
   0.7698499786266455    0.1769934542292395    0.9821979135182599 H
   0.8998326532629518    0.1439379399778961    0.9744957566026506 H
  -0.0932798825415287    0.1749423328105106    0.7200002355092308 H
   0.8877536764604999    0.3830558823088523    0.7380900452404309 H
   0.7128178817561881    0.4602596748015844    0.7502020026523953 H
   0.8872302541323936    0.3411745414012730   -0.0366651839681844 H
   0.8394297165994902    0.4698286740041057   -0.0214200427855188 H
   0.1243502635687299    0.6841077709151305    0.9040320690007284 H
   0.1731501351157562    0.5550063424237841    0.7870374102702127 H
   0.1932431103940751    0.7353379439828305    0.8013945148568603 H
   0.0386325294287373    0.6836004294695984    0.7270245079176160 H
   0.3188435322464518    0.8881852147112810    0.8621594823263193 H
   0.3824296819299197    0.5210866942866547    0.8682044128563982 H
   0.3700181306328402    0.7571118553184329    0.8760722924105606 H
   0.5122295613839489    0.9114533031686305    0.8342154888445851 H
   0.4144252809493748    0.7822274324359272    0.7098501184755660 H
   0.6375706878676329    0.8910586991935223    0.8326450695554394 H
   0.6368837967201336    0.5715284430839396    0.7749017781955978 H
   0.8032040599038163    0.8069070265959403    0.7093916191755693 H
  -0.1316684813499616    0.8033277892623673    0.9232874612897519 H
   0.6873086932796498    0.5838482249782733   -0.0123022988744975 H
  -0.0594756580621865    0.9033079928252693    0.9818112273616362 H
   0.9016283944809164    0.5197596004540024    0.7036710315238016 H
   0.2659432507075531    0.1273479617315460    0.6945444490720575 Cl
   0.3777913548377781    0.6302930282192486   -0.0006415805326505 Cl
   0.7261160299505676    0.7403469617538119    0.8455635438083620 Cl
   0.2714005324269009    0.0939247772216481    0.0765438172889841 O
   0.0601393892050392    0.4849671161764466    1.0984720733487807 O
   1.1117542749363718    0.0064719043262520    0.1781321892997270 O
   0.1840542301078897    0.3116269059954519    0.0166561144440371 O
   1.0119094526873034    0.4725472583537488    0.3182861921903236 O
   0.3931767502236214    0.3390268249560363    0.0698257371842114 O
   0.3781819084210574    0.3680819127492139    0.2994529980518996 O
   0.6675692293890827    1.0084834424084563    0.1805730470189872 O
   0.7979174943899432    0.4313847236794618    0.3238110692975142 O
   0.7232025807458161    0.1691475014455061    0.3136467474662593 O
   1.0938049154079279    0.6905013173993906    0.0301453453556907 O
   0.1807945169014680    0.7826547131387681    0.2007864739899317 O
   0.4427939658676136    0.9934894576631450    0.1907215857418086 O
   0.4066601093956385   -0.2310926855514030    0.1942135984827483 O
   0.4976325205507457    0.5825307036257253    0.3140160722036061 O
   0.6994971861384439    0.5070525682281734    0.0192965337863320 O
   0.6999078713497273    0.5900581538896222    0.2292363160969638 O
   0.7904583235818690    0.8090886818342743    0.1525051561360489 O
   1.1077601599403608    1.1111787494191454    0.3589261180960664 O
   0.1729431819798742    0.3341631348375485    0.3851055600549214 O
   0.2567012229234370    0.0210272954376899    0.4766065528880233 O
   0.5542466848238383    0.2559229038171515    0.4279006694172759 O
  -0.4455334461755958    0.3945184921211123    0.5880250394089391 O
   0.4484582007228434    0.0535370913005373    0.3891776020307969 O
   0.6362444162147237    0.0712935197588790    0.6547418170687185 O
   0.9126605266271559    0.0813583734308071    0.4367699872015519 O
   0.8685883666006093    0.0591451722809600    0.6416197407170020 O
   0.0079471772863002    0.6752619290732217    0.6537198607976412 O
   0.1627557729446862    0.5063720519152985    0.5275307522491167 O
   0.0572148273416295    0.6952849467751872    0.3689531268839489 O
   0.2193232318408093    0.7928102443040486    0.5455692668779075 O
   0.4194291984060705    0.7805661720250857    0.6328727420230866 O
   0.4063259243707706    0.5756811589983113    0.5219719414587938 O
   0.5651918483371002    0.8868476781730603    0.4928757810614047 O
   0.8528132228966070    0.8352024075590160    0.6478090866892484 O
   0.7400728850132408    0.5304738163671928    0.5278661433033313 O
   0.9053728772896765    0.8459488218143756    0.3411290850263101 O
   0.7466148588494489    0.7640014303171925    0.4760028489904371 O
   0.2010388820223776    0.4902389420375664    0.7391143689777733 O
   0.1315340337057082    0.2942911445264244    0.8096814359399356 O
   0.6421131884104752    0.4875055638550346    0.7816577377606114 O
   0.3981162464707040    0.4859504709508053    0.7952967109135290 O
   0.4935884791172848    0.2155009310127577    0.7258163109670218 O
   0.5612355808017371    0.3100465765527656   -0.0731033307467274 O
   0.6322728486420776    0.1133503851425541   -0.0025068282873364 O
  -0.0810438790406448    0.2406591491779897    0.7709047059847821 O
   0.8429728831282095    0.2026163727922657    0.9715285322171290 O
   0.9061298265026302    0.4260163027918342   -0.0365446010197515 O
  -0.0025884283868465    1.0272542056676763   -0.0032317464576928 O
   0.8573388128719257    0.4485612338885711    0.6936037758094133 O
   0.1366796778235528    0.6819704971754622    0.8220940615675605 O
   0.2338413566922365    0.9862230750384585    0.8878464913020453 O
   0.3773065852354397    0.8302351606103081    0.8382243983867259 O
   0.5781711115438950    0.9528238217288216    0.8333237432180852 O
  -0.0782785986180035    0.8178240050422508    0.9769579215182962 O
