Li1 Co1 H90 C51 N3 Cl6 O45
1.0
  14.2518298947000002    0.0000000000000000    0.0000000000000000
   0.0000000000000000   13.9087911126999995    0.0000000000000000
   0.0000000000000000    0.0000000000000000   14.3752171284999992
Li Co H C N Cl O
1 1 90 51 3 6 45
direct
   0.5886562991549513    0.6443269572304561    0.3927835325078791 Li
   0.7319017641291859    0.6243913641402113    0.6245574229623365 Co
   0.1756447740743045    0.2367171258610457    0.1648600186776650 H
   0.0462424437331437    0.1964339700166529    0.3266822700708677 H
   0.3536605109126654    0.1335895435731587    0.1297426360678988 H
   0.3433804275070611    0.3113677544877088    0.0897467184507578 H
   0.3744262653587003    0.0848707157103065    0.0182827544064668 H
   0.5248741036954021    0.0968293394794223    0.0061869371088435 H
   0.6631393660904302    1.0240486711598238    0.1599279192619675 H
   0.3580262660795256    0.1443115393808196    0.3169064177311219 H
   0.7676550676533526    0.2842942297687873    0.0018934367430205 H
   0.7902163809987759    1.1093033845559623    0.2969790665517043 H
   0.1945433998641171    0.3500950598038526    1.0189918130181654 H
   0.0974365714620558    0.4845748995572950    0.2910431562112039 H
   0.2975743798048800    0.5469698261161952    0.3212520912219347 H
   0.3223978587976769    0.6105166860005855    0.1632016089446575 H
   0.6512131782776491    0.3983681264247850    0.1075488843389264 H
   0.7372533576132173    0.3480905721547036    0.2861660124871623 H
   0.6924485848424263    0.6399196726934105    0.1849744974653793 H
   0.7596238182737507    0.4501148953688391    0.0537396101494997 H
   0.8737460055309005    0.4557299052835893    0.2296145188482744 H
   0.8487871053315457    0.5840614752623914    0.2522333076354966 H
   0.7914730617290631    0.6170449312854752    0.0811513700191134 H
   0.0649109236382360    0.7551913729446313    0.2660501424161150 H
   0.1923471906593160    0.7078558428712206    0.1036345086813622 H
   0.3061550323178234    0.8381489780053932    0.3014896071174846 H
   0.2481659876753988    0.9903836318184496    0.3031758425171533 H
   0.3684775555701048    0.7363788105961264    0.1684383994102952 H
   0.6303905890247168    0.9581083609942220    0.0088902006249790 H
   0.6367546840686613    0.9052295741866153    0.1411010731990002 H
   0.8659175371289944    0.9923543278895820    0.1682519674436652 H
   0.9157813093779376    0.8630282070624773    0.2414522530876150 H
   0.1036820852422267    0.2483651547003077    0.6282603235532757 H
   0.1912315444498483    0.1380442801133765    0.3682287729627040 H
   0.2433848472531896    0.1487001307044944    0.4799133468824252 H
   0.3982091762202767    0.2816347606819142    0.6052512797911300 H
   0.5148003867719781    0.2296194565380907    0.6233741364875691 H
  -0.0125843880628057    0.2881939216658403    0.3886708989753538 H
  -0.0405779862847692    0.0087979649279703    0.5752162551970319 H
   0.1902162362328045    0.3557289067259226    0.4703562042826364 H
   0.4471667490481334    0.5175058707889916    0.6588581222555967 H
   0.3752023060553489    0.4303104423600882    0.6058050105576880 H
   0.4575955151152384    0.3387374947415835    0.4716404283632174 H
   0.5972972947962055    0.4592617003621096    0.5925015593269687 H
   0.4395540424131526    0.5040770257882601    0.4078351312465882 H
   0.5608243643837181    0.3820431993940905    0.4268943216261764 H
   0.6192916634012203    0.3369120305589475    0.5698738663264150 H
   0.2240399629795899    0.7750766381527239    0.3702969156372976 H
   0.0519259244228846   -0.1179635908186055    0.6055657098244017 H
   0.4768507266935110    0.7467233472876456    0.6534696819066554 H
   0.5915380343639347    0.8814525257486651    0.6459553606247986 H
   0.5470211544483289    0.9943530637807707    0.5411877604878850 H
   0.3759958883590646    0.8924268799368321    0.6199425361465767 H
   0.6582684126400373    0.8935801074078633    0.3501219160245952 H
   0.7735974624634039    0.9121072387675906    0.3832720240014147 H
  -0.0363694039172302   -0.1802033637065278    0.6528241264401156 H
   0.0249272861537671    0.0232320015292309    0.9129906315139941 H
   0.2128863075420439    0.2530161699809191   -0.1037140115778948 H
   0.2107006233014831    0.0551499443901775   -0.0673882993933659 H
   0.3358059615754866    0.2780363171080296   -0.0972994997708218 H
   0.4306309777302593    0.2451930601852269    0.7213128310766579 H
   0.6059123288590005    1.0024314078359493    0.6945431484652513 H
  -0.0795000057095370    0.0694984235917793    0.8008761510443574 H
  -0.1015575240999933    0.2997643017726389    0.8399364306200156 H
  -0.1723358036229004    0.0078144143167667    0.8582151110497572 H
   0.2570525658155924    0.5761413045511199    0.8706149237556541 H
   0.1619847738190111    0.4992589219389032    0.7493576248628140 H
   0.0563913159178860    0.5675575247651838    0.7350072329239670 H
   0.0205734592797125    0.5532112024728172    0.9902465080738136 H
   0.5207100699931707    0.3535878148252176    0.8007850219860420 H
   0.6225101974658920    0.3397871905693301    0.7320542340495472 H
   0.3803918150900802    0.4313821386620327    0.7285419392752374 H
   0.5781059346676570    0.4575322905374098    0.7585971374776650 H
  -0.0130811663749460    0.4094788691735846    0.9343127442348044 H
  -0.0608511724043599    0.4650541591996311    0.8422250917028992 H
   0.0508053665634382   -0.0034029516452212    0.7476915630714746 H
   0.0740627308772842   -0.1320122596365290    0.7609435368188706 H
   0.3088360915419592    0.7894236794148356    0.8382175000620200 H
   0.2723390238781476    0.8461295421752473    0.6786032153183835 H
   0.3237625958274973    0.9664383444601619    0.7064629684212425 H
   0.0620144534793161   -0.0930563219414651    0.9267949447446149 H
   0.4612581325044209    0.9927677354929754    0.7748939347994628 H
   0.3533454636497402    0.9144510801363945    0.8707728344139564 H
   0.4212749861849500    0.8174189233468881    0.8995077047333101 H
   0.5400663282447927    0.8964344172956400    0.8052169550435044 H
   0.5146826825885579    0.7473876753320551    0.7706275644586345 H
   0.3951499199477742    0.7072066131914567    0.7422975575892012 H
  -0.1441906459158771   -0.0156426925846444    0.7322580570578405 H
  -0.0511240004535107   -0.0602051563514671    0.9752978643017510 H
  -0.0292748763550116   -0.2295527280357730    0.8497533258180866 H
  -0.1278173098794445   -0.1731322962641390    0.9002694323581605 H
  -0.1311691601578262   -0.2039494964454417    0.7791387402486286 H
   0.1985351679683068    0.1430418388110933    0.0615934045646231 C
   0.2803576433006610    0.2050608879872908    0.0254569069133904 C
   0.3685666669340056    0.1527968203116862    0.0562453114323406 C
   0.4554849089529248    0.2097456948459187    0.0522377197914614 C
   0.7718194451710825    0.3206827265043422    0.1373974769663946 C
   0.0999829111439163    0.3478655346245086    0.3084432412161182 C
   0.1642350111735789    0.6425360035955815    0.2584551267009407 C
   0.3884616560052297    0.6467815199399950    0.2948810112854498 C
   0.6869952500374058    0.4810907002758959    0.2847309037291109 C
   0.7279801624532647    0.4190029894890479    0.1167960490121094 C
   0.7392292442332556    0.4998571047667698    0.1922049969472918 C
   0.8991273076284312    0.5483186133578750    0.1166499642621381 C
   0.8444760799787348    0.5234016383891767    0.2071056414443639 C
   0.2370832003304040    0.7186425459559342    0.2288256611984294 C
   0.2393102827636432    0.8019150597650201    0.2976350566432420 C
   0.1629046556936099    0.8801310593572964    0.2805445321799335 C
   0.3362185401737049    0.6755683495613276    0.2089956998523259 C
   0.6940245228213348    0.9545135122690626    0.1527739403633732 C
   0.7487852100991299    0.9559061566651894    0.0582153686319535 C
   0.7653830787060215    0.9294085267120383    0.2316506620062076 C
   0.7883436390282922    0.8233899670793782    0.2204320488500787 C
   0.0567302197664224    0.2670950355281340    0.3689320666875658 C
   0.2095702421420791    0.1931087349458803    0.4227114282853317 C
   0.1182675806863804    0.2440872847173678    0.4615314332293704 C
   0.2865077307383869    0.2559696976935102    0.3805951948686074 C
   0.0575245037344208    0.1756902549329923    0.5236955725263222 C
   0.4589996155113175    0.2755033866962821    0.6529903847984163 C
   0.7067358729664391    1.0409566826537391    0.3814563992517714 C
   0.4196148484921195    0.4459536422785434    0.6634813567713549 C
   0.5112994609000973    0.3958546081961535    0.4776788762853642 C
   0.5648254646228675    0.3935625326489918    0.5709345111753733 C
  -0.0078727124045822   -0.1018701720458113    0.6516791002570073 C
   0.7245076259182612    0.9397976395277495    0.3345388470526572 C
   0.2815518759097893    0.2217632741341271   -0.0815153903572567 C
   0.3037076272998214    0.1304634631217600   -0.1373601120629501 C
  -0.1153010224049261    0.0019224572562302    0.8021637837691045 C
   0.0261523919913335    0.3554075272498934    0.8061484192349880 C
   0.1180970762656881    0.5497529579992138    0.7815616601731527 C
   0.1654474870540570    0.4529645319532731    0.9258843498031272 C
   0.0840831984982954    0.5043459204729019    0.8762670122962101 C
   0.0025448972004281    0.4362037654631402    0.8677196631395564 C
   0.1734092716696730    0.6406839375323793    0.7857146409223366 C
   0.5599503713532068    0.3820769909721070    0.7427212033641178 C
   0.0241491404642705   -0.0780542992416293    0.7471433974382490 C
   0.3683842342205078    0.8417467026095328    0.8434035086860010 C
   0.4909212005541747    0.9231419864143403    0.7514814188707298 C
   0.5517935240670045    0.9474978054970412    0.6692642259452186 C
   0.3375306523823241    0.8942796649697793    0.6834094035924391 C
   0.4537543943325410    0.7562173427707919    0.7255346803508284 C
  -0.0011374369550978   -0.0489726920248336    0.9164312751966514 C
  -0.0850515735141333   -0.1773361123633406    0.8388992288952194 C
   0.5015111389070122    0.3754164552541314    0.6604226203636225 N
   0.4119617961608844    0.8535068907290198    0.7487447645546010 N
  -0.0466298407229193   -0.0782592056189634    0.8262322897893750 N
   0.3698942157568439    1.0166490345439552    0.3062846651248757 Cl
   0.4982709234160054   -0.0427039948179004    1.0173250555851594 Cl
   0.8619061224248896    0.5697913637629981    0.5771502781583185 Cl
   0.6342771074865038    1.6976118819442425    0.5315636275956095 Cl
   0.7762806266803878    0.3129070687118221    0.8868317222858009 Cl
   0.7043551260552922    0.6090809034197567    0.7675521326509055 Cl
   0.1604025208615585    0.1683826464444879    0.1416109785405667 O
   0.1474140133247938    0.3313543944298509    0.2403705302961609 O
   0.2769138750012476    0.2895089173295037    0.0747584231037029 O
   0.1680345232643131    0.0697220231824842    0.0219376557224153 O
   0.5311585598432620    0.1688873632055003    0.0157888790319568 O
   0.4600885984780431    0.2971120223832161    0.0722701128625252 O
   0.7882755775928718    0.2635368542599710    0.0710116970877724 O
   0.7909103269743505    0.2960371626143934    0.2172307059007078 O
   0.1849867323339601    0.5566802314925962    0.2613093444587131 O
   0.6411253508855003    0.5449976921055727    0.3243532617713253 O
   0.6972051670147417    0.5812344862249259    0.1446627585316337 O
   0.6968220583163960    0.3990928479277772    0.3283212018372123 O
   0.8602109015179249    0.6115980164971134    0.0587878817235077 O
   0.9763440586092473    0.5151081785862845    0.0985305857740318 O
   0.0793188980188706    0.6748364383608851    0.2727763016897933 O
   0.1988382869384263    0.7598776177427493    0.1443281548900328 O
   0.0778811879036509    0.8582218943169391    0.2647826832996973 O
   0.1800526290981258    0.9688166963767274    0.2890404038532641 O
   0.4626362713220407    0.6845410919793258    0.3202879318721242 O
   0.8424019603591206    0.9911256085953225    0.2322572615394217 O
   0.7256604603347111    0.7650038720248269    0.2074715489609587 O
   0.8377457161792292    0.9512328533224820    0.0573005998404666 O
   0.8774143064007728    0.8020437553493808    0.2465589585616115 O
   0.0596673864537379    0.1948371382129370    0.6153046931558213 O
   0.0100246384538403    0.1080107569541585    0.4949809453794644 O
   0.1356253517114188    0.3318648629488235    0.5063300539558176 O
   0.3542007924103321    0.2147490053015957    0.3368553338022021 O
   0.6443754598428928    1.0488279634223485    0.4416502726566103 O
   0.7512396317599588    1.1201684553428846    0.3567799024149536 O
   0.0742009587409730    0.4359737670417045    0.3382174001852677 O
   0.2870171390076155    0.3482314902247299    0.3897324481584786 O
   0.3479356320302461    0.5817837791101304    0.3519333669242393 O
   0.4677846628298068    0.4839843378087259    0.4679250757864474 O
   0.5084916460232946    0.9925714567525816    0.5949641308264848 O
  -0.0775030691610181   -0.0396498113410049    0.6087823568904362 O
   0.2512862887404948    0.0561859797927685   -0.1245693487404634 O
   0.3671514100758319    0.1267456705702000   -0.1943255124934233 O
  -0.0385242149293529    0.2814219456373848    0.8014618813275756 O
   0.1017988183075027    0.3485492748520340    0.7604739786939629 O
   0.2501334543240449    0.4839112185856561    0.9245779347533839 O
   0.1411530629304039    0.3760354882046039    0.9755837730266947 O
   0.0527735348763670    0.5834517889186043    0.9356636803512056 O
   0.2591526470136659    0.6342671325579695    0.8265557631643115 O
   0.1463643235578984    0.7151052148103773    0.7472115703215689 O
   0.7002945948513996    0.9538197064651067   -0.0163163751617347 O
