Li1 Co1 H110 Cl3 O55
1.0
  12.7499028768000002    0.0000000000000000    0.0000000000000000
   0.0000000000000000   11.7981517392999997    0.0000000000000000
   0.0000000000000000    0.0000000000000000   13.0101774505000005
Li Co H Cl O
1 1 110 3 55
direct
   0.2978533621075811    0.8536225921008145    0.6827648784266672 Li
   0.6801927451683158    0.5082693460980854    0.6322267514486427 Co
   0.1449918055269119    0.0575611235307178    0.2163730845340479 H
   0.1762610633285103    0.1170686646705180    0.1115920386807794 H
   0.2628358404594431    1.2037392960791518    0.2894135948280469 H
   0.0405865993961106    0.2400213976115563    0.1709271248421393 H
   1.0098180011886817    0.4642158357275841    0.2283675404585520 H
   0.3294237986739987    0.0133722529753936    0.0125771709050526 H
   0.3811300748998032    0.3466219930091046    0.2967017352366434 H
   0.4869395083547653    0.3777277126259786    0.1154943682372490 H
   0.5853881014247569    0.3420297482916948    0.0381306809370947 H
   0.4990611693190400    0.3548292107275762    0.3122119003183845 H
   0.5094157579991018    1.0084375190792303    1.0277640159924273 H
  -0.0607344674765358    0.2749582257782074    0.2249563648486225 H
   0.9194879013339089    0.2704592160033806    0.0558715073691838 H
   0.2649040915084753    0.6928889414491478    1.0501234343098784 H
   0.1820446367966799    0.7808925561629219    0.2024001775009456 H
   0.1712280838132886    0.6483667135945699    0.1935140573507891 H
   1.0455594499199661    0.7336393920810471    0.0649075870419850 H
   0.3215100129004929    0.7954219505789129    0.3321017135806975 H
   0.3870046294531785    0.6507636992093420    1.0132292411425474 H
   0.5214338887629698    0.5451429182993031    0.0540121937593552 H
  -0.3349271443761591    0.9722962649724834    1.1374858092140208 H
   0.3632413111810599   -0.1127169034341392    0.0092343264153851 H
   0.5671699234319927    0.6658558936423798    0.0412624752692646 H
   0.4516004156296068    0.5451132526357538    0.2827465066711005 H
   0.4763660944783896    0.6359554475559889    0.1993625555968354 H
   0.6157695093258987    0.6276719467026766    0.3221741011025882 H
  -0.3245772616142976    0.9733642288602533    1.2539331063984089 H
  -0.1251671151553536    0.6721229769647366    1.0197087838175600 H
   0.9799511070107729   -0.0656917411663994    0.1934587160610381 H
   0.9550411133371810    0.8322048306087088    0.0643670871120837 H
   0.8526324901016362   -0.0447060812536468    0.1707764735533727 H
   0.9857786023821454    0.5817867935056115    0.2560389539630745 H
   0.7387375048588574    0.6372361566309254    0.3032696702494527 H
   0.8304833017722207    0.6309589022239234    0.1638649613666927 H
   0.8681463337686277    0.7323713968619173    0.2137689693996538 H
   0.2311108929121156    0.2969328541546503    0.4431624585626553 H
   0.1721575026578480    0.4087427400714309    0.4656879007493596 H
   0.0713967351121085    0.2418598211612171    0.4817553218737322 H
   0.0382832436542063    0.1077741580034503    0.4879089658424332 H
   0.3077852024693158    0.3532052275458566    0.5530479697664289 H
   0.3173295888992257    1.1635465599219765    0.3846613348926819 H
   0.5937152236801893    0.4004600868085056    0.4923239709581239 H
   0.4866398982293461    0.4278567508913477    0.5647418917424242 H
   0.3869434525165747    0.3111816961525049    0.6469951895219156 H
   0.4757880508594526    0.0298091071780762    0.4339450593030172 H
   0.3995168816280782    1.0000294224390116    0.5903011126881170 H
   0.6378269322504083    0.2374659125943931    0.3892585050871362 H
   0.8370088416766377    0.2998316132785966    0.6598297569700008 H
   0.9905158933704482    0.2521936431609698    0.6146189977595340 H
   0.8062391955239713    0.1692492954679082    0.3497263771083412 H
   0.7366967049993269    0.2822627597343975    0.5779400207190125 H
   0.7261248597623513    0.3275757894201574    0.3835752620813187 H
   0.8978955799915289    0.2295545039210259    0.3974789925022322 H
   0.1324936711066131    0.5608224928706143    0.3624410384286326 H
   0.1338889758530023    0.9658206744148957    0.6151424341250956 H
   0.1003333476937878    0.9490383847499427    0.4249059819770211 H
   0.1915176501338853    0.6137223041114748    0.4653450922045131 H
   0.0178911510624190    0.5698603491684624    0.5147794679036150 H
   0.6021356799799273    0.7382460458350379    0.6521818981780229 H
   0.3340379514693935    0.7567591150704874    0.4870089012549552 H
   0.3375807235545200    0.6785426265567746    0.5847700582291147 H
   0.3830485208861257   -0.0548875065017956    0.4174733393118526 H
   0.4338473392189722    0.7376959596737979    0.3377411447321289 H
   0.6595965098449995    0.7365017048183473    0.5434354951882906 H
  -0.0038458772646201    0.9404353423206867    0.5031178283466411 H
  -0.0076175922701912    0.5819207127867763    0.6305388421112373 H
   0.6701322763757729   -0.0931333275397586    0.4646387221311636 H
   0.7050846994888067   -0.2040964706598075    0.4001522842488150 H
   0.7267546684814915    0.5478975870574393    0.4434391650114103 H
   0.8345303914244794    0.5351650842621402    0.5040309596275325 H
   0.9325311379457425   -0.2387942783372911    0.5544207412038633 H
   0.8381539484387109   -0.1540945709525063    0.5096734652950612 H
   1.0123905698048461    0.0541926298142301    0.8416558703339724 H
   1.0151670615430235    0.3540612938368466    0.6996631875263291 H
   1.0106415368737343    0.1767080908745539    0.7819064931285042 H
   0.1481149665725115    0.1344599480286157    0.9220237211168082 H
   0.2638695738241092    0.4631139682243297    0.8532083645694929 H
   0.2564106934766325    0.2013314392107430    0.9608932908766400 H
   0.3462890251841765    0.2794801204934864   -0.1437665075527557 H
   0.6554670666242356    0.1590273553992550   -0.0072031895841973 H
   0.6310684493950764    0.2679723858075740   -0.1505542704665203 H
   0.3873999265820038    1.1387121615793949    0.7120826953012819 H
   0.3970901964761231    0.3452734767031985   -0.0455180397771777 H
   0.5808515962796671    0.4198851633004950   -0.2280866487786419 H
   0.4658083669960148    1.2225642785770607    0.7530659948779920 H
   0.6538686230755335    0.2773679252487863   -0.2779360841508762 H
   0.9401468822332291    0.2110948328799648   -0.0557830803969633 H
   0.9054250491120100    0.4017662235950558    0.9098178922106163 H
  -0.0081274785071938    0.4997103783689594    0.7924344048746070 H
   0.7551721398537077    0.2306309437126668   -0.0258149265048720 H
   0.2515949705183247    0.5846770767256867    0.8985497907140939 H
   0.1211798594333901    0.9426390773271957    0.7319963360633487 H
   0.0285215065490184   -0.1568594107952880    0.8906098528928745 H
   0.1086361560385184    0.5078913207854304    0.7617407420464606 H
   0.3397548577630589    0.5828640808876395    0.7554848704175251 H
   0.3511996508261903    0.7626617345263830    0.8689729458582837 H
   0.4494678503651705    0.8210327417160955    0.7988140257764580 H
   0.6270009674306164    0.7376069626831503   -0.1193233359503746 H
   0.4737260743680208    0.9606334212457283    0.6826472781859463 H
   0.5089812448852740    0.5316755546383719   -0.2464169137506108 H
   0.5955379826631056    0.9848236508940998    0.9557588489941864 H
   0.3698005768325791    0.5107349865342141    0.6676144317283077 H
   0.6704734554452947    0.6163125403345099   -0.1405351911345169 H
   0.8357304005655561    0.5305762299062788    0.7895366734529228 H
  -0.0533885291658663   -0.1244399260783798    0.7932545320435558 H
   0.7661549686135095    0.8361927433801030    0.7822592938506669 H
   0.8744757937480322    0.5191846151034017    0.9646826319665347 H
   0.8053827184115165    0.6460697436454779    0.7315643665516812 H
  -0.2479970704211035    0.6438871983986468    0.9973109340488929 H
   0.8343892138784703    0.8360723855451321    0.6807618311892908 H
   0.1373156686225213    0.9093118233056832    0.2803691370988806 Cl
   0.6443226680062234    0.0688384831494112    0.3999977898149268 Cl
   0.5974164283447257    0.8989034133518639    0.7815160295841501 Cl
   0.1582130827106568    0.1323418196512058    0.1837217235809600 O
   0.5321124014791522    0.4006253669339939    0.0559884158437828 O
   0.4429250554273523    0.3843804495744743    0.2692017260045442 O
   0.5871504677907696    1.0245671641461018    1.0189401547932406 O
  -0.0109962846740671    0.3055511532108746    0.1795757386237812 O
   1.0472300508810728    0.5344971830370906    0.2423850279750648 O
   0.2132919336466769    0.7111375624838163    0.1723905945044435 O
   0.3867277645990609   -0.0363821503388689    0.0298286573550990 O
   0.4733872482575991    0.6243578682890418    0.2747535334472032 O
   0.5089867351231743    0.6283974840740503    0.0753905339901651 O
   0.9838413327230215    0.7606614212127825    0.0275534462665014 O
  -0.2942915407165622    0.9386299747961235    1.1942029449185489 O
  -0.1819463712010823    0.6153479824739687    1.0299315498410080 O
   0.9212212478710197   -0.0690515894609384    0.1431542523064067 O
   0.8530324931486618    0.6546337969169265    0.2329916126688575 O
   0.1942235530990582    0.3360381318451517    0.4963608105938492 O
   0.0151931697262166    0.1914434497546147    0.4889865837345290 O
   0.3053828312280623    1.2321844294708595    0.3481591425277539 O
   0.3729951109708833    0.3719437558242797    0.5984109175237110 O
   0.5614961547218301    0.4494677629917165    0.5470280672479595 O
   0.6523297878240352    0.3190388590410965    0.3982845157197189 O
   0.4000745329348139    0.0191386646560792    0.4540162690150695 O
   0.7611314009346885    0.2979058879190626    0.6462219487234502 O
   0.8539344608037194    0.2309538756501591    0.3369240920792773 O
   0.7666663450579423    0.4967183843024299    0.4954330753614958 O
   0.0643772306605999    0.9765681205235623    0.4896991028400731 O
   0.1537848136841738    0.5494198593927047    0.4348927788900031 O
   0.2985561125588260    0.7347980481402385    0.5503931251164298 O
   0.3877316938151250    0.7925036968760628    0.3735700180717531 O
   0.6340229817051651    0.6886196286692303    0.5997337280745646 O
   0.4014949359116046    0.9607690357076675    0.6568720724844197 O
   0.6807809849433535    0.6298087220686031    0.3547363010888550 O
  -0.0352019592570141    0.6073043497002110    0.5577635088306284 O
   0.7155059553433726   -0.1589114271225027    0.4661044976805407 O
   0.9104290087983299   -0.1591004397788301    0.5422172181847443 O
   1.0239592853805854    0.1368365914740969    0.8511714976550464 O
   0.2065365880701451    0.1345650492366184    0.9710545665781424 O
   0.0377470983936460    0.4914056877559692    0.7342830074106989 O
   0.3293006604810908    0.3235336308639877   -0.0767843312284421 O
   0.6039702037583445    0.2831196736157747   -0.2192512581440904 O
   0.3918564311176886    1.2118761637954922    0.7473473949370556 O
   0.9790412961587148    0.2836511127884981    0.6869846517701808 O
   0.9009308972307228    0.4890061593700357    0.8937535456023409 O
   0.8930720138362207    0.2602177813558239   -0.0133779708510671 O
   0.6760860472188533    0.2380787204442800   -0.0236801362527273 O
   0.3162974241739598    0.6829255164485660    0.9887253478472453 O
   0.0181853493819078   -0.1094384238167636    0.8297498067472648 O
   0.1749583083067270    0.9622523188851254    0.6770163019537825 O
   0.2357799480865140    0.5420788790498684    0.8356144462028220 O
   0.3767135706688209    0.7918807179415305    0.8000522871346365 O
   0.3961945033786659    0.5780497674888045    0.6997454308319313 O
   0.6562404058484852    0.6717441040616944   -0.0836381962382981 O
   0.5812108147022901    0.5025676055639371   -0.2436852061981797 O
   0.7955183295439862    0.5644298375581920    0.7282631048922295 O
   0.8283028930060813    0.8010482555686077    0.7514011444113161 O
