Li1 Co1 H110 Cl3 O55
1.0
  12.4215857604999993    0.0000000000000000    0.0000000000000000
   0.0000000000000000   11.4943427460999992    0.0000000000000000
   0.0000000000000000    0.0000000000000000   12.6751581187000006
Li Co H Cl O
1 1 110 3 55
direct
   0.4073322825165870    0.7240965888131340    0.5653304276203325 Li
   0.5249444801995657    0.2223428019811866    0.6821747293742501 Co
   0.0593006315379132    0.0795970150977470    0.2327294485619047 H
   0.1623667798288273    0.0497677323302452    0.3044263845282708 H
   0.0444092961185493    0.0908080084399912    1.0472991685851638 H
   0.0681239011359479    0.4487750615275696    0.0259685722511333 H
   0.3560948630540995    0.4787115274570158    0.2435135349393628 H
   0.3869500217584558    0.0625312285336082    0.2154310450274730 H
   0.4855412985577801    0.1253890200541495    0.1641338545773798 H
   0.3690569761936315    0.2666741753581369    0.2160472109109169 H
   0.5951078246230653    0.4437960904576998    0.0505030038604090 H
   0.6080739630135568    0.2383654667014019    0.1453293554328400 H
   0.6405223160476524    0.1619609241016976    0.2497966912719457 H
   0.3618485567754979    0.1180949970854637    0.0305084603898938 H
   0.4218964455379691    0.3112378369188467    0.3153722045883230 H
   0.6714112868600679    0.4279448143974118    0.2067076824497019 H
   0.8604072850574430    0.3887872905665938    0.0215677032854276 H
   0.6976156706059076    0.3669461113408237    0.0389106435423769 H
  -0.0640994744996190    0.4243447825457393    1.1706191292011909 H
   0.7594298394893734    0.4198138579726339    0.2963286551714612 H
  -0.0612850190287909    0.0199246949702893    1.0810265584919847 H
   0.6723475602332296    1.0251733947204746    0.1297705751672865 H
   0.2443973691308960    0.5128970401635448    0.0073513528215896 H
   0.1886081958834937    0.8203961358555752    1.0345577101759205 H
   0.0786472757292042    0.9421934435333030    0.1478113757520648 H
   0.1690881438808708    0.8652590750762598    0.2158610199397354 H
   0.3126068567386920    0.5650470424073342    0.1533592355374394 H
   1.0233413933929423    0.7431094201535036    0.1628557640124897 H
   0.2507959080559938    0.5420644321063118    0.3324173568441561 H
   0.4091452555487108    0.8143749129349797    0.2334600114403542 H
   0.4152604168062653    0.6728766092975799    0.2378134088089118 H
   0.5096606023066389    0.7398417257033146    0.1139680109606521 H
   0.5938173291654746    0.8292178668792481    0.0624967003947124 H
   0.9951726871789045    0.6297188567441931    0.3091261286610178 H
  -0.0611715069517351    0.5408264317861258    1.1098309328895994 H
   0.7484014569107478    0.9449078223098177    0.0594240760033415 H
   0.7615503416947970    0.8619487509593884    0.2109877079524972 H
   0.9052888332550026    0.7296262655770852    0.1847158463408684 H
   0.8578069729376563    0.8694437423567200    0.2982576251906935 H
   0.6835925013134718    0.5916418644647954    0.3329167588982150 H
   0.1414821677509603    0.2262716912615521    0.3641644953201904 H
   0.2508949292295956    0.2811160624383115    0.3458972675797804 H
   0.2267796507316961    0.2199546706537721    0.4958583159706268 H
   0.1827232789808182    0.4473761124658274    0.3984630812572460 H
   0.1903986275102448    0.1897041371799920    0.6116462206465271 H
   0.2856634369167024    0.3472094456600502    0.6280357597792592 H
   0.3675619979873020    0.1360238169016226    0.5780632076368513 H
   0.5564638053122267    0.4003642900470687    0.5611924121803027 H
   0.5479938722434101    0.2720777031084360    0.4037576897640220 H
   0.4813019042473164    0.0627349809404863    0.5399666414656101 H
   0.5639330609925309    0.3976690511209012    0.3641644953201904 H
   0.6502722789215654    0.0877522443327378    0.4160455049172088 H
  -0.1162538461306629    0.3436503034886650    0.6238756538850214 H
  -0.0575576366403657    0.2181790145374687    0.6410636051484131 H
   0.9475217663212623    0.4452898687779804    0.3458199509900525 H
   0.8931969793728979    0.3178019355947453    0.3490151774022776 H
   0.7340667331940528    0.1911422359356262    0.4070957151838058 H
   0.8587488816621610    0.2281978562010405    0.5084956336671754 H
   0.8775951066541767    0.1231992471757880    0.4244422443506192 H
   1.0858213387850963    0.5684722056262889    0.3731166518879728 H
   0.2129609641879991    0.8595005901013395    0.5592066381359643 H
   0.0246744003712182    0.8864216596079011    0.6302976645011973 H
   0.3023126799350652    0.5606570567322402    0.4977770297075481 H
   0.3147651963031343    0.8618321718709099    0.4844123049117225 H
   0.3384868052572023    0.5062903118209637    0.5971548826860947 H
   0.4669575199283189    0.7640318865626071    0.3654662542288747 H
   0.5811104169367700    0.7225018912819317    0.4159105953575815 H
   0.5534867297026379   -0.1220065955816243    0.4649679715399447 H
   0.6349964515305574   -0.0596177303945899    0.5422427471938248 H
   0.9910427796945370    0.9874852894004047    0.3730519584149352 H
   0.7285006161673636    0.7215788284992771    0.3337199046976335 H
  -0.1048664111664570    0.5564001800163790    0.6117401050769110 H
   0.9158752432782835    0.9229143942744675    0.4599810515024941 H
   0.8304078947070600    0.8950833118832153    0.6094726777414209 H
   0.9199648982530566    0.6249652139125019    0.4529381413341154 H
   0.8870222444011439    0.7692396658434459    0.5729358554262214 H
   0.7951048336925419    0.6425808361775245    0.4686318311592961 H
   1.0607440253078950    0.4839314866426210    0.7630605053463412 H
   0.2638039090564632    0.1236272838290077   -0.0419369475017262 H
   0.2370158639215073    0.4332874426238787    0.7147676166685325 H
   0.0766441498417572    0.1769291570664207   -0.1079534809574699 H
   0.1308965627778713    0.4311620492421398   -0.0859987252539141 H
   0.1279476639249984    0.2563882457829017   -0.0140215560970239 H
   0.5728497969178433    0.4526169514881750    0.6795814678391922 H
   0.6499365729915495    0.0426633678786364    0.7374032317285699 H
   0.3883983070536560    0.1998969774830839    0.8571398050941459 H
   0.3700971010415462    0.2966463110086848    0.7725104860785960 H
   0.6842083647102635    0.1516358448325703    0.7992501919525581 H
   0.8234426004468756    0.2348567841354776    0.9007447838111048 H
   0.8463833107148155    0.2020380307423797    0.7811454868395353 H
   0.8358130016953724    1.0385712899635282    0.9163106645797964 H
   0.8009076354756453    0.4380654452651028   -0.0781329456662883 H
  -0.1325673832190099    0.4889043677601077    0.7192590793758900 H
   0.1445164019241728    0.7562106477161752    0.8725163391124836 H
   0.0955586430900446    0.7831291072431439    0.7543166302039482 H
   1.1489211728250015    0.5646790352847489    0.8089684139144814 H
   0.2894648839227809    0.8257405040684375    0.9493516725165837 H
   0.2775662420867283    0.6446192302395033   -0.0044443185696351 H
   0.1097583598895606    0.9782720614378114    0.6676849693034038 H
   0.5575667240751085    0.5508400534905118    0.8416764871485626 H
   0.4391164691423780    0.8028875227538577    0.7760212904080780 H
   0.4640311624808187    0.8664065961038954    0.9384484554753613 H
   0.5296411430190198    0.6249521640145379    0.7481770618237171 H
   0.3882703040731463    0.9722256087144854    0.9084291060963078 H
   0.5477104945758668    0.8067537725239959    0.6971362784313949 H
   0.4667337159749749    0.5474288101627188   -0.0034742320519877 H
   0.5585287590544105    0.6414298351770985   -0.0176670333026952 H
   0.7175801103144507    0.5617741279979597    0.8091238360387303 H
   0.8605441435900636    0.8994506777351717    0.9393320736436802 H
   0.9550328846115445    0.7553989440628135   -0.1464232180158672 H
   0.8213293436931788    0.6243083690483132    0.8611239762995131 H
   0.8403051817660878    0.8195800822362257   -0.1803999144773209 H
   0.3053968272201746    0.9567484297291656    0.3113509529776782 Cl
   0.0786861596534722    0.1547765202759095    0.7349788043792446 Cl
   0.7031045028141759    0.8818324454905564    0.6971583688856029 Cl
   0.0885961665055317    0.0906985632957330    0.3076500129530491 O
   0.0070108504645944    0.0472953856613030    1.1074167618225850 O
   0.4062985980702073    0.1273238849256138    0.1604802512403391 O
   0.6161107790791395    0.1581851536241098    0.1782985693934513 O
   0.3601515109710054    0.3303602874021140    0.2675739842958145 O
   0.6317673952109087    0.3781646736238871    0.0892131323972767 O
   0.6802901854263618    0.4465391790097354    0.2855272120085540 O
  -0.0487944237866456    0.4563257324895476    1.0973182684703671 O
   0.9035579753424511    0.3836082210612757    0.3038307312094486 O
   0.3061785309564944    0.5666817596256263    0.0179823129041468 O
   0.1145556539830002    0.8663448265868655    0.1604699949580283 O
   0.3288149322519022    0.5611181531269687    0.2325140666333769 O
   0.5415389798048805    0.7713711491775681    0.0452214918371991 O
   0.4604019962158035    0.7501041654622146    0.2293519759024637 O
   0.6935702933916881    0.9417497470025266    0.1169297097141072 O
   0.9709004238935874    0.6816609306137560    0.1742228805920797 O
   0.8073110047018943    0.8195313626171600    0.2607559233934813 O
   0.1832071141461407    0.2905433087275146    0.3874565124481219 O
   0.2569481016223750    0.2123892098074349    0.5700333275322520 O
   0.5119115226431480    0.3499081645590082    0.4090309967613832 O
   0.5692383417570496    0.3805423650329303    0.6363346700583200 O
   0.4475389042498734    0.1274509039324635    0.5818280521897250 O
   0.6616572987351956    0.1597041617471209    0.3791118433710589 O
  -0.0820698048828643    0.4861029896638329    0.6589710740631505 O
  -0.1255562010978880    0.2595724208861209    0.6226591010139965 O
   0.8561324685385366    0.2073902288940202    0.4308555765740705 O
   0.2102624359448023    0.5296026495438768    0.4009806040921622 O
   0.0995751995073946    0.8960490043325524    0.6507376462019203 O
   0.2823087927671197    0.8247817715646812    0.5486631799204144 O
   1.0056544406772403    0.5712257340966956    0.3639286008270410 O
   0.3639457125253569    0.5673246845986534    0.5493945317436572 O
   0.5771576204946172   -0.0381812720043438    0.4896856119090837 O
   0.5074756960858645    0.7601325770509599    0.4337644160263852 O
   0.9166722429682491    0.9607416985061538    0.3876766280454085 O
   0.6886353357154362    0.6643167462263848    0.3790739740209881 O
   0.8981560885549063    0.8572229479100204    0.5875526356087634 O
   0.8623072035102904    0.6497556700781388    0.5060838294345403 O
   1.1355009861262875    0.4887903986512220    0.7903532615202956 O
   0.1411859092803467    0.4360853407473632   -0.0088499440834987 O
   0.1153856607308331    0.1773537137468499   -0.0346826001287854 O
   0.3059329906479697    0.4025558029118254    0.6828729455161806 O
   0.4299598282598839    0.2573513282526459    0.8093226501266020 O
   0.6191828506113707    0.1231635774546864    0.7635922541369188 O
   0.3410275436627896    0.1215975896990048   -0.0444753773736606 O
   0.8148422492469737    0.3639472447886936   -0.0372236335185372 O
   0.8153993439797577    0.1751961306167997    0.8492345782668631 O
   0.0922199389342613    0.7238242809422850    0.8136373892002957 O
   0.2196662272362049    0.7848951934342738    0.9715841367873256 O
   0.3967829048021328    0.8814139787625105    0.8975811151906052 O
   0.5783193079215065    0.5565559087987496    0.7652900633317604 O
   0.4807166327578164    0.7582942814244293    0.7151226418254465 O
   0.5443003019630442    0.5564723894517799   -0.0261672033984865 O
   0.8523487326366795    0.9773672685123065    0.9739351922708886 O
   0.8795594291223748    0.7778891382139940   -0.1199130950767095 O
   0.7929263678733025    0.5483449129997925    0.8344734211871762 O
