Li1 Co1 H110 Cl3 O55
1.0
  12.0960750030999993    0.0000000000000000    0.0000000000000000
   0.0000000000000000   12.2528362542000000    0.0000000000000000
   0.0000000000000000    0.0000000000000000   12.5822678090999993
Li Co H Cl O
1 1 110 3 55
direct
   0.7950538913767757    0.4679262015873843    0.5532265733181770 Li
   0.6135751886209301    0.8562779187964445    0.5810395244736836 Co
   0.1199208421928804    0.1134898972165194    0.1866813630291035 H
   0.1795575425122093    0.1103077768330338    1.0278317947776259 H
   0.0278091448270444    0.1607165138132806    0.2659882109789070 H
   0.1438715865397658    0.3093000713039758    0.2529309463829985 H
   0.2263843024202651    0.0103628355480941    1.0982960396539569 H
   0.5675652225900176    0.2575855142125270    0.0048330639215944 H
   0.5773394675388710    0.0638502066680136    0.2423835631915504 H
   0.5738540394153518    0.1721636593631056    0.3120903929385431 H
   0.6615758830487671    1.0962713324839921    0.0429793668998913 H
   0.8692771414616097    0.2971681863333392    0.0400461118969015 H
   0.7503666684667434    0.2946961056353198    0.0748049492253912 H
   0.8606710440313838    0.2251440458248510    0.2082593491377477 H
   0.8291070863093829    0.1071378985130909    0.2202754659692980 H
   0.1285310731953591    0.4375936326792996    0.2101675901928804 H
   0.0988404504183047    0.5552586344870082    0.0770475497190473 H
   0.3086986068326324    0.3839227938337562    0.2036314075867114 H
   0.4061682405524833    0.3336813650552572    1.0551559628223841 H
   0.4399056305649802    0.3470717341580647    0.2168317306540583 H
   0.3984401138687414    0.5254565549990993    0.1767562841884130 H
   0.4555801365474091    0.6433280396118917    0.1327880577610682 H
   0.4609248454702152    0.6191238477131921    0.3003818518205856 H
  -0.0111875131697942    0.5303288962890220    0.1550972316126204 H
  -0.1694779916522193    0.4510223602478737    0.1366848115691965 H
  -0.1843919203401422    0.5295160232697986    0.2334042598009257 H
   0.7773597219916532    0.6240027181036708    0.0546620780160612 H
   0.1348025290172318    0.7147947581604105    1.1843616056099451 H
   0.2588799673280359    0.6768525225542958    1.2206587188910418 H
   0.0697334880433385    0.9738833425615796    1.0165540186125557 H
   0.2743800365613988    0.8579999690680923    0.1503357688215748 H
   0.3482767344382655    0.9420131704725544    0.2127529746794888 H
   0.4835561535540228    0.7797952187457707    0.0119956042018785 H
   0.5179011786876740    0.9804450886203698    1.0293418564205883 H
   0.3969354935687402    0.9222136730364533    1.0399281833070391 H
  -0.0448773257656620    0.9107877470634353    1.0105853012764261 H
   0.7268689636387594    0.9827792420691436    0.0751814314360603 H
  -0.2096993031003803    0.8036011355105538    1.0631116033729375 H
  -0.1671557507606242    0.8696788976876557    1.1598906593010996 H
   0.1719063002723686    0.1095871273591642    0.3813481780390759 H
   0.2339148443503255    0.1287834991314039    0.4904938440538125 H
   0.1961852502561224    1.2692924972182642    0.5850817210611077 H
   0.2614155005478729    1.1805456979106945    0.6519901681529057 H
  -0.3511890011686695    0.2180901688116514    0.6566069829339412 H
   0.4605900261177424    0.0062876321450547    0.3446187102665205 H
  -0.4274327413706478    0.2445305776507845    0.5573426834491777 H
   0.4005622898633033    0.2845384574453069    0.5414210703473558 H
   0.4919315976525453    0.3226406560150438    0.3773687682252276 H
   0.5595717205676493    1.0806504594037374    0.5975055545362578 H
   0.8799913607407384    0.1391876208674063    0.4018683262283608 H
   0.7969718689020520    0.1089170784146037    0.4841746334626585 H
   0.8748987997253501    0.2634812920146042    0.5267917521041950 H
   0.9195248457660418    1.0167713718388720    0.5431258504653315 H
   0.8781395203715063    0.3115983146996915    0.6468964918004084 H
   0.0303931235136837    0.3477017923617197    0.5874723870727026 H
   0.1177680777636480    0.4303952993162983    0.5553501968497534 H
   0.1201961381049135    0.5703645247609074    0.4079236734166392 H
   0.1839308619556190    0.4630612055355872    0.3735785135013925 H
   0.3074544015845546    0.5258017811909983    0.5079596938778848 H
   0.6073467219504861    0.3659881707439654    0.3437651280536039 H
   0.4404925978248708    0.5498117323481566    0.6487904270083973 H
   0.5622155533805083    0.5826898343355158    0.3745417738757452 H
   0.4351015928928338    0.4024107581956688    0.5452160936869055 H
   0.4268542895341466    0.5626357019777303    0.4858039104984862 H
   0.9406391328330900    0.6366667247696222    0.5161187953655954 H
   0.8852161960682147    0.6480542922768736    0.6334728385637601 H
   0.1644245344948906    0.9244417286011918    0.4843343820890982 H
   0.0975069600095674    0.7471399223148855    0.4610738694024799 H
   0.2024079299254126    0.8440195325025353    0.5705771815958128 H
   1.0185817712309486    0.9271594667076312    0.5643048623925192 H
   0.6483608525567245   -0.0045045711666212    0.4042717085485279 H
   0.3343375020875411   -0.0073476924878629    0.3828900304534689 H
   0.4316814752109083    0.8451458023484471    0.4382616065930356 H
   0.4812636743826474    0.7278317396956241    0.4470112216600730 H
  -0.0096065788588629    0.7323278415660067    0.3897703481603761 H
   0.8348940874632332    0.9073844533986150    0.6411177243235777 H
   0.7457593888338280    0.6780497963687543    0.5398823970101058 H
   0.7545531504443288   -0.0635108359203980    0.4342178204670400 H
   0.7370937679631625    0.7526464024963107    0.4432297093983812 H
   0.0163701449891186    1.0067736866124815    0.8399642310074125 H
   0.2394604448846153    0.1840980390419229    0.8548423120370189 H
   1.1341895199958676    0.3227157406714379   -0.1399576866521936 H
   0.2946130460241607    0.2542320049394462    0.9423464104002498 H
   0.1712903980067088    0.0631943585171624    0.7563131741415924 H
   0.3094963862774132    0.0413363989032651    0.7627015296606082 H
   0.4844977813131993    1.0029623241629102    0.6698478392348622 H
   0.6584161804187647    0.2365071292050173   -0.0940383016282845 H
   0.9484267829572715    0.1821988869176934    0.7969211160287033 H
  -0.0069639530491016    1.0264834089159371    0.7109978137748683 H
   0.9832810641924616    0.3118529496213758    0.8064885486907976 H
   0.7742793839489036    0.2595287377655096    0.7985639041423891 H
   0.1418262949891050    0.5170046343293440    0.8928004931253741 H
   1.1137366044892594    0.3992939288177434   -0.2396670569369879 H
   0.1327192086018457    0.6456083279810783    0.8812445477102844 H
   0.3103189671557106    0.5474571754601454    0.9167945778627578 H
   0.4492475038561957    0.5614310829251463    0.7788011710824427 H
   0.4241451462796940    0.5957398740718414    0.9542123158367897 H
   0.4554395950908156    0.3780612938095980    0.9466699553148363 H
   0.6361974028457816    0.5198129637059979    0.7139511764407880 H
   0.7092649061287467    0.3509026839093038    0.7525364304956154 H
   0.7650739185420289    0.5165190324754907    0.7460153485058759 H
   1.0557508529276789    0.8301860006994886    0.8714768331881763 H
   0.1852089624961694    0.7932051751502465    0.7471264359673818 H
   1.0028659295259921    0.7439888151590410    0.7918139285983481 H
   0.2858192844136598    0.7267291378392279    0.6899507335491182 H
   0.3497061237232665    0.8862546517242267    0.7522900520170267 H
   0.4201157400477131    0.9315258027044629    0.8543098166155533 H
   0.5067231726017868    0.8368783287693990    0.7407158269083643 H
   0.5823815989727756    0.6961753956498082   -0.0037234222090009 H
   0.5421751683847246    0.7071361232082105    0.7140219109072214 H
   0.7642207492290612    0.6710661071865317   -0.0548161989447699 H
   0.7746199903025303    0.8403469134397795    0.7270211573452687 H
   0.7170318883916644    0.4787351275578593    0.3934525142613466 Cl
   0.8497749475731341    0.8268235139131433    0.3490805450368309 Cl
   0.8554792772819294    0.6638441058340150    0.8066848567043827 Cl
   0.1057575702260569    0.1645376699136857    0.2477736884876397 O
   0.1580398187932926    0.0490256390143215    1.0750410903523391 O
   0.5611267704491339    0.0917977767567447    0.3143014410915541 O
   0.5437955287078027    0.3177642340372736    0.3171713529824680 O
   0.6548555212802457    1.0268261866951278    0.0722252870776403 O
   0.8577444748764366    0.1674333260102762    0.2630992246251345 O
   0.8240723953055331    0.3133913689398858    0.1007425627741958 O
   0.0732875334662532    0.5476301966248797    0.1519809412431178 O
   0.1771666843212185    0.3804517607506672    0.2481893528240972 O
   0.3844091162140060    0.3824888401241424    0.1713931810480399 O
   0.4085475247411662    0.6060060685585980    0.1895290213800159 O
  -0.1588985268285303    0.5320974664021312    0.1587380697107308 O
   0.2128989363028927    0.7418211537744456    1.2002410959396212 O
   0.3199906995126956    0.9235439772747405    0.1375415728592561 O
   0.5091859549499754    0.6995746086267811    0.0259968401215740 O
   0.7496862824739408    0.6867628810607499    0.0227274406282451 O
  -0.1816596290810742    0.8791134479910905    1.0846260079387202 O
   0.2172871366064124    0.0726578817043145    0.4338784539820164 O
   0.2581185633190793    1.2174269546764576    0.5813153094158456 O
   0.4631181189075245    0.3290359100096558    0.5259604234312800 O
  -0.3696272135592872    0.1928633565383667    0.5855768623261421 O
   0.5163667966674531    1.0098015569953309    0.6001799531828723 O
   0.8773376073544727    0.1232704898494227    0.4783004936715356 O
   0.8662348322835856    0.3304690475817001    0.5694772209043076 O
   0.1039495457227040    0.3743160385031566    0.6094827276728053 O
   0.1785671386004503    0.5158693869701677    0.4306826866839369 O
   0.3778797254835616    0.5284019954874294    0.5423422079495627 O
   0.4855477086653978    0.6168329495556020    0.3804469096690132 O
   0.8797929492726063    0.6125139495378012    0.5636475881931878 O
   0.0459828912649312    0.6876018704821972    0.4309592663953847 O
   0.1386922205070698    0.8680139770458730    0.5306471779094633 O
   0.3928639248997813   -0.0438026642783240    0.3346896575794011 O
   0.4787992386055578    0.8006303947575691    0.4882152405115111 O
   0.6942856669992303   -0.0235105462052719    0.4699101143216661 O
   0.9539657697759567    0.9641386599817342    0.5981127582705857 O
   0.6885201604210943    0.7250821722239743    0.5052368143048382 O
   0.0310530069881127    1.0547788984505468    0.7784443196731322 O
   0.2214703117261957    0.2373028633352811    0.9132975930053716 O
   0.2462676116704444    0.0989944778446071    0.7523496597134595 O
   0.4362755274126149    0.3050406493287486    0.9845009733174684 O
   0.6466644345041958    0.2298580564262904   -0.0161617999620806 O
   0.9206161088407678    0.2562388872228499    0.7901393497132315 O
   0.7009622129018724    0.2771303767269437    0.7796404474482155 O
   0.1707009506034666    0.5856018131834964    0.9200849227058439 O
   1.0884887451694607    0.3866568546915855   -0.1676991085719808 O
   0.3946793898331892    0.5391872534683889    0.9056042263191221 O
   0.4903906019167200    0.5699572721137263    0.7091976613426001 O
   0.7075742750773718    0.4835503392179169    0.6979477021025317 O
   1.0752199782381326    0.7676021234574216    0.8223283005561853 O
   0.2567404303300124    0.7986390190879860    0.7039505945179493 O
   0.0183082943469881    0.9402829588252117    0.9637972334231708 O
   0.4135623745982029    0.9285795460785634    0.7749489243543176 O
   0.4663538792669774    0.9252415434193031    0.9940858909038496 O
   0.5674073201299626    0.7879859753932857    0.7181658379632241 O
   0.7597391301926293    0.8970113448902537    0.6711917940970987 O
