Li1 Co1 H110 Cl3 O55
1.0
  12.6958788998000003    0.0000000000000000    0.0000000000000000
   0.0000000000000000   11.7481605288999997    0.0000000000000000
   0.0000000000000000    0.0000000000000000   12.9550506362999993
Li Co H Cl O
1 1 110 3 55
direct
   0.3945791771831499    0.8027021116456410    0.2025780440291308 Li
   0.5244071326172528    0.2958780871225860    0.5853268374692906 Co
   0.1314268561530061    0.2287901376464822    0.2755109893742098 H
   0.1305982408138849    0.2526185488527607    0.1576534801397980 H
   1.0308911697406138    0.3992363956010022    0.2369600014992108 H
   0.2912039000276098    0.1057135933276428    0.0715124814413382 H
   0.3016568982837676    0.2823397974806677    0.0263714614316301 H
   0.3243162196486344    0.3934627257713178    0.0875192116210687 H
   0.3028533495196280    0.4971674714634567    0.2822844094451530 H
   0.4903094538809804    0.3379919141155787    0.0158467013339774 H
   0.5981814657998696    0.3048675795405866    0.0713688309028536 H
   0.6354723066889912    0.4186411355549042    0.2768787956836926 H
   0.6485812849104693    0.0944996675665914    0.0492813834637655 H
   0.4139775978788515    0.1113226416410276    0.2576476859802762 H
   0.4830141732051810    0.4615704093556277    0.2257558770171891 H
   0.5630984279483494    0.4578532316840616    0.1325829490304916 H
  -0.0213110531563327    0.1675124594747314    1.1710590135163623 H
   0.7148988676981614    1.1490908071345531    0.2017034816427628 H
   0.7383505721724921    0.1742760715146360    0.0318570285664179 H
   0.8890419906319214    0.1439845208395686    1.0537688505784910 H
  -0.1409040338379551    0.1219674570308382    1.2085733400631247 H
   0.6989590496204080    1.1051775495032068    0.3071233706375042 H
   0.7056746146216891    0.3018934969244996    0.3096196943422826 H
   0.0869083943386843    0.7911139145261769    0.1103892881894934 H
   1.0896110115005839    0.9428712892755440    0.2882079679208702 H
   0.2578804882859725    0.7017407741594687    0.0848539962568575 H
   1.0246529249822105    0.6000039961285756    1.0549189811660358 H
   0.5278649475780344   -0.0182165314283493    0.0363568334407159 H
   0.6295585766831716   -0.1003703288356758    0.0261960549385336 H
   0.6261015493795565    0.7217064529925925    0.0434228189447405 H
   0.3368352426524300    0.5681990170358200    0.1892836150967257 H
   0.3533862826913604    0.6549470655914200    0.0314895811411905 H
   0.5255185168791350    0.6522921818823257    0.2309175704661232 H
   0.5947646090117442    0.7875397379649437    0.1466708908783302 H
   0.5572091153146902    0.7447100542232019    0.3170337911834689 H
   0.9893343776379172    0.5250263008686968    0.2076023393273381 H
  -0.0372830864121945    0.9492978272696643    0.1630135518175906 H
   0.9355688994550124    0.5145225288359228    1.0308511477971458 H
  -0.0584032469080719    0.8256342123210839    0.2089631985393122 H
   0.7784919443470509    0.7532313882442799    0.1724793581230010 H
   0.8688464608837572    0.6687517799210416    0.1567758301545374 H
   1.2773648502708601    0.1738470681836378    0.3610135498116239 H
   1.1787580496010994    0.0894610064200754    0.3655137251977890 H
   0.1582473703283078    0.2579751321106414    0.4693118528741199 H
   0.0643873068065321    0.3210573481032578    0.5349078913503312 H
   0.1785996438525985    0.4661370817183370    0.4497897369750630 H
   0.1797740406877979    0.2978809538643297   -0.3563344761358985 H
   0.4644089232761098    0.1545197871644993    0.4169106682660231 H
   0.5767682180723505    0.1174759453707621    0.4658714958078871 H
   0.6227035963634263    0.3969866817045175    0.4185185353894161 H
   0.5740366230190497    0.4991328855334466    0.4853442101246602 H
   0.3939490514499779    0.1441513554682902    0.6515704998132535 H
   0.3845523014540498    0.0299865467137080    0.3436643316333310 H
   0.9218715413301850    0.4932860127544251    0.3579367575150108 H
   0.9466984952171636    0.4150243991394053    0.6463663518795444 H
   0.8805746760924220    1.2491830723966197    0.6435574087868762 H
   0.8131638251576763    0.4733475722280314    0.4092356693184004 H
   0.9034088573482439    0.3962955096712426    0.5261329352971709 H
   0.8294714791321690    1.0552548404495439    0.6094394410221252 H
   0.1137165422964725    0.5234600982317191    0.3674002481212517 H
   0.2745473139283732    0.8956298510406201    0.3345304422088899 H
   0.0816604709356775    0.6978916609396791    0.6461973058401669 H
   1.0866100376963521    0.9172162091241818    0.4054085904908521 H
   1.1510403939131939    0.6606313597271465    0.5007798888891789 H
   0.2554938870715834   -0.2048454078900240    0.5508013066506983 H
   1.0936674459078790    0.7829620000401252    0.5143290447302349 H
   0.3500253495620539    0.8612874534365437    0.4192402616305936 H
   0.3621623588401140   -0.0652635562489875    0.6422575296530336 H
   0.3759510851962514   -0.2244382623997803    0.5750026786716991 H
   0.5807734547638252    0.7302184238457321    0.4914051667511042 H
   0.6268498236876984    0.9503533116554536    0.4264258761537173 H
   0.8190728292204972    0.7207045940231782    0.3450244189455820 H
   0.7255448419601032    0.9923173279614310    0.4893048276043194 H
   0.8373007913668316    0.9165182275142243    0.6315011070104588 H
   0.6824426664968022    0.7274409677563526    0.4343857060991949 H
   0.8521875118130212    0.6491989316742949    0.4395929416317970 H
  -0.0521846935788303    0.9264431855289850    0.5172290719902387 H
  -0.0719627650287679    0.8128373153404740    0.4580899746984650 H
   0.3307773713851473    0.2529215750151325    0.6785947091219399 H
   1.0098213405376735    0.0677783779461648    0.8282815034418608 H
   0.2113157719188912    0.1231659425269602   -0.0234835193115763 H
   0.1935241718427784    0.2017101535743044   -0.2688651152038106 H
   0.2550346829435343    0.3844979180687912    0.7988860181835521 H
   0.3076785373213929    0.4183125734799730    0.9030322726350393 H
  -0.3376505544777628    0.4293330221435326    0.7979288625268035 H
  -0.5710278593011946    0.4240360226816239    0.7504439072556680 H
   0.4733764001163145    1.0034850337207499    0.7739744984172215 H
   0.5516553446339449    1.0019613909380380    0.8716699868820565 H
  -0.3978953005120093    1.1458307222978008    0.7517183136986454 H
  -0.3663126111082599    0.4278102305579060    0.9082117197776066 H
  -0.4923220045993400    0.4899067603257288    0.6797857503948134 H
  -0.0952466985266415    0.3373875641850058    0.9424454725008352 H
   0.8690748814620320    0.1444935366965864    0.9293231772067002 H
   0.8730210438660220    1.1494227739978256    0.7267064469683009 H
  -0.1827152392054199    0.4257341608668253    0.9043753781533800 H
  -0.0394326815851943    0.4855928934973577    0.8106358757698652 H
  -0.2968719676555338    1.2133221391923434    0.7000898007134561 H
   0.1829514496973179    0.8305762625984167    0.8419055335560658 H
   0.2590241664916798    0.7242779193873260    0.8556221916370527 H
   0.1060358609691218    0.7055354107657984    0.7700092495392232 H
   0.1257265812392984    0.7637777201313196   -0.0022362075312022 H
   0.0288033189971401    0.5543262069393734    0.7267126221660865 H
   0.3021381568124777   -0.0168266968274487    0.7385690019141991 H
   0.3511682401105948    0.5742348555677812    0.8543948710771895 H
   0.4460328815824800    0.6599742355772842    0.8949504825332983 H
   0.6205013069259899    0.5938115373329166    0.8959616711706699 H
   0.5926143049472945    0.7122045399292330    0.8576059739256365 H
   0.6196490618718747   -0.1151751997405412    0.7599791845361651 H
   0.5914651131414220   -0.2305898637353442    0.6882141234722640 H
   0.9281491689469115   -0.0272254311398951    0.7979033898359383 H
   0.7938331429782909   -0.2013895477236494   -0.2544931142578401 H
   0.9225252967783510   -0.2120550472026330   -0.2698361650555767 H
   0.4023210594723350    0.9855247752206256    0.1266045856744283 Cl
   0.4835907382510334   -0.3624802985134838    0.5963302680232844 Cl
   1.1708027122198021    1.0541908440929015    0.8254023174743830 Cl
   0.0809669388006051    0.2592851244249395    0.2175791432494966 O
   0.2364247070714643    0.1549547488750948    0.0408968542905918 O
   0.3315681791802782    0.4884239750031120    0.2136023158756505 O
   0.3458799098949483    0.3533253784104241    0.0224841126736955 O
   0.5631181193775110    0.3627013143051572    0.0270134041174191 O
   0.5512701802795436    0.4904021570293815    0.2044275157658806 O
   0.4029259801761802    0.1126717890212502    0.3318395997738691 O
   0.9981797676173200    0.4711872340255046    0.2657688429678994 O
   0.6797354888156618    0.1621431082605710    0.0811101282194685 O
  -0.0756639660539872    0.1017866806942555    1.1647217167890183 O
   0.7431474043162642    1.1585986785775100    0.2726711702926144 O
   0.6891070337822630    0.3837429062541178    0.3284177683009926 O
   0.1227137925775696    0.7288777884363626    0.0682006456790155 O
   0.0032435288824824    0.8747031706981768    0.1879497723750630 O
   0.3345116540113581    0.6845202059264823    0.0973090614302719 O
   0.5146905938117398    0.7309606677041257    0.2510047169625512 O
   0.6508229572062288    0.7811021344087143    0.0929678973870828 O
   0.9537480268570260    0.5714548458871459    1.0798976562082834 O
   0.8401521103094350    0.7284138860248666    0.2053862152220756 O
   1.1996861005140760    0.1756643739607830    0.3633361960786858 O
   0.1394908902232754    0.3125121805637911    0.5250816078741937 O
   0.5168881573061773    0.1704524942074057    0.4778606423083873 O
   0.5717161850066436    0.4149784344967983    0.4826873312774594 O
   0.3968436915367370    0.2245954384100551    0.6452555881778820 O
   0.9291494935483221    0.3574511306829408    0.5887895796274958 O
   0.8854423973811760    0.4999074748810823    0.4290819831011948 O
   0.6740675078457792    1.0147293472177472    0.4332687671997471 O
   1.1304982950117852    0.9555285899341623    0.3484941082012959 O
   0.1786209105960931    0.5374333495842328    0.4120199116199266 O
   1.1419980896421751    0.7298166588214638    0.5464755806019729 O
   0.3278142051249058   -0.1626379492176467    0.5497368569324270 O
   0.3489580741014938    0.8774516860866555    0.3428368551300773 O
   0.6114511260833064    0.7458089496603423    0.4236362305541288 O
  -0.0124401430847366    0.8672347674716322    0.4793203046849290 O
   0.8271163842044383    0.7277993217292699    0.4197381369520475 O
   0.8288177236840030    0.9783406718205760    0.5805101831966198 O
   0.3035677545696118    0.4413766097036397    0.8292232211041458 O
   0.0111758666745187    0.4748848341641084    0.7502524761243182 O
   0.2141174684600074    0.2753097607530599   -0.2920475795902081 O
  -0.3752068358319833    1.2176802682691508    0.7085691191726369 O
   0.5478564741200840    1.0040127759136446    0.7937544288238221 O
  -0.5048370893173033    0.4158602746771835    0.7119492680604614 O
   0.9327333336557382    0.0523337473119775    0.8215814138446201 O
  -0.1091338820285870    0.4138531519500133    0.9286361864530661 O
   0.8570552331017752    0.1885004260073173    0.9929199953998639 O
   0.8332207272445425    1.1865775267717791    0.6708618176950785 O
  -0.3156386873037303    0.4632881250737912    0.8624766611789302 O
   0.1863131704837908    0.7501713347225761    0.8614809105360223 O
   0.0490507553525743    0.7022234029068417    0.7151387577166594 O
   0.5983153675181686   -0.0244750431178286   -0.0035315324566780 O
   0.3677027393490293    0.6430669078716933    0.8926733783499043 O
   0.5797431991900890    0.6609837553204665    0.9133448529367829 O
   0.6361126719653275   -0.1970654665302545    0.7439869660712304 O
   0.3704579641173240   -0.0169016021709564    0.7048979640891718 O
   0.8638054550183808   -0.1638040892245268   -0.2491662342681445 O
