Li1 Co1 H90 C51 N3 Cl6 O45
1.0
  13.4322784374000008    0.0000000000000000    0.0000000000000000
   0.0000000000000000   13.0841356970000007    0.0000000000000000
   0.0000000000000000    0.0000000000000000   13.1271886744999993
Li Co H C N Cl O
1 1 90 51 3 6 45
direct
   0.7331065064346652    0.7683479891610298    0.5992922424115037 Li
   0.1594413582685193    0.3395508465812268    0.6845267909309046 Co
   0.2703570161699930    0.2006062466397240    0.1671776335144043 H
   0.0977913557124161    0.2323653180543745    0.3008848608211570 H
   0.0346494245834059    0.0466770879516353    0.2964787384263173 H
   0.4456505831529420    0.1858333946549867    0.1246376796943782 H
   0.5766846447384528    0.0447251057503306    1.1292198737186665 H
   0.6717483382101886    0.0349789518619053    1.2364172359942263 H
   0.7069218199245426    0.0699090389982524    1.1101883806705548 H
   0.0095099814447210    0.2659097576844704    0.2110187036986051 H
   0.2105227889578619    0.3851969644319411    0.2662567305130265 H
   0.1485928636755047    0.5028405777088143    0.2361969812563922 H
   0.1344686776050496    0.3808023294838196    0.1652655714101430 H
   0.3302604795883518    0.4811338324887139    0.1106826734441936 H
   0.5765790781358390    0.5623542527449529    1.0575563954731364 H
   0.5365162546537371    0.6199125063002623    0.3234129136535555 H
   0.5881467359032189    0.3492893576262640    0.3542313935300481 H
   0.3230323685532447    0.5605962459088366    0.3652527937389935 H
   0.8400675113524653   -0.4394222729299778    1.0282188115052828 H
  -0.0518794547438585    0.4352254886813560    0.2151917221078256 H
   0.0936610065494978    1.0642635994590601    0.0263614964239996 H
   0.2490173751451392    0.9534668274313602    0.2472374259086071 H
   0.0388192309391206    0.7621328289178778    0.2076775465713978 H
   0.2033840149630488    0.8633997395250339    0.3274815685136590 H
   0.5324103242818324   -0.1842491321648970    1.0199078164624578 H
   0.3640544485055017    0.7406243390552631    0.1244845623704911 H
   0.5197794812874224   -0.1092797170872998    1.1653548003782825 H
   0.6048736077475677   -0.2270368265884853    1.1676728900130504 H
   0.6019202740905206   -0.1325835108617645    1.2716014640458271 H
   0.7120348765306930   -0.1809023310452754    1.0180117516905429 H
   0.8212650422719564   -0.0548680221548454    1.1307441909579603 H
   0.7914748617106416   -0.1788976132245932    1.1721361457376989 H
  -0.0517908621789005    0.8477968747483557    0.2461343717544356 H
   0.7712199212500223   -0.0798303129445142    1.2662842554849729 H
   0.2298508576254329    0.0985139089466598    0.4074956542440149 H
   0.2360046907510065    0.0273789083968410   -0.4208553559858412 H
  -0.0173201651815247    0.2033217488954937    0.4319977778879605 H
   0.0395272269834492    0.3705425765197182    0.4766889158419402 H
   0.3066025423678729    0.2085861394211738    0.4355836942000677 H
   0.4938684639107330    0.1219361667936391    0.3699468681160686 H
   0.4206948765271282    0.0723020132630469    0.6347217628924162 H
   0.4278820414187672    0.1992030205936804    0.5830183847488205 H
   0.6068814577281717    0.0693625756960078    0.6014907329425389 H
   0.7335092675913233    0.2012467169156416    0.6690573705519266 H
   0.9188233236988304    0.0165986777980143    0.6060583522163042 H
   0.8930763886861474    0.0824685235378142    0.3324293148750842 H
  -0.1240310263865019    0.2544317354843159    0.3583625141640757 H
   0.7571180694396406    0.1748460430003441    0.4905429103650231 H
   0.1531959546766445    0.3486695230274942    0.4204109862472291 H
   0.1146090535477303    0.4812152287707964    0.4312125374030709 H
   0.3746006861121888    0.5073299074865135    0.5295714497350124 H
   0.4624393208976944    0.5909942797729454    0.5708482237218567 H
   0.6129452093381157    0.4086459722307784    0.4981314354079752 H
  -0.0070635284804568    0.5337507585083554    0.2978994538942246 H
  -0.0920141200958634    0.4354356668745270    0.3457429042759509 H
   0.6458986656011677    0.5409277705918919    0.3529310389436043 H
  -0.0110978403250591    0.6488849970156343    0.4984800248975808 H
   0.0652853291261688    0.7948182129511584    0.7221022392794283 H
   0.1696697049068275    0.8233634687211390    0.6278208184292674 H
   0.0556547961824935    0.9276363096328104    0.4157079990707039 H
   0.4020882044599300   -0.1656686156042394    0.4341814899310183 H
   0.6963495256811032    0.8068457555909126    0.4204880019758110 H
   0.3142527709183682    0.8234337828803090    0.9622252449099589 H
   0.3864065759870189    0.3027390914027449   -0.1234161938913176 H
   0.5301670712000542    0.0090337914125349    0.9111632836156811 H
   0.9598856053192195    0.1809496177300308    0.9734896522150235 H
   0.8545795690728628    0.0851129473500752    0.6968096950620241 H
   0.0793946256899083    0.4427645422561838   -0.0466213808512439 H
   0.1678062831413653    0.6084413626591570    0.8070023673750161 H
   0.1326342903776828    0.6986987573658454    0.6502765023772418 H
   0.2802406707278342    0.5691302448359191    0.0284373407403790 H
   0.3427252301353489    0.4613276331339167   -0.2096593361262730 H
   0.3024960164156997    0.6614162030346603    0.6710098068759193 H
   0.4781138024073819    0.3650443149863642   -0.0509383752515821 H
   0.5748426638626611    0.5495403379490034    0.7316442671351963 H
   0.9337716439659960    0.4872864742729517    0.6997890077671102 H
   0.7507021809958716    0.4986856987577755    0.9016875304224912 H
   0.8093586482267957    0.4091847926896351    0.8180946129129243 H
   0.8150479287428413    0.4669628544207843    0.6468523114773793 H
   0.2455540758830816    0.9177273631802200    0.7559830656336622 H
   0.1027376498433514    0.7109234853650112    0.8740456636833570 H
   0.1580953468614255    0.8868120616756088    0.8568447225223129 H
   0.3915181436424978    0.8710120115395191    0.8597790903412829 H
   0.2279070325237062    0.6788816287450034    0.8993046896806071 H
   0.3377856362824356    0.7987145345103798    0.6644920366113536 H
   0.3667621053017407    0.9954275662003628    0.9621284991381497 H
   0.5870352342268964   -0.1592639128450641    0.8945222490867614 H
   0.3659171257956281    0.7070913636902492    0.7692075270400275 H
   0.6486346124601664   -0.0388715509436832    0.6701139562645204 H
   0.9479233756238751   -0.0026842160700040    0.8137418149592393 H
   0.8276809307157252    0.7211656597893200    0.7785812020172926 H
   0.7126326902253259   -0.0425439371916352    0.9791420429774215 H
   0.0295914591521033    0.2792067766109778    0.2923064817948275 C
   0.3359698609384634    0.1518586629421442    0.2959637766803090 C
   0.3803361240990530    0.2760288823302319    0.0381180121431491 C
   0.6530895528694857    0.0266681239617535    1.1548163672506526 C
   0.1399040920315936    0.4164355582118662    0.2376908273864545 C
   0.3397838080836744    0.5157542499538018    0.0298397735427475 C
   0.4362956549785733    0.5673616144474933    0.0383633045724607 C
   0.4615600955261359    0.4408362528693820    0.3619847672739413 C
   0.0704557103331745    0.9591615100397868    0.1305696428839730 C
   0.2425880861453263    0.7919024681986220    0.1772788062245658 C
   0.0926388419134692    0.9120135734633231    0.2365664434558212 C
   0.2024139636005249    0.8822232985054311    0.2425852493067250 C
   0.0261102924819869    0.8235874040324086    0.2627845476161249 C
   0.5922160380886030   -0.1443076326190138    1.1875301501213293 C
   0.6672710635407959   -0.1035964987439552    1.0232002198148951 C
   0.7726463359933804   -0.0998064127078275    1.1807579460946829 C
   0.2786988623074297    0.1601052909578365    0.6182506047974606 C
   0.3080922375147726    0.1279984701690303    0.4056254899149465 C
   0.3837219979261892    0.1279365631375873    0.5853989401575124 C
   0.3909337305039090    0.0831426223246391    0.4741722307527576 C
   0.6630416991582188    0.0411964049580737    0.6511632116558713 C
  -0.0497331323507992    0.2204378966630034    0.3539312531041202 C
   0.7558859627589214    0.0445989988344279    0.5829262096433960 C
   0.0908044546861025    0.3992597962659298    0.4196748042482019 C
   0.5834319736017118    0.5800820572688072    0.3879309167843560 C
   0.5104118598085784    0.5066344851666360    0.4501249645918616 C
   0.4285736590057085    0.5624634689769680    0.5016602183902740 C
   0.6240014125498133    0.6734429813900759    0.4437481993852636 C
  -0.0323734564710357    0.4549166632431632    0.2915980285052008 C
   0.8908392403021226    0.6048071906281453    0.5947604266910851 C
   0.0288990970898261    0.7879419467549411    0.3749593655846102 C
   0.3804343948433762    0.6580067305992569    0.4552565279197245 C
   0.3713376507154565   -0.0334795249334229    0.4732251886778502 C
   0.7463075430887508   -0.0184429948517982    0.4817582800180847 C
   0.6605960976801751    0.1046419407751882    0.7501074739961452 C
   0.8505340900982237    0.0157312150734720    0.6527819893337818 C
   0.2181231376608598    0.4062017909152841   -0.0867244077105003 C
   0.4006007427390376    0.3414883073800942   -0.0495846962239836 C
   0.3338354501507766    0.4407045666778061   -0.0622637247751093 C
   0.8163604387598249    0.4861446334707789    0.8512068055367996 C
   0.8162539787868079    0.5688512046238219    0.7681021875526636 C
   0.9105804927810526    0.4879296195440550    0.9149036122738179 C
   0.7010278086911569    0.5980279885429560    0.7555237136620010 C
   0.8658553925086162    0.5237337422502581    0.6744119062215891 C
   0.3159040172131326    0.8780778202517596    0.8939052091248283 C
   0.1766610727851557    0.6863609152845366    0.8398509849040412 C
   0.2316904561801501    0.8659662063347369    0.8236769201240903 C
   0.1379759009119184    0.7729803165385192    0.6873293712024494 C
   0.3117036873686508    0.7347531067645727    0.7135261455862912 C
   0.5680569200720758   -0.1229412996434165    0.9715425483351462 C
   0.8494330110766022   -0.0716738704808008    0.7211340197836051 C
   0.0571169457419693    0.3906249118061252    0.3097146264986442 N
   0.6708832578700099   -0.0846177900427808    1.1365436048223991 N
   0.2154854615461844    0.7613685445790740    0.7671888160534567 N
   1.7055104110196160    1.6227468015000972    1.1087234820942622 Cl
   0.0077634423069765    1.2891519732990429    0.6418299108983375 Cl
   0.7214480226763200    1.3267318342380228    0.4079793831030611 Cl
   0.2494923504093680    0.4796855900951147    0.6442630289704533 Cl
   1.0553452107745240    1.1067662158242746   -0.1194138136937920 Cl
   0.9041869385973572    0.2038819693158369    0.0503605420545371 Cl
   0.2570733427536356    0.1774025741136426    0.2424412733156074 O
   0.2993647531534008    0.2649391165741897    0.0842741248511945 O
   0.4598642551587582    0.2173188522763453    0.0593335219454113 O
   0.4224272706334928    0.1529966823226230    0.2559293098168229 O
  -0.0589020905862896    0.1264538515203080    0.2968116352946688 O
   0.5179978029138289    0.5122120029859241    0.0317046054277004 O
   0.3771549809892566    0.4550778508102169    0.3241625029406444 O
   0.5201019880028830    0.3691019005410732    0.3259770574953657 O
   0.9089925268898297    0.5428374878692608    1.0031616566066901 O
   0.1266613647587043    1.0355662511056574    0.0903203547004066 O
   0.0872279951730060    0.9953052807061542    0.3073112177580289 O
   0.1964514606362473    0.7117703124124056    0.1620782933845536 O
   0.4419471161475612    0.6595979705926461    0.0631180337119333 O
   0.3365900088931698    0.8062419709632578    0.1447539442311228 O
  -0.0014687963320554    0.9220333411450401    0.0908939733316850 O
   0.2095140248778774    0.0845206269875022    0.6149932432206394 O
   0.4920827653703264    0.0955882284977192    0.4465165758366963 O
   0.7746296182879036    0.1537686095048147    0.5631816926392726 O
   0.0260075548856490    0.6946602789196065    0.3940213297419534 O
   0.5657903649122877    0.4586073158868126    0.5237658654709542 O
   0.6245709361816866    0.6766522113287128    0.5395714583625261 O
   0.9805157613490730    0.5933589755172041    0.5532248768090943 O
   0.0415529443721119    0.8583661628696726    0.4497998378563642 O
   0.3024230578327931   -0.0678425130903776    0.5337949740077838 O
   0.3126156696549837    0.6371593466897073    0.3807938212246650 O
   0.6690094134498469    0.7401665327363196    0.3843840796698378 O
   0.4057443228339551    0.7403537823993265    0.4864989751922835 O
   0.4178137569776521   -0.0924799830360549    0.4103495783346144 O
   0.8358128348084715    0.6769227679846492    0.5664192479950937 O
   0.7154326619632018   -0.1108044643432132    0.4933585932135374 O
   0.7653527111287246    0.0210170055606387    0.3983436565864071 O
   0.2610004501498854    0.2463769428376634    0.6453538946809324 O
   0.6231519661916860    0.0746674732916445    0.8286536140392854 O
   0.6979680150610931    0.2019414513796142    0.7387295618091941 O
   0.1896194104797763    0.3454434788334036   -0.1546467955201629 O
   0.1547385075723847    0.4548338912492708   -0.0320036279752795 O
   0.9908252557989815    0.4457656575693644    0.8873112610871845 O
   0.3745001819418582    0.4965506704573273   -0.1510275895212204 O
   0.6389847231577608    0.5174752241565658    0.7557682443135818 O
   0.6714349140938244    0.6870342497870228    0.7539232186496293 O
   0.3038412833474577    0.9807013355602925    0.9252394125250599 O
   0.5082024803545783   -0.0376830887968434    0.9683316551999026 O
   0.8622804219461913    0.6590492144373851    0.8052495168164882 O
   0.8081496202814857   -0.1517708691874323    0.6968279777275628 O
   0.9069519199944512   -0.0669643503850922    0.8002553020134853 O
