Li1 Co1 H110 Cl3 O55
1.0
  12.5517400793000000    0.0000000000000000    0.0000000000000000
   0.0000000000000000   12.5541966156000004    0.0000000000000000
   0.0000000000000000    0.0000000000000000   12.5331341690000002
Li Co H Cl O
1 1 110 3 55
direct
   0.7590900528137261    0.2416015457437568    0.6608685802699635 Li
   0.4638744112700517    0.5589655413855904    0.4726921857465994 Co
   0.1519869777136423    0.1179783424818708    0.1194110399218212 H
   0.0700714828496552    0.0304046463176853    0.1622375183399347 H
   0.2905924610178364    0.3100471839881226    0.2151684126441590 H
   0.3591956980638367    1.0381455466218308    0.2848269663808145 H
   0.6050540396565907    0.0175390839128957    0.1813915461164645 H
   0.4667935284417358    1.0967235681804690    0.2908406257722876 H
   0.3517839767078931    0.2248469889656170    0.2842429145465888 H
   0.6696044521795678    0.2219204775268567    0.3073329091239859 H
  -0.0726846600181414    1.0392368151768394    0.1496229561826851 H
  -0.0497144584223099    1.0224296863369255    0.2661532653859839 H
   0.8925966414948914    0.2380322213678490    0.0939916200301869 H
   0.7657632311516153    0.3016906158052062    0.3279167468553412 H
  -0.2936396815911079    0.0659564552996628    0.0079271938894377 H
   0.9923198664893501    0.2743443816723587    0.1595510394795008 H
   0.1509926932621517    0.5834768669145870    0.2215171837437943 H
   0.0651424451537559    0.5864766606212749    0.3129819350615778 H
   0.1456739088085046    0.5358210894627212    0.0423343895824850 H
   0.1010645561241374    0.6599978924660168    0.0402257390531251 H
   0.5085367446563613    0.4898643454618288    0.2678024937211537 H
   0.5422380480077282    0.6541034491761892    0.1169631286821980 H
   0.4255482511551406    0.4081872751245809    0.3317282435931768 H
  -0.1377067202937487    0.3632986998333720    1.2241666272550695 H
  -0.2424141147822183    0.4412503227021707    1.2373556666263117 H
   0.2841941449682199    0.7149349004736006    1.0758637386928942 H
   0.1622939151727245   -0.0092315498672363    1.0035913136325734 H
   1.2247816591623804    0.9851433497968133    0.2104569016044019 H
   1.2961343157933920    0.8885063416992610    0.1621529425278747 H
   0.2468758132436418    0.8291716010696314    1.3227373425559312 H
   0.5800861867517305   -0.0405954046845747    0.2851014388274997 H
   0.4040476465939401    0.7606948975160354    1.0949172329569752 H
   0.5457268073130789    0.7439379510987241    0.2058275727216465 H
   0.6338325195898801    0.8022714329154735    0.0504193584844085 H
   0.6607363590469215    0.9238252086547957    0.0161626678425771 H
   0.6640498438496055   -0.2656383991912347    1.3160510660930753 H
  -0.0339334592342637   -0.2303577664624448    0.0345170313160796 H
   0.7880836423639246    0.8171803917067848    0.0732472478329215 H
   0.8218016764632734    0.7729561361052673    0.2608880221427398 H
   0.8714999649921089    0.8714921107978126    0.1534655704362786 H
   1.1904517577082681    0.0654335225942883    0.6602964967110295 H
   1.3005002443143605    0.0376474355445971    0.6120675388263291 H
   0.3900758786245559    0.0656837974701888    0.4403523101389054 H
   0.4432071572988026    0.1284927548366984    0.5321418006595984 H
   0.5755425936212407    0.3014412967849743    0.5837226735109405 H
   0.9783058732988689    0.2216098244345550    0.6397461701504904 H
   0.8258329900246056    0.1498800254220865    0.3928733641724729 H
   0.9223614388568230    0.1739333367765357    0.5291337741363327 H
   0.8443642851701766    0.0370342541331769    0.4479864740048488 H
   0.6728334865400577    0.3082127376507615    0.4914177492676932 H
   0.6869916828440965    0.0403467719527819    0.6635151648794257 H
   1.2559964546827358    0.3617741100419221    0.3611757860054230 H
   1.1930171390654796    0.4693524793596192    0.3527812377159592 H
   0.2873817508098979    0.4462980371788785    0.5045054572414671 H
   1.0803076668279938    0.4281248312792276    0.5253932891652267 H
   0.3066571658895171    0.5249705345310953    0.6075116153653617 H
   0.4030167138373464    0.3441592831620237    0.6069826175974770 H
   0.5976478952166411    0.5540930671147963    0.6310244890030587 H
   0.6142814455197033    0.4491385216074630    0.5705743262756896 H
  -0.1048300038071997    0.5141653827437289    0.3334979525662812 H
   0.9758360962158392    0.3494579097517444    0.5450068987129503 H
  -0.0543153344470802    0.5207671592283358    0.4436188514084676 H
   0.2023776005280110    0.7032057548732342    1.3504159738800925 H
   0.0341943058881391    0.8180143757776563    0.6233225049104635 H
   0.1863328132134515    0.9001757463203386    0.6035373500835616 H
   0.1721331883906007    0.8090986320285968    0.5072533732483974 H
   0.3332447145394737    0.7216426176281464    0.4293805932366700 H
   0.5595695095123177   -0.2252996968826603    1.3836638426399024 H
   0.5757330054673194    0.8731329963622781    0.5527328193561286 H
   0.4749382158997398    0.9416917441940975    0.5187110021274679 H
   0.4261848162807343    0.7658987350852845    0.5079156178145274 H
   0.8453123608891461    0.6783455420251910    0.3500516730644759 H
   0.7544341246610728    0.8767333860474161    0.5804489512762033 H
   0.8926205425634367   -0.1411166916008452    0.5457297825405574 H
   0.8478697752235090   -0.1837327200399084    0.4304681105181584 H
   0.1874665205647906    0.2658627557061310    0.9185607071115046 H
   1.1321889196173136    0.2099698920299264    0.7559932301718904 H
   1.0528612731149707    0.1151282994966001    0.7301944159535152 H
   0.3532212276297594    0.2977978935947485    0.8606581912511878 H
  -0.4114528286653317    0.0551462852700362   -0.0156712928108446 H
   0.6151841092084365    0.0875047875652135    0.7538796327554099 H
   0.4780166735283936    0.1714353672958737   -0.1409157032538906 H
   0.4319664847618782    0.2759980119790725    0.6994255759490864 H
   0.4503535767938917    0.0563989341237636   -0.1105170818984791 H
   0.7927459441348568    0.2966349358645933    0.8428573764676180 H
   0.9470592096871194    0.0609516746734039    0.8612964992667350 H
   0.1567177958810714    0.5355311465765730    0.7955715186758885 H
   0.0472739266389503    0.4722789907983795    0.8287906635749986 H
   0.1727992315007338    0.3491448670202711    0.8387642263179221 H
   0.3122428456085883    0.6646266235413124    0.7576568204374099 H
   0.5868111507381347    0.4437466990900518   -0.0070100115593840 H
   0.5892355157909280    0.5332219585904635    0.8150008167841230 H
   0.6494080492586639    0.4195006235090974   -0.1114474158311390 H
   0.6444788522223075    0.6598178729817598    0.7950129991622847 H
   0.4753246165078912    0.3420603834230108    0.8887277862348718 H
   0.8221601924914552    0.3973160099868016    0.7709392123559258 H
  -0.0728615279253777    0.5592443326222714    0.7593052508875603 H
  -0.0442725834656537    0.4647141897276373    0.6780039589473256 H
   0.0600441878925548   -0.1614811966208091   -0.0255946685860457 H
   0.2257122137489322   -0.0623032055375069    0.9089701291779094 H
   1.0483917732969719   -0.0084395437911450    0.8565650411014920 H
   0.3209045928494588    0.9645844874575631   -0.2201815905095494 H
   0.2123268186611962    0.6724017128591512    0.6775866650821617 H
   0.4785321399066903   -0.3158646318452996    0.8387881628685052 H
   0.4019300119208134   -0.2813678007647787    0.9343987247472672 H
   0.3701694753353368    0.8674376896700798   -0.1577000125227016 H
  -0.0302786671727507    0.8987101009617869    0.6891009437976120 H
   0.7014478458026685    0.8126289256313692    0.6736977734974409 H
   0.9545402441418448    0.7186436204678490    0.8720120950777320 H
   0.9468042649559680    0.7403064961043559    0.7491784942209055 H
  -0.2978980553036220    0.7925073672605131   -0.1202057996894647 H
  -0.2017815015526713    0.7321761470963464   -0.1911297990669424 H
   0.1843338871807672    0.2707177059563337    0.0867504145363147 Cl
   0.6268733251317304    0.4908998557695012    0.1504798846935571 Cl
   0.8494631797932055    0.1523485226862994    0.9461356133831396 Cl
   0.1482847021959524    0.0431224175051783    0.1445715461246491 O
   0.3348883113531158    0.2997470426123441    0.2794635832801799 O
   0.5819329426480088    0.0304357514542350    0.2560344875695235 O
   0.3944226862906881    1.1048403758998397    0.3158782576821228 O
  -0.3600336632012239    0.0393618423409074    0.0400265071637725 O
   0.9148087011964612    0.2680859166820647    0.1634439204893187 O
   0.1487101412160614    0.6105235996046001    0.0767833944505505 O
   0.1443856412139049    0.5856833004163198    0.2993317181491030 O
  -0.1830024319965126    0.4070800756417619    1.2767233134851794 O
   1.2828771897735167    0.9287876926677182    0.2338660501895725 O
   0.3301152679645897    0.7763836752236630    1.0783611188037221 O
   0.5379262952421294    0.7341452097737050    0.1251398543613564 O
   0.5841342310610446   -0.2583969959550424    1.3216761554800842 O
  -0.0477254114979576    0.9857407595897012    0.1964053485271518 O
   0.8459736237855702    0.7993401421983700    0.1268257854074202 O
   0.7993083808551521    0.7408776198663568    0.3310269026610944 O
   1.2453286110886173    0.0081035299203125    0.6630547852232124 O
   0.4087784647613692    0.0579547485337219    0.5174742803473454 O
   0.4444906446796932    0.2819816684646380    0.6195213806778804 O
   0.6501991746275183    0.3194838690765805    0.5656761101413850 O
   0.7205256787156453    0.2473542037760723    0.3617071774283660 O
   0.8820881383577425    0.0993138267685488    0.4142598742333786 O
   0.9201067713907023    0.2360312968348697    0.5820343488098184 O
   1.2062423969939609    0.4118482023353982    0.4014434471662122 O
   1.0073934737186794    0.4236753231417983    0.5508147037694096 O
   0.3445937385871375    0.4714370412636028    0.5570541646213825 O
   0.4631032034583186    0.4762011852252865    0.3344003605232609 O
   0.5881480171721102    0.5248470698405652    0.5564389952713990 O
  -0.0611500043381081    0.5614698832373766    0.3762773557682482 O
   0.2277533650027134    0.7700973311097009    1.3782222668073634 O
   0.1653325376871358    0.8226717825230107    0.5880312526158834 O
   0.3917393929953191    0.6994683592089272    0.4808026869691448 O
   0.5031789217907566    0.8672146566807352    0.5130029326984379 O
  -0.0394594659521998    0.8287733278743727    0.6510354452904604 O
   0.6845760815164365    0.8666809705990886    0.6129571806229979 O
   0.8494791138389025   -0.1215073125590917    0.4843899780165196 O
   1.0994125876186553    0.1683567154965245    0.6925765309422660 O
   0.1968325526254669    0.2720447522429354    0.8374955891370224 O
   0.6660487698822898    0.1067892553342751    0.6971763380793022 O
   0.5136818480119115    0.1002360681794897   -0.1295019580508889 O
   0.4308383543265331    0.2879995764449958    0.8435355787341368 O
   0.9880336081968664    0.0139797322977972    0.8095975394325167 O
   0.1243645127956677    0.4813341301657796    0.8434478113819990 O
   0.2623135134171468    0.6233432172135847    0.7144425698998514 O
   0.5795515995185972    0.4371289916776345   -0.0871135185084445 O
   0.5852376637255594    0.6012024137427673    0.7730216922566481 O
   0.7669375703194816    0.3348835004444504    0.7773462290619797 O
  -0.0711223268375540    0.4799505290854511    0.7513439541636491 O
   0.0190139485196629   -0.2311750230591155   -0.0240462131288303 O
   0.1516324451968848   -0.0469346394788671    0.9393216753171741 O
   0.3416244291715079    0.9403296498663131   -0.1477942700064300 O
   0.4060505561380486   -0.2942607006416909    0.8547857575081546 O
   0.6745575502844695    0.8444254644480367   -0.0000822153011454 O
   0.9153345247044611    0.6969385278726444    0.8051525219892506 O
  -0.2822332949789352    0.7527278405180818   -0.1929737113468541 O
