Li1 Co1 H110 Cl3 O55
1.0
  12.3532873451000000    0.0000000000000000    0.0000000000000000
   0.0000000000000000   12.3557050417000003    0.0000000000000000
   0.0000000000000000    0.0000000000000000   12.3349756087000006
Li Co H Cl O
1 1 110 3 55
direct
   0.5858047716724119    0.1728648841803470    0.6124856298111668 Li
   0.5116471831368087    0.5504702077336253    0.4510438837411173 Co
   0.1155874248457742    0.1285533699322964    0.1251145809572176 H
   0.0532942895448103    0.0113711455983955    0.1262374044178680 H
   0.2546046719983052    0.2804702369718596    1.0359376223968650 H
   0.5640979990127146    0.2448130244928393    0.2197787324758004 H
   0.6621374897301708    0.0745630878926552    0.0582625638832326 H
  -0.0192159642019627    0.2898675153633503    1.2168459655334414 H
  -0.1359075750849386    0.2485270982624156    1.2424479618419919 H
   0.7786578911252658    0.2912951959319999    0.0741297213230865 H
  -0.1461809538589165    1.0285967071978102    0.1781629225800805 H
   0.1098164913275575    0.6246958384770585    0.1798443203110474 H
   0.0379444482675235    0.3807170456986549    1.0371861048007651 H
   0.2026557468197332    1.3434876815994365    0.3310939100292573 H
   0.4587576176512977    0.5731261386623135    1.0943730845222714 H
   0.3426735373624334    0.6253724489959875    1.1050500411841970 H
   0.4735965827687659    0.3773420865312692    0.3234765459597467 H
  -0.0867295722563254    0.3757768176992011    1.0015395000608358 H
   0.7342316598988314    0.4009174307966841    0.0430041632207091 H
  -0.2504989352997966    0.4990219093277791    0.2081564962794931 H
  -0.1577770574707070    0.4234098744947219    0.2806268463116008 H
   0.6907598304984562    0.6419105582589039    0.0754215763299793 H
   0.8952608616350837    0.5770660190524416    0.2797610156574675 H
   1.2409259369070322    0.9930018141086911    0.1764409897061299 H
   0.1385214012105656    0.6819689764818676    0.0737191003246609 H
   0.2312821350936423    0.7124148311482268    1.2444828260197773 H
   0.0021916168420335   -0.2217123563369791    0.0052809431057209 H
   0.2594641072500734    0.8269165933079154    1.2793754771002088 H
   1.3615254144696534    0.9412686270632957    0.1736367685145125 H
   0.5466022512038751    0.9554725919044517    0.0653904255660711 H
   0.4819223018366378    0.8418246863206843    0.0441686568083469 H
   0.5617415412386190   -0.1567383222943581    1.1836233623439414 H
   0.6416684442901893   -0.1464361987352086    1.2946977611480748 H
   0.5115492335007160    0.7331194367645488    0.3277124684015509 H
   0.9433776084891727    0.6900073684364181    0.2241703098666623 H
  -0.0675031110428080    0.9962877455762178    0.2788441107231746 H
   0.6808312992036143    0.7225745103876017    0.1692151951178426 H
   0.8465288939261979    0.7613112719390209    0.1086573129058060 H
   0.9109328034099015    0.8603505413186364    0.1602358502440774 H
   1.2026689137521827    0.1867232596775045    0.5752573437920105 H
   1.2626853271398371    0.2577625081087079    0.4753301093084147 H
   0.3145781818263487    0.0992940117022412    0.4550406488393173 H
   0.3332517537716739    0.0218347411248076    0.3477327755212362 H
   0.5141493511133562    0.2119658499584625    0.3363602358057089 H
   0.4878972296382871    0.0749172562695492    0.4425152896573316 H
   1.3826452988139197    0.2151870340079098    0.6237252142577072 H
   0.6109171155638580    0.0689773281349502    0.4297669871889351 H
   0.9697835351779411    0.2148956706265527    0.5456131830251181 H
   0.9215048880989055    0.2747230942745920    0.4408549702007162 H
   0.7934337151550049    0.2646929098713757    0.5718013175012141 H
   0.9187363942523210    0.0912576431045057    0.4484463917787171 H
   0.0998944360417134    0.5970980608634643    0.5063435472052989 H
   0.1849560047274610    1.4261296673504580    0.4275497148677228 H
   0.1379660834389992    0.5136248801328489    0.5904028946164672 H
   0.3556838394391313    0.4155001680336042    0.3696898517726860 H
   0.5009536732790947    0.5224337663625437    0.6641728013326348 H
   0.4638518082292382    0.6528852456233525    0.6363421828628363 H
   0.7725680141639046    0.5919902989197301    0.6587200138984577 H
   0.6983262375113293    0.3432323373443451    0.5480801518271105 H
   0.7259901289479316    0.5524441946423193    0.4881862352571479 H
   0.7152755720609746    0.5003200950602699    0.3733720641613319 H
   0.8444403810243886    0.6253546434560158    0.5612321843196252 H
   0.9746810169825717   -0.3405602889352438    0.4089773230554179 H
   0.2770173296387690    0.9166727016204052    0.6388845470307785 H
   0.0087925966235282    0.8971270747877034    0.6276838763215025 H
   0.1002659970579656    0.8664691723271343    0.5442779554152326 H
   0.2999164974551969    0.9510778609023163    0.5203849207348777 H
   0.3854589098090355    0.7037273463274308    0.3417157388967250 H
   0.4060291428896085    0.8115981635330688    0.5893822197161359 H
   0.5918493165707881    0.8264795482358799    0.6147045235380985 H
   0.6828841940559355    0.8981225663406732    0.4728785438607561 H
   0.6892873479525681   -0.0169589253136760    0.6391350542144182 H
   0.9635099014612657   -0.2653852991742222    0.5170853600959987 H
   0.7056263186541654    0.7594789200073755    0.5805066448084091 H
   0.7825944950948391    0.9621253891121042    0.4056777624165388 H
   0.9520635555575506   -0.0360775429241445    0.4777995102189861 H
   0.1498001803814611    0.0052275868339370    0.9651308346328112 H
   0.0570430083033332    0.2954884005953634    0.8790990471640526 H
   1.0368183233170247    0.0926807913538896    0.6915818543154020 H
   1.0802642486814082    0.2017066215637905    0.7187006756744054 H
   0.1908418874053897    0.2594548437487568    0.8876357482764351 H
   1.4530557066431369    0.3000603776544910    0.6984987711141528 H
   0.5831026569180554    0.0863493841427285   -0.0527909187871210 H
   0.3982465990764320    0.1525641405842949   -0.0726669207977840 H
   0.4600309629205017    0.1654804411483979   -0.1872686877443651 H
   0.7323009997163449    0.3289733371978217   -0.1127626628316123 H
   0.7184884820250371    0.3140854777532027   -0.2473514980806320 H
   0.7053324697458875    0.0246008236660025    0.7547599281699097 H
   0.2778535443006175    0.4954640387043192    0.8189043598331506 H
   0.1140833717560216    0.5221148853285029    0.7807251193595950 H
   0.1562850938916917    0.4038051656430228    0.7692617809237842 H
   1.0199240348438612    0.6356397708179194    0.8897273616543978 H
   0.3116777392964328    0.3431522124144719    0.9293301963495435 H
   0.3449328550015613    0.5262109688647473    0.9314947729848769 H
   0.4510001683729879    0.4400928561055907    0.8135229142506250 H
   0.5757127211503740    0.4181232478085435    0.7793752990982353 H
   0.9992736611519395    0.5106748258966090    0.9171615464258149 H
  -0.1399040821377421    0.5695237541889240    0.7910088851345781 H
  -0.2333253689386003    0.4778462662449299    0.7871191328138553 H
   0.2419060278546293   -0.0547714174720125    0.8723215712571658 H
   0.0890797438656271   -0.1832742422514510   -0.0808671802234011 H
   1.0621233284761571   -0.0238128441887375    0.8129132657001490 H
   0.4345559625251755   -0.2917795841542665    0.9691681348739950 H
   0.4225818218881350    0.8433867177818485    0.7066747094539798 H
   0.3831145945518107    0.8624791126879949   -0.1420679498031604 H
   0.5368089065968633   -0.2387854411417760    0.9060305961624711 H
   0.3880331233856842    0.9896754155048648   -0.1579812362357298 H
  -0.2762726416101489    0.6814372383108910   -0.1510205414825564 H
  -0.2623637932849981   -0.1242828696393613   -0.1521814679776117 H
  -0.2877117020037414    0.7444761338956657   -0.0410910983271428 H
  -0.2553211334998270   -0.0180161697166391   -0.0873130786606806 H
   0.9349992718481933   -0.0325574686059884    0.8054361532253623 H
   0.1533951748763973    0.3070789977742918    0.1696789171535770 Cl
   0.7355041956669106    0.1813492239769189    1.1789618209008077 Cl
   0.6293227426368967    0.4859987755238451    0.0932246921987381 Cl
   0.1148451123143947    0.0547472215237448    0.0970569656867099 O
   0.5118196068763766    0.2637718778491970    0.2783122896472275 O
  -0.0726701567219744    0.2872970428656004    1.2732222423952722 O
   0.1737136531071786    0.6456950448456414    0.1329735344789114 O
   0.4084519797559323    0.6217206946163126    1.0566754015473629 O
   0.7855985537687208    0.3445256670204800    0.0149461182776858 O
  -0.2016317809030805    0.4907787536635526    0.2747946499390957 O
   0.9575195931382465    0.6310928833832976    0.2807598015805876 O
   1.3010313954184072    0.9670947534496939    0.2200713962081432 O
   0.2618318980399154    0.7555438956736034    1.3064043104417882 O
   0.5007577740069095    0.8971027945059237    0.1021035909881896 O
   0.5953625514521265   -0.1994675715130947    1.2504739201527790 O
  -0.0846645348871332    0.9853616187753286    0.2021953981522996 O
   0.7259334638692003    0.7033178189080791    0.1048526843853491 O
   0.9215777432001314    0.7880220099249280    0.1241733549371344 O
   1.2760340006866728    0.2084427810722202    0.5403411823286486 O
   1.0680893517654342    0.1586131681183575    0.6502173623061815 O
   0.3544631117430349    0.0309650901918390    0.4259883011599879 O
   0.5555083825781800    0.1177947770756875    0.4545404451748975 O
   0.9033396828599122    0.2255927534359862    0.4993066463833161 O
   0.7128244026552851    0.2835554514433404    0.5958183897190993 O
   0.9162997958668766    0.0139931165738003    0.4222047509138825 O
   0.1628210059727805    0.5498381110646257    0.5220719933858623 O
   0.2358841489877456    1.3695727976581518    0.3982217282161037 O
   0.4351460888451054    0.4385486301843984    0.3604981027496857 O
   0.4884824989514685    0.5793880233333120    0.6084588687071589 O
   0.6698722729769883    0.5229501270217264    0.4316948385892433 O
   0.7657544431970327    0.6203820417475222    0.5816270361604805 O
   0.9738958008915813   -0.3411057859325622    0.4923881081788459 O
   0.0176062829693888    0.8649880751385693    0.5553797203756281 O
   0.2630688157585064    0.8908465752340072    0.5627790053758860 O
   0.4606275652494293    0.8075563059594658    0.6477131011726440 O
   0.4620020981592248    0.6802021813110276    0.3639079189774807 O
   0.6688142550069630    0.8331242520162726    0.5894130264248035 O
   0.7028456822907099    0.9345348955830440    0.4041747193147006 O
   0.1236411515357361    0.2741492702818638    0.8385314760658931 O
   0.2905481409386698    0.2655370543345851    0.9626825119965915 O
   1.4464258924315794    0.2217402820602653    0.6727930048395638 O
   0.6273046563329391    0.0338503160757271   -0.0056630590781818 O
   0.4569629536577662    0.1217225173249257   -0.1214663687330879 O
   0.6700471252199304    0.0442461615225465    0.6809940749680407 O
   0.1769605621184799    0.4811572873369622    0.7477797765481040 O
   0.3396395271469367    0.4722885097455442    0.8731971303456153 O
   0.5018044589611884    0.4275067673736924    0.7509674601923479 O
   0.9937042934137812    0.5683566819780439    0.8543645029153547 O
  -0.0104518193249357    0.3965129876818367    0.9759537178094785 O
   0.7000245708710177    0.3601144172658079   -0.1832078771202508 O
  -0.2187745862215369    0.5573666171018014    0.7797125514878603 O
   0.1591126813203817   -0.0444409669174533    0.8986532001394244 O
   0.0562311596253391   -0.2491167010390612   -0.0504828477456250 O
   1.0016616894699000   -0.0279407348941134    0.7614247163793015 O
   0.3472132196699322    0.9237706373273532   -0.1813011039942941 O
   0.4589939919797195   -0.2224294339922079    0.9325892218454388 O
  -0.3235110797439035    0.7312215280720981   -0.1103346077668843 O
  -0.2347824709631185   -0.0497167484111033   -0.1556156052911969 O
