Li1 Co1 H90 C51 N3 Cl6 O45
1.0
  13.4671571706000002    0.0000000000000000    0.0000000000000000
   0.0000000000000000   12.7498971727000008    0.0000000000000000
   0.0000000000000000    0.0000000000000000   13.4557699999999993
Li Co H C N Cl O
1 1 90 51 3 6 45
direct
   0.6601169031209821    0.5072169993846714    0.7163666219027227 Li
   0.3803644689380113    0.5042579951284817    0.8153397761703716 Co
   0.0423562358465136    0.1512612658970640    0.9484975218809477 H
   0.1666096308876771    0.2811383917726864    0.9738360941068405 H
   0.1729910816208441    0.1265026348489713    1.0581240984350953 H
   0.1679528987927619    0.1498463525251643    0.2529483262570630 H
   0.0383167790175133    0.2376674529492144    0.2760321036997511 H
   0.2549155728867943    0.2406439475425401    0.2826433938748953 H
   0.3025937867715881    0.1155990175007727    1.0108023918363647 H
   0.3453956931203441    0.2756795242181286    0.9857046085062393 H
   0.4717423287499179    0.2661586631197411    0.1282226509519708 H
   0.6158536638605583    0.2195747580140796    0.0694359743069330 H
   0.5691829380319388    0.0387858489916965    0.1810081845929293 H
   0.8754949493750286    0.0709139512384422    0.1800167883368993 H
   0.2084269196343644    0.5855591998330595    0.2374471695042350 H
   0.0804036124018710    0.4301999860943552    0.1636319957906534 H
   0.0880696698104369    0.5985338142757710    0.1968623497577619 H
   0.4789738475304818    0.5795251119531406    0.3006512819407585 H
   0.4045522017960728    0.4915109119325485    0.2247083964722940 H
   0.4614582726387773    0.6484942956327439    0.1033678860444256 H
   0.6814309782716481    0.4187920509534008    0.2846388203722269 H
   0.6839073732210444    0.4273136883068879    1.0509479948007434 H
   0.7259013882040005    0.6270627502407480    1.0377506824209985 H
   0.8937898275649014    0.4400612420948516    1.0408720199587240 H
   0.1391613732251781    0.7690207578610332    0.2715098801480703 H
   0.1596541911602423    0.8726710055531991    0.0717903546211031 H
   0.4472061184856340   -0.0835892555966637    0.2593002481463343 H
   0.3901430731624790    0.8222980502814355    0.0387220129357146 H
   0.6408143883654929   -0.0691083544961177    0.2205711378835994 H
   0.8741747004334913    0.7821290988724303    0.2521501556581303 H
   0.7683312783999388   -0.1220695659359904    0.0905562818032710 H
   0.0802729240926974    0.3064876158191386    0.4805785547761295 H
   0.2679732655959799    0.1075989529811622    0.3238643719385810 H
   0.0418290273265521    0.1149409729780322    0.3707788183061988 H
   0.1339427514247711    0.0260916289671968    0.4110247499771473 H
   0.2055146494719859    0.2065997514113426    0.5449033017062569 H
   0.0649274434257637    0.1165590252431260    0.4991146593617460 H
   0.2810034840583506    0.1187786509872924    0.4664440979594627 H
   0.2896831184102227    0.2590582136985614    0.4623212569774900 H
   0.6540993005213097    0.1435161053940097    0.4980626303808701 H
   0.4416180051929274    0.0366924987757317    0.6147923530203029 H
   0.6176877554722551    0.2551538684849710    0.6431043708386811 H
   0.4704228966103130    0.1627562605636731    0.5681407678638978 H
   0.5859453472873096    0.0189041200203624    0.4983386309367654 H
   0.7861130564668631    0.1191598305320503    0.7315259178776095 H
   0.7133649636370867    0.0408697873670499    0.5558885519000399 H
  -0.0399350737417761    0.2990208889341688    0.3640530790880046 H
   0.8725351561911323    0.2208508467369625    0.6336155047239957 H
   0.0552780424160471    0.4640764945986613    0.3044674886684299 H
   0.2123356881541911    0.6018725863006268    0.4842723604817859 H
   0.1662123681296780    0.3562017422481106    0.3935905934777423 H
   0.4158047622347988    0.5757395912272680    0.6530413718427114 H
   0.4884511260966392    0.3865949285421721    0.4439903847940326 H
   0.6406354344875903    0.5148477275922932    0.3664721156797419 H
   0.8124497209541759    0.5849911952521670    0.4165495174189214 H
   0.8929106516668248    0.6045667256756133    0.5107589903810782 H
   0.7721680198402777    0.3127715880672876    0.4954035034784334 H
   0.1602898115730408    0.7441350669646878    0.5524405143666992 H
   0.3274223378729266    0.9002735811060082    0.4316559736083480 H
   0.4245868681018184    0.6975103772163772    0.5882654430032619 H
   0.6557477553302031    0.6843377219608029    0.4451888297733984 H
   0.5692629846213075   -0.0694479650781756    0.6618205052553663 H
   0.6965826541164553   -0.0169573456688683    0.7018813862008640 H
   0.7470966558008725    0.8104681509530743    0.5611922989171189 H
   0.8003216973534293    0.9069089287369793    0.4772882934235648 H
   0.9897402931034595    0.7167615128667537    0.4054895780769143 H
   0.2113228537580962    0.1308077676085931    0.7412852999122309 H
   0.0701015123934979    0.0450557034789285    0.8723398586628637 H
   0.3214084480093103    0.1236226116219115    0.8246554823692736 H
   0.0473810528247939    0.1654543215389143    0.8183801075672370 H
   0.2368070740469360    0.0147487923904706    0.8147452356869952 H
   0.2246723675212886    0.0115526881828811    0.9871805552562209 H
   0.3725684657674830    0.2679218145942592    0.8735281964540119 H
   0.5966788672253976    0.2052828780458106    0.7570421090729108 H
   0.4607415660705143    0.1406360821669499    0.7023451277778975 H
   0.6717385095236812    0.0611821080463513   -0.0740006331856148 H
   0.7523761664725989    0.2628064792220142    0.7646752657038579 H
   0.1718037486301140    0.3023526805105713    0.8338270125009568 H
   0.2681633576820505    0.4561596464364557    0.9517466856225991 H
   0.0792638024326586    0.5316669691199163    0.6928124143025632 H
   1.0023829019215766    0.3691963568521212    0.7110566322105685 H
   0.9438880028110391    0.5950599823381428    0.8716546507557724 H
   0.8558085377113420    0.5506401731170409    0.7837681901518828 H
   0.2043369695950016    0.7798075115216415    0.6838281644231433 H
   0.1233696216843052    0.7708395960591682   -0.0039132283028024 H
   0.5775070407790819    0.0078216777005490    0.7719078506841304 H
   0.3627363981438079    0.8541885035527459    0.7122479427041336 H
   0.5831385188289234   -0.0267801699868685   -0.0615554145173409 H
   0.8230510674886680    0.6910648350377342    0.9688642493146064 H
  -0.0241240159734117    0.8318761667435419   -0.0190792128581270 H
   0.9399020093812462    0.8058061525702738    0.7268699227171689 H
   0.6934238582799539    0.8062775289208900    0.9538149433291443 H
   0.2278252229801002    0.0965910210661883    0.9988937459543378 C
   0.5139545783582495    0.3206038080959965    0.2472362785630254 C
   0.7379551570836257    0.0815759980109506    0.1247468186510322 C
   0.1761966579316518    0.5290892918606541    0.0887362447485354 C
   0.1664492406900550    0.6080735774873861    0.1688230773861325 C
   0.4829998642549592    0.5103820445182435    0.2455983195313238 C
   0.5194313838239953    0.4225920816002158    0.3064346744928013 C
   0.5459596997465223    0.5327171187657244    0.1568170754999528 C
   0.2959754634780441    0.7312141784454658    0.1109304409929718 C
   0.1877306437634277    0.7244054960832365    0.1428082153603993 C
   0.1272694796375974    0.7951950866010766    0.0731682021913276 C
   0.0196936949602842    0.8015943538967142    0.1164708151224345 C
   0.5986250834659878   -0.0364241693332539    0.1560300525350835 C
   0.5147440545532115   -0.1029250978125420    0.1234143047926652 C
   0.7642435560022095    0.7608928491731191    0.3567015860110570 C
   0.6672706029538109   -0.0037972395341089    0.0742041889836108 C
   0.2172892206001949    0.1717257446662482    0.3108528534598912 C
   0.2424043949250618    0.1915800224357993    0.4785451520054222 C
   0.1108458204199819    0.2956514499953211    0.4057177329874099 C
   0.0936833267272093    0.1014428249013168    0.4266989923281982 C
   0.0327699513497501    0.3082609634543190    0.3291743616307354 C
   0.6404215808907610    0.0706339489802558    0.5343102995963813 C
   0.4824027820424225    0.1105378002120426    0.6325765452292957 C
   0.2739478004574020    0.6477523288645526    0.6133780898454715 C
   0.3789387782924817    0.6563076919802301    0.6491463885009926 C
   0.6258305281904200    0.4311654840770651    0.3445989712963286 C
   0.6520862550317105    0.3622990463241353    0.4314920290700569 C
   0.7368495042861292    0.6055024194963874    0.5412933262087565 C
   0.8266316301411384    0.6329937784659729    0.4810130152343567 C
   0.2230023788432699    0.7543304433068857    0.6075203797330068 C
   0.2854194123234360    0.8391828923381195    0.5610181728730500 C
   0.6136408731711428   -0.0049399938483317    0.6993895183999133 C
   0.8156857417006435    0.8324910736634806    0.5213545192880080 C
   0.8415932138998750    0.7480472553787875    0.4441559643186529 C
   0.8812875601697033    0.8566206800307177    0.6056773042345402 C
   0.2080482205566456    0.2703524224321291    0.9027602656704150 C
   0.2462299981572326    0.1026036185767112    0.8109490947006378 C
   0.0802929728674002    0.1273826419461285    0.8836182916325116 C
   0.3153990134289612    0.2990930463788555    0.9166948082495465 C
   0.6140522443261549    0.0375717215528379   -0.0172205306719719 C
   0.5342292359226593    0.1215198495653354   -0.0147962918510052 C
   0.6382154731262464    0.1911964899308885    0.6880233907089672 C
   0.7511435381019848    0.1978569358034898    0.7056648932019498 C
   0.2139744898493388    0.5820556421655007    0.6781250348363566 C
   0.7636710521023641    0.6327365214892640    0.9662512438901677 C
   0.7466050895470493    0.4353710081902172    0.9163700405105022 C
   0.8903436659576606    0.5361782682481288    0.8546091750973747 C
   0.8150924464788840    0.5263612714281070    0.9402750269958539 C
   0.9568833215544829    0.4396439838277504    0.8254640574266653 C
   0.3949607194688308    0.7085410544128286    0.7515039644702608 C
   0.6934884598873294    0.6753721594584825    0.8867403723458412 C
   0.1648683576773819    0.1915227670720805    0.4033284234198415 N
   0.5932965646783211    0.0917627468325880    0.6317270955136718 N
   0.1921205828761207    0.1485051652380531    0.9007886207924185 N
   1.0006965772049115    1.1477563613402113    1.1637464448337034 Cl
   0.0878981414046466    0.5927664736451776    0.4025934227472676 Cl
   0.4130922372722367    0.0040640003364848    0.3822712858498622 Cl
   1.0257590306777822    1.2311993872399019    0.6630876196605621 Cl
   0.4994887050093221    0.4307301864487921    0.7103082543771185 Cl
   0.0373232508489099    0.8211294134055318    0.8381574967467488 Cl
   0.5475141480784761    0.2044224789499270    0.0391478525569328 O
   0.5680921361786664    0.2451224150334201    0.2557857707139762 O
   0.4462850629248450    0.3239010895901576    0.1690363687845437 O
   0.7262607810542278    0.1755438146742349    0.1157595960691956 O
   0.8056294248191820    0.0437498105941097    0.1913479867744469 O
   0.2324134221981871    0.5360598829796396    0.0197353625990932 O
   0.1162255749652222    0.4472401235211257    0.0999150921872178 O
   0.0299920822326012    0.4037495766963802    0.2707340048172643 O
   0.5222759336807112    0.5995690383110096    0.0869206667474251 O
   0.6261453682079743    0.4833895131010572    0.1459808320148160 O
   0.8682157590635048    0.5107531063343443    1.0339612300150791 O
   0.2020670027703226    0.7818239983726137    0.2365850858033394 O
   0.3142398972322572    0.8079630327103648    0.0530541544631039 O
   0.3572972398216707    0.6680646495438538    0.1352255946705391 O
   0.4450400340158038   -0.1199001366750842    0.1921283211588783 O
   0.5062520321797246   -0.1384281292384920    0.0393893846283044 O
  -0.0507822034031798    0.8246768929959434    0.0533759494997313 O
   0.6745445954348562    0.7575030179129469    0.3656486771102657 O
   0.7291440918753689   -0.0885932175216750    0.0384396062061108 O
  -0.0002889930406765    0.7888036625059486    0.2067844872497077 O
   0.8034381679988916    0.7934052682448265    0.2720464529343174 O
   0.8005630251970736    0.2271246228244493    0.6196973120081571 O
   0.2793587419855132    0.6024905520687642    0.5192872277097483 O
   0.4492882208658761    0.4153300622485419    0.3877618672138421 O
   0.5931799847661606    0.3260116948472431    0.4942925451311965 O
   0.7410671724458205    0.5348518183347748    0.6046821921004893 O
   0.7524259171357502    0.3566237064355175    0.4362691618539853 O
   0.2824054131931213    0.8416315395371612    0.4633169636520243 O
   0.3276087172229412    0.9053089158330572    0.6138381155444839 O
   0.6482212967973453    0.6413020807656038    0.5112848614386245 O
   0.9429390274751086    0.7773110207994923    0.4154875194804906 O
   0.9111483537214343    0.9458363015053431    0.6262015848962936 O
   0.8938276974726733    0.7759855199134000    0.6727882908224502 O
   0.4635061435925824    0.1140358676392449   -0.0746665185269962 O
   0.2386626995277580    0.5331649027692082    0.7563621033950492 O
   0.1211984136387176    0.5799071542499546    0.6514777303714318 O
   0.3163717502756505    0.4090594234412589    0.9071197337647715 O
   0.4136966707021643    0.6523970722062323    0.8231661584584160 O
   0.6621143551191458    0.6123685140863456    0.8229595556404428 O
   0.6873899196416348    0.3971189349857147    0.9831830136811197 O
   0.9858998389270642    0.4459397208766635    0.7315935468575935 O
   0.9780577978294409    0.3598433402446353    0.8752159482511963 O
   0.7434596595603498    0.4017268152850001    0.8299290564568212 O
   0.4011008423583534    0.8128422877472764    0.7628507695954970 O
   0.6600419058526495    0.7691517393095405    0.8991016121708383 O
