Li1 Co1 H110 Cl3 O55
1.0
  12.7477498119000003    0.0000000000000000    0.0000000000000000
   0.0000000000000000   11.7961593958000002    0.0000000000000000
   0.0000000000000000    0.0000000000000000   13.0079804334000002
Li Co H Cl O
1 1 110 3 55
direct
   0.4152242540137422    0.7269919310308206    0.5701848764821190 Li
   0.5771516553558256    0.3656683970747129    0.7595778427933441 Co
   0.1454095768548600    0.0913664915619688    0.2069201849188569 H
   1.0707148404543123    0.3016738396369101    0.2157732117656923 H
   0.0337251132430189    0.4413710024767687    1.0858252585031136 H
   0.2990413965013188    0.1593190321393198    0.2278888511462173 H
   0.1397395565715527    0.1405417341588547    0.3160762531701734 H
   1.0070487023534238    0.3949202907141680    0.2801744463992407 H
   0.3691792650030491    0.0749142723702632    0.1624451795202836 H
   0.5089105922006693    0.2373868141267254    0.2459654466026681 H
   0.6222529484062505    0.3656226194633835    0.1513266203603513 H
   0.6206495281711812    0.1989047976696043    0.2516819373662204 H
   0.4208142601757300    0.0426456087121976    0.3102075481555206 H
   0.6757863178298449    0.0674905001863115    0.1427887846395321 H
   0.7712925850507057    0.1301451299858333    0.1948629712104714 H
   0.7462850343296829    0.3539925629850991    0.1258007517061030 H
   0.9050699202795515    0.2900285239548492    0.1664742446213834 H
   0.8854586160345760    0.2332320720318153    0.0594896894765497 H
   0.1011880469128647    0.5221057541908805    1.0205960705946397 H
   1.0934953314652758   -0.0243886414592221    0.0559765384356194 H
   0.1615528180571540    0.8616120176808368    0.2005387177552948 H
   0.0557270825425871    0.9166545089031223    0.1976527970551367 H
   0.2015889034471866    0.6804327093746985    0.0648975235642593 H
   0.3194449974377913    0.5795871748167685    0.3114429436177353 H
   0.3610476338109125   -0.0124778156314509    0.0077968841680899 H
   0.6108030845358640    0.5330779694396913    0.1839212265846457 H
   0.4416563698751201    0.5448267086140148    0.2896616992923282 H
   0.5341032736337648   -0.0080406087199678    0.0540903886120078 H
   0.3964805538685643   -0.1215749341782050    0.0588001127935337 H
   0.5842344739969410    0.8013017102215036    0.0562868863809187 H
   0.5589884498162991    0.6926883932078174    0.1174358867251708 H
   0.6073452193713899    0.6268559494484954    0.2758501779020673 H
   0.6889808033258645    0.5491204790099993    0.0030317324739158 H
   0.8353870340363044    0.6479272143966870    0.0099295749529537 H
   0.9411390310469103    0.5872939204574189    0.0530327301945125 H
   0.9368245441130157    0.7618295409859995    0.1468040120814409 H
   0.8804538111912581    0.8480220012508217    0.2181571329407563 H
   0.7346641598862802    0.9688579404894447    0.2718718508846677 H
   0.7112113933657989    0.7744811163837632    0.3222847495938485 H
   1.0670592933430489    1.1392015186472171    0.4828984598232629 H
   1.1424216132956408    1.0391265738799977    0.4699694735858473 H
   0.1419760297076497    0.3100596198456127    0.5570590879806543 H
   0.2920668322596357    0.0968884583152489    0.5431191838634550 H
   0.0615355586338639    0.3839056887882003    0.4830322238621088 H
   0.3539663840741367    0.0270269913454640    0.4509280857802493 H
   0.3382051710785348    0.2823743377938732    0.5943023789342656 H
   0.5750014719584066    0.3817261658487973    0.5353255067035716 H
   0.6127351902300789    0.3338775414735652    0.3680312821203017 H
   0.4735796509250912    0.4478315798090091    0.5721136924215693 H
   0.6326014414302392    0.0882418304953234    0.5090762359771740 H
  -0.0429005198619041    0.3131674110147497    0.6291702050600964 H
   0.6874566127599450    0.2225031563098845    0.6431946726501293 H
   0.6707336614041695    0.2803118020834230    0.4601255165891707 H
   0.7550756053444506    0.1057487997613990    0.5123872803180319 H
   0.9186252537736785    1.0296743448740302    0.4903961648282287 H
   0.7307544502720019    0.4746759101859575    0.4376992835936964 H
   0.9144598127520457    0.4835906761255770    0.4023448331196504 H
   0.8480794701436527    0.4688579148794143    0.6607354431923526 H
   0.0997055107571616    0.7097829401051574    0.3525569353505943 H
   0.1687650713062862    0.6279613939887450    0.6554863578059170 H
   0.0508112345753245    0.7363144568046887    0.5242638356980910 H
   0.1274942582009900    0.8012584758108037    0.6063903429964087 H
   0.2818783674782860    0.8808352235049917    0.5839026092934191 H
   1.0082959813034043    0.5604038124691411    0.3815352999729859 H
   0.2968692484431453    0.5217649653065398    0.5731153851952258 H
   0.4767002016565517   -0.0647318569102986    0.3647940386284622 H
   0.4154752787080778    0.7398842627548348    0.3756704387525528 H
   0.3649463610948136    0.5336340826439887    0.4592222249475389 H
   0.5410699933537499    0.7470721954670859    0.4132135456553016 H
  -0.0130860031347867    0.7659758057454783    0.3488791930411760 H
   0.7231193773033480    0.6498286807339413    0.3790606652543368 H
   0.8333239248297331    0.9746394832536329    0.5629808373555391 H
   0.7933686380131898    0.9333209503611785    0.3721833486364321 H
   0.8012712091717451    0.5463611063270912    0.5122550537968739 H
   0.0216497742795648    0.3783920298236430   -0.0879234320158844 H
   0.1937522262708944    0.0068662769959550    0.9396380767391138 H
   0.2796575833855850    0.2556936199907500    0.6977150498624919 H
   0.2810633216738648    0.0931063798859014    0.8912985206320444 H
   0.1092614717540023    0.2981837206398187   -0.1355072981793589 H
   0.6578278543066359    0.3665313898216255    0.9710265003372633 H
   0.5247439747958927    0.1394837626970208    0.7720609489012732 H
   0.4255531357334859    0.2204652048721853    0.8158909656297791 H
   0.3712870879832991    0.4089553672543296    0.8314737073964824 H
   0.6918699406672343    0.2626611419817858    0.9198886620382453 H
   0.6937126188140921    1.0741210145406570    0.8342489268231127 H
  -0.0152028473149894    0.0964998572590753    0.9762386852991898 H
   0.8028589403634183    1.0983661938743501    0.8847563828700984 H
  -0.0259783176549996    0.2159357645512089    0.9233480768359840 H
  -0.0452028869802642    0.3376406306715464    0.7486145729198879 H
   0.7798807674056654    0.3028182799201439    0.6927873056728241 H
   1.0491188722197453   -0.0766764225330866   -0.0530832812084356 H
   0.0766568939945607    0.7366145544789587    0.9323656180754230 H
   0.3112270765069767    0.8206113848670583    0.6920077842050668 H
   0.2549418488717273    0.6480399629579241   -0.0357792883901464 H
   0.2413151302301485    0.5679444023353369    0.7355879543092917 H
   0.3338083166668113    0.9190451174947661    0.8512231220973508 H
   0.3834978704583906    0.7278812035175704   -0.1256610349061505 H
   0.4306952197065184    0.8784420717127183    0.7850229917689784 H
   0.4300339265273779    0.6706752962932017   -0.0275594882030659 H
   0.4245968885385009    0.5291215969938751    0.8438199744301901 H
   0.5688207733125600    0.6746927055541238    0.7003987869866932 H
   0.6642776200467235    0.5533176077820662    0.8274838489964237 H
   0.6548845897655500    0.6583060161653025   -0.0319125851568872 H
   0.6509074172646691   -0.0009337193344405   -0.0039257656914120 H
   0.5779651322559072    0.8019654855857793    0.6867248734294978 H
  -0.2803298736428036    0.9245977722023078    0.6729156583157688 H
   0.9404251795723932    0.7217003782545650    0.8076268080574033 H
   0.9746272941756304    0.7220140396655252    0.6891480013056029 H
  -0.0337003863692842    0.7463389059522733    0.9838417102657755 H
   0.7082485175204679    0.5306661675094690    0.7147276830789271 H
  -0.1747661451529495    0.8458729967189718    0.6964819606768090 H
   0.8502837807407879    0.6041036288842652    0.6852872943913264 H
   0.2241254298333426    0.7049830727839206    0.2347185047157976 Cl
   0.2778988416208956    0.2787231494235859    0.8871087849325607 Cl
   0.5690992538328387    0.9702143141584625    0.7645317247837059 Cl
   0.1662132483979300    0.1609432896079687    0.2432686405781198 O
   0.0308075473550156    0.4832422576393481    1.0189816770223616 O
   1.0249734344333314    0.3695730577743979    0.2077273817049959 O
   0.3704649821093497    0.1450686312792016    0.2090119777332229 O
   0.5789982557635325    0.2702093614498698    0.2589013516696793 O
   0.6832464579646337    0.4079135027298153    0.1196060929416189 O
   0.7006071689344556    0.0939211365942095    0.2126028502932757 O
   0.8534765010718699    0.2494432805772073    0.1283053680196659 O
   0.1284003004571078    0.9321086913944937    0.1817010510433414 O
   0.4012429629914143   -0.0374439923435813    0.0643763050680666 O
   0.5577592132662240    0.7259729553119710    0.0410232640979243 O
   0.6143590062215629   -0.0210867193087069    0.0612286988574307 O
   0.5651009011233731    0.5925481729577766    0.2183393287867705 O
   0.8976725363183466    0.6576329157320524    0.0510990710743453 O
   0.9481755670100076    0.8224569007904657    0.1923545111026889 O
   0.7649346002144848    0.9002932515205951    0.3052890290719800 O
   1.0740722957410522    1.0650672202999634    0.4464592906204148 O
   0.0694524852671266    0.3157140025783306    0.5308021296658172 O
   0.2958549517875951    0.0234910099636889    0.5045567027336393 O
   0.2695154012822535    0.2501375743490358    0.6219338780620709 O
   0.5234927735850633    0.3903001429040761    0.5937288848366850 O
   0.4419795641690774    0.0080631072121546    0.3763569404001930 O
   0.6498907672526095    0.3569113095741168    0.4345873477934193 O
   0.9933992345989210    0.4773598345835265    0.3944089355736376 O
   0.6888301885092630    0.1444201151187025    0.5274549536592940 O
   0.8454515553748260    1.0169074777144003    0.5018883407863168 O
   0.0317238659345578    0.7063801376630089    0.3878360474579340 O
   0.0717961930148351    0.7400444843944874    0.5993515870212763 O
   0.2785546436348476    0.8074325192054642    0.6231216104759612 O
   0.3808173973941874    0.5306051306943633    0.3355858151117320 O
   0.5573756161551923    0.7327209143153345    0.6500965895510401 O
   0.3598434997302710    0.5509693858675793    0.5373557988104223 O
   0.4653421186900317    0.7672219740538885    0.4279629528351717 O
  -0.2183965903850011    0.8935537698526628    0.6493739562377346 O
   0.6779969040443387    0.7028569570577351    0.3451806942429714 O
   0.8129956313015613    0.5418757481503580    0.6456969826871604 O
   0.7897193665192846    0.5334229969917477    0.4357858428311249 O
   0.0317244934962936    0.3114414255209245   -0.1387099475232210 O
   0.2696001221165917    0.0177481238490675    0.9187355237723323 O
   0.6523084488399301    0.3320421983526755    0.9022687093350958 O
   0.4909050615472724    0.2195479571785119    0.7764459493471181 O
   0.4273864004543061    0.4630221171684653    0.8036215744804658 O
  -0.0638916754735561    0.1580194566176922    0.9686817858632404 O
  -0.0889784558637287    0.3399600296455668    0.6837566955330380 O
   0.7046612177479771    0.2819631870254521    0.6938412740478684 O
   0.7263434757212219    1.1131845762083696    0.8926207858436246 O
   0.0064983944007647    0.7798582902478755    0.9230943864174832 O
   1.0701814129788489   -0.0066472738684693   -0.0172180673584745 O
   0.1804212460973298    0.6517894884192151   -0.0062679432612499 O
   0.1991971087814693    0.5543348880338296    0.6731908739818999 O
   0.3621521424659895    0.8510492577333608    0.8097947079973196 O
   0.3824757292811425    0.6560679996114231   -0.0857463069698409 O
   0.6442246692301511    0.5326405389314330    0.7577489655036062 O
   0.9136282934520588    0.7226472966222480    0.7375190765252738 O
   0.7062732669569141    0.5978066641258499   -0.0526581575677357 O
