Li1 Co1 H90 C51 N3 Cl6 O45
1.0
  14.2953446340999992    0.0000000000000000    0.0000000000000000
   0.0000000000000000   13.9512584608000001    0.0000000000000000
   0.0000000000000000    0.0000000000000000   14.4191086028999997
Li Co H C N Cl O
1 1 90 51 3 6 45
direct
   0.5495688290689895    0.5997976995345666    0.3742952806676652 Li
   0.6739534483637553    0.7023612069070728    0.5681119081003716 Co
   0.1740333566891044    0.2548438723567397    0.1526761717473464 H
   0.3169484141635914    0.1249968047900392    0.1574711977024248 H
   0.3437837238269146    0.0816437265211905    0.0429474746708997 H
   0.4734800723554666    0.0391256983686258    0.0809082124026284 H
   0.3550978966670843    0.3224542605271207    0.1274422956444352 H
   0.7898904923750305    0.2642279720326117   -0.0001515834688672 H
   0.8084566764575669    1.0610091392107428    0.2663531017949040 H
   0.7084164160367984    0.3065381336326249    0.2796181381620989 H
   0.0322431409313847    0.4697255268270773    1.0187657715918430 H
   0.1018469193269409    0.4718222014806356    0.2769147810355591 H
   0.3029865262127475    0.5073923438727610    0.2470627276351548 H
   0.3245215089557069    0.6127069292292241    0.1182156503875125 H
   0.6342076419811188    0.3556390804701276    0.1096804487055411 H
   0.6581748850780580    0.5873343077560712    0.1938264270329376 H
   0.7206112951713773    0.4139057954252017    0.0486662747903062 H
   0.8650870005750356    0.4120963529243026    0.2298959244147244 H
   0.8436317640731903    0.5275691616695878    0.2654979865211679 H
   0.8250466927230217    0.6531541764496475    0.1415832530097879 H
   0.0700596479018048    0.7219615892502382    0.2776332720522588 H
   0.1373346961511433    0.7650279550328091    0.1267980117115066 H
   0.2748983611298160    0.7781256981871941    0.3310429536913243 H
   0.2519146550066174    0.9402730776767346    0.3376092403188456 H
   0.3023436595848191    0.8434789423093533    0.2265240100100974 H
   0.6176917757293315    0.9282247022221263    0.0056462784033422 H
   0.3742999520932410    0.7247935918334470    0.1493049508668668 H
   0.8684342441165351    1.0014159489379044    0.1408203764476551 H
   0.6735722053689555    1.0155845632285370    0.1564954092270422 H
   0.6475889213343775    0.8976883888711105    0.1487750984182582 H
   0.9352538993574062    0.8557889429076901    0.2464843284962287 H
   0.0863887400625616    0.2160975469611594    0.3583178713600145 H
   0.0726332129988113    0.3005121539522815    0.6265854950064599 H
   0.2271954188465409    0.1352274230816464    0.4001644248895888 H
   0.2737518340316932    0.2544725796870100    0.3810626892979306 H
   0.0830009238720743    0.0423160915596819    0.6280079130327638 H
   0.3675068315014957    0.0702175171618049    0.4518036780851883 H
   0.6212278919471538    1.0662230057737043    0.6837325782758289 H
   0.5932754353798024    0.2128390595546123    0.7174718345223735 H
   0.5899218960824256    0.2399613439752754    0.5357111534582962 H
   0.7115489043500345    0.2712423930093978    0.5558877821259995 H
   0.6793650003046204    0.1020031801717762    0.5290388963410532 H
   0.6926973126677213    0.4441842108948107    0.6163435303977532 H
   0.0217628059807588    0.2974507813800504    0.4223592781786218 H
   0.2476999962108944    0.3266581823571688    0.5470058183703315 H
   0.4716012788959558    0.3262754211879879    0.6186113543597298 H
   0.5552454323322944    0.4030759480372740    0.5563409308039065 H
   0.4846147462002866    0.4510491113100030    0.6487824288679351 H
   0.6334332640081951    0.5149067197474939    0.6952395309293813 H
   0.3418187484647261    0.9433896424025742    0.6285336043364882 H
   0.5485303791134293    0.9265151790226950    0.6605979997670776 H
   0.4586012425374970    1.0193870875777962    0.6509684169805193 H
  -0.0513833843884971   -0.0524839584656374    0.6197404116716865 H
   0.6727362688941191    0.8789302244563860    0.3157618426276567 H
  -0.1243560917069084   -0.1556251914979934    0.6332918735117546 H
   0.7860186025104121    0.8781955237102993    0.3648730616011775 H
   0.2253577576587626    0.1223862876024799   -0.1027300465856872 H
   0.0609727735853831    0.0955693519797027    0.7999623707099418 H
   0.2593506422262911    0.3013586725680167   -0.0764593518824227 H
   0.7087766731786734    0.2776661862644517    0.7257393358834510 H
   0.3791784633698172    0.3160175652101843   -0.0517622634695941 H
   0.4293640320540916    0.9954322593492870    0.8290328223962337 H
  -0.0309193796731314    0.0952080942469926    0.7121580525050448 H
  -0.0930333071598403    0.2827302455533331    0.8091883224427171 H
  -0.1788577508093754    0.0430923656162790    0.6931977958394548 H
  -0.1864896059896803    0.0312439721208494    0.8116926381389550 H
   0.2455440495870906    0.5727807819526106    0.8260839577215167 H
   0.1152414897203853    0.5281998574612774    0.7221982015868600 H
   0.0215270648995707    0.6147476053503063    0.7422355012533520 H
   0.4945802981786680    0.3198817327439932    0.7959433982757967 H
   0.6080921470731148    0.3425678582207232    0.8429199499236405 H
   0.5209390960701974    0.4342165079531203    0.8058864539769768 H
   0.7227217724471775    0.4394963183879257    0.7395834649137194 H
  -0.0475912407649927    0.5683209692285597    0.9500618019303095 H
  -0.0712346021984598    0.4328960535975679    0.8925825205943391 H
  -0.0827145632767351    0.5000790968071519    0.7879241785594862 H
   0.2774600342434986    0.7914040702079342    0.8293421341659711 H
   0.2798992898817867    0.9133622437147014    0.8592885068504210 H
   0.0272694937882162   -0.0790385521634705    0.8325746502169722 H
   0.2513627270746961    0.8669728802161709    0.6780484543637920 H
   0.2739218194403838    0.9853242106455635    0.7218708581892902 H
   0.3785607797653984    0.8450522770778026    0.8991619841806608 H
   0.3703056447532281    0.7282456101682315    0.7186154558414253 H
   0.5074712780547612    0.8998086277071347    0.8144743634941501 H
   0.4789135894890597    0.7730623556795284    0.7599488015019285 H
   0.4382228601020643    0.8035678474382695    0.6405759576318283 H
  -0.0605094322970450   -0.0020354629426292    0.8708037817937422 H
  -0.1505478352138723   -0.1275316685300643    0.8831110613133866 H
  -0.0606381455283169   -0.2044473104425909    0.8360769471613091 H
  -0.1853283887945102   -0.1974278719972949    0.7798876207394906 H
  -0.2505384291160522   -0.0511378433425632    0.7332065103784364 H
  -0.0039343709256115   -0.1608698796532298    0.6758333382370172 H
   0.1833706621837616    0.2006889011673753    0.0364255735888116 C
   0.2846183086761347    0.2353223359473008    0.0431160010387163 C
   0.3420579871880684    0.1484885923532098    0.0871312045771900 C
   0.4441751475199575    0.1758846871982682    0.1048819551297257 C
   0.7615518961138635    0.2886659108004990    0.1357895522824629 C
   0.3844780907617503    0.6142351067810847    0.2531477085043851 C
   0.6669812484937186    0.4425737468593884    0.2842564276598664 C
   0.7069725893555749    0.3790104487890615    0.1196810669109549 C
   0.7168988977889871    0.4608780454083349    0.1891416714172948 C
   0.8767502381021872    0.5185487567825592    0.1185450743575244 C
   0.8274502724113377    0.4801451961643239    0.2052980099549730 C
   0.1670660535180836    0.6296079135140841    0.2388299024814470 C
   0.2342613555263080    0.7084982876758490    0.2013088590591657 C
   0.1630451640976993    0.8555093982335693    0.2713894741532754 C
   0.2494334276624797    0.7957570825308469    0.2568573691687927 C
   0.3318140928470615    0.6646929204598970    0.1755610815630360 C
   0.7372761609789303    0.9601322180387657    0.0412788555722710 C
   0.7032874735819867    0.9461621521448804    0.1425396228090435 C
   0.7822348532280775    0.9179446260266363    0.2128102635195390 C
   0.8137129330867888    0.8140880453410172    0.1994238604265503 C
   0.2484205104946446    0.2026937382276728    0.4304984775724316 C
   0.1641811982693598    0.2552251999634892    0.4764113712354179 C
   0.0911826083990080    0.2773923758400564    0.4013371742228312 C
   0.1091604890712202    0.1903858879729830    0.5463901076322756 C
   0.3241752423824483    0.1887580778321409    0.5061477448080370 C
   0.6361355423364735    0.2682842369322267    0.6855142418104826 C
   0.6518833263712145    0.2346650475725089    0.5859394317760237 C
   0.1227894014889911    0.3473831944277587    0.3290990055061804 C
   0.5172189199316563    0.3866068961129916    0.6260188857780394 C
   0.6679144194204397    0.4424289570538181    0.6838185752701056 C
   0.7403512879608387    0.9159835126204960    0.3162729699242857 C
   0.7330230281195120    1.0140707213009903    0.3636004447907105 C
   0.0251807018937716    0.0527022513750948    0.7499571991104308 C
   0.3198521566799475    0.2627478188222026   -0.0567577179032692 C
   0.3460935667055000    0.1897443687849364   -0.1305049951646481 C
   0.1224305434039777    0.4814199915564366    0.9107861424151228 C
   0.0836311989882480    0.5835088464079099    0.7665386679504612 C
   0.0435293326343214    0.5334599564126512    0.8542306352434805 C
   0.1499786725383120    0.6660698571752461    0.7848199644757530 C
   0.5521007022715189    0.3616808293372163    0.7945424794980619 C
  -0.0093354299400143    0.3783674960385836    0.7569881469167058 C
  -0.0362134108376179    0.4548147214266539    0.8261422137498977 C
   0.3039637674306107    0.9200576970505036    0.6911574477978232 C
   0.3236834738955781    0.8508094638022606    0.8451350660504152 C
   0.4590908424862317    0.9432835587826515    0.7794735868234967 C
   0.4192208698071236    0.7862919865776012    0.7140777273450299 C
   0.5088234105492722    0.9847013277691250    0.7002322112664667 C
  -0.1851465114024956   -0.0118317118175255    0.7475631537536286 C
  -0.0240744939775051   -0.0256082467831732    0.8084684443777227 C
  -0.1267246949736831   -0.1657576107630504    0.8187728261596947 C
  -0.0685575068936910   -0.1166064892404491    0.6657966567759390 C
   0.5928025541605644    0.3653220779129442    0.6976321892378886 N
   0.3748539786104547    0.8758516491349784    0.7545941015599035 N
  -0.0993199691676680   -0.0756359917325688    0.7543652385912637 N
   0.4750288982541571   -0.0897680501812010    1.0477647902909535 Cl
   0.8141914105334734    0.6762244966579897    0.5236926573936264 Cl
   0.3677418730542530    0.9605207134576721    0.3662226595920052 Cl
   0.5681144470156597    0.7304525795313549    0.4661155198004588 Cl
   0.7875351801484415    0.2930074546239604    0.8821123865411400 Cl
   0.6572668971748465    1.7325005337915587    0.7146103538902280 Cl
   0.1434709595463435    0.1678889927371963   -0.0307228214101185 O
   0.1324477905333972    0.2262658052870011    0.1107373795061688 O
   0.5044391021185055    0.0976508846300794    0.1087455781548547 O
   0.4730502820875675    0.2572450894293162    0.1207116437939816 O
   0.2905754927930437    0.3169393458535674    0.0996305902856624 O
   0.7965255195414093    0.2401297875609636    0.0688866648317101 O
   0.7758096845909465    0.2572114007121785    0.2165899701228334 O
   0.1904561856595919    0.3328017141568861    0.2750866513830300 O
   0.1905471243555991    0.5460340908889715    0.2258707102632527 O
   0.3691143478355325    0.5210030156650970    0.2676000582119175 O
   0.6245667411474835    0.5098574261516559    0.3178327057317736 O
   0.6679773769792140    0.3557573493707172    0.3218939831389097 O
   0.6803051665156497    0.5409908182553452    0.1499783628139858 O
   0.9167038044287789    0.4677017094001883    0.0599603155306088 O
   0.8744243060696929    0.6101315343212339    0.1006882146104374 O
   0.0854254894133151    0.6510124341771524    0.2756144232591964 O
   0.1935292140562078    0.7274972905790466    0.1103947785773564 O
   0.0847147685275965    0.8247874385476885    0.2547670873885488 O
   0.1781207013104171    0.9379320702262764    0.3162334390478843 O
   0.4453195760327878    0.6525176747301107    0.2999744589363918 O
   0.8600531939868161    0.9806085070275096    0.2048701055560312 O
   0.8177044423130785    0.9804192767865663    0.0267252513392192 O
   0.7633951535290884    0.7500314584380494    0.1749812953758150 O
   0.9060345968018301    0.8033786171973262    0.2131584126415305 O
   0.0606782721160056    0.2245290444013734    0.6171868557609836 O
   0.1164649649458989    0.1023271652812701    0.5318756875135514 O
   0.3444405810234596    0.2591775315868285    0.5529161698592481 O
   0.3704574424227172    0.1087179866004020    0.5127108412244803 O
   0.6699556433815882    0.1306285548017506    0.5939038630846902 O
   0.7736236582446172    1.0887664917885111    0.3187793661929657 O
   0.0737202801803140    0.4293213939967780    0.3268180045854033 O
   0.1892180203370309    0.3436838865735595    0.5217362257738295 O
   0.6920551455682237    1.0231967797392123    0.4377367890987772 O
   0.2856522116968946    0.1143626386739960   -0.1370990227580652 O
   0.0847287590962130    0.0030149775031541    0.6861072049565040 O
   0.4159617668479082    0.1907600477675755   -0.1814485049355825 O
   0.5782355041642137    1.0465308754349301    0.7415572346372011 O
  -0.0446539208839570    0.2906298913315019    0.7625959831725293 O
   0.1964077735490542    0.4554310099159080    0.8731381840738686 O
   0.2400807325423444    0.6431020366807482    0.8039217000674111 O
   0.0992390773368239    0.4606015828934416    0.9994372536039873 O
   0.0399743291488668    0.4028345361238281    0.6888417706696766 O
  -0.0006619769262104    0.6005617883104970    0.9126794633375069 O
   0.1214847809655018    0.7469392642735435    0.7836534568598371 O
   0.6771111197005010    0.9442383113619565   -0.0231183291339492 O
