Li1 Co1 H110 Cl3 O55
1.0
  12.7082202753000004    0.0000000000000000    0.0000000000000000
   0.0000000000000000   11.7595806488000001    0.0000000000000000
   0.0000000000000000    0.0000000000000000   12.9676439467000009
Li Co H Cl O
1 1 110 3 55
direct
   0.0927985282008468    0.6818604815825837    0.5317384948061237 Li
   0.5347247679368370    0.3505629535200029    0.7154125692786978 Co
   1.1291069738135513    0.0868616283952467    0.2441164706874593 H
   0.0554029692866163    1.1028805968283790    0.0163046174207926 H
   0.3109208096809389    0.3631688452118234    0.0543375092882091 H
   0.2644131172427821    0.0640682985984608    0.1185979102851118 H
   0.1690661706404267    0.4446419885673025    0.0432214576297517 H
   1.0491193769684060    0.4401290725386671    0.3224321619706428 H
   0.5977556237646088    0.2373165683152809    0.0348441532831402 H
   0.3465583726275182    0.1750362862310098    0.1025918415764764 H
   0.3333433042417103    0.3413559925548559    0.2294414841762490 H
   0.4359516924937166    0.3160889350913467    0.0771139674647279 H
   0.4201052564359936    1.0185153435400964    0.1860303601267445 H
   0.6210704541327821    0.4978853837783291    0.1241710120989067 H
   0.3979148950879061    0.3147300430970450    0.3299015218943203 H
   0.7021258637562735    0.0846874862414099    0.0713197769156328 H
  -0.0205314242866191    0.4930756884593237    1.0368287044788529 H
   0.7219162037528836    0.1234698215661427    0.2833996282212251 H
   0.7206186184385928    0.4517357789405597    0.2663009169278427 H
   0.9332022801532719    0.4758046644266151    0.2980175496246146 H
   0.7869386838562584    0.3452413351843707    0.3196637330912290 H
   0.0325890587846474    0.5071178558572615    1.1424762689578758 H
   1.1078372763937356   -0.0296331719648149    0.1867074299195371 H
   0.2028474547777813    0.8164265045777557    0.2374282858208420 H
   0.1222870003772667    0.7879093312179879    0.1449897515021197 H
   1.0626932682185659    0.6508313138854146    0.0349656248477879 H
   0.6191402074523971    0.9948495336518500    0.2099290730520686 H
   0.3378081308477049   -0.2650635910148783    0.1019338191912943 H
   0.3752162013486530   -0.2796176814294429    0.2089296625150992 H
   0.4415779720553771    0.8934598637641175    0.1932244194626920 H
   0.5790519819602580    0.5522070487320183    0.2257584712714913 H
   0.4150219325243395    0.5165603694396936    0.2821758130035009 H
   0.7405537466085379    0.9434276319651002    0.1995000390227671 H
   0.7750699881040172    0.7852969931663640    0.1230258541919625 H
   0.8718089470902295    0.8648304415036940    0.1327893856800568 H
   0.8322282670970095    0.7883651297842869    0.3048622779626862 H
   0.1880397164852879    0.3536446960652779    0.3658455994704644 H
   0.1124821656088468    0.2779336629434588    0.4145213652914892 H
   1.1551058936341476    1.0951252182376208    0.4145953957016351 H
   0.2651504352776459    0.0588274654564823    0.5471522431185815 H
   0.1461660324860989    0.4709932683666906    0.4994697186336805 H
   0.3280097485957055    0.0222707196983869    0.4521735403517285 H
   0.1845199474672030    0.4795803092668527    0.6124640301695768 H
   1.0229316030086770    1.1094624641850095    0.4088140833593049 H
   0.6137861926079861    0.2331131871339082    0.3779441734785767 H
   0.5018971972021024    0.1814591343117113    0.4050855725983117 H
  -0.4595088640185022    0.3339688243730666    0.5040249023079695 H
  -0.3864624436787283    0.4368789566424084    0.5385839942943010 H
   0.8679610440054015    0.3872896032959090    0.6486888063841908 H
   0.7786393313336243    0.0483747968051947    0.6607966341935714 H
   0.7726479337696408    0.1491858746322747    0.3904915568481984 H
   0.8935822555477324    0.0739565763757696    0.5192921321003469 H
   0.7467119653287554    0.4715944802815663    0.4209581552236527 H
   0.7664456490836257    0.4975911555993376    0.5425800941419674 H
   0.0877696572326426    0.7381601082251001    0.3456607454541255 H
   0.0334975101452552    0.6151948390386042    0.3376777995600609 H
   0.1951886325437055    0.8920142339829454    0.5008870925279320 H
   0.2579472236542277    0.7992898390776501    0.5500186080614174 H
   0.3150811089875821    0.5413656757436872    0.5116955324092312 H
   0.4290687460145775    0.5086060041614092    0.5418613822434677 H
   0.4726051333303804   -0.0081939720877575    0.3371218003338611 H
   0.6188309587995673   -0.0162926452330212    0.6586844540540965 H
   0.5121818788623684   -0.0101551814785322    0.4532724292523314 H
   0.4390740809273766    0.6050915876091304    0.3601784173437757 H
   0.4118059039133596    0.7310637667404642    0.5953059403180567 H
   0.5275325728048682    0.8488239183442812    0.5958449742419314 H
   0.6358774055330291    0.8463484899366389    0.5499900755075070 H
   0.8726666596387904   -0.0079531471736234    0.4246527353799958 H
   0.7107132188410847    0.6573545056803387    0.5199692018931394 H
   0.9155680249117597    0.7457734749491198    0.3749443995674570 H
   0.8084853673468022    0.7704112582725894    0.6430385895598272 H
   0.7737362057463927    0.7620572188783339    0.4731465097760787 H
   0.0512515618623572    1.1397101414298860   -0.1040524039791648 H
   0.0184601094817317    0.2282771303306579    0.7502901462586777 H
   0.1506733512733983    0.1911567590319973    0.7503664901191406 H
   0.1738890332185270    0.3887522404862713    0.7738109956322154 H
   0.6240102835652805    0.0169664489201288    0.7765100210021175 H
   0.6397544236309732    0.0707799324872130   -0.0325396446983248 H
   0.4299602949297329    0.1684297581310534    0.6990765254398392 H
   0.5172321532996744    0.2651168793776792   -0.0506625975620796 H
   0.5601767976461950    0.1276068738516733    0.7081167181287997 H
   0.3398752967789612    0.4199336244956933    0.7701187289261895 H
   0.6613302221346333    0.4487849934460496    0.8419282267676977 H
   0.3768088712553385    1.0691208895857136    0.8693349015237887 H
   0.3675668218215339    1.0354717305027852    0.9842825362773885 H
   0.4310454193374993    0.4934430484978333    0.8362217159856191 H
  -0.1308121693193390    0.2509216452970290    0.7902125872300574 H
  -0.1297018643596882    0.1679637551192403    0.6939761386408301 H
   0.7868938309982144    0.2024020579885969    0.9395404071454693 H
   0.9141437499458008    0.1979707775240748    0.9258139352642533 H
   0.8608790137879269    0.3698076873892412   -0.0566906779382294 H
   0.7395158357355546    0.4245069168269541    0.7537703466856400 H
   0.8032273533564503    0.4860507780932870   -0.0326227746797178 H
   0.2112184144948364    0.7234393452004709    0.7999128844094854 H
   0.1524540884269701    0.6724553843003702    0.8888372876965952 H
   0.0506627303943865    0.6546503276190874    0.7177468406486102 H
   0.3250526075337866    0.8823455218582830    0.8493389792833430 H
   1.0336805510943110    0.7765696411403823   -0.0004264866172091 H
   0.2630793348851577    0.5068508395329744   -0.0239009127543846 H
   0.1868389189173028    0.5163860434954936    0.7706346283468936 H
   0.5139138286966644    0.9662940936214043    0.9125809994506764 H
   0.3524435397382398    0.7551284003742221    0.8564952522641117 H
   0.6281949765315618    0.9011727238319003    0.9120720403809234 H
   0.3722086991829654    0.8050613033863648    0.6887963233809351 H
   0.5783547954299599    0.5530820799348571   -0.0409260563276844 H
   0.6836976342381578    0.5988719780682525   -0.0753286048425616 H
   0.8024278708341220    0.7967183188080830    0.7665513885372847 H
  -0.1205377172582758    0.8642530399616847    0.9404195182659517 H
  -0.0566814114640451    0.7126515455510892    0.6851210219772342 H
  -0.0321498883045097    0.9468376175077473    0.9721446336138860 H
   0.8758220975467985   -0.0373609985526851    0.6734774265314768 H
   0.9161739319414770    0.5090983686574673    0.6742701688401224 H
   0.2903278395930151    0.1162654830331487    0.6937918337655711 Cl
   0.4186833421467740    0.6223243449711610   -0.0387736221526928 Cl
   0.7525719518875925    0.7737328052874470    0.9065274711210389 Cl
   1.1418310214376144    0.0442643356039331    0.1759922992010260 O
   1.0052186585425262    0.4961293687794348    0.2840042099040831 O
   0.5463904454895108    0.2972251671879703    0.0149921970559250 O
   0.3405394338349111    0.0893805107333701    0.1026729665675946 O
   0.3607924664723962    0.3173772463375089    0.1016828869469040 O
   0.3345275770725214    0.3590683588560518    0.3031788572819730 O
   0.6782562743543981    0.1310151586534013    0.0106947317469564 O
   0.7870504225552452    0.4332359695938549    0.3136294835142336 O
   0.6966821431957745    1.0144080542206486    0.2021250339825233 O
   0.0440510650171890    0.5217136144243423    1.0712374221945755 O
   1.0975132501211500    0.7266435410919159    0.0126321692724827 O
   0.1293351942281469    0.8129204271731837    0.2159494419271615 O
   0.3335494700102635   -0.2287621264687287    0.1667246172308881 O
   0.4733070412141568    0.9618636635273417    0.2138912422950848 O
   0.6432686844033335    0.5151946744817159    0.1967601426972637 O
   0.4535528982608806    0.5874770139107786    0.2867788079843424 O
  -0.0719896132252400    0.8823404196355258    1.0001528054524125 O
   0.8235661572487915    0.8224377733560531    0.1762668286386503 O
   1.0914541798239772    1.1442426159790904    0.3867059809793844 O
   0.1232690419007566    0.3641748334654272    0.4067759336299760 O
   0.2524775356495980    0.0225933502507262    0.4795501402536977 O
   0.5395822537737783    0.2574218770895463    0.4004347663109176 O
  -0.4488094901443906    0.3960331123606215    0.5614609333295908 O
   0.4639981059394094    0.0295530286988136    0.4075362876341828 O
   0.8470769237863149    0.4659046515369649    0.6565846123163128 O
   0.7301722772019663    0.1823962425580946    0.3350828794544265 O
   0.8557091317291703    0.0346146632738590    0.6427239603167072 O
   0.8930943823549731    0.0713080975796165    0.4403834263858906 O
   0.7143502348038813    0.4961438250772465    0.4857008334966517 O
   0.1569134067872400    0.5252707140564851    0.5568563960485379 O
   0.0430647034552665    0.6833749913709765    0.3854189314529940 O
   0.1982197414767847    0.8065383968745388    0.5076338848025814 O
   0.3993171370709660    0.8075367317940070    0.6161054009686275 O
   0.3873744734475644    0.5679567600126582    0.5097344976904709 O
   0.5819658439486256    0.9004584126459093    0.5669777411856705 O
  -0.0003071919053518    0.6532098000606724    0.6648320626966276 O
   0.8478716849551649    0.7844075056657134    0.3785448994109063 O
   0.7329437116937381    0.7356957346334314    0.5391299685691269 O
   0.2276101668793050    0.4307894537818360   -0.0113278500862435 O
   0.0097835208161801    1.1038925376751996   -0.0451241975030406 O
   0.0950421153737428    0.2456484980775890    0.7828188000167372 O
   0.2212552250974909    0.4471242199386208    0.7478849290790421 O
   0.5029673706571874    0.1934178940838423    0.7179643049784137 O
   0.3940323687442371    1.0053090903038597    0.9128354789855528 O
   0.6361898017548443    0.0495618289296289    0.7081282853803850 O
   0.4193230855430858    0.4284636905750679    0.7862835774415856 O
   0.8489025137979306    0.2389552321907624    0.9053707459625094 O
  -0.1085187250869748    0.2457675499419209    0.7153269716169666 O
   0.6687576980482716    0.3985765704050248    0.7774932373868676 O
   0.8707781182474638    0.4469218317692567   -0.0229598782804156 O
   0.1578797104658021    0.6651515524236132    0.8125628307431634 O
   0.3306686574962440    0.8135888183543609    0.8083677741682299 O
   0.5922623289925876    0.9703333533040909    0.8974124768718269 O
   0.6509086212234960    0.5286033158873165   -0.0543170779129270 O
   0.8488002178059005    0.8026079846106698    0.7045424373889437 O
