Li1 Co1 H90 C51 N3 Cl6 O45
1.0
  14.1029407233999997    0.0000000000000000    0.0000000000000000
   0.0000000000000000   13.7634856750000001    0.0000000000000000
   0.0000000000000000    0.0000000000000000   14.2250389282000000
Li Co H C N Cl O
1 1 90 51 3 6 45
direct
   0.8443363047426364    0.6249787692317267    0.3209045322927371 Li
   0.4959387544467966    0.8421294293605606    0.6560417522372907 Co
   0.1320430180430521    1.0351444883892031    0.1790912121196117 H
   0.5345611957292898    0.3111367598746020    0.1314526781640671 H
   0.8807109878715836    1.1292892443468905    0.0671470544946245 H
  -0.0581563207054499    0.1611565841586855    0.2976504658771975 H
   0.8235675866614485    0.3115051258626750    0.1282337063052818 H
   1.0477038190966605    0.4434424884523303    0.0966886256721154 H
   1.1514226128354006    0.5710462104651408    0.2812947988611466 H
   0.4261724539781668    0.4469498848444873    0.2725145065448707 H
   0.5155066009982688    0.5196486926630235    0.3035583583212313 H
   0.6617353812538822    0.3597152970117797    0.2176591206342510 H
   0.3825666548713447    0.5833548656997459    0.3669339318117761 H
   0.9335517403512085    0.4673993266970869   -0.0302952096001421 H
   0.8124394111214633    0.4443229340230341   -0.0026207686381859 H
   0.9966612731398726    0.3674967560497716    0.1806637912958734 H
   0.8934345753502055    0.6160369936593115    0.1593956596916612 H
   0.2264105706054619    0.7705668889360036    0.0349713956222507 H
   0.1582028103328871    0.7078247885414390    0.1168397128815669 H
   0.0736693769602347    0.8560772042580704    0.2127304873732894 H
   0.1791608506307933    0.7605127497980267    0.2919302706348005 H
   0.3406817734423322    0.7964091797915865    0.1356495032343767 H
   0.3375880924253223    0.8815576681667888    0.2289821124947999 H
   0.5755645588818076    0.9839292645247731    0.2240844106078908 H
   0.6176849940201600    0.7848764907803778    0.2542080540061885 H
   0.6681248288001296    0.7634705761046249    0.1458793522164781 H
   0.7420165100060879    1.0163498308360031    0.2867063833487921 H
   0.7406082930682510    0.9277407365412904    0.0752967685716931 H
   0.8554602258507852    0.8749517834260397    0.1308748238579038 H
   0.1737009964407917    0.1508234459291505    0.4440071128085983 H
   0.0471862478508359    0.0683101911609321    0.5139944081000268 H
   0.4665324052226315    0.2745544571142949    0.6670856587455928 H
   0.4447019227694813    0.2569382800988748    0.3335245329061707 H
   0.5230034502067870    0.2583587051613653    0.4326068628114955 H
   0.6820332755451791    0.2085326642736525    0.3900902832047408 H
   0.6911164875158182    0.1436087037958864    0.6594821646148611 H
  -0.0276938796851045    0.3040070252770471    0.4921777366964239 H
  -0.1568017044793247    0.1631916790947654    0.4343699511324899 H
  -0.0372542970933891    0.0151419736555943    0.4326216255127478 H
   0.0613286883468856    0.3252763466475581    0.4221858016988874 H
   0.0518462688556010    0.3818121703752200    0.5983962157899776 H
   0.4246174591419754    0.6267443103579937    0.5924060740103950 H
   0.4378437786492612    0.4742602631073687    0.5906036184860610 H
   0.0297806581362944    0.6219083261043173    0.4833295359543872 H
  -0.2386902993937035    0.5020065047947965    0.6223174157049685 H
   0.6945654135911647   -0.4862666202833099   -0.5419992574231639 H
   0.1209687319729942    0.6678814186000162    0.5513091741740742 H
   0.0207137548210281    0.8204023751054619    0.6339630780357473 H
   0.8912002895641413    0.8325315699869031    0.3849156049229067 H
  -0.1442185132513027    0.7123788674630201    0.6573113445449924 H
   0.2474494451082591    0.0017325798175759    0.7286419050532296 H
   0.0989201389810331    0.2155061884423402    0.8215702974936482 H
   0.1447517150102468    0.1658784984712821    0.7099895835137782 H
   0.3342483634337758    0.1387887038651639    0.7512597693433706 H
   0.1255365736213047    0.0840591086312879    0.9580360048845549 H
   0.2337508836671368    0.2921648216486410    0.7200514188959125 H
   0.0724235375041525    0.0913755691833493    0.7894051834078831 H
   0.3398869037609047    0.1665476603549413    0.8760186546411675 H
   0.2505296537577872    0.0959194762630507    0.9837463035941753 H
   0.1741087128251100    0.1984182206445316    0.9552838155796535 H
   0.5810559667745955    0.0807830489858813    0.7105189318015409 H
   0.5686103355092826    0.0807278304156770    0.8866246010123168 H
   0.6280792800683721    0.1970755375164075    0.9110203163247045 H
   0.2471778705427045    0.3277350261419152    0.8364735959007777 H
   0.5468561492003980    0.2605696276499376    0.7816913205106458 H
   0.6407993221871305    0.2923144930362999    0.6997590315459028 H
   0.6783971544690326    0.0806057683131203    0.9551347825955820 H
   0.7509330900631360    0.2648134653941869    0.8117727847625081 H
   0.7780175122054076    0.0014405026436009    0.8697677051394601 H
   0.8054550521900976    0.1793133219139998    0.8853423549606845 H
   0.8285764710767954    0.1806887002481659    0.7660386392685161 H
   0.8024060427073694    0.0233557359734746    0.7493237465219915 H
   0.1042176156892802    0.5688578113407308    0.7739212187514947 H
   0.3517964766148356    0.6161975634489844    0.6980360134140219 H
   0.3491821282513893    0.6287728662528652    0.8443864037720349 H
   0.3636479055670027    0.3895158874788454    0.7363171037329014 H
   0.4368751863345153    0.4927473677557339    0.8542753046537845 H
   0.5267919650313121    0.5265150492119069    0.9408191802954506 H
   0.5588600286267016    0.4913601464913793    0.8153650420672456 H
   0.5720903189370347    0.6218770840185439    0.6999987496948099 H
   0.6515616165891882    0.6301642289099850    0.8318374047217674 H
   0.5961270788333264    0.6764504688235526    0.9380128610859572 H
  -0.1308858329481079    0.5906582481693905    0.6902961400431494 H
   0.1793714450066934   -0.0359628130684272    0.8269207222189625 H
   0.2972844414954921   -0.0169676249181696    0.8457382454152853 H
   0.0561708988172659    0.6847230825123085    0.7577989430123856 H
   0.0841920050355106    0.7149181951322807   -0.0484477082543356 H
   0.4186768541544645    0.6813242342042108    0.9432008960974957 H
   0.5902708534105701    0.7463593583825197    0.8303302032224803 H
   0.4109848413943168    0.7455732203172436    0.8326500562764203 H
   0.4915627876743062    0.7244775468188221    0.7107586499504479 H
   0.6914306063997364   -0.0325973865265058    0.7782607499339104 H
   0.0853201385441200    0.1241470640394298    0.3458907556552187 C
   0.9022646486265810    0.3222458643275334    0.0161109902937186 C
   0.8401591617512989    1.0256498005546115    0.1442217117615719 C
   1.0348752889660748    0.5166039697643672    0.2366629350606630 C
   0.4822109083332006    0.4506687828917292    0.3258022341796462 C
   1.0002087602194283    0.4475275001512290    0.1571812545038094 C
   0.8841719681704665    0.4306393363903436    0.0225299533953932 C
   0.8215843123537298    0.4558453785363496    0.1951607639256766 C
   0.9015463587182080    0.4793567191691795    0.1189402343740435 C
   0.2118667953728485    0.9462098951543393    0.1099124910653473 C
   0.1665599326034532    0.7778949744502133    0.0871259101894652 C
   0.1985142610544173    0.8475488414020528    0.1610265866871584 C
   0.3090288005797774    0.7370448574612259    0.2654038054416577 C
   0.3005149734032385    0.8174750643245031    0.1941822077283783 C
   0.0704211182531701    0.8049375426476041    0.0507449904174948 C
   0.5620153279981417    0.8756994138041997    0.1420178513603289 C
   0.6474383630677779    0.8246077051625951    0.1898693900053716 C
   0.7302338610352752    0.8913713159003234    0.2225153463604987 C
   0.7906418296078477    0.9245867389984406    0.1379131174264029 C
   0.7963420591966041    0.8292199088949175    0.2838269536188108 C
   0.1048756344799713    0.2555069566343702    0.5521046025772660 C
   0.0396332131973428    0.2653859947799888    0.4670432536342224 C
   0.0113412414855162    0.1688501294204311    0.4125077965493142 C
  -0.0190729826406837    0.0796641463791112    0.4744496305539467 C
   0.5719334013094700    0.1797049378263693    0.3135906683008609 C
   0.5174266133227248    0.2708700706734307    0.3543420506292994 C
  -0.1036773232106089    0.0884460787219877    0.5377430250075200 C
   0.0353234737471051    0.5394093845707439    0.6537127603682897 C
   0.5561992360490418    0.3722259359637107    0.3242612893632109 C
   0.4363185648359243    0.4703859531208471    0.4208248212405760 C
   0.6386912512122117    0.3995032557404831    0.4003159142721986 C
  -0.0029564857725608    0.6444171590638866    0.6321254732227173 C
  -0.1152167604947760    0.6405009999401914    0.6332889146785567 C
  -0.1632840404539993    0.6003585525219796    0.5443813196706581 C
   0.0434593655621803    0.6732761275969432    0.5366234498639731 C
   0.0109264343814706    0.7725663824255043    0.5063310898799344 C
   0.1238277101670315    0.1490441001603324    0.7826733916368137 C
   0.2982962872005742    0.1745427280724074    0.8107063553434698 C
   0.1926296727527519    0.1216745799025217    0.9380423864884618 C
   0.2381896742164109    0.0091115245411842    0.8046754403889997 C
   0.2780373918677773    0.2807149604927387    0.7812976484772498 C
   0.5865131973982981    0.2366454555488176    0.7146039821337969 C
   0.6365009278884566    0.1366097500224993    0.7155937861034780 C
   0.6380701041641024    0.1182205130242198    0.8958091101485973 C
   0.7737644985129882    0.1882405662837296    0.8188181081887466 C
   0.7460362390194800    0.0196807948143558    0.7966895219972548 C
   0.5068332907717680    0.5207405672327988    0.8632686016595585 C
   0.4995238932481040    0.6424823294263355    0.7205160924924744 C
   0.4196617551245830    0.5946579617085263    0.6654301272480083 C
   0.4127475943185173    0.6729121209696758    0.8659631461309986 C
   0.5915032204991704    0.6743005773862588    0.8602338120735407 C
   0.2121100070594940    0.1131876309741573    0.8339519859297223 N
   0.6936585105380463    0.1164556984580870    0.8043808893497266 N
   0.5017907963449137    0.6280332280361821    0.8276665901250929 N
   0.4941058033972960    0.2830268748399740    1.0460449028790728 Cl
   0.3805117642943804    0.8158156009778389    0.5611544899378408 Cl
   0.6389018455881117    0.8410512141213095    0.5965986811660611 Cl
   0.7215158211305909   -0.5635580873665567    0.7310953254042146 Cl
   0.1556926955494318    0.6422512833036389   -0.1416165218294351 Cl
   0.4660903697548331    0.9259286955664304    0.7891415637426628 Cl
   0.0645308573757229    0.0928526659363127    0.2674972970763951 O
   0.1761302770193561    1.0353646361098858    0.1260207070889779 O
   0.5275598899777759    0.1237583543675974    0.2628561849969672 O
   0.5921293310510888    0.3713773137268878    0.2297139206854519 O
   0.8721936153351811    1.0570626279596140    0.0621509345993664 O
   0.8500386615473109    1.0706936226385835    0.2205835414537632 O
   0.8547355542946578    0.2660086568150550    0.0745150483910927 O
  -0.0650194283294792    0.2033290405920374    0.3529754462847966 O
   1.1323939573752857    0.5213735464217716    0.2330088150078205 O
   0.3820887403617264    0.6940869895227322    0.2877924963695004 O
   0.7838673559804094    0.3716512268975061    0.1900240468756343 O
   0.9132056291657660    0.5840559962293127    0.1010246419256614 O
   0.8074510897933256    0.5193528373763502    0.2545201796898096 O
   0.2552641273196887    0.9437308719762227    0.0361039057040378 O
   0.2289433756920445    0.7098526178761763    0.3106676534528965 O
   0.1356734665434168    0.8506883077422174    0.2403768089042887 O
   0.0170712520971270    0.8561295165877376    0.0981480241387759 O
   0.5228626781480414    0.8363678074958291    0.0732173366524341 O
   0.5256683695833281    0.9538591202478948    0.1800866399754841 O
   0.6895671652554086    0.9660449868198087    0.2739514094667657 O
   0.8089387227921078    0.7399191293523834    0.2624850085083368 O
   0.8403499021119626    0.8719038636627927    0.3492397798821793 O
   0.1732145730675007    0.1170798136134217    0.3797788878728645 O
   0.1711263561078182    0.1938619620425478    0.5565070509864476 O
   0.5124806590449573    0.2282427875960281    0.6432888873125860 O
   0.6579631183589719    0.1584043743700849    0.3470492762106409 O
  -0.1201377199855047    0.0482178972079324    0.6125121701303156 O
  -0.1756119657718394    0.1334448540776354    0.4951288709753451 O
   0.6942605126428919    0.3355164851799071    0.4244177815310873 O
   0.0924477300139767    0.3201671757833977    0.6168467804123137 O
   0.4221094715744382    0.4899657322816954    0.6578962287088947 O
   0.3766352678194793    0.5447054993574512    0.4209204273058293 O
   0.4464500688110437    0.4205422575484317    0.4939845507325562 O
   0.6402334827528939    0.4932940316007559    0.4174940746437373 O
   0.9881396461716337    0.5668830208957950    0.2909278129211890 O
   0.0139804073680079    0.4822747299804198    0.5896264682603106 O
  -0.1437349261659026    0.6278072678344253    0.4618841816365694 O
  -0.2305430624270648    0.5392477975968831    0.5587439517190649 O
  -0.0094210949479172    0.7939388753350812    0.4244901890658012 O
   0.0005590930682221    0.8426140449701162    0.5707581191925332 O
   0.3735954762723965    0.3236524847474730    0.7631950618130048 O
   0.9563952030245971    0.2875417195143047   -0.0402733896751798 O
   0.0844111082750834    0.5138234241305301    0.7274081650199978 O
   0.0367118366697056    0.7628958670384202   -0.0241012019461223 O
   0.0294140679263943    0.7193574775526477    0.6987586827896128 O
