Li1 Co1 H90 C51 N3 Cl6 O45
1.0
  14.1023779999999999    0.0000000000000000    0.0000000000000000
   0.0000000000000000   12.9176179999999992    0.0000000000000000
   0.0000000000000000    0.0000000000000000   13.9998470000000008
Li Co H C N Cl O
1 1 90 51 3 6 45
direct
   0.2163139486120710    0.3235199175265904    0.7055535442637336 Li
   0.7810451528103984    0.7539949726025340    0.5458495017838408 Co
   0.5344933826054017    0.0221615254453259    0.7905737384129983 H
   0.6141935175755464    0.0590400490245183    0.8844075431681503 H
   0.6589725286047503   -0.0035928644119992    0.7784563709874829 H
   0.5296072605627221    0.1215043485571411    0.6440224446738595 H
   0.6515754172806885    0.0838352186912479    0.6267537280943142 H
   0.6192307169755342    0.2176690973521589    0.6208262004577620 H
   0.4799152532998336    0.1883560645623675    0.8073826799678596 H
   0.5410340887189381    0.2953624391122264    0.7548139568953860 H
   0.5727411015362091    0.2519956341796142    0.8725286933492915 H
   0.7662548692142559    0.1307908276897490    0.7456534910702951 H
   0.7287536711893554    0.1776461078195686    0.8603707726234436 H
   0.8056852354971623    0.3211668916049383    0.8016519123387562 H
   0.6888824494705786    0.3523149569835554    0.7650460915751436 H
   0.7916616176364014    0.3683981582362941    0.6404216088932971 H
   0.2953052683738870    0.6304148202865265    0.9064445390010333 H
   0.4070397793903979    0.6991316518262114    0.9135143155493055 H
   0.3722573008608903    0.6332663568469048    0.8055734801958907 H
   0.1731582694776725    0.6918322093128935    0.8074727345234558 H
   0.2475920344781568    0.7078216355368304    0.7045531847598048 H
   0.1796132552963763    0.8156774267515885    0.7498672014058438 H
   0.2134294088557263    0.7851874161319835    0.9565503165856025 H
   0.2301376661439652    0.9051298211481404    0.8934969960743141 H
   0.3259419021387741    0.8526207176895927    0.9624834899981406 H
   0.4016705686090672    0.7840762344884328    0.7250036068251318 H
   0.4285199396867677    0.8543603960110913    0.8316374928954580 H
   0.3241798893775220    0.9969794864656936    0.7862657570472019 H
   0.2701619258822874    0.9255254707175891    0.6904758523432435 H
   0.4108496028116677    0.9325925762783820    0.6140394391452992 H
   0.5814225437724050    0.8600734485258815    0.1645978973913072 H
   0.6705933105749966    0.9366172958512939    0.2237126448596188 H
   0.6390909944407958    0.8129995770117990    0.2716488458766728 H
   0.6266430122636055    0.7006525932257790    0.0832818044368628 H
   0.6851649821044367    0.6567356210719345    0.1910608823082138 H
   0.7499865582953457    0.6613452867239146    0.0824714127232962 H
   0.6582350239087337    0.8658178086702982    0.0196133579174115 H
   0.7832926730513109    0.8351910708305510    0.0082665060553876 H
   0.7470263284674401    0.9498246983306056    0.0720738348069090 H
   0.7998789572935855    0.7758188839459412    0.2707832964174537 H
   0.8310727985024937    0.8930994112072366    0.2115581977431610 H
   0.9654922035134783    0.7814090569948733    0.1868539356180107 H
   0.9036057287643262    0.7758093558735055    0.0760912729974835 H
   0.9510597205662761    0.6232917926509361    0.1871121498684950 H
   0.7759060032286753    0.7437239404354580    0.7958347244794889 H
   0.8511996593765959    0.6684035423558741    0.8691468542477642 H
   0.9702818283554731    0.8981911254845901    0.9208190639511988 H
   1.0295310159747526    0.6964631799763703    0.7448565345035555 H
   1.0131554451313105    0.5972908774667280    0.6622998951345681 H
   1.0997084697346788    0.4984693354455907    0.8980449764915287 H
   0.9077213374935774    0.4974452743532128    0.6096206215682213 H
   0.9031294048422188    0.8026094300048198    0.6646783175558989 H
   0.2011016404467389    0.5965231221421783    0.2877406960233208 H
   0.2905320606212655    0.5566999697622271    0.3702822223700016 H
   0.3675329784806506    0.4175497487230231    0.3127713988588590 H
   0.2352992906586393    0.4266276537980919    0.5092148264191744 H
   0.1613655009105557    0.3537340212413775    0.4328596019656500 H
   0.0015955642374641    0.4589381200156252    0.4582149733493516 H
   0.1034269277138934    0.7064937204366936    0.3603399451436862 H
   0.0696032591099175    0.4575281580551461    0.3060066606442199 H
   0.6102596512446340    0.5766901529368650    0.3454762427046524 H
   0.5198338251889150    0.6376958050625123    0.4142531886241328 H
   0.5483089199566201    0.7084251113479281    0.5762400460519318 H
   0.6058961850263834    0.5429898600500496    0.6234992839564604 H
   0.5229218363030689    0.4411045565831100    0.6089035958750120 H
   0.3721087904465474    0.4778031700581331    0.6290961779796593 H
   0.5955799362348677    0.3014714624631259    0.4459774253247196 H
   0.7025843364856622    0.4350387772730236    0.4357198625099259 H
   0.1642305943011881    0.2202240351123559    1.0262126064663419 H
   0.2106459548878920    0.1698968470812498    0.9167299185483955 H
   0.3076375374422669    0.3782205411245324    0.8704442905697469 H
   0.0268855444096024    0.2739416245317055    0.7980060139228664 H
  -0.0425148829509463    0.1600248459119940    0.8096859572822473 H
   0.0350012331253637    0.0066543916997700    0.7706662222808577 H
   0.0200596140594161    0.1354174167404548    1.0896690056684191 H
   0.0173589978938304    0.3204726955077941    0.9816558295244225 H
   0.4129280125663913    0.2817815869767940    0.0936843759792518 H
   0.4994838054972006    0.2283241120770099    0.0183112751160781 H
   0.4046086227443343    0.0783496136826465    0.0372123395348535 H
   0.6548260945778082    0.2039637253555571    0.1881402903903164 H
   0.7034391533115905    0.3303097134471696    0.1712926055549035 H
   0.6916726143633365    0.3749245619432313    0.0023489535278493 H
   0.4399647002796266    0.4504809121929446    0.1676230840237040 H
   0.5151295093635981    0.2642492075551390    0.2639820970900610 H
   0.8391182274365360    0.1339513322038165    0.5023799431522359 H
   0.9187397458783193    0.2204928989230058    0.4447812736810624 H
   0.8423990549678927    0.3428789781521640    0.3335052947364353 H
   0.7957429590952675    0.1888046573292382    0.2452282307085213 H
   0.8741349622028285    0.0936930090361861    0.2016018060768807 H
   1.0360206292867771    0.1339757453734891    0.2433147847972910 H
   0.8976873191173858   -0.0369352128232930    0.4792463824783227 H
   0.7620172158199136    0.0079206599854555    0.4050888963286527 H
   0.6058117808216458    0.0498290156900444    0.8071043240686844 C
   0.6037990606974228    0.1435504347628177    0.6548928284716253 C
   0.5481609640586858    0.2282511102279073    0.8017907702848466 C
   0.7205015338547868    0.1866346241234259    0.7828329909605440 C
   0.7472209084170059    0.2964013164036899    0.7542947819358311 C
   0.3472903506061176    0.6768903190975303    0.8674261933005409 C
   0.2190715516205848    0.7454808827757563    0.7684944392606576 C
   0.2643158132621321    0.8338171565376837    0.9178477514789981 C
   0.3726202892873812    0.8369648436731911    0.7787591085816865 C
   0.3359249312420927    0.9362672135063912    0.7320022761677324 C
   0.6473535009485634    0.8580255082632109    0.2060029613180772 C
   0.6933384305824166    0.6982520407400188    0.1234277553176117 C
   0.7291835001160797    0.8694641334029232    0.0542910111803365 C
   0.8151909947386178    0.8106701645767820    0.2008836868002914 C
   0.8978010765276608    0.7556981449675939    0.1524177892801257 C
   0.8503035459693393    0.7203414135640177    0.8069486959393198 C
   0.9095787944416183    0.8154552247945402    0.8247897494879765 C
   0.8841188344263642    0.6621232467162290    0.7185460312530557 C
   0.9864509893296010    0.6274347429998317    0.7306882989506955 C
   1.0038367181761827    0.5477465775810990    0.8085930210523015 C
   0.8161637689757004    0.5706644529974489    0.6991636880031618 C
   0.2238782069236834    0.5329937276361633    0.3362022134956189 C
   0.2341713376283064    0.4364434542033989    0.2735383565263249 C
   0.1458825859014700    0.5180187074737773    0.4106386641225436 C
   0.1642782862578212    0.4250331392366611    0.4764158822592847 C
   0.0906761930505621    0.4157332226421311    0.5552529024067191 C
   0.1395778392835591    0.6181318575917015    0.4736209274287068 C
   0.5896610089447326    0.5999857814343171    0.4183432868944924 C
   0.6627386679040940    0.6713966189432138    0.4592833535966500 C
   0.5809378489216499    0.5008272299118924    0.4793973534139337 C
   0.5434888350035717    0.5180980200838886    0.5819138359154924 C
   0.4646889028219213    0.5916443790178654    0.6011053463655709 C
   0.5115205825570694    0.4254342944651251    0.4286027390156478 C
   0.1562302549258004    0.2216516690615871    0.9476400427804674 C
   0.1689285062419969    0.3331728612813910    0.9165869719861938 C
   0.0534931810791060    0.1873456987193769    0.9253597992892350 C
   0.0296726190433982    0.1916084381810950    0.8181242437863785 C
   0.0970080506989672    0.1387190037667936    0.7482789233339479 C
   0.0353843805633348    0.0778190236001715    0.9629817775865692 C
   0.4829918145719821    0.2434467213692184    0.0937994529511644 C
   0.4722757211585167    0.1411849204706317    0.1499957892396967 C
   0.5560255695883347    0.3161913264504339    0.1403515245559469 C
   0.6565777055472489    0.2709368066155850    0.1397793047309731 C
   0.6993363339147483    0.2329711476217984    0.0465938763473629 C
   0.5536161440290425    0.4251181231710057    0.0948323928111500 C
   0.8520280161260746    0.1772970496572975    0.4359203575581932 C
   0.7686713311754939    0.2499383059632202    0.4223633815426697 C
   0.8630585735256848    0.0999995393887635    0.3523622101012961 C
   0.8664872803721473    0.1548471591279445    0.2560028198879602 C
   0.9409287462015271    0.2373762933692574    0.2440576614873005 C
   0.9555080341769310    0.0362225659560455    0.3693511736235403 C
   0.6196102905481614    0.1536456202683807    0.7606056173328180 N
   0.2996564870123323    0.7742360890374681    0.8329032524426874 N
   0.7223428389169543    0.8078657210640537    0.1453977611326752 N
   0.3578953932450257    0.0926830565821036    0.9201030511262015 Cl
   0.7777252701636561    0.9363064800337029    0.5472870974947083 Cl
   0.4111372854989421    0.4127690608283974    0.8939584775462188 Cl
   0.0968243540202936    0.7275230410126697    0.2259490364430411 Cl
   0.3576144292827777    0.3451924240212089    0.6209490918007889 Cl
   0.5171524362770591    0.8302835638892558   -0.0232574270275954 Cl
   0.7778866961302555    0.2961574123031042    0.6577848315056586 O
   0.4098323998973790    0.9751415485424635    0.6713510411935215 O
   0.8895113767337679    0.6461336842442624    0.1617980960791928 O
   0.9359444293721244    0.8734273044767232    0.7588560896415510 O
   0.9298375564745180    0.8329143941243657    0.9157722423680772 O
   0.9484432391473268    0.4776004353124547    0.8277720070797915 O
   1.0874087136226245    0.5602588526770184    0.8520135634339432 O
   0.7403136442662365    0.5628338901181317    0.7399498494519261 O
   0.8414330193106440    0.5000594745873427    0.6320133570031158 O
   0.8818695449802862    0.7343452833177139    0.6364120407887314 O
   0.1645519429418216    0.3980457256128800    0.2346439236085937 O
   0.3218007955821351    0.3982367941210214    0.2595399471151363 O
   0.1070295605464554    0.3884384744927432    0.6374045452068153 O
   0.0003285148079281    0.4378370903985550    0.5284258299394272 O
   0.1606697593838429    0.6133495850395948    0.5587901174919983 O
   0.1121209295340119    0.7058800136371892    0.4333399172148095 O
   0.0558433357835111    0.5021449209908514    0.3627785410797703 O
   0.7435613901428539    0.6842987979672414    0.4219569363865190 O
   0.6439562348988234    0.7201670400843251    0.5388123905925543 O
   0.4779310425518306    0.6914367710827182    0.5975756920772063 O
   0.3823246185856031    0.5621323815273064    0.6286947064492918 O
   0.4407821914857196    0.4625859535403509    0.3893466192880536 O
   0.5276837487975432    0.3256813160135251    0.4332320131784297 O
   0.6711163649137756    0.4562053027113823    0.4953704158338301 O
   0.1178793555242953    0.4004996857779817    0.9560265508615915 O
   0.2284002520709628    0.3555408334570662    0.8476597615673942 O
   0.1630147745295155    0.1845986891700931    0.7097661317298680 O
   0.0795941379531877    0.0396758280048226    0.7252396386903370 O
   0.0297148573098806    0.0015503523946907    0.9096432139579810 O
   0.0254229811454494    0.0676089771349486    1.0564401653818074 O
  -0.0122915234579587    0.2508744917213065    0.9771370744265990 O
   0.5016716095682586    0.1316998064194188    0.2332389482542202 O
   0.4280251975943348    0.0641195218808917    0.1072432863016289 O
   0.7153469989245785    0.1412360359317020    0.0302118544581237 O
   0.7214269217574512    0.3067373822325448   -0.0174573679269495 O
   0.6159610599006777    0.4590123511935405    0.0416941392288073 O
   0.4792289371338649    0.4839954734688702    0.1181246509336852 O
   0.5304369114201875    0.3343149232312025    0.2375556368580314 O
   0.6895554558245425    0.2301360846868208    0.4551412811868586 O
   0.7829743012135967    0.3401529376391220    0.3770146538030023 O
   0.9257203997793848    0.3299483488364496    0.2623525157096359 O
   1.0248038267021349    0.2050207824693376    0.2106683401611460 O
   1.0257778404464835    0.0454073924465021    0.3168733022582318 O
   0.9588858758430671   -0.0277163545167538    0.4430222123141774 O
   0.7820097653034119    0.0350298112237101    0.3424378959284340 O
