Li1 Co1 H90 C51 N3 Cl6 O45
1.0
  11.9408798585000007    0.0000000000000000    0.0000000000000000
   0.0000000000000000   13.6186821448999993    0.0000000000000000
   0.0000000000000000    0.0000000000000000   13.6064627814999994
Li Co H C N Cl O
1 1 90 51 3 6 45
direct
   0.2541022910585714    0.4111979788438715    0.5652137895204076 Li
   1.1252248652125569    0.6077838137664222    0.7238887541067576 Co
   0.1034869242420492    0.2203190103547300    1.0492650161885868 H
   0.5049786113548141    1.1601610496810679    0.1741771854123820 H
   0.3518614188475548    1.0842359352684947    0.1450020789666613 H
   0.0693194252943417    0.2184017910729967    0.2326810017813446 H
   0.2960347119465996    0.2877065879658043    1.0941223762388315 H
   0.4245436675833715    1.0102148229997494    0.0675131667540364 H
   0.5629065871988733    1.0857940889704627    0.0783638927928964 H
   0.6466571995365495    1.1103889797562376    0.1854247816802438 H
   0.7343215100735032    0.2365430471337030    1.0960758596993632 H
   0.3707034139656820    0.5429047020727196    0.2134673380835720 H
   0.1276551600353747    0.4115695272761032    1.0967593584270887 H
   0.1306658259516228    0.4678311384839787    0.9817485708969380 H
   0.4643665286819618    0.3887398586861486    0.2814695819333139 H
   0.6293187787121726    0.4906543453620685    0.3421664737899464 H
   0.6075011234734299    0.6179749613769842    0.2274959657339214 H
  -0.1364660803902183    0.4655414896274866    1.0942127744576597 H
   0.0236946466803780    0.3827378095061836    0.3036068563180673 H
   1.1344251922656592    0.7007641760751351    0.2169796396102390 H
   1.1840974113172382    0.9211863849247742    0.3211066285824464 H
   0.3469589325405405    0.8573461402704421    0.1846494148439530 H
   0.1537302904855284    0.9764450356512558    0.1887849496191267 H
   1.0993230888221150    0.7919000133605946    0.0507527490273906 H
   0.2700483521743658    0.9143244874955141    0.0875301251931036 H
   0.9976815000629712    0.6907037312727495    0.0587379250238829 H
  -0.1169490931362091   -0.2309786948569023    0.3335602693795529 H
   0.5472089164894096    0.8507926427256431    0.2112676480920855 H
   0.6518429982996047    0.9438904907046268    0.2209806794744732 H
   0.5918426458557271    0.9159127469004890    0.0996545106891123 H
   0.8476272309276413    0.9232269641602920    0.1099385942343417 H
   0.2837081496041082    0.2194026221266170    0.3291991065297429 H
   0.0036626220025878    0.1422864967316725    0.3790129347733006 H
   0.4397837505719344    1.0894141161856850    0.3140122057666028 H
   0.0890616890800535    0.0215545505340932    0.5256322312088486 H
   0.3942385305844085    0.0873149516119154    0.5423260629304063 H
   0.3477628933971742    0.1776849291842965    0.6274948550411393 H
   0.5971287722340163    0.2572403508082408    0.6439480658127430 H
   0.5596884826324291    1.0236052522688759    0.3496496824412381 H
  -0.1838001132837543    0.2489987310387367    0.4837026710313352 H
  -0.2670778961426228    0.2384242864289159    0.3775018881236191 H
   0.0223965848806048    0.3740416670498190    0.5978765768396999 H
   0.3255157890675129    0.4855819749766661    0.4116606557227880 H
   0.3023893525509086    0.6124604777286434    0.3829375403712084 H
  -0.1012023473161218    0.4290772418598737    0.3464659012708005 H
   0.5834961084831854    0.5319973324447687    0.4628529465617456 H
  -0.2666256681607664    0.5743429862946872    0.6052333749736059 H
   0.9290500416016727    0.6370414170910739    0.5253373713275975 H
   0.3517533866074447   -0.0807894196952108    0.5520304219633455 H
   0.1438181230906151   -0.0679989016299051    0.6088779665766068 H
   0.4509495944276609    0.7059049084349264    0.5053630764381480 H
   0.4294955639846998    0.9553681064046552    0.3273676239173859 H
   0.6332793746280870    0.6662990204157254    0.5057439983635030 H
   0.9448662965374898    0.7420765434550208    0.5950999551264234 H
   0.6724525348594101    0.8429673628001616    0.5759693401987939 H
   0.7460861372755766    0.9958617455198406    0.4477515198868147 H
   1.0139181595300697    1.0376513984352020   -0.0785630054236738 H
   0.1099973322623310    0.0872400544971177    0.7161439050822719 H
   0.1881414900679029    0.2682377438310367    0.8108239127144965 H
   0.3835441762727287    0.0260373631403675    0.8269699165310579 H
   0.4851346800191073    0.2469889917916649    0.7322436073721164 H
   0.0406908816651503    0.3053022699451902    0.8325378588549812 H
   0.7361454962669911    0.1531752155094679    0.7165018232332422 H
   0.6261341725147548    0.1206639934037514    0.8028931226382747 H
   0.5511425462182578    0.2274401105440254    0.9058008380736041 H
   0.7625999957463687    0.1713465772731811    0.8511378435875379 H
   0.7697410105635726    0.2839844950745342    0.9370969954098795 H
   0.8154964328167392    0.3537129746657562    0.8126179131385588 H
   0.7060128758685140    0.3868703679579628    0.9907398864184370 H
   0.5492507258274916    0.3631536825574627    0.6944806701377153 H
   0.5483139439376682    0.3650312504254797    0.8851172846387874 H
   0.4321796208029405    0.6195881864868915    0.9800074865034092 H
   0.3219833860536785    0.6118708465209713    0.8731516472343794 H
   0.4913409228486293    0.5453188123111550    0.8424588796351606 H
   0.5131404052221752    0.6061647143730012    0.7345013580082163 H
   0.7574697205299747    0.6303322510331658    0.0437678329969568 H
   0.7607265994585670    0.3417646819992051    0.6855804877799130 H
   0.6954960629126742    0.4220352976409234    0.7769980751407680 H
   0.6176023054155745    0.6218901713387620    0.8302962770059888 H
   0.5685171536557755    0.6744774916374588    0.9694110513890580 H
   0.4960797696229497    0.7925307645528615    0.7308824894756136 H
   0.3383833500697808    0.6585273433273050    0.7487636981267556 H
   0.4396522694735058    0.7508953115797308    1.0000163605489227 H
   0.2382014527409626    0.7237061903372862    0.9368235959187893 H
   0.2737239607157881    0.8403121866520391    0.8636311714075445 H
   0.0912516449551547    0.7620212045543856    0.8477203499489102 H
   0.4639787850604811    0.8483841864850895    0.8418540200083670 H
   0.6636433012646913    0.7498842005299617    0.6712689063551827 H
   0.9220472075567027    0.8432963226769201   -0.1339602098333936 H
   0.8323729111322421    0.9605462873218454   -0.0213240291734377 H
   0.6003079349464673    0.7926724816426257    0.8258483906616932 H
   0.8504804545094653    0.9823406134425378    0.7108647960916779 H
   0.3957987171218133    1.0125322278458431    0.1427230149293743 C
   0.9923100365895872    0.9932616407796577    0.0630094245997332 C
   0.5631285976395958    1.1020952257205510    0.1553772956755874 C
  -0.0910004190291301    0.2395426031528071    0.2393594458016047 C
   0.1050261742988124    0.4011345968997292    1.0141442057565224 C
   0.4673152226155111    0.5601430073288501    0.3447961065295184 C
   0.5324218989419288    0.3872455878173904    0.4111498690391652 C
   0.5138878375810768    0.6676354199150569    0.3315950268011248 C
   0.5563827798309809    0.4956696764545545    0.3888090149258313 C
   0.3133508563555740    0.9304802357286421    0.1567273893990624 C
   1.0151835604200421    0.7754035566836810    0.0756027049218589 C
   0.9939723931525225    0.7730479689947493    0.1882175721806277 C
   0.5772290074917347    0.9245986093607049    0.1810768478380672 C
   0.8932302356017378    0.9339893858425462    0.0384438923693829 C
   0.9227682599499960    0.8266419946305800    0.0077753779508253 C
   0.4800772637553458    1.0187398769487821    0.3085353966063763 C
   0.1676103396916193   -0.0151912956994503    0.5525101939735167 C
   0.2363573675260590    0.0602741560281880    0.6158775815044111 C
   0.3212573089050312    0.1304615640189058    0.5660636797663665 C
   0.2919395363331215    0.2077634636299661    0.4863866161966910 C
  -0.0774210176850512    0.2626659859184390    0.3501928066990759 C
  -0.1822684003600219    0.2239361004281956    0.4068225136533072 C
  -0.1923421973854876    0.1127425220857355    0.3979554038145885 C
   0.3858865497269001    0.5749083860828659    0.5201778378671120 C
   0.3630833724714005    0.5632928715773570    0.4146680501247804 C
   0.0195768596678072    0.3873792277673236    0.4611802120409894 C
  -0.0372388865786527    0.3722434020092349    0.3618409479202823 C
   0.2253121177988276   -0.0686355271056856    0.4679632387160402 C
   0.8906826846372796    0.6806476921829990    0.5847350276456567 C
   0.7172339920331341    0.7922223646684005    0.6237084190785136 C
   0.7784832474202387    0.7289144769574833    0.5516212781550393 C
   0.8007311892091256    0.7837156678553476    0.4541399546619559 C
   0.3090773019270304   -0.0009226610450487    0.6919686285771068 C
   0.1337568879535344    0.3233473346133621    0.8432188126292124 C
   0.1686714005305307    0.3243488999524216    0.9563870933739784 C
   0.6912082716772944    0.3047170444501532    0.9721259377333786 C
   0.6993634496167727    0.1683139784093134    0.7898316824349005 C
   0.5614651523796671    0.2845800005657198    0.7111918465581701 C
   0.5963069734958760    0.2916621836267378    0.8904772375649188 C
   0.7375884385128034    0.3491934477875223    0.7648347375667277 C
   0.2975195271536950    0.3522649637796673    0.9654269152567998 C
   0.1474920567135861    0.4199976555471623    0.7829540683552710 C
   0.5317080486979762    0.6056455745674917    0.8098633397713382 C
   0.4786611202047545    0.6860880130019812    0.9588440140694476 C
  -0.0158325913115542    0.4068568833273615    1.0124200250949698 C
   0.8708390882852630    0.6144041312861878    0.6644243647946365 C
   0.5086051447856128    0.7860947526783334    0.8088373567348813 C
   0.3401788626495961    0.6793149641108635    0.8286330967685235 C
   0.2542957441396989    0.7526935766203148    0.8625331637739726 C
   0.8037912652196876    0.7641711923203431    0.0085794076369884 C
   0.7889858235692423    0.8552343353473225    0.6932555170418890 C
   0.5017028058477221    1.0085979264626461    0.1984333058530845 N
   0.6473602465564912    0.2702144402333447    0.7884962876087960 N
   0.4635131577310141    0.6928963075941802    0.8498215573280148 N
   0.2308736845164365    0.2659952360997409    0.2143639708231690 Cl
   1.2184742750713609    0.5952414841795638    0.1462948469903916 Cl
   0.6881666197696968    0.5365265518907999    0.1177782511468666 Cl
   0.1669964820792104   -0.3262573705902897   -0.4191629155120694 Cl
  -0.0477875229850676    0.0724956028781190   -0.2010761101716979 Cl
   0.4919351001692351    0.0184132774252249    0.9026795272169909 Cl
   0.3465217788247459    0.3227466891241021    1.0438830149163998 O
   1.0390201623600064    1.0445279815732460   -0.0050949765867333 O
   1.0186003940607355    1.0069612042186846    0.1514078584406996 O
   0.0030060539696703    0.2180897197613396    0.1880676434274492 O
  -0.1879019885710376    0.2360628244564707    0.2063391078037765 O
   0.6617070955349651    0.2595085585299084    1.0620927439237711 O
   0.4354515739975947    0.5133024251629107    0.2580755518233878 O
   0.4833768531044466    0.3420701447419094    0.3325960217120519 O
  -0.0566101559273971    0.4472921467501311    1.0933264309462223 O
   1.0760216233273476    0.7497828691393531    0.2456255857506239 O
   0.2221373098743501    0.9566406230707770    0.2284690327398446 O
   0.5870312751124646    0.6834622082714265    0.2592544033924972 O
   0.9005136184873039    0.7954392691775056    0.2210916561496200 O
   0.7105435302793353    0.8042962201450536    0.0007404856693320 O
   0.2920283070110415    0.1698669921132069    0.3963664530088437 O
   0.2929871978244223    0.2960803791143631    0.5058703059886073 O
   0.0229953682269518    0.2119819334781309    0.3878756349428082 O
   0.5643433071226390    0.3409268623130857    0.4851944621254614 O
  -0.1268436738873835    0.0622031238769484    0.3531847672588293 O
  -0.2605674881223410    0.0692434526679325    0.4596227168756174 O
   0.4424317966434718    0.6548206704302579    0.5587967653898809 O
   0.1150631231183491    0.4199851726946961    0.4653234637372826 O
   0.3611111559949710    0.5082926893254714    0.5791406273064666 O
  -0.0338413145001496    0.3590681183737920    0.5460468683162730 O
   0.7075018783717377    0.6434877089617507    0.5208073181470012 O
   0.3329867628196269   -0.0879354855894387    0.4753804493181387 O
   0.1641700571926075   -0.0881888140659603    0.3960614508884071 O
   0.4833006443149115    0.7349231347064010    0.3879785272244013 O
   0.7563031398286302    0.8632630123394607    0.4358740023721426 O
   0.8732032356793016    0.7311129275624276    0.3980751998281575 O
   0.1406726262390357    0.2266661736911157    0.9883424962573181 O
   0.1515947694600951    0.1154762667758517    0.6601190577548343 O
   0.3038758426764553    0.0273275026570299    0.7814136239108487 O
   0.3509611501799703    0.3890034671588189    0.8977348181415743 O
   0.1440919722574060    0.5062649160280132    0.8199431086431185 O
   0.1474920567135861    0.4098182565036275    0.6892691760750252 O
   0.7722299393822344    0.5599368199775246    0.6717885123772278 O
  -0.0836383149763519    0.3822832868193231    0.9481931930348257 O
   0.9410248710693867    0.5969846778122084    0.7278398177199321 O
   0.3695887557363283   -0.0631056234631218    0.6510028016056865 O
   0.9762324943753641    0.8323216925027391   -0.0822803565686585 O
   0.1551598333837302    0.7336946751666308    0.8123320195847039 O
   0.8073077565082345    0.9453267530236887    0.6585712638617268 O
   0.8265106965526212    0.8204813397957493    0.7680545310357230 O
   0.8197038279664557    0.6672726829080956    0.0094437028023704 O
