Li1 Co1 H110 Cl3 O55
1.0
  12.4731401011000003    0.0000000000000000    0.0000000000000000
   0.0000000000000000   12.4755812543999998    0.0000000000000000
   0.0000000000000000    0.0000000000000000   12.4546507025000004
Li Co H Cl O
1 1 110 3 55
direct
   0.7841474537544428    0.2996995130692866    0.7369883805217862 Li
   0.5591110974521145    0.6010754508576719    0.2263325498670283 Co
   0.2750719564432232    0.2745247341475245    0.2428484686923318 H
   1.2104442769201726    1.0659764347660918    0.2066539570381822 H
   1.0983233523843643    1.0142032959576537    0.2032825256746698 H
   0.3558679702642436    0.1728565253374011    0.2570431662573557 H
   0.5302346479710223    0.0952049129399160    0.1861756629380671 H
   0.5441060547376906    0.1425613437107573    0.3048092589572164 H
   0.6083697440334846    0.2871742449624488    0.0811726378642693 H
  -0.0933885885958479    1.0647901172953302    0.2794275756365798 H
  -0.1080448819204035    1.0614636189820461    0.1536022885664705 H
  -0.3295608736919008    0.0669555678542349    0.0517526237063090 H
   0.1173265944852925    0.5148197503771452    0.2154747584098294 H
   0.0184223257926635    0.5989112230393907    0.1926471410971311 H
   0.4044459542433191    0.4772519617152180    0.1754615928940782 H
   0.5172563603315109    0.4308220609203585    0.1335198305373751 H
   0.5619355666486797    0.6138980998980587    0.0252853619681832 H
   0.6725340197100979    0.4130040534490352    0.3144907829822777 H
  -0.1627167604107174    0.3698621758062460    1.0948763780635622 H
  -0.1901412900181282    0.4823378970881788    1.0410089500621225 H
   0.7440003860600908    0.4723247363822645    0.2225564503903436 H
  -0.1001799818868227    0.6306965155972140    0.0638831927289853 H
   0.2820341166768232   -0.1051136893792022    1.0026377414738259 H
   0.2461530156571585   -0.0951630508102604    1.1255958264960422 H
   0.1814243271748734    0.8009354773490721    1.3064760497806502 H
   0.1428053430140590    0.6813410496767113    1.3123292849890345 H
   0.0238727175503897    0.6740043173727381    0.0324960419097711 H
   0.3396058263008233    0.6970918187986468    0.2453760385738124 H
   0.6374746844941457    0.7130229402387723    0.0741957260202015 H
   0.3937469643403491    0.7703773821208001    0.1599693880455496 H
  -0.3852164659784637   -0.0526169770701854    0.0708741555492050 H
   0.7425957678277937   -0.1564636014142876    1.0934070474145439 H
   0.8975479277758370    0.7640570353255604    0.1547801618244540 H
   0.7364553733979062    0.7653403422652152    0.2536299834218494 H
   0.8689424605792860    0.8861210874083375    0.2002908721237178 H
   0.2217269290798794    0.2200775716347211    0.5255484884763673 H
   0.2205860776275058    0.0490878632996770    0.5250651348967448 H
   0.0811907059803401    0.3162294042058033    0.4790590273240142 H
   0.2406083012196207    0.2794054686606779    0.4125778373028603 H
   0.3009387387758891    0.0760681693179867    0.6168637752046985 H
   0.7886210666175806    0.1899723611165709    0.4089181602000050 H
   0.9099185095819686    0.1835902937502173    0.4370578494110120 H
   0.9668328065629987    0.2995432077268552    0.6217567265572216 H
   0.8227071104328428    0.0618385317259595    0.5272346056145849 H
   0.3077646061444831    0.4286762691168257    0.5096933669866605 H
   0.3162131603293837    0.5427286704426691    0.5836769753599599 H
   0.6275637880400045    0.4085681879874173    0.6650698641863417 H
   0.4457066148170437    0.4292277464275580    0.6457028015716043 H
   0.5643255021226966    0.6196846038314557    0.4479959321605070 H
   0.4652141324130773    0.5488149600071912    0.4140913281626414 H
   0.9817929528042443    0.5311324171659750    0.3418339825737076 H
   0.6867205035117505    0.3574651582367878    0.5689290707910161 H
   0.6875182176334032    0.5355546560079963    0.5803456896425956 H
   0.8594500633929867    0.5028419517517466    0.3683477731157190 H
  -0.0288685083692954    0.3870429384199642    0.4614005634093374 H
  -0.0900269651666119    0.5757676120033783    0.5006284800864330 H
   0.7366004852130009    0.6378216345145108    0.5176004534519782 H
   0.2059538359850099    0.9775476892428391    0.3492713649790934 H
   0.2332204262135609    0.7168327827648059    0.6264963215414592 H
   0.2277149961900543    0.8509724245077335    0.5271559201481347 H
   0.1544447536855704    0.7618631495705102    0.4881769064771569 H
   0.0085595968404608    0.8463313581863082    0.5341541091846610 H
   0.3124699168781310    0.9498856514617707    0.4125858664320899 H
   0.6147602759567948   -0.3131400688382502    0.6429118762513926 H
   0.4696685039305671   -0.0260915596766441    0.3337582843945680 H
   0.4479835073853791   -0.1563289383500390    0.3455739509688590 H
   0.5585154174597649    0.8844217677880574    0.4549716396351903 H
   0.6292722591889912   -0.1908515783150587    0.6245412285740496 H
   0.6615848923137051    0.7603008977120546    0.3572386699136335 H
  -0.0254496419367570    0.8475978322429322    0.6518282242608722 H
  -0.0884644075554550    0.6949460269951140    0.5714421882398834 H
   0.6790688617257673    0.9245160920363633    0.4914078280791512 H
   0.8652465187694177   -0.0296932355491933    0.5968190540829822 H
   1.1568972154275259    0.0542642954580763    0.7117720972632793 H
   1.0818880363101127    0.2868800702923343   -0.1265059283022474 H
   1.0996221432155977    0.1095712976674242    0.8196996523676695 H
   0.3591534300336233    1.0029412956440051   -0.1095291374591643 H
   0.6248106721668835    0.0492452106777246    0.7397728825386142 H
   0.5310331638154103    0.3316603485501483   -0.0002260319351578 H
   0.4303584347718988    0.2432660703588163    0.8780738306056881 H
   0.4875236709690869    0.0601729580283275   -0.1768373277909678 H
   0.5039710128843683    0.0827652520667791   -0.0548672271204548 H
   0.9613009196892263    0.2679703301215669    0.7578552844766141 H
   0.9801574384241725    0.2196920184567236   -0.0749910351650828 H
   0.7731606453894895    0.1077541478659266    0.8232027614505474 H
   0.7874978530653842    0.0995820236240968    0.6985208223827344 H
   0.0626809323284239    0.5568450467788730    0.7913680669680748 H
   0.1904517251746818    0.4479948078754906    0.8538499477199610 H
   0.1746353390521045    0.6198585436227768    0.7535725469455413 H
   0.2220628509059824    0.3975723075388316    0.9620585223473874 H
   0.5208761384815229    0.5703530346283823   -0.1346025022173840 H
   0.4448110905216808    0.6583569502465649   -0.1084460079260902 H
   0.3653106606409526    0.3400880119877069    0.9222179831100727 H
   0.4683929630586581    0.4000010520904583    0.7737762448260037 H
   0.6957799704209722    0.3759861389661232    0.9102064057825792 H
   0.8825637298525316    0.5852477314133087    0.8587075709038738 H
   0.9424524181816335    0.4436879945171110    0.7273381701007202 H
   0.9351727757448430    0.5600809681501328    0.6929092639641613 H
   0.7551066511126081    0.4781881906380893    0.8640951166169407 H
   0.1088106955906242   -0.3330790195714891   -0.1159259447163930 H
   0.1675136359941740   -0.2305082476045566   -0.0625771984631859 H
   0.2604974388376711    0.9750628350811088   -0.1796732162348653 H
   1.0277557172206755   -0.1537511025487085    0.8451463716350659 H
   1.0245808951887714   -0.0429653225665099    0.7954573024847141 H
   0.3346479729055466    0.6875764304909371    0.7032010018106728 H
   0.4008269778160425    0.8246009077590477    0.8119306669251009 H
   0.4979508768647803    0.7527557582848393    0.7621187520975360 H
   0.5646477946622990   -0.0621481562253100    0.7422410368637956 H
   0.7939998244489052    0.6754327077328037    0.8755205675106729 H
   0.7120862091348356    0.7853530370574474    0.7710993331408525 H
   0.8211814320675113    0.8298591797916124    0.8157605615676238 H
   0.7154342032775709   -0.1882184344694832    0.9627088818149856 H
   0.8155437177926752    0.1446037335185279    1.0093581226390078 Cl
   0.2574757458482148    0.4216176801657945    0.1550764366930266 Cl
   0.6415538497715014    0.2680552961025809    0.3962738874892184 Cl
   0.2776807622239849    0.1921309779738418    0.2595346050573031 O
   0.4919179132814270    0.1043338663471837    0.2547540615139945 O
  -0.4014930409511200    0.0298802612558454    0.0643777067982369 O
  -0.0721685912371508    1.0260584550066829    0.2170982483400562 O
   0.0684191024619966    0.5755006905724570    0.2508398610145606 O
   0.5847734404872714    0.3563028877417849    0.0494854384857446 O
   0.4787881000449383    0.4723792428606508    0.1894122049305220 O
   0.6133404249925265    0.6371787786958955    0.0839626799802658 O
   0.7007795133984860    0.4824773695475791    0.2905190147543601 O
  -0.1686158362972707    0.4473359207397028    1.1061813920188501 O
   1.1772850245869511    0.9951180128638479    0.2070939533199646 O
   0.2908979632386244   -0.1371130000212778    1.0748437006356903 O
   0.4109743824771060    0.7373095841891805    0.2323375356178521 O
   0.6666205128143086    0.7342820699411626    0.2825220020416707 O
  -0.0336134242060686    0.6712252885408934    0.0931274492481095 O
   0.6880385356886320   -0.1713919639652762    1.0379659100841010 O
   0.8383487209991183    0.8189009729383819    0.1812778941080062 O
   0.2291115971949980    0.0999565151932453    0.5846549233001261 O
   0.0048303033648028    0.3222788217408285    0.4928482538629429 O
   0.2209396373537860    0.2950897078163476    0.4865237087687807 O
   0.8484985308283878    0.1412163161999885    0.4064564291782072 O
   0.8172914733556933    0.0302839298222478    0.5987829790925443 O
   0.2742028889981262    0.6582319059726198    0.6636037451890153 O
   0.3518761927650388    0.4917803429027538    0.5311865430213979 O
   0.5102324674472906    0.6099664193615145    0.3876417706544669 O
   0.6663864097755925    0.6069878006308727    0.5426417016932796 O
   0.6986477326452452    0.4056296475497067    0.6277504715271239 O
   0.9304105426969868    0.5084905863574606    0.3977359919219300 O
  -0.1116069360334718    0.6191940455259787    0.5658980745068390 O
   0.1955755351761716    0.7321955940111680    1.3401502177696261 O
   0.2350507592183178    0.9595685670339326    0.4216917018913883 O
   0.1685318238680422    0.8032928825392813    0.5510425796062184 O
   0.4521252070360904   -0.0871834626876718    0.3833092525221705 O
   0.6309005580644451    0.8613286554011383    0.4878453034399742 O
  -0.0568008491572638    0.8474375190712076    0.5771067389113718 O
   1.1371748361384240    0.0430851770542094    0.7889063359462770 O
   1.0291266630980886    0.2290743468319019   -0.1359923444870292 O
   0.5548603635093983    0.0144427681184355    0.7303306265645951 O
   0.4351070385332545    0.3214676370919024    0.8909284665022904 O
   0.4489455746677742    0.1011308091761275   -0.1105432164808638 O
   0.7462532269463662    0.1424026336707501    0.7567151481260099 O
   0.9241090019972982    0.2996081345614036    0.6911605196179527 O
   0.1378218344912518    0.5781851346329844    0.8102927245622608 O
   0.1985715730380974    0.3787900163395853    0.8904306604900548 O
   0.4832104026530150    0.5937812015442056   -0.0729315635176883 O
   0.4945684086444258    0.4318296292046472    0.7074500169989814 O
   0.8222661629284117    0.6092594382742094    0.9020247230976087 O
   0.9498603362560766    0.5195057043866532    0.7586284896214255 O
   0.7360873826623900    0.4046613559924905    0.8486952467545527 O
   0.0949763284143282   -0.2706218094334694   -0.0670502263570005 O
   0.3147997231469981    0.9385114319279151   -0.1342580525734339 O
   0.4250181596318700    0.7511398015138562    0.7931641831767381 O
   0.6079664774976140   -0.2422022919160027    0.6885101040592592 O
   0.9813760569818730   -0.1086942840696697    0.7961911648963004 O
   0.7546087812939686    0.7921655452898814    0.8386909517344612 O
