Li1 Co1 H110 Cl3 O55
1.0
  12.6852520059000007    0.0000000000000000    0.0000000000000000
   0.0000000000000000   12.6035095829999992    0.0000000000000000
   0.0000000000000000    0.0000000000000000   12.7301129870000000
Li Co H Cl O
1 1 110 3 55
direct
   0.5915310550795495    0.4580864364389003    0.3231628814136306 Li
   0.7229222169756468    0.4762956501891368    0.7208655573576803 Co
   0.1378688024634098    0.2382278342176907    0.0765620850808871 H
   0.2338503406649141    1.0956834444055663    0.0936212423893705 H
   0.1513237972810622    1.0355335317953080    0.2739614327980827 H
   0.2694326057858644    1.0341688325512817    0.2539231188993374 H
   0.3708716626844982    0.1747978828430110    0.0057365550230839 H
   0.5609088806190556    0.0977909195358129    1.0080460406521605 H
   0.4230842635608502    0.2825797662187567    0.1095339841071279 H
   0.6221603243931814    0.0422079888142852    0.3101527847892620 H
   0.4660538474324579    0.3021893835537063    0.3049038133097287 H
   0.6790058643686278    0.0932534532353836    1.0363647209630222 H
   0.8281696333753400    1.1724081053924011    0.1010555047636829 H
  -0.1153086668140041    1.2891057593525219    0.2665113810902267 H
  -0.0465264305924308    1.2867334042713363    0.1521722545258035 H
  -0.1074436279520566    1.0061210893673664    0.1321048756847142 H
   0.2301799366415376    0.6431372736395055    0.0003537277009716 H
   0.0917883619859068    0.3366321708695130    0.0583205344962898 H
   0.1838710418929920    0.3579587702765982    0.2216170427144694 H
   0.1903186867613761    0.6173484250763711    0.1613434221438148 H
   0.2252663566849857    0.4665888301011022    0.2545523356241363 H
   0.2802609283084372    0.6514547981599293    0.2406624353396244 H
   0.3480199290441122    0.3349707288828901    0.1965190722309180 H
   0.4918404853209176    0.4535583326100289    1.1553110336584635 H
   0.5780074766815634    0.5467252391980032    1.1549968180655552 H
   0.6918940592522580    0.4259802998635924    1.0879196443694534 H
   0.8113611379744736    0.3897499152240697    1.1345570937468694 H
   0.7743118148879943    0.5807514758724646    0.1056232568377910 H
   0.7510194120360387    0.4668276524688068    0.2538052880519968 H
   0.1214379109128866    0.7058571053494157    0.0152031638523272 H
   0.5865307602513113   -0.0050300440589588    0.2024522481640092 H
   0.4258449497485359    0.6898036403468653    1.0123036619360684 H
   0.5455398520881819    0.7204022603153998    1.0478021685448848 H
   0.4296682872728864    0.7275074241120605    0.1699207222912294 H
   0.4578009565989681    0.9692424725869312    0.3312476486191614 H
   0.4003862517384534    0.8019279649799114    0.2728656059178149 H
   0.9952376584342271    0.8410242180318895    0.0544656590485924 H
  -0.0231608719214526    0.9836749605223037    0.2261425327913313 H
   0.7253407735786792    0.6715809382901471    0.0290765206858725 H
   0.8306291824631696   -0.2617987622233873    0.1969998220880677 H
   0.8800566593243606   -0.1594582203683004    0.2240286473900407 H
   0.7403345632102559    0.7688958958361274    0.3312162270598706 H
   0.1638872055543765    0.2825559633249656    0.4880561547210721 H
   0.0445302547192024    1.0508546610988838    0.4102642293067968 H
   0.0129792851512467    1.1497318819073572    0.5538426878693029 H
   0.3590800167691920    0.2783277759578627    0.5170299745431474 H
   0.4624157644067100    0.2790918488485590    0.5878109645406560 H
   0.6192695658979663    1.1946400081933433    0.3922376807416470 H
   0.4881732345656025    0.2888819790648626    0.4337699122732854 H
   0.3756654184547200    1.0692225608077282    0.5472292351775653 H
   0.6230030352825692    0.0109981105331937   -0.3431744879924686 H
   0.6893454303416962    0.1847117881070286    0.6440335605797400 H
   0.7877817877289380    0.1148106233403258    0.6588574667141719 H
   0.6672071236001837    1.1211049349745237    0.4751379661576290 H
   0.7980377920983813    0.2132228942900785    0.3782935782673584 H
  -0.0196608232050890    1.2064621121096188    0.4463149698201497 H
   0.2121298419415266    0.3422647289702942    0.3886846879248362 H
   1.1417069598825413    0.6228492738315079    0.3366254484917872 H
   0.2571892542207741    0.5517579643752472    0.5432434103815234 H
   1.1350772137836160    0.5818733855998212    0.4642896728124696 H
   0.2031256849924273    0.4428144997824929    0.5210456498205156 H
   0.4713434546053222    0.6220613980470205    1.3378231607992563 H
   0.4364895944065368   -0.3993041125059460    0.5104565843395056 H
   0.5782021909843499    0.6445662406967680    1.3806507461126589 H
   0.8070151462689594    0.3339805285011779    0.3905676248653394 H
   0.7922042461849392    0.5259492800672868    0.3561712294486488 H
   0.9504139529425633    0.6231563311614138    0.4360275513083315 H
   0.7967465288272707    0.5940763358167552    0.5311445389765888 H
   0.0733744589833210    0.9306976532411148    0.4002273977303231 H
   0.2187950623061417    0.8081571822850575    0.5778008412895794 H
   0.1138755857848259   -0.2450732621861331    0.4729667364106326 H
   0.0443096047866115   -0.1751506748150183    0.5557704005317954 H
   0.3245509431807228    0.8658268333622769    0.5773797923950823 H
   0.3578139796425721   -0.3186829178054984    0.5788786007732549 H
   0.4620625983838422    0.9746219265837330    0.5705644561849010 H
   0.6423522764238440    0.8380726592017859    0.3434549244036494 H
   0.3650199854797037    0.9441859597227714    0.4067984313170181 H
   0.8828867174093953    0.6848066195103080    0.3644649500234636 H
   0.6713292332733443    0.8577655866650045    0.6050739692150385 H
  -0.1353681815860913   -0.1459373832651292    0.6311169430942617 H
   0.7011252515017722    0.7792239714521112    0.5133363702485102 H
   0.7456927539634539    0.6692141372175129    0.6155624857063180 H
   0.2104940841347168    1.0812033506826113   -0.0312990157123418 H
   0.4633499200698760    0.2365283076010020   -0.0560183564064387 H
   0.3379625805625320    0.3114185589063316    0.8249761808339557 H
   0.9377378153360568    0.2112861321652712    0.8180555824001502 H
   0.8613577797207330    0.2905569093579671    0.8704274663481431 H
   0.8631787920261452    1.1443286250167641   -0.0048109554457641 H
   0.2943607664446297    0.4037468102030641    0.8965780590679373 H
   0.1212266419527781    0.4264785737736206    0.8821555633534458 H
   0.1463227141358087    0.5065602362148020    0.9743385629229215 H
   1.1156846152064981    0.4269609790877882    0.6704999399704072 H
   1.0253198357392199    0.3845600909478041    0.7365378455929646 H
   0.3988167125609315    0.4837142187540479    0.7992246419171550 H
   0.4230677089035282    0.5577531198914470    0.6994274129925286 H
   0.5508420723332915    0.5473457012961594    0.8104633481365031 H
   0.3691176573253890    0.6508367163511523    0.8540254123983292 H
   0.6495953331606961    0.6049479108409704    0.8727369509560190 H
   0.9216719145636314    0.6589765125979355    0.8207971134482752 H
   0.2922425586244379    0.9103303104538133   -0.1587778528332083 H
   0.0931296045557893    0.9362040560048029   -0.0616286758178166 H
   0.3300652207029560    0.8457689281942605   -0.2567934793460447 H
   0.1215758663905693    0.9982264629266320   -0.1619742109520681 H
   0.3565156215183236    0.7745673319967674    0.8891232941261875 H
   0.5897865095246242    0.9524931696558858    0.9448729956979447 H
   0.5408367527747231   -0.0627343680181340   -0.2904286874889149 H
   0.4934849146148960    0.9130517746439358    0.8773087878328351 H
   0.6481960704584854    0.7972141985794688    0.8845593126391943 H
   0.9898219205389100    0.8014868180149819   -0.0637347058292846 H
   0.9272295495217079    0.7677065445763624    0.7604669340708972 H
   0.7589404214060747    0.7499575201060885    0.8725798431595649 H
  -0.0640704257686000   -0.0641315978836750    0.6824574143585330 H
   0.6217259617177345    0.3533354548725621    0.6395748413163712 Cl
  -0.0382561179529022    0.0950845305117582   -0.3100765885134716 Cl
  -0.1252690523026986    0.4645917673120240    0.8072418527702107 Cl
   0.2355018648120304    1.1363229184050045    0.0235875277703064 O
   0.1010335862782940    0.2927372544292372    0.1202550201371595 O
   0.2068323515985089    1.0678181900740498    0.2305352667801895 O
   0.6127328412068499    0.0494596197507410    1.0356970128280920 O
   0.4436057321039208    0.2065564971689680    0.0133844840005739 O
   0.4194745599476541    0.3149215514425971    0.1817061636422379 O
   0.8229667410741619    1.1094256484209952    0.0515623069701196 O
  -0.1172368902335013    1.3046411147002179    0.1850478464728178 O
   0.2371746735185607    0.3892651296205231    0.2669379287575997 O
   0.2236786862161111    0.5993748599746671    0.2341456039427060 O
   0.1650515497860189    0.6400627331914808    0.0422596401264761 O
   0.5648410058915216    0.4729077049728618    1.1788457815672961 O
   0.7633660331301372    0.4460374116018158    1.1227347320636945 O
   0.7545762984092077    0.6573015823048310    0.0990305423751853 O
   0.4808742073206619    0.6853858232592261    1.0713997595722990 O
   0.5879174098812768   -0.0204933559814472    0.2790666506438605 O
   0.3908586522911751    0.7274590248946852    0.2415893713387039 O
  -0.0551506187401410    0.9550321449936093    0.1573662382765779 O
   0.8648973231195647   -0.2256167768012400    0.2582875734848338 O
   0.2240381587751015    0.3223282185606127    0.4659102397328942 O
   0.0434984265778369    1.1706466912518554    0.4819124543407323 O
   0.4222864867413362    0.2359895687715288    0.5334202454082272 O
   0.5190768382005692    0.3122937119680532    0.3581987055618896 O
   0.6657826347534824    1.1348788761816742    0.3983342487830505 O
   0.7150958056474506    0.1105705345263274    0.6328160639129133 O
   0.8510860090109831    0.2698658472151058    0.3853791398874409 O
   1.1091573503195655    0.6371603670085456    0.4085266170780139 O
   0.1898133755545496    0.5142319088836925    0.5531372738632238 O
   0.3795455148041743   -0.3952346110974509    0.5613877897940137 O
   0.5218493491434847    0.5894125554932742    1.3911298361361513 O
   0.7391851970019048    0.4698768031634543    0.3333450377018244 O
   0.8733717310343623    0.6338819151037099    0.4277935316961692 O
   0.7479095014105618    0.5914961021297936    0.5948407528929971 O
   0.0378125324413662    0.9891734289880613    0.3639370678273777 O
   0.1057083850109024   -0.1732638987671725    0.5027041001234752 O
   0.2923970687594426    0.7999229678929027    0.6040032795822035 O
   0.5742590292736692   -0.0474281551946673   -0.3590101683360652 O
   0.3878354565373845    0.9359580927689608    0.3342162004331627 O
   0.3849557344803840    0.9913632952168480    0.5564082581853993 O
   0.6704557780203586    0.7694647849977360    0.3650226827008759 O
   0.7231177195954487    0.8024421074858004    0.5856028144614928 O
   0.9072220636726325    0.2327055628581419    0.8851013345369612 O
   1.1027640993252392    0.3890294809719906    0.7349471291538664 O
   0.1601978819226321    0.4326839881849757    0.9472767449836932 O
   0.3610255831630265    0.3717612749562981    0.8648187180147296 O
   0.4261058826806101    0.5547174575032813    0.7772287648745910 O
   0.6251945565851865    0.5506273269201671    0.8245284236140613 O
   0.1509651130390871    0.9840399382271016   -0.0941303512092701 O
   1.0403688075618696    0.8253936511090286   -0.0111145915628942 O
   0.3528609838352537    0.8747925900236133   -0.1888608536982501 O
   0.3460341584824959    0.6961304495165551    0.9166171585056647 O
   0.5682126377660881    0.9112110175240862    0.8820848648450414 O
   0.6912933616865765    0.7337191859617600    0.8941428882228978 O
   0.9190468189025824    0.7377093443909513    0.8335307003508846 O
  -0.0677597494003444   -0.1419535722742823    0.6689186499990961 O
