Li1 Co1 H110 Cl3 O55
1.0
  12.3850931799000001    0.0000000000000000    0.0000000000000000
   0.0000000000000000   12.3875171013000003    0.0000000000000000
   0.0000000000000000    0.0000000000000000   12.3667342965000007
Li Co H Cl O
1 1 110 3 55
direct
   0.7726157123734503    0.1753631121503782    0.6785651286027046 Li
   0.4718832151771658    0.5724878918597631    0.4075614893518384 Co
   0.2406366707710199    0.1590071306939541    0.1470909461372367 H
   0.3308757980642894    0.2610776255041940    0.3082984203338989 H
   0.3366383707767683    0.1173926573669383    0.0677938595751409 H
   0.3548190979404066    1.1072875571861391    0.2657115912347199 H
   0.4806808881875581    1.1265892459785531    0.2860516417257530 H
   0.6009375530641017    0.0543000300382560    0.1605949154144989 H
  -0.3337239655740218    0.0881491861339514    0.0092067109691379 H
   0.6120501057111307    0.0029353380828983    0.2719573791806824 H
   0.7075310183553059    0.1464824254821471    0.2982885020295140 H
  -0.0203756569558597    1.0223229923429111    0.2250250212853354 H
   0.7832849901964426    0.2582836838517245    0.3081844047849112 H
   0.9015045286958552    0.2995058267415544    0.0444702404947477 H
  -0.0463335561278864    1.0587871196015202    0.1069954780765755 H
   0.2606817359468642    0.3382972969022350    0.2327538199890523 H
   1.0192186208567484    0.3511529804664004    0.0903530893047678 H
   0.1284962145123602    0.6059707921543243    0.2649191427382099 H
   0.1798450409412248    0.5187902868788430    0.1127423469181026 H
   0.1350557130013862    0.6279243440869759    0.0793771924555556 H
   0.2972159786390660    0.6655444737860173    0.1303484500961761 H
   0.4245795743009870    0.4059904426022720    0.2852098673534398 H
   0.5152183756159291    0.4818514882270954    0.2301201416695287 H
   0.5824831097522876    0.6613806046604938    0.2237506347236010 H
  -0.1386111824161392    0.3927117525585070    1.1743233338821011 H
  -0.2584923959389904    0.4354854573830513    1.1960267192354972 H
   1.2634234852100112    0.9670092442853531    0.1803050502128980 H
   0.0891933208700267   -0.0434404606588618    1.0234104125518355 H
   1.3023654610994406    0.8506178812535562    0.1519127526522256 H
   0.2331486366760880    0.8381698661477835    1.2987377478341702 H
   0.3822754920959123    0.7055549130005059    0.0430114883644375 H
   0.4814600506742530    0.7261837442594498    0.2168514810784752 H
   0.8967084404357845    0.7171722531682864    0.2661781655025631 H
   0.9498045286482842    0.7441800867207332    0.1057801208416219 H
  -0.2022223307988243    0.7443714083536820    0.0505506654636323 H
   0.8941731345205283    0.8593766986269435    0.1435685934323413 H
   1.2897858221950800    0.0418609755659252    0.6168568407311055 H
   0.3859121219819995    0.0861450718472075    0.4786602919070810 H
   0.4177189073067411    0.1510103707952651    0.5779759212844829 H
   0.6133177586687588    0.2503014547099683    0.5660156093335857 H
   0.6888085108511780    0.2066696279621144    0.4812244288279312 H
   0.8538827634468705    0.1022677539284327    0.3910251916440534 H
   0.9805511685377610    0.1591282203350608    0.6357510770264652 H
   0.9176771966839387    0.1246741811188235    0.5273732330568310 H
   0.9592352207152247    0.3122218535863100    0.5182414770659256 H
   0.0413286830034276    0.6315312008634086    0.3503111285835654 H
   1.2139769456398548    0.3846108555684662    0.4159007968462339 H
   1.1581033248322974    0.5041013061483215    0.4265454825687416 H
   0.2975599405243842    0.4782535113576772    0.5131180549497140 H
   1.0539135556269905    0.4059613810884063    0.5084498864085383 H
   0.4352278591450632    0.3424046575285756    0.5774487004480293 H
   0.3692905272140172    0.5246687853224381    0.6077986692434473 H
   0.6164602461280509    0.5832317720830270    0.5596841075706538 H
  -0.2014019897765630    0.4646688681540493    0.3523165084522846 H
   0.6778865098589261    0.5694380474324214    0.4480281144123957 H
  -0.0665107963286758    0.4413058327989152    0.6402090041297913 H
   0.8738987614211385    0.6167978205978148    0.3524758067725014 H
  -0.1417811222324755    0.4771063888242594    0.4565218685015191 H
   0.2326835614508690    0.6913672433841663    0.6502981672838272 H
   0.1843254270952875    0.7229223965923083    1.3527131938974783 H
   0.1791563097483224    0.8696451001927950    0.6265918279244563 H
   0.1648043789700806    0.8060665804975650    0.5146875881453526 H
   0.0184702114612469    0.8203640380551747    0.6287136492049075 H
   0.3154322323824085    0.7514357780158490    0.4142382722453926 H
   0.4831233405422237    0.9781414186244326    0.5793990940945417 H
   0.3607302363498304    0.6834786568981994    0.5292985594549844 H
   0.5894229041286020   -0.1968470702691582    1.3614867308231247 H
   0.5698235360435926    0.9027429354286368    0.5306966650166841 H
   0.9055658626938611   -0.0108076096448698    0.4163261314474219 H
   0.6823596292125947   -0.1311688561971374    1.4181467983235891 H
   0.8361759931533771   -0.1296964061612794    0.5433701806144404 H
   0.8670598948280748   -0.1916038888092365    0.4379486547093375 H
   0.3234660839291599    1.0112634717884956   -0.1145302646391340 H
   1.1722493629327080    0.0720610549636554    0.6830845108955560 H
   1.0436108475127648    0.1009115499480372    0.8102272118141809 H
   0.2032150710084784    0.2920927189129999    0.9172061416012003 H
   1.1136547290887129    0.2099543862932031    0.8007081264050833 H
   0.3415450758872817    0.3327965981388930    0.8297052724100304 H
   0.6439957676656252    0.0160171153813526    0.6734166392381340 H
   0.4523411740730428    0.3049177264347516    0.6876160225021294 H
   0.4827575782557234    0.1006499963232466   -0.0298785712412836 H
   0.4057835913706528    0.1914623835676561   -0.0768056731006843 H
   0.8234106471278353    0.2745540952950999    0.8655433513542377 H
   0.0585746574097117    0.5129384281562913    0.7585094353450113 H
   0.0661238133701803   -0.3589328202689938   -0.0791911047993623 H
   0.1685734261077927    0.5750800174437214    0.7775872285880319 H
   0.1747598955099243    0.3953426268276194    0.8429828278311470 H
   0.6493465550224414    0.4599818917789444   -0.0904236579269341 H
   0.6432489020695704    0.5153795953210031    0.7235608394070909 H
   0.4624242633309152    0.3779791795571872    0.8393682923419636 H
   0.6846486713367194    0.3720474016715051   -0.1795352999803977 H
   0.8520418406803787    0.3657184497629929    0.7820184712011694 H
   0.7164481898610670    0.6202682497119339    0.7100641477180620 H
  -0.0855675766509297    0.5419571570153841    0.7271996335237184 H
  -0.2841902243991368    0.6619473041808732   -0.0182451847262424 H
   0.3019054871600240    0.6796853220744622    0.7623487674485107 H
   0.1804691783528468   -0.0821840600480915    0.9418367346661947 H
   0.2557798753699468    0.9722806799948663   -0.2188391281654637 H
   1.0241035255660798   -0.0744012251820244    0.8821281663169110 H
   0.0825391117491983   -0.2354544841753566   -0.0260339831018379 H
   0.3147515754121662    0.8102409440586513    0.8767184923968581 H
   0.4163802011897046    0.7513332554530454    0.8569315386115525 H
   0.5874479492659533    0.8297500997694950    0.8325597042392961 H
   0.5648175179943605   -0.3111895965734290    0.7211818766757313 H
   0.5198852763134389   -0.1920285098173841    0.6727147562840823 H
  -0.3889023958105490   -0.0235711843553667   -0.0333845898036999 H
   0.8885454013264723    0.6736962284253230    0.8245705296010117 H
   0.6760472019369664    0.8163559709345417    0.9196077457181745 H
  -0.0452789011640305    0.9038488874840783    0.7053741464121865 H
   0.9189125527509265    0.7217542851877654    0.7080975816532534 H
   0.9118395337007212   -0.0193335312751953    0.8623654711590495 H
   0.6976627034201907   -0.0205603307924614    0.7742670311118380 H
   0.1765144240939535    0.3128612068913536    0.0866404680986185 Cl
   0.6290495740996036    0.5325218521803471    0.0854310946584345 Cl
   0.8421832148124555    0.1341716453029621    0.9806667109951843 Cl
   0.2973693888696070    0.1021668458941771    0.1351379117745728 O
   0.6089415299870109    0.0750002234590255    0.2358160673934230 O
   0.4081614499440380    1.1350897387842462    0.3234932159440205 O
   0.3013863146429827    0.3356220230980501    0.2983079089314692 O
   0.1774429596998595    0.5934121818430075    0.1375403245124617 O
   0.4886727537764772    0.4528545555034018    0.3011445511006092 O
   0.9344796540395062    0.3586217895298640    0.0844995633645779 O
  -0.1989764932894835    0.3950051903610687    1.2304577977879416 O
   1.2485023217342359    0.8876713114322181    0.1910160428504198 O
   0.5365617757955097    0.7005135476090953    0.2707590029849397 O
   0.3517420116846609    0.7251593258956869    0.1152466458912571 O
  -0.0279902141198746    0.9929789359813782    0.1496882365155940 O
   0.8907819610033065    0.7783104129630786    0.1532890254492256 O
   1.2205251402171569    0.0099142265310868    0.6530798232307602 O
   0.3976302413285325    0.0755065396117065    0.5566889757022119 O
   0.4654448300280405    0.2822053460844977    0.6138075312613716 O
   0.7550946492011381    0.1918151580554137    0.3486898436493792 O
   0.6845695439546509    0.2160524606193385    0.5560857444997667 O
   0.9076570863628145    0.1571924006059011    0.6033916852577540 O
   0.9260501655824123    0.0649101465713106    0.4054283473785799 O
   0.1192827190349753    0.6164821802666632    0.3426073971282075 O
   1.1817688714489087    0.4384876732182243    0.4635164394145920 O
   0.3756021470673796    0.4779281838552371    0.5439216600783382 O
   0.6123553113276807    0.5988265033290268    0.4823225360302378 O
   0.9710235857989000    0.3908986369990022    0.5192554876930925 O
  -0.1889814130586055    0.5183454842638442    0.4093210484624565 O
   0.2285826637618287    0.7923778002025852    1.3660877838283714 O
   0.1481601763786501    0.8026114894046528    0.5906728868887686 O
   0.3805605272029173    0.6932110349860849    0.4537685142866043 O
   0.5359473274510798    0.9212050693760442    0.5989580167818720 O
   0.6076141277816983   -0.1236830945839188    1.3902170319261860 O
  -0.0541024116869349    0.8318570595247522    0.6629644052933501 O
   0.9197199750169317    0.6815856221755641    0.3382343752209361 O
   0.8236286511396568   -0.1345617879409482    0.4651352984860339 O
   0.2137939175376781    0.3214311244246145    0.8396270510347015 O
   1.0781604462751258    0.1547173283416793    0.7598679184818855 O
  -0.4031178722258359    0.0494399762027960   -0.0001538281371937 O
   0.4021727989970777    0.1208332177029178   -0.0364358399636293 O
   0.4183010587605309    0.3196777464213889    0.8145484819829047 O
   0.7106081046110515    0.0279036991733981    0.7157681596511043 O
   0.7981940423382281    0.3098226641638485    0.7992178380590955 O
   0.1040628093207779    0.5475829817412032    0.8157323030021809 O
   0.2701035463688785    0.6378787198502239    0.6944998123498739 O
   0.6278271367888718    0.4278681116931634   -0.1608027878679992 O
   0.6517462139970087    0.5879461954434493    0.6823510917258269 O
  -0.0663864532997110    0.4638947017152402    0.7147549576448523 O
   0.8851219309186104    0.6554956481027062    0.7477135375114349 O
   0.0560709217050563   -0.3118346007283909   -0.0135801698066344 O
   0.2835519716314605    0.9497660793917535   -0.1465589304536895 O
   0.1096049557546373   -0.1018183417214121    0.9709228289717707 O
   0.3395644690687710    0.7365013889460179    0.8781901824618052 O
   0.5200758279682162   -0.2426302563073419    0.7339071440120352 O
   0.6179967707002588    0.8650921296871816    0.8969582738944553 O
  -0.2364675313669014    0.7273639646281035   -0.0210241722241566 O
   0.9809225827801235   -0.0226493692808348    0.8299963759393607 O
