Li1 Co1 H110 Cl3 O55
1.0
  12.7284885780000003    0.0000000000000000    0.0000000000000000
   0.0000000000000000   11.7783359690000005    0.0000000000000000
   0.0000000000000000    0.0000000000000000   12.9883260034999992
Li Co H Cl O
1 1 110 3 55
direct
   0.3823057434651532    0.7308732750667897    0.2575533214132879 Li
   0.4995286164603730    0.3020597301574561    0.6659731592407747 Co
   0.1299890618482197    0.1493131957798376    0.1874549885138322 H
   1.0279597776923111    0.3366155452633616    0.2127068954887278 H
   0.1484743673546941    0.2481709633850911    0.1049048585193221 H
   0.0398713149554275    0.1334943228515746    1.0519035708002971 H
   0.1344640629177457    0.4581539360655675    0.3116195651933383 H
   0.3191419204335951    0.2431269571556573    0.0352490460800436 H
   0.3243774202803861    0.4442122383221687    0.0153228754611156 H
   1.1138301458277036    0.0038863710986405    0.3104808503199964 H
   0.4153363737260526    1.0733342144232734    0.0989058560320883 H
   0.5574553683666746    0.3579946263714869    0.2188762817497754 H
   0.5962863730826848    0.3334037163514027    0.0498769049703119 H
   0.4584436127857128    1.1957878448678509    0.0937728619894354 H
   0.6360357900617351    0.2188637674527859    0.0926426932520596 H
   0.4926707715980322    0.3788252429072819    0.3211635202778193 H
   0.6602468342962126    0.0628744999674920    0.0355484072139536 H
   0.5703076405746058    1.0117126065908708    0.2623168298117780 H
   0.9695632135248478    0.4966330557980028    1.0196977268842080 H
   0.9976341033096381    0.4551314378031900    0.1948177541215194 H
   0.7588814830454728    0.1371153776518667    0.0187613478237561 H
   0.7933521900199327    1.0759491848300495    0.2037704089877944 H
   0.7438231358720869    1.0560227707238701    0.3126628097189492 H
   1.2247702618789278   -0.0119936310079626    0.2482033867129057 H
   0.0821997272172907    0.7626663909182637    0.0514436195719100 H
   0.2367975011746128    0.5817503425385607    0.2258771839426751 H
   0.2355145523075945    0.6737777734806606    0.1394511118147112 H
   1.0316130001244206    0.5922314495748104    1.0745007861705387 H
   0.0036178128076881    0.9311154829820257    0.0592262237329667 H
   0.3545200407218372    0.5561652343540820    0.0742196108674999 H
   0.5516526369938657    0.6502031360504826    0.2561228060416385 H
   0.5026428903788424    0.5328198313426799    0.2627903319396382 H
   0.6646346294109076    0.8166018535907498    0.2815117591608579 H
   0.9875307827769652    0.8908805974050408    0.2423350400160750 H
   0.7654997079418364    0.7197732350998453    0.0265876296688998 H
   0.7234381547009155    0.7340766138150903    0.2043309123196355 H
  -0.0758955554762175    0.8378077353602444    0.0887003068362735 H
   0.8612471325108809    0.6701388893366861    0.0926101255447287 H
   0.9222677317156014    0.9909032154642218    0.3054778961300192 H
   0.2119328050985191    0.1452812170584807    0.3563820696025541 H
   0.1756331299903061    0.2131490382943414    0.4643567231200350 H
   0.2957118015964331    0.4468399439744323    0.3762414417749566 H
   1.0551664643211185    0.3084850860141057    0.5833866889203541 H
   0.3091808006020430    0.3123328281840761    0.4043628486369013 H
   0.2916728303010620    0.0486123834476265    0.4699032423543525 H
   0.6021880949988154    1.0014140380732759    0.3817279070808626 H
   0.4112204097858758    0.4017885885540577    0.5046744669046372 H
  -0.4123675547835339    1.1337502190161883    0.5743046871313465 H
   0.4624982968657381    0.4965337208831999    0.5873256106864242 H
   0.4643421921449125    0.0022489581354886    0.5025848981647791 H
  -0.3287276164298099    1.1717946423693155    0.6631860410247518 H
   0.6677347618231880    0.4486118411299327    0.4101857699263439 H
   0.9779381277455549    0.2600750218504826    0.4940095051564741 H
   0.9189837597228663    0.3258636020064100    0.3428052622485901 H
   0.8565725790762461    0.2206127411664088    0.3583615394736577 H
   0.9764061312417670    1.1378594582268362    0.6007492035307227 H
   0.7604779019663430    0.3543285737038055    0.4459794511039430 H
   0.7357271235789924    0.4719716774195542    0.5848849574420062 H
   0.1741333446950594    0.5557322360075055    0.3855767479543154 H
   0.2625829664314446    0.7077528613923341    0.4617736342761795 H
   0.0735528246942188    0.6925266018874249    0.4617497666892466 H
   0.1234038337996300    0.6448543329457136    0.5554870196402366 H
   0.3311205618147509    0.9847053959936164    0.6170299775075244 H
   0.2946134779491020   -0.0862132832831914    0.4730583833624361 H
   0.6625424721341963    0.5584983313274005    0.6535188983948111 H
   0.5694960752472147   -0.0404832241799674    0.5500128730888765 H
   0.3847781501304970    0.7131916602318817    0.4824583630031611 H
   0.6278651420415330    0.8034607782803347    0.6414788556704555 H
   0.7498576308185458    0.6621785118906044    0.3671394220098119 H
  -0.0182043382118829    0.8543779877722726    0.4028307035402478 H
   0.8987928314421747    0.9502777823589522    0.6050584578553306 H
   0.7377784276156029    0.8622356342380879    0.6570104953864311 H
   0.8193544917049931    0.5654882830673311    0.4146952040123236 H
  -0.0737743295478958    0.7310634547327372    0.4095621329774548 H
   0.9095089505763628    0.8183762977953478    0.5551790507765877 H
   0.0363089526433482    0.4180311206488731    0.7428783739490313 H
   0.0581503675369052    0.0672566130381197    0.9470940672789681 H
   0.1551829407628196    0.1763925727681881   -0.2060137309056573 H
   0.1800664921804984    0.3059991660949368   -0.2485411512869408 H
   0.2498210427352752    0.2826571591489980   -0.0668587697880385 H
   0.3248456612630823    0.2332690281319313    0.7707680342410802 H
   0.4881124927698388    0.4770453992217922    0.9789996415529993 H
   0.3770678867006640    0.1312350903020841    0.7028770681718283 H
   0.6352800051198663    0.4251085210744849    0.7468357738469203 H
   0.5726590587981121    0.4084864786641408    0.8507768051727591 H
   0.4976831499027331    0.0828786839727818   -0.0241572700065774 H
   0.9025560433668639    0.1447743542880764    0.9638398742398798 H
   0.8274489327196222    0.1657781701625020    0.8679922646507354 H
  -0.0778101582863360    0.3626905358909278    0.9012836988111869 H
   0.8174029638509372    0.0783179378587821    0.7202226444946963 H
   0.7181688723671179    0.0655891448956171    0.8008943184053795 H
   0.9929124115210406    1.0506484971281260    0.6873461983780118 H
  -0.1111943262019558    0.4784301449144713    0.8530557747637614 H
   0.2759042652613048    0.6126316148131264    0.9178755213402741 H
   0.1735401870743620    0.6390224395287837    0.7244433577710051 H
   0.0642692401369573    0.7025237695951481    0.7118035456846931 H
   0.1672857131427439    0.6999028560738112   -0.0265689741778123 H
   0.2792966554681540    0.9941209874907415    0.7322149520451864 H
   0.2913161500894109    0.7154330634376898    0.8553732404627196 H
   0.0407246300944121    0.8545588282581956    0.8132277014723609 H
   0.1076907348897022    0.5084674949213958    0.6847061352943813 H
   0.6241325700469196   -0.1346870236742523   -0.2001446142866674 H
   0.3938797806414624   -0.1513107641173281    0.7347811026015413 H
   0.4409592116617131   -0.2825050180481908    0.7257468359863993 H
   0.6005052557623468    0.5402538186419430    0.9790612353257291 H
   0.5152060473491357   -0.1932564176714732   -0.1586704474190633 H
   0.5434411357335627   -0.0202954828363837   -0.0821671320778686 H
   0.6505473323291535    0.7139260593883303    0.9032700979817226 H
   0.7531188192735321    0.6519869194351048    0.8792254289523308 H
  -0.1858536224865519    0.5978519379166471    0.7258369168790166 H
  -0.1225499556715712    0.6969805417426024    0.7876424182025653 H
  -0.0362733334889433    0.8240044272844770    0.7117596601216232 H
   0.3698847871959806    0.9216914013212421    0.2371557736516588 Cl
   0.5097929930357518   -0.3192767658689292    0.5901073394473333 Cl
   1.1241298761685545    1.0070430165787709    0.8219894156431736 Cl
   0.0989658183908220    0.2001353154388018    0.1392747996402722 O
   1.1715117782933993    0.0430622700723541    0.2768252429782800 O
   1.0041627653334726    0.4024644055812635    0.2523694355159169 O
   0.2635885846493156    0.2939609630437432    0.0088362812705096 O
   0.4074886234304951    1.1464939546673922    0.0606185509655236 O
   0.5852622833692738    0.2809812008428370    0.1070135213287265 O
   0.5562195578536191    0.4021451754277090    0.2835281852955994 O
   0.7121650173507349    0.1047675145069552    0.0751203428014572 O
   0.8143460415964557    1.0852459140359574    0.2771463005186340 O
   0.1257324684853875    0.6946508408347474    0.0408616092371707 O
   0.2792605160634493    0.6224895438368523    0.1764220039736085 O
   0.1929219069453605    0.5089386990044349    0.3223507402471860 O
   0.3612922509078124    0.5182345791939772    0.0071820265194193 O
   0.6304428243640602    0.9950124546748697    0.3092343463443772 O
   0.4834300829428768    0.6178590085775808    0.2666199247591129 O
  -0.0029352825962838    0.8627671184831016    0.0955821020711570 O
   0.9809628387914950    0.9352586828473071    0.3039942561293904 O
   0.9745598790448945    0.5379665685523799    1.0829237345913374 O
   0.6755353737647829    0.7328370499209692    0.2686825462234018 O
   0.8096895578641733    0.7360573689965865    0.0884730258149006 O
   0.2379736031059822    0.1845762415184848    0.4293806992754238 O
   1.0358161700194284    0.2445439654702382    0.5386857782838681 O
   0.3435674441786030    0.3837945356965220    0.4029908473493453 O
  -0.3870377602816749    1.2007121397897018    0.6182295162314371 O
   0.4454522824335916    0.4156572708899946    0.5781281205735482 O
   0.5423514541177915    0.0201418931438531    0.5095765612917694 O
   0.9348222466543349    1.0794046814390033    0.6452714922262923 O
   0.8926098506807334    0.2771003470345990    0.3974936031332115 O
   0.7287019375600842    0.4293909596237635    0.4574074057117964 O
   0.7161450657036524    0.4979413900177566    0.6582793271046647 O
   0.1424053042819960    0.6476263713801692    0.4812033898837916 O
   0.3315589485066041    0.7391970315174493    0.4342027217580072 O
   0.3293842991104580   -0.0182588623780154    0.4983364676907419 O
  -0.0191607754137861    0.7797163375769893    0.4451956703459565 O
   0.8189663859240335    0.6409964025793532    0.3836912085866247 O
   0.8842899312063162    0.8615886837673207    0.6167035305120566 O
   0.0017471272306782    0.0769505970016026    0.9998337351788508 O
   0.0884473660875842    0.4249684333741219    0.6861628280194407 O
   0.1966976890977731    0.2488145177903950   -0.1937896767852713 O
   0.5675909001078887    0.4631147386911493    0.9694064114503346 O
   0.5617158899256703    0.0449154520547197   -0.0435424471211765 O
   0.3908205014692830    0.2150797015102533    0.7302485708507879 O
   0.5793487768646526    0.3786860042232847    0.7759149638748133 O
   0.8423289397871823    0.1970499899653524    0.9381013764604188 O
  -0.0525047186006910    0.4416898106992689    0.8891420263618270 O
   0.7620861054757039    0.1162928267715471    0.7612887526179655 O
   0.2326705382851780    0.6630538477637817    0.8740515520430285 O
   0.1167581115301214    0.6435468477423256    0.6755178842474148 O
   0.3477478305358621    0.9946898284558519    0.6945126338351229 O
   0.3983406402047997   -0.2292300901083254    0.7712145890933712 O
   0.5848309674305150   -0.1620593113088163   -0.1369948288732911 O
   0.6585357120473664    0.8711995490285883    0.6716836718949853 O
  -0.0127451668755388    0.7960276399974374    0.7792995416863152 O
   0.6959392102775394    0.6580310669434938    0.9388559001763587 O
  -0.1687918952697512    0.6321488030309725    0.7936039254806497 O
