Li1 Co1 H110 Cl3 O55
1.0
  12.5370725297999996    0.0000000000000000    0.0000000000000000
   0.0000000000000000   11.6012086918000001    0.0000000000000000
   0.0000000000000000    0.0000000000000000   12.7930024173000003
Li Co H Cl O
1 1 110 3 55
direct
   0.4697369542213176    0.8406699340555346    0.4341556835156308 Li
   0.6505367377921765    0.5038429616417048    0.7027572117505659 Co
   0.3036997876457799    0.0747235369115231    0.0338381870478348 H
   1.1571653773651283    1.1213682721779861    0.2127588676931125 H
   0.0549003974703000    0.2508374276515573    0.1281469865496982 H
   0.1169432705693527    0.3625076884335822    0.0922687005126921 H
   1.0331013268219977    1.0894491842762457    0.2233654474133279 H
   0.1376849548327162    0.1102720742196657    0.0087577337239061 H
   0.2992609523540702    0.3697414174552243    0.1889177090619262 H
   0.3035785472209210    0.2027450249698990    0.2853094676011431 H
   0.4540602482333101    0.2845442603091231    0.0111156633963970 H
   0.4162834866428947    0.1223396099152311    0.0902824584116480 H
   0.4465521158701721    0.2967567808976151    0.1468118778872546 H
   0.3716542481448284    0.3986228908345307    0.2818825941769096 H
   0.6036629561654721    0.2784819609514957    0.0663229538323711 H
   0.6514005758192962    1.0112331962610166    0.2662443574695157 H
  -0.0038709782434970    0.4175166118099088    0.2033591977737678 H
   0.7412229803178976    1.1741127763288772    0.1173457691737725 H
   0.7245580053404153    0.4088838906288142    0.1622156113949975 H
   0.8504669841907737    1.0692961117636155    0.2380922483514115 H
   0.7585428131164931    1.0426954352135829    0.0808115776873426 H
  -0.1144983194113259    0.4716066654129905    0.2270143171998976 H
   0.1510493187702895   -0.0721125424363173    0.0039447900542687 H
   0.2816603522558015   -0.0341247765312440    0.2624704193097988 H
   0.2525347330865690    0.5216316253475709    0.0585137627807927 H
   0.2058986465033381    0.5596354240648227    0.1634522249344905 H
   0.2479315851138006    0.7693454693396415    0.2259418559001603 H
   0.2708595851964950    0.6976374239022721    0.3125243455979754 H
   1.1100650675761874    0.6802564763340654    0.3176591839930004 H
   0.0761975543117672   -0.1241726351425965    0.0918630881450291 H
   1.0223970735219541    0.5866489886274110    0.2987918382264120 H
   0.3403766114343502   -0.0548301190848853    0.1569322543068601 H
   0.5586516508022252    0.6710427812062851    1.0084891949409105 H
   0.4440690800636865    0.8413448637295033    0.2388919042622215 H
   0.5778483172830117    0.7131452907788643    0.1758066351694380 H
   0.5599039367695181    0.8845688081754330    0.2688410895669845 H
   0.6901289152179793    0.6953919682181232    0.1227713915363648 H
   0.6969566654600340    0.5316460991051302    0.1920475450999350 H
   0.9025923905363671    0.9574629369223568    0.2858386631550222 H
   0.8520143948764731    0.7407837902247572    0.0275326774130586 H
   0.7657717734487061    0.8415120876844840    0.0560493686556602 H
   0.8638672416751804   -0.2048323340463331    0.2124032045069752 H
   0.9464862101415392   -0.2199023155150376    0.2988324854476849 H
   0.2389821274367148    0.1709474761282218    0.3894155997315462 H
   0.2103366841606736    0.1009480457607640    0.5871549510959381 H
   0.2253226387807349    0.2828737447176142    0.5155509624371655 H
   0.1061945890346731    0.2754383125750159    0.4759933993653682 H
   0.5982470187655243    1.0331102270724175    0.3786651913822116 H
   0.3411208043053592    0.4156642186178796    0.5933669408546934 H
   0.5065334231659987    0.1414333100532665    0.6121709707573760 H
   0.4151492505629646    0.3031793875396855    0.5634161921952661 H
   0.4165179911488718    0.4352449369753179    0.4360348358221677 H
   0.5873569166563218    0.2138576601637753    0.5366617221470819 H
   0.5900465397656920    0.4661805066676096    0.3854736009454127 H
   0.6645519713789924    0.3005624188421515    0.4117074738903715 H
   0.3602281357362496    1.0397474665226849    0.3986776944404291 H
   0.9573180849414344    0.3833055213499525    0.5134341802216490 H
   0.9494055519506420    0.3826443833423740    0.3912126759182051 H
   0.7007701554024713    0.4589166083757391    0.3354525051051871 H
   0.8709661876044196    1.0821051219234823    0.4009883326343237 H
   0.7275666821994141    0.1803697702101534    0.4324954008621017 H
   0.8968334703555685    1.2072300152482633    0.4536006888306929 H
   0.8468856058511912    0.0520791722613394    0.5623546743781791 H
   0.8209656792313536    0.4572822959085044    0.6028932425018497 H
   0.7207405272261075    0.4817771573965886    0.5111352671877369 H
   0.1672157722639771   -0.0118964030185536    0.6306537312765368 H
   0.3192664200901655    0.6015974310360522    0.5952328046465833 H
   0.0129384483191299    0.6399227479760249    0.4872503346259490 H
   0.0090693632608197    0.7488208838136264    0.5782078723519198 H
   0.4675506384019867    0.6235261805964163    0.6566405941845299 H
   0.4234382669783189    0.5552582939442438    0.3979014888495842 H
   0.3714795662169066    0.9932436914133438    0.5143143488976725 H
   0.5600164032162622    0.7044720565777488    0.6087018867572054 H
   0.5596821944135261   -0.1271223277917932    0.6114127437451711 H
   0.6440727088246985   -0.1819338579429105    0.5291951402701935 H
  -0.0154276633991114    0.9141657242487294    0.6575629734364905 H
  -0.0264912509846745    0.5262863127542520    0.6038906627776988 H
   0.8314753097441239   -0.0815684537050748    0.5646277920601296 H
   0.7854837117351429    0.8189058225127032    0.4301065949349901 H
   0.8279728972075744    0.7435740167313176    0.5156408553303650 H
   0.1785940266101116    0.4963152977301223    0.8021060556373821 H
   0.1051993008627063    0.2960378902870276    0.7676012548407322 H
   0.2717170421486222    0.2250935583760137    0.8098337177432152 H
   0.2193555360283037    0.1370949689944100    0.7280773038942181 H
   0.0113966210740490    0.3735737767533917    0.8228486453238466 H
   0.1964618342236944    0.1187227454044100   -0.0973989725519787 H
   0.3800134563851010    0.4838898682917321   -0.0722023854268095 H
   0.5773322478429872    0.2954482965488481    0.6858190456397733 H
   0.5298426924794994    0.3506227199218567    0.7892247948805520 H
  -0.3152668795370728    0.0482627595774356    0.7612688867728226 H
   0.6991294214950057    0.2889843149076071    0.8333387551215685 H
   0.7700502842312272    0.1859657388479632    0.8411008110300171 H
   0.8717558456347506    0.3773052844910810   -0.0944293803670647 H
  -0.1872282169079424    0.0513882959731070    0.7359339427598592 H
  -0.0041515860162955    0.4204956117501846    0.6728314767657679 H
   0.7083564559342684    0.2860096248630782   -0.0030191732980343 H
   0.9632285556533066    0.3710559356580370   -0.0138547844765754 H
   0.1121166254449693    0.6775774451377756    0.8445558248382087 H
   0.2568690782752753    0.5810150929070282    0.8695616826943284 H
   0.0732313116014689    0.7788315498786277    0.9219575142696865 H
   0.0514052434065547    0.8304106582195498    0.7210906718992822 H
   0.2800618929701615    0.5759294159256545    0.7107115602827284 H
   0.4038595336323521    0.6095069517108125   -0.0334523732068771 H
   0.5087317035009405    0.9386286925082863    0.8414447490561719 H
   0.5027430646204094    0.7534953967407434    0.9194092461668121 H
   0.6390539933430386    0.6247320894264063    0.8658330818198773 H
   0.4533734850372342    0.9619883274566300    0.9567577890978969 H
   0.6404913304851160    0.9305864270445207    0.9512938645460284 H
   0.7478569054070530    0.9754783011445112    0.9020872764859240 H
   0.9392676190561893    0.6675396979431829    0.8875949787474913 H
   0.8978624186981212    0.5554798225856359    0.9315017944954828 H
   0.7667496731913180    0.6202730712866358    0.8488394166185005 H
   0.3485276371029901    0.7053323117688355    0.4638484786554422 Cl
   0.4016301455568213    0.3209585694749083    0.8624953196115112 Cl
   0.5360722169410003    1.0014669724984802    0.6976489503848349 Cl
   0.0460651610355813    0.3267631370668694    0.0923289678350024 O
   1.0919826963159793    1.1107228296830767    0.1726275534595025 O
   0.2746666940639398    0.1341228648873292    0.3230832430009283 O
   0.2065686593775584    0.4923932926004189    0.1155486929871136 O
   0.3549358316642831    0.3327211369474211    0.2355971343071247 O
   0.4681368996669295    0.2541767348762762    0.0849049092049842 O
   0.3768779556606247    0.0497627756931961    0.0641806107680927 O
   0.6818773876182063    0.2956034527957375    0.0716907320723828 O
   0.7685858275204315    1.0939573352275311    0.1414878735778444 O
   0.9042594463781771    1.0462467893090506    0.2948123189283343 O
  -0.0425225054519569    0.4616292567588548    0.2558621191436332 O
   0.7490852623431236    0.4767466470807756    0.2085808023526637 O
   0.1120213081372677   -0.1450971789939265    0.0260270113175100 O
   0.2385657622934493    0.6887736923091423    0.2457104756307408 O
   0.3136813842029146   -0.0954790732178560    0.2218700986768866 O
   0.6155580775860050    0.6621842214880516    0.1250179321890215 O
   0.5137568000575931    0.8120151611925165    0.2620584753557451 O
   0.8767251077852179   -0.1809115506717395    0.2862881276210200 O
   0.8184188326749422    0.7856498049502660    0.0870418586956707 O
   0.1757799725383862    0.2292379541262585    0.4831863941759969 O
   0.2318975389262089    0.0425190477134211    0.6373276923386045 O
   0.3512802733279119    0.3494237069250616    0.5463834431272807 O
   0.4398615587404576    0.4752295637778573    0.3738672559173518 O
   0.5289549254211574    0.2250159802525690    0.5992998718058641 O
   0.6520139566529575    0.2169918163509405    0.4321835116065658 O
   0.9729277896420200    0.3298266109637851    0.4516691641429007 O
   0.6672830714758142    0.4457852180140022    0.4022882620377224 O
   0.8483532530994835    1.1381423864250255    0.4620224804074930 O
  -0.0473702081238158    0.4420968092337822    0.6068156993546791 O
   0.7494713173801743    0.4913442639756169    0.5869337364109340 O
   1.0360844793810264    0.6612317345279808    0.3343909872881002 O
   0.0519127781587766    0.8695126183731187    0.6563795139555851 O
   0.5465220248757152    0.6285825502867108    0.6459878955017165 O
   0.6373550321262655    0.9720648637129451    0.3391818876569704 O
   0.3364331070889391    0.5578881923290185    0.6560644979907205 O
   0.4079976607650367    0.9993637433739799    0.4500159165853611 O
   0.5654794010442801   -0.1771886627255440    0.5458167270614575 O
  -0.0113404253394926    0.6585294298946577    0.5646434256067729 O
   0.8676958866707251   -0.0199497018154313    0.6004301772281819 O
   0.7648752324122492    0.7911026850492779    0.4995648793169559 O
   0.1917597795885410    0.0706648218887271   -0.0356591264833263 O
   0.2064210970183551    0.1816506712261401    0.7937608684391348 O
   0.0660151931826786    0.3724083809434227    0.7651491330497147 O
   0.5985796322995123    0.3497710845222639    0.7476270539717910 O
   0.7648345530591716    0.2663013335915310    0.8729541623159465 O
   0.9398578684930025    0.4139531900063496   -0.0741894092051857 O
  -0.2418254921787842    0.0645048602934744    0.7891786759179541 O
   0.2040664803460951    0.5780309210918561    0.8114439730474855 O
   0.0591043294388456    0.7369341913436021    0.8534669464249472 O
   0.3455795804564207    0.5541747861534664   -0.0346005790401016 O
   0.5003046963388719    0.9014601515867888    0.9201518396323737 O
   0.5228322839657822    0.6696567187340734    0.9395843381101210 O
   0.6957059747614894    0.5831278038021718    0.8278279299297697 O
   0.8703998671988284    0.6384996204003897    0.9212305543507684 O
   0.7134389821658541    0.9529375463880836    0.9707654468903840 O
