Li1 Co1 H110 Cl3 O55
1.0
  12.7519704008999994    0.0000000000000000    0.0000000000000000
   0.0000000000000000   11.8000649274999994    0.0000000000000000
   0.0000000000000000    0.0000000000000000   13.0122871807999996
Li Co H Cl O
1 1 110 3 55
direct
   0.3748577710125981    0.8541000007815424    0.4843227791420864 Li
   0.6347156514673807    0.5342314218211323    0.6780481377185191 Co
   1.1534856761792565    1.1417526553097013    0.1998040048052610 H
   0.0705059823881449    0.3180402384951199    0.1508656443808449 H
   0.1183524704851482    0.4320277468913953    0.1291177382619606 H
   1.0400130163071888    1.1205409076169679    0.1725643662178956 H
   0.1632183211743578    0.0882480283115375    0.0439609180501372 H
   0.2719732787534720    0.2165891017975503    0.2907726395696857 H
   0.3109696051537359    0.3828195430749252    0.2135825202582974 H
   0.4341725260050200    0.2392525364178764    0.2007400431689065 H
   0.4697968245030732    0.1699554600861750    0.1017282413158835 H
   0.5535093776567928    1.0848800868854371    0.2349016009199452 H
   0.5981738477029123    0.2611134330811503    0.1092578937619630 H
   0.3963211207064370    0.3773255055083256    0.3036673749585249 H
   0.7263501176136894    0.3915737321946189    0.1691107074278937 H
   0.6873490860582132    1.0483972367786787    0.1762539558598181 H
  -0.0104217462338699    0.4612123320708737    0.2310675324501366 H
   0.7040516028696518    0.2187763778980275    0.0981904312936819 H
   0.8713802534952371    1.0534565309746684    0.2183895153031266 H
  -0.1298485447694528    0.4545030469536796    0.2442827341752977 H
   0.7498845197935140    1.0339735873288058    0.0807608282693459 H
   0.2690207938576992    0.5250780823553227    0.0974299961862704 H
   0.1948855841387934   -0.1950289723268135    0.0482036003113664 H
   0.2104816052827857    0.5873472312553087    0.1881411819754724 H
   0.1988222306664906    0.7789605837149748    0.2602292005510300 H
   0.1099254590805094    0.7548242758429518    0.1899256492007471 H
   0.5723448981645135    0.6610730967776703    1.0469986483623244 H
   0.5958314645996788    0.8827388262521066    0.3004911462582405 H
   0.6325536326472890    0.6800865514813924    0.2248518688334174 H
   0.9527402290427631   -0.2475566494038683    0.2604036510506585 H
   0.7756405394261207    0.8144273377177145    0.0166286746821320 H
   0.6994381981839063    0.5162281310506798    0.1918945574828978 H
   0.9228154418919814   -0.2278135376980111    0.1415805741759486 H
   0.9460667505665274    0.9484571087161927    0.2263834981098913 H
   0.6988006496526279    0.6952203665152248    0.1321056833833509 H
   0.7072017042843449    0.8129349730478422    0.3274641138175394 H
   0.3113413124155145    0.0235761807675867    0.3465268655500715 H
   0.2051843847061733    0.1557733347310855    0.3742683375130202 H
   0.1388064075474230    0.0955123103749549    0.5931921869807246 H
   0.2423590318467080    0.2536287285017568    0.5190353545505419 H
   0.1227006612554221    0.2697964361518552    0.4808429912023603 H
   0.3358606604197988    0.3917889852475136    0.6128167154323246 H
   0.4399018366686367    0.0039489158819292    0.3684684347786755 H
   0.6269443034415882    1.0793546935591640    0.3422701196582554 H
   0.5929409309142024    0.1126884870523947    0.6451054279516689 H
   0.3953565638878976    0.2780099502804198    0.5963899338043113 H
   0.3994022131780151    0.4261845587035648    0.4511364534792792 H
   0.6132475966183295    0.1770283025249905    0.5446595968814356 H
   0.6009812569796364    0.4354446772428576    0.4196685036630328 H
   0.7023749992289712    0.4380599170902317    0.3434190337417119 H
   0.6766526998753867    0.2407669348648167    0.4130977910118275 H
   0.9252464387517148    1.0710157563919049    0.3661183483123145 H
   0.9671536878433754    0.3593306892675147    0.5041532667738645 H
   0.9776461839669985    0.3515553083214168    0.3847199974026568 H
   0.7625907914445652    0.1344539605119050    0.4346458859857628 H
   0.9198668779588856    1.1740829858921131    0.4385491198518999 H
   0.7115304470797410    0.4504759504680277    0.5020575552651116 H
   0.8312531214589294    0.0246160055546016    0.5502612254796386 H
   0.8132731550073278    0.4661758640819140    0.5754212911507278 H
   0.1099501611453745   -0.0181507930266429    0.6539209419659353 H
   0.2706393672507603    0.9655671840624286    0.6640406079531952 H
   0.2807405512992199    0.5717464696382283    0.5911179935952739 H
   0.1121119447077057    0.6222224630890701    0.5339927557587770 H
   0.0354118999890503    0.6993500048095392    0.5972068539853909 H
   1.0104881673494601    0.6758408121309891    0.4109221550450950 H
   0.4359518588678377    0.5890345101069361    0.6351079541645893 H
   0.3922362617895496    0.5362509022347073    0.3767252460914884 H
   0.5663709194298527   -0.1474572001841216    0.5535388967612048 H
   0.5067785602799000    0.6787238471150353    0.5655698332003416 H
   0.5551655922915529   -0.2098407552342682    0.4364879910413113 H
   0.7665274379722624   -0.0508772231244996    0.6343678844238746 H
  -0.0412575298530232    0.5071230964038270    0.5944763578392234 H
   0.9413929630555563    0.5735557817166935    0.3513646007710466 H
  -0.0319153657595752    0.8501203616618829    0.6508707479878494 H
   0.8255049901744632    0.8482763040118874    0.4635493366070299 H
   0.8654439160022753    0.7631564333864976    0.3731901258346996 H
   0.2250644496710440    0.2436592918314686    0.8054961395153901 H
   0.0098597468898709    0.4251125307039121    0.8362747408815627 H
   0.1547004218548664    0.1497631983093171    0.7552167389066052 H
   0.1850745513284310    0.1086437635450883   -0.0783492475561334 H
   0.0908487993681538    0.3366816613475790    0.7851707350476615 H
   0.4113046874802835    0.1769859298767829   -0.0697565998189255 H
   0.3404168190504602    0.4885621815829623   -0.0820641978433763 H
   0.6042058566851923    0.3144682242512178    0.6890992310430025 H
   0.5109747745368138    0.3687458916992472    0.7576844065467245 H
   0.3412363002499510    0.0959949348380397   -0.0158371012518132 H
   0.7044107630508639    0.3053182745972650    0.8308029895275765 H
   0.8626757163523210    0.3935635517544486   -0.0875651523647012 H
  -0.1656077243835943    0.1577419679668114    0.8730476765962032 H
   0.7171029192362781    0.2934717296113793    0.9548242301885732 H
  -0.1333985843771988    0.0580352284506530    0.7885759780602336 H
   0.9472508812949781    0.4210693326119412   -0.0021487313653249 H
  -0.0236503685327496    0.4134092052689683    0.6793084849405048 H
   0.0998887356584595    0.6936373243781883    0.8427762881364397 H
   0.2283149277302680    0.5795210031313618    0.8771899153318754 H
   0.0398809881541214    0.8285484464593850    0.7400333974036971 H
   0.0775256034495051    0.8082426259853307    0.9128331495731509 H
   0.1901961127771143   -0.0740974343422739   -0.0100025389688639 H
   0.2731111421223343    0.5697244468657607    0.7183707952736180 H
   0.1439162061080753    0.5247941856123317    0.7974598889664246 H
   0.4869165317433434    0.9849145352340267    0.9465935480254845 H
   0.5412798950672634    0.9289826395999720    0.8524517585783900 H
   0.5320099551063255    0.7471785552003692    0.9653757956506843 H
   0.3984180515460908    0.5982293747679890   -0.0405041713479610 H
   0.6392333846638077    0.6235699133020725    0.8613587246166906 H
   0.3917618253056340    0.9494910013324586    0.6784308529115368 H
   0.6750858831896618    0.9452198383931308    0.9495907151997184 H
   0.7934566096378243    0.9891772236437130    0.9309083731469929 H
   0.9378013612434342    0.6866127867583296    0.8580772108131062 H
   0.9004502707824350    0.5742498456943342    0.9067312246081718 H
   0.7551033211165866    0.6483494379738870    0.8343304247403288 H
   0.8220780687947747    0.6963084961211965   -0.0124335489489291 H
   0.2743391876327673    0.6918907238190704    0.4277746881127304 Cl
   0.3778024139830169    0.3350452296738009    0.8128737817904278 Cl
   0.6036828002640821    0.9358639576688889    0.6847840788165092 Cl
   0.0477978681990182    0.3967508223526256    0.1246857733661125 O
   1.1021602747374679    1.1627779633503208    0.1446307681540345 O
   0.2419826194297170    0.1379505514419976    0.3048485662269345 O
   0.3442405418530601    0.3298147499790526    0.2582372371367699 O
   0.4963785988754538    0.2117196370655309    0.1627205933115460 O
   0.5788952584126916    1.0390752541730031    0.2901386234366746 O
   0.6649282372786535    0.2845777107526005    0.0790273128860332 O
   0.7469485029409846    1.0808377362464305    0.1452732378354857 O
   0.9435965440800242    1.0313380086102921    0.2305541715084986 O
  -0.0649048557579451    0.4608767406970694    0.2844263302043460 O
   0.7356710300894281    0.4470166474683578    0.2270766890819834 O
   0.2198801528195288    0.5092815591035230    0.1555704283399887 O
   0.1888276968028451    0.7440853518812133    0.1936052482854222 O
   0.6268164800583184    0.8045867138979774    0.3182220798592475 O
   0.6459005895997603    0.6425596393227981    0.1579989022555219 O
   0.9598058037866977   -0.1952713438745611    0.2004057437533188 O
   0.8020741014093111    0.7441404363238832    0.0486399571117587 O
   0.1796330393253054    0.2062561078056407    0.4968255772850641 O
   0.1582128202209134    0.0468824932065188    0.6537879907041039 O
   0.3445902917238476    0.3318833826645485    0.5650249635781539 O
   0.4342376139854580    0.4699826227968864    0.3987244531503661 O
   0.5934381089816446    0.1903265344384691    0.6189101868488635 O
   0.9881073123892058    0.3067580971833598    0.4473477267692859 O
   0.6752631107026617    0.4080685566888801    0.4104848760394183 O
   0.6887104442996638    0.1606622908812804    0.4300479241387263 O
   0.8870562622778398    1.0998122081138015    0.4264390274591871 O
  -0.0673037007237271    0.4291192883184244    0.6126491814723291 O
   0.7384023726902188    0.4887477737821117    0.5701508879504978 O
   0.0399494309102259    0.8324636791537688    0.6636356061324717 O
   0.0423395195821576    0.6260402386925765    0.5615390276031987 O
   0.3111319330085633    0.5428339168602427    0.6554994500110318 O
   0.3365264398823516    0.9249233399016822    0.6346368609651520 O
   0.5088158924868635    0.6187462110301173    0.6234743345021394 O
   0.3685152217863003   -0.0289480217523151    0.3829547427874733 O
   0.5184504819767615   -0.1917137363310495    0.5038082082966258 O
   0.8336056990651231   -0.0459855551248195    0.5927572134882589 O
   0.9495015138715700    0.6576078616072514    0.3673986766487951 O
   0.8273478426326483    0.8370678911080086    0.3905383442426891 O
   0.2108384128863917    0.0731171793630794   -0.0133662827436388 O
   0.0538359311476717    0.4099736309522947    0.7762507044344990 O
   0.1552344569714724    0.2147967387783681    0.8021608304035502 O
   0.5875260814572802    0.3834661496865734    0.7325865897323310 O
   0.4150296020234233    0.1163311788735071   -0.0194725881837187 O
   0.9180161835753466    0.4478895240214347   -0.0651978316964752 O
   0.7602288035279470    0.2923963117998700    0.8882486937003954 O
  -0.1398846408374743    0.0779470680416729    0.8636334976514939 O
   0.1845867835714136    0.5935709258240436    0.8130659078913401 O
   0.0460715467515934    0.7580454445596948    0.8592222823745442 O
   0.1852094324445195   -0.1569164701699901   -0.0183449616722434 O
   0.3315005499229868    0.5535872475223718   -0.0370968533734991 O
   0.5458572268963806    0.9278640016872908    0.9302397743158177 O
   0.5430780485509307    0.6613298750258084    0.9768418813531385 O
   0.6830015226419676    0.6245334673223136    0.8028862985605956 O
   0.8702510162442642    0.6436867517651208    0.8698430132329839 O
   0.7444539864858840    0.9462028838315475    0.9805921828429494 O
