Li1 Co1 H90 C51 N3 Cl6 O45
1.0
  14.2588366459000007    0.0000000000000000    0.0000000000000000
   0.0000000000000000   13.9156292128000008    0.0000000000000000
   0.0000000000000000    0.0000000000000000   14.3822845417000007
Li Co H C N Cl O
1 1 90 51 3 6 45
direct
   0.6561259556536203    0.6518137245318942    0.2158399982839633 Li
   0.7185742480433110    0.7045292711149579    0.6277564767003847 Co
   0.1093597506952557    0.2125622967647918    0.1551674397992556 H
   0.3766704783972926    0.1461190202258103    0.0402684475557972 H
   0.4966082434807957    0.1055789920766636    0.1297055600166495 H
   0.7145970652332179    1.0408295510689076    0.2241794244476055 H
   0.2783553048096148    0.4291702527476530    0.0746308604650320 H
   1.0176849052389212    0.3925958375906404    0.1467869909456306 H
   0.3666402070959432    0.5954511994885738    0.0962240919923017 H
   0.4445904654236165    0.3827313896450358    0.0437929223951755 H
   0.6479050886284199    0.3492258978796235    0.1433974042733147 H
   0.7652730087161507    0.3310987980451459    0.3125701106639787 H
   0.8866587881442137    0.4058611378639621    0.2392076349779509 H
   0.7264269223378998    0.3843346229346580    0.0593488654966568 H
   0.8747251357554736    0.5276268858648788    0.2359988262614920 H
   0.7569062672376794    0.5493131492299889    0.0850499284208582 H
   0.1272384883742727    0.7074648192942975    0.2074372998357712 H
   0.2616744208141879    0.7139539257959955    0.3078198222239251 H
   0.2069034728473662    0.9190772411955193    0.3684131165279878 H
   0.6398525382800704    0.9622323145893701    0.0459261022742862 H
   0.3126624514687821    0.8302950538357420    0.2995763474368530 H
   0.4192300514585700    0.8296518921171351    0.1471256019629470 H
   0.6507748879687304    0.9343672433036730    0.2165179156184265 H
   0.8903154679488030    0.9747053402316705    0.2288754795009021 H
   0.9373024709307501    0.8187375455448438    0.2779267966233356 H
   0.2152253298786773    0.2111020681477984    0.3283415967128279 H
   0.0170485732347526    0.1124762727193323    0.3590703727093401 H
   0.2040785579542158    0.1037450829080774    0.3951863317903863 H
   0.0372444704984191    0.2658800439290762    0.5793063853411412 H
   0.1651518198349739    0.3286404111855324    0.4745104472806746 H
  -0.0450679950376442    0.2173619360034232    0.3918245571112792 H
   0.5496511402319466    0.1574250127608287    0.6547111652184702 H
   0.3346291804368191    0.0806853997925747    0.4521999444485514 H
   0.4785488459019587    0.2236757000924508    0.5902610427561847 H
   0.5631718786194949    0.3025927208901781    0.4371247316496832 H
   0.6608928242059398    0.2654467182125176    0.5984586277544625 H
   0.8206597151924526    1.0774480892756659    0.3592414164675738 H
   0.7288422666507125    0.3830288968534193    0.5146152997696952 H
   0.4592019660091083    0.3264198863693368    0.5083735723348277 H
   0.5280890024758903    0.4188846955650611    0.4300215485841697 H
   0.5295790258577143    0.5232725013757992    0.5709235029381103 H
   0.6507068599785031    0.4829093965955027    0.4820510434693787 H
   0.6988713783789208    0.4715035199676601    0.5991455839867184 H
   0.3528031736198123    0.9937357409379793    0.6649362445216653 H
   0.2759750264711461    0.8926659309788073    0.6865517256435021 H
   0.3571653808282023    0.8824824173314580    0.5994800232050536 H
   0.5274261152968919    0.9541047625922268    0.7555011333071323 H
   0.4037855937185114    0.7308909967969394    0.6813661795097314 H
   0.5530925850860126    0.8293400125798442    0.7536099177689376 H
   0.5099383351790306    0.8897433178954843    0.6513820696313835 H
   0.6780940872606313    0.8887315059404023    0.3934508634141606 H
   0.0340717011397766   -0.1464426697806473    0.6405305251811614 H
   0.7912828445260476    0.8973714314630952    0.4401743167050221 H
   0.2097599471174260    0.1671601097462665   -0.0271165354898410 H
   0.1042779896933275   -0.0010759048959301    0.6421561361842125 H
   0.2566866366235015    0.3204287810642807   -0.1219964550216447 H
   0.4184207287707111    0.2254348731507184    0.7467667768399259 H
   0.4688143210282263    0.1987411466709758   -0.0233285420148099 H
   0.3769601233453738    0.3045243618953348   -0.1436856379254846 H
   0.4120443319960035    0.9882462299117920    0.8400016169734322 H
  -0.0054736007668930    0.1156949557781480    0.7722828900092891 H
  -0.1814655180823611    0.1010804531286426    0.7855610308669742 H
  -0.0470148579332214    0.1075781830276851    0.8839445662432496 H
  -0.1977080773984884    0.0451850287748133    0.8956527200843009 H
   0.8070765593705720    0.2545316530237809    0.0248446114220574 H
  -0.0803654048122852   -0.0230892824669730    0.6666925718927976 H
  -0.1533818805497618    0.2886149124112712    0.7568972953662113 H
   0.6349369899965326    0.3201442089519139    0.6983606979599352 H
   0.0435822947013484    0.0326214574603961    0.8586912764097089 H
   0.2066173344967193    0.4894168996782023    0.8458261436511737 H
   0.1159402314406453    0.4955231273378068    0.6991616833643471 H
   0.5502721586375784    0.4896779011711610    0.6873408909508002 H
   0.4488713195715285    0.4307670903509114    0.6241242303873226 H
   0.0424181043531286    0.6043368918355835    0.6952179427273470 H
  -0.0650030014521916    0.5383725012957971    0.9134920278282203 H
  -0.1394080897736894    0.4445458420744506    0.8040573969504501 H
  -0.1113118284903263    0.5158206644222380    0.7050870285174702 H
  -0.0803226243235855    0.3582366294881277    0.8903267233848263 H
   0.2281050622552178    0.7674455781400595    0.8825456229848496 H
   0.2379031968064101    0.9004075859447865    0.8118927307371838 H
   0.2697788688045664    0.9595870874539604    0.9184397814200560 H
   0.2622558146688109    0.8402910085908494    0.0538490438396275 H
   0.0437450008223044   -0.1659631669026990    0.7585681008582266 H
   0.3107050687809016    0.7510855561447487    0.7573993018436291 H
   0.4199425920572394    0.7175592245024207    0.8014694909823764 H
   0.4246849144275180    0.8702170718418697    0.8925767136354138 H
   0.3776880929727546    0.7633645553467990    0.0509030584589912 H
  -0.0021759965395860   -0.1100116904661307    0.9116571315762734 H
  -0.2329844475885230   -0.0253730455303613    0.7965460728845983 H
  -0.0950776850080416   -0.0477996275574923    0.9625829770409763 H
  -0.1263404037746653   -0.1493969019875666    0.8939673132958510 H
  -0.1163515103230418   -0.1271614719349042    0.7131712796434222 H
   0.0456140172548381    0.2324816260140242    0.2724589587584964 C
   0.2567055722496472    0.3012841203431579    0.0542836062335141 C
   0.4163392125336530    0.2125306776411955    0.0270480165840203 C
   0.4748218237528354    0.2417625574059877    0.1170768292003886 C
   0.7801094224610848    0.2775259420427549    0.1567005759248877 C
   0.2318494069956670    0.6668665832130758    0.1382327171344508 C
   0.7122686845367783    0.4557338377891390    0.2887199358878194 C
   0.9156232829523336    0.4806695409969267    0.1030602799230113 C
   0.7227435923928092    0.3657706043013949    0.1356128273741870 C
   0.7498762407012000    0.4566696919859454    0.1873486971410946 C
   0.8589531618150424    0.4656404757062513    0.1937183388857274 C
   0.2601125823169074    0.7793602388043070    0.2713868064202992 C
   0.2812692872775988    0.7606812415397846    0.1691283650902154 C
   0.1589675845996712    0.8265036334699657    0.2838848208684790 C
   0.4613574013200835    0.6865221802268571    0.1493533426189675 C
   0.3840238132172233    0.7650353385822861    0.1295713671494173 C
   0.7238930550318045    0.9635969672191292    0.2099229967288028 C
   0.7658081154846398    0.9610846841261130    0.1136580399352036 C
   0.7869430795412378    0.9250812815965920    0.2883117948874810 C
   0.8025453341658441    0.8133673248485880    0.2735853444834505 C
   0.0235932866863113    0.1886819536686757    0.3661965006692508 C
   0.1987723747164862    0.1821245786046674    0.3961145570637281 C
   0.1040241120390771    0.2081449614750977    0.4363772843321982 C
   0.0869077086422981    0.1505205459537063    0.5290564408413938 C
   0.5211343116786916    0.2300620444424608    0.6536383175804429 C
   0.2824650370027281    0.2158521228516992    0.4584194014298570 C
   0.6031770357137114    0.2996248349707968    0.6331394879859373 C
   0.7126067205294542    1.0339940714405407    0.4136131678908403 C
   0.5268532074080601    0.3543783777929320    0.4794619554915935 C
   0.5212395797336722    0.4632589736201281    0.6168597377611984 C
   0.6739738352752146    0.4343526989667334    0.5373166028243911 C
   0.3447898971627281    0.9154532584615144    0.6694709900143512 C
   0.5082034390851679    0.8859820794204137    0.7273157640895598 C
   0.7416764132606058    0.9282561290522401    0.3849438699914356 C
   0.2968322680109399    0.1754874371152230   -0.1317786283329906 C
   0.3160806826478323    0.2791457035106206   -0.1053196885938509 C
   0.3478876253362745    0.2957241849053243   -0.0058368841859999 C
  -0.0187250324714795    0.0675677751987767    0.8285694971649775 C
  -0.1807424576913884    0.0281653168826519    0.8213675815235730 C
   0.0800971951052121    0.5520431731059524    0.7403359487102337 C
   0.0498359605658522    0.4120974351001787    0.8581802310344984 C
   0.1478404496208424    0.6073608298377037    0.8001762332981697 C
   0.0029232974495143    0.4969405982763007    0.8048229220635208 C
  -0.0825261701513607    0.4573893863559842    0.7488408562334680 C
  -0.0673482138163163    0.3725550621621403    0.6833575182234777 C
   0.2836383445042774    0.8967792915121096    0.8733954772191724 C
   0.3831240203155570    0.7598210576546758    0.7428390280990208 C
   0.3840813214151474    0.9099896176273605    0.8439425764111114 C
  -0.0754624802795112   -0.0865984480595056    0.8986153926608625 C
  -0.0681498219898195   -0.0703843052026049    0.7254266344508558 C
   0.0314613900096115   -0.1085471501504651    0.7063635990057515 C
   0.5830110146601859    0.3818395866363307    0.5660782365412488 N
   0.4071014322524774    0.8697765599608575    0.7439827963197304 N
  -0.0850368939143890   -0.0180819630756294    0.8145612914855629 N
   0.5146817656340985   -0.0218489504822630    1.0626428803079087 Cl
   0.6306063421650522    0.7280668341666321    0.5104638104964242 Cl
   0.3243941238453010    0.9455934694132554    0.4149780414575595 Cl
   0.8745540138006751    1.6984534256388344    0.6055166163310116 Cl
   0.7908887029744214    0.3123364412729605    0.8931878821861760 Cl
   0.6608226922572518    0.6865588296655710    0.7579423310110298 Cl
   0.0891105531505863    0.1769735359242497    0.2115938022208181 O
   0.2083874648816030    0.2269166602610730    0.0623018038755953 O
   0.0231353250613790    0.3159920431305616    0.2529697045174682 O
   0.5125389330343026    0.1684529007314885    0.1624632209177397 O
   0.4886178300389838    0.3253714249755408    0.1434106149700889 O
   0.8100725962185209    0.2201135183727479    0.0888052428038690 O
   0.8049571718812224    0.2547228049982496    0.2362150645086900 O
   0.2290048551568840    0.3833580231853991    0.0898954729376518 O
   0.2699899659701171    0.6065099879663847    0.0864405280812954 O
   0.1472260937503360    0.6485138378147517    0.1649718627051685 O
   0.3920202580066224    0.3842354538651968   -0.0066482990878651 O
   0.4336120101760061    0.5959995038363918    0.1321210316268290 O
   0.6812261800890347    0.5348027741034177    0.3115674883088035 O
   0.7189978450133863    0.3807523199544847    0.3471466759209209 O
   0.9935356700277155    0.4302241037647892    0.0907527776283113 O
   0.8837960019987720    0.5337831292290811    0.0450006582002652 O
   0.7128816377683108    0.5393524785423492    0.1405849164600804 O
   0.2369010112596594    0.8370716069155882    0.1165942911182169 O
   0.0890649673839392    0.7928774141417313    0.2466821081528012 O
   0.1458585207509212    0.9060523181231740    0.3366726792785075 O
   0.5398886327106878    0.7044983706078070    0.1856111428653782 O
   0.7133487165465725    0.9549484182990919    0.0386497895510483 O
   0.8743281889258999    0.9758817153527425    0.2933944366463792 O
   0.8512884411429373    0.9618284521470718    0.1044154192921074 O
   0.7332051751785894    0.7610082120224282    0.2618778859422293 O
   0.8847659268491262    0.7707497765558744    0.2817530315890288 O
   0.1139540946538028    0.0669878517273624    0.5364348235797078 O
   0.0429013134795885    0.1926149414741899    0.5965959195093067 O
   0.1027603343237204    0.3105937963929363    0.4545496406947922 O
   0.2838150770149711    0.2947281825120404    0.4977058582067171 O
   0.3494866337663595    0.1535387350242635    0.4710798379183759 O
   0.6391210620552551    1.0451390938917959    0.4570135051731549 O
   0.7653206984412586    1.1056207283999817    0.3972381615893614 O
  -0.0030526458981852    0.3758484813312745    0.6234664767479358 O
   0.2305225105264911    0.1325443555727564   -0.0879517941348198 O
   0.3453972398383657    0.1387093660575923   -0.1987818917718388 O
   0.0974085653193436   -0.0308438725289690    0.7050411387286758 O
   0.4810566241231420    0.2571007068159815    0.7345121173323225 O
  -0.1168480445197524    0.2932693911279377    0.6960425683259863 O
   0.1340083253811196    0.3972395370606263    0.8710662227879400 O
   0.2131922046862139    0.5613025460045549    0.8484613300077023 O
  -0.0110694289527038    0.3549884831550518    0.8996291398133213 O
  -0.0278428871203988    0.5731597173531725    0.8670668581645224 O
   0.1464553436342555    0.6959152157842985    0.8023970209558879 O
   0.2712986281326341    0.8056170464852642    0.9170790796523182 O
