Li1 Co1 H90 C51 N3 Cl6 O45
1.0
  14.2501964592999997    0.0000000000000000    0.0000000000000000
   0.0000000000000000   13.9071969937999995    0.0000000000000000
   0.0000000000000000    0.0000000000000000   14.3735695514999993
Li Co H C N Cl O
1 1 90 51 3 6 45
direct
   0.5885134812037504    0.6184302991274423    0.3331771386739653 Li
   0.6987730137293238    0.6791247726706232    0.5580494634238526 Co
   0.2170484270117869    0.2939450702195748    0.2179747184214959 H
   0.3926396904127206    0.1523766433915285    0.0322282348890612 H
   0.3628709780155557    0.1558022078687728    0.1531912283730671 H
   0.5340937402398357    0.0854846593048193    0.0995796326425144 H
   0.8225151673927000    1.0825770285422704    0.2621738992668484 H
   0.7191650132943793    0.3052586368620940    0.2573108066474715 H
   0.1049194465753663    0.6523781895765728    0.1300327499723234 H
   0.3262939384295622    0.5467630896642890    0.1355212961345930 H
   0.3182154533133188    0.5750017059846790    0.3121969639915719 H
   0.1319892488129523    0.4701440484243441    0.3318657038259645 H
   0.4004444950915653    0.3543317894394433    0.1678632970783660 H
   0.6461400551492676    0.3706017826020391    0.0916991962906285 H
   0.6317802531223662    0.5542376368391325    0.1356854863861199 H
   0.3891688610707349    0.6505072158633508    0.0943693750421548 H
   0.7328553508667205    0.4231102787659716    0.0277178730219052 H
   0.8665482445360324    0.4094297362321440    0.2264980013513938 H
   0.8445253902619646    0.5284629246408511    0.2594404098674876 H
   0.8598079865841980    0.6606185272989111    0.1649753575271452 H
   0.1751353206412282    0.7604395049278964    0.0959131808393504 H
   0.3240595832688500    0.8137212697817592    0.1785252276065421 H
   0.3122050098612145    0.7575086483348552    0.2857797265308624 H
   0.6383078824266830    0.9352813512815518    0.0244925085893686 H
   0.7034389143146176    0.9998558302653731    0.1852194589632866 H
   0.8949260989154425    0.9932491790443569    0.1495484310976655 H
   0.6779852301471070    0.8771438272096305    0.1801316483301674 H
   0.9810617535013790    0.8711613132611267    0.2637650141195687 H
   0.0212195478822791    0.2662543716430261    0.6280899635510420 H
   0.0622849466416128    0.2205564498919121    0.3668785792426685 H
   0.2043363215669685    0.0953443024853344    0.4483636269062653 H
   0.2508556802223623    0.2075315391150852    0.4151011169718345 H
   0.0161311969807953    0.2941909860573618    0.4537979067989624 H
   0.2043208831833203    0.2764886409974799    0.6091649498983538 H
   0.4689614452114208    0.2319340121764286    0.6582077431637494 H
   0.3338229574368742    0.0288614590761130    0.4754978052745955 H
   0.5696877056597984    0.1952127375566995    0.5998610675522984 H
   0.5200871824656979    0.3044331649855457    0.4807407617809794 H
  -0.1413192638888660    0.0621010831503305    0.6397182511104504 H
   0.7060858953655619    0.1685445311477918    0.4838407572163756 H
   0.7264505268868774    0.2319721219407640    0.6301527775161997 H
   0.7885991437518763    0.3115539384990113    0.5682346856454769 H
   0.4280953419500903    0.3507732003131036    0.5412439650308113 H
   0.4927070827516784    0.4838485425855304    0.6458190321089219 H
   0.5148054447566798    0.4320332127012083    0.4975720714381379 H
   0.6722540810900918    0.4321696168954428    0.5673485452922151 H
   0.2837661036919232    0.9282727499046206    0.6652122662670237 H
   0.2310861282162113    0.8981128262199995    0.3393029656430087 H
   0.0070323750543522   -0.0150769420461562    0.6328320006459880 H
   0.3587678766887076    0.8037688688729560    0.5841078477839793 H
   0.4690099357709702    0.9414198995481838    0.6423473822990948 H
   0.4429589966796901    0.7305664830540268    0.6439510201371013 H
  -0.1896189488767745   -0.0622963781620579    0.6238314528324144 H
   0.8405857954528446    0.8983601801621012    0.3932498990906629 H
   0.7271452541510436    0.8815537740901803    0.3583427733274847 H
  -0.0401459218849325   -0.1343640996768118    0.6302473956272491 H
   0.2402691595080078    0.2036263668489404   -0.0681247076998916 H
   0.2110057033029637    1.1032907640368077    0.7990433228537469 H
   0.0620526691421795    0.0101035454493556    0.8415588578995441 H
   0.5834713752787398    0.2358233652951134    0.7201617342589586 H
   0.3497294048074345    1.0307010106558745    0.8111746169888077 H
  -0.1435059004092112    0.0652548459121259    0.8370693676745313 H
   0.7637082588428115    0.2813990481794911   -0.0353708396844919 H
  -0.1596425200450710    0.3167555618047176    0.8010908309479996 H
  -0.0598474046540895    0.1006394025714861    0.7682659993493128 H
  -0.2332674699183261    0.0169769650207196    0.7138612812173166 H
  -0.0108817639351772    0.0775348186540189    0.9161109721924179 H
   0.2668617753419242    0.3726927862753864   -0.0324766386406281 H
   0.2069004967419818    0.5566435853573649    0.8030945085937514 H
   0.0835211450943368    0.5343308216754857    0.6931482635543569 H
   0.0092505900867051    0.4387997811220017    0.9899437105527544 H
   0.4442284528623937    0.3850842121016566    0.7089272250146527 H
   0.3915968977717601    0.3916822346967854   -0.0238796092418240 H
   0.5547088244486067    0.4257230266846355    0.7409401497339672 H
   0.6799059054218776    0.3794583480231596    0.6823430144167971 H
  -0.0008369901379301    0.6258990938850275    0.7044766951883072 H
  -0.0428286919161520    0.5839308956736839    0.9434451704646210 H
  -0.1151645367547877    0.5103179310729524    0.7580625492268833 H
  -0.1083870863332554    0.4493023288363338    0.8709475214800473 H
   0.2439027936230103    0.8469831844728520    0.7555976082897657 H
   0.2769114613521502    0.9594752992172862    0.8793622718708004 H
   0.0380326494198118   -0.1021735727000542    0.7268510955658696 H
   0.3188680758948083    0.7232307129455368    0.6763688547139947 H
   0.3646091996653937    0.7337619508409440    0.8322090579407735 H
   0.4877374670553430    0.9586541416536816    0.7655728617914289 H
   0.4050065374595899    0.8504777779571945    0.8731348695766598 H
   0.4835058762718598    0.7710786006468944    0.8197584276809211 H
   0.5311886574840829    0.8564789872617875    0.7076484890726763 H
  -0.1823130846876492   -0.1731037537020036    0.7264113996380519 H
  -0.0907115405455609   -0.1798829774407650    0.8161358063262579 H
  -0.0603919585500419   -0.0709559232920859    0.9727037341424313 H
  -0.1967907798260455   -0.1110718431462965    0.8319467709711733 H
   0.2189754179889589    0.2543792252656772    0.0843134178575377 C
   0.3211564653982889    0.2886923942107020    0.0796305170819975 C
   0.3870369606378694    0.1981960849572215    0.0950532691830486 C
   0.4887826456283219    0.2168317597172426    0.1270432350960055 C
   0.7685488938612137    0.2896329144324140    0.0998092207060901 C
   0.1890965316721232    0.6237822043340185    0.2245249354474521 C
   0.4167684805653366    0.6142756157627240    0.2343074741199926 C
   0.3505827263763497    0.6195282917715967    0.1504229529034676 C
   0.6674415158601406    0.4410361771415494    0.2544312157531080 C
   0.7225172477801589    0.3876763951286225    0.0928206991951258 C
   0.8910461524067811    0.5294351550626987    0.1224201663612759 C
   0.7360005706626728    0.4675938364717981    0.1703602412001033 C
   0.8385977526857913    0.4807188680710036    0.2002498241920446 C
   0.2568303346941914    0.6809367841069489    0.1636994044707879 C
   0.2762462073658578    0.7713022258678059    0.2224704701391517 C
   0.1927020959986745    0.8334161083694420    0.2275394962943419 C
   0.7694962492214403    0.9307764895162421    0.0681225893256151 C
   0.7369907324502875    0.9290378213999582    0.1717113321681762 C
   0.8190022333680375    0.9108443637166593    0.2388296632510298 C
   0.8619974300833884    0.8098398262368044    0.2344333996942569 C
   0.2220574807608961    0.1670632837038112    0.4720926664310649 C
   0.1316720602034542    0.2205399116922948    0.5027429512069872 C
   0.0545166326877547    0.1539319532077081    0.5508205701675385 C
   0.2953862943659916    0.1541476688548897    0.5484960258099044 C
   0.0780671851982767    0.2671898584996371    0.4233669829819657 C
   0.5463292206767534    0.2442715090909033    0.6546157335508964 C
   0.7705404453518234    1.0307880159669043    0.3734705395529112 C
   0.7202941205348270    0.2800335681328314    0.5742274906819274 C
   0.1335471220719916    0.3480091638205496    0.3781937921699283 C
   0.5021089882189228    0.3610657128922966    0.5269532212274697 C
   0.6588683007224454    0.3677442693290398    0.6067041832896648 C
   0.3760153582025220    0.7694952477965812    0.6511510409551171 C
   0.7927808404863878    0.9264772766679122    0.3429575901822915 C
   0.3487125767207913    0.2714667807310915   -0.1048601893148185 C
  -0.0804134369075421    0.0352430469719029    0.8052060230572434 C
  -0.0047344802643734    0.0147378366029743    0.8750543649324338 C
   0.3313029921786715    0.3359384352564229   -0.0200642730580382 C
   0.0962872848819237    0.4708456578143851    0.8741610586487029 C
   0.0588183277678947    0.5936488855792166    0.7407425648550111 C
   0.0163761058850317    0.5346856020098838    0.8312656597158987 C
   0.1386333677393416    0.6623708574061832    0.7596995816923189 C
   0.5110355037489586    0.4183653973905644    0.6832043175159085 C
  -0.0419051958761089    0.3771732002673489    0.7533893885510101 C
  -0.0696220067374942    0.4652408964785997    0.8057312927178486 C
   0.2955954142899527    0.9036186085882321    0.7356526670576776 C
   0.2852383640961864    0.9838914342696179    0.8065091092483869 C
   0.4091727958104531    0.7946627923532620    0.8211971795459956 C
   0.4739968143872030    0.9054507534849614    0.7087505117778399 C
  -0.1436736173952069   -0.1332258401118500    0.7821477285387873 C
  -0.1667090892876502   -0.0038288091499487    0.6745182357772933 C
  -0.0118143826564669   -0.0782557407927122    0.6733570767527239 C
   0.5551948528356385    0.3447274097747598    0.6171727032673134 N
   0.3882292249023324    0.8435906963948423    0.7270959895003504 N
  -0.0986938866363591   -0.0425850013747578    0.7338048310065953 N
   0.5160465876455175   -0.0271699612271584    1.0378079517584615 Cl
   0.8300490986129909    1.6334802769406069    0.5043071416413426 Cl
   0.3263507797511759    0.9098527907917812    0.4311569755512308 Cl
   0.5836256187662789    0.7144165716016954    0.4603829098951572 Cl
   0.7301073185773521    0.3392410418147736    0.8529791247589248 Cl
   0.6723010979857474    0.6968702608599414    0.7122680792003819 Cl
   0.1677838430458698    0.2192484940178341    0.0229340926426727 O
   0.1764005663556641    0.2631674807318569    0.1702725803031016 O
   0.5515069036799830    0.1490596557900323    0.1301398910686588 O
   0.5111201622309272    0.2982665736847800    0.1517517807865877 O
   0.7842581509679046    0.2426126557640766    0.0223691668619954 O
   0.7926489124806673    0.2560481453227058    0.1758000868640386 O
   0.7832343054341486    1.1038077625378866    0.3164874778948191 O
   0.3320756131057896    0.3531223437109116    0.1509043921155719 O
   0.2118941121074429    0.5838755286575741    0.2988773776971556 O
   0.1057629437183236    0.6096183149400727    0.1857043767824148 O
   0.4951539262109659    0.6461857123981455    0.2281969530218543 O
   0.6108212438305972    0.4985823527193302    0.2872407414808898 O
   0.3872095898368440    0.5768467938202393    0.3127514539511776 O
   0.6838419915074413    0.3555376399071886    0.2936385955192002 O
   0.6994824776324269    0.5555693214344004    0.1299186516619403 O
   0.9226723830547015    0.4877596829845806    0.0500874033496341 O
   0.9051056076972552    0.6228193934954311    0.1255237795479770 O
   0.2188813841976475    0.7042146595943187    0.0763376676731977 O
   0.1259142448474103    0.8243517368748700    0.1719645747595143 O
   0.1792026329878010    0.9008121480183990    0.2892437234052369 O
   0.7085721768776232    0.9307750514119276    0.0014404755635554 O
   0.8549020893076468    0.9448123876261936    0.0498418136937486 O
   0.8975450101779356    0.9805104510261244    0.2219201545079747 O
   0.8101918285179300    0.7365036967166224    0.2224002022772694 O
   0.9514558458772308    0.8015132022555934    0.2533403245904209 O
   0.0066478189525714    0.1955787351047510    0.6168951104268082 O
   0.0460332408731033    0.0701897008674844    0.5223163772089255 O
   0.3012367400239243    0.2037816821149112    0.6213804263233924 O
   0.1530984314729349    0.2997089923122679    0.5625722091320136 O
   0.3569236915874665    0.0863360170590295    0.5253447829117704 O
   0.6831570886692330    0.2332635396152247    0.4886097883018269 O
   0.7429338084101090    1.0490842981086930    0.4527404798358449 O
   0.2177522769571997    0.3432023001491856    0.3560378483134653 O
   0.0805976766271486    0.4259048030699939    0.3627292967845908 O
   0.2926852789722788    0.1933000588183557   -0.1117728771926623 O
   0.2063173468869089    1.0371624133411217    0.7762834928179393 O
   0.4167944451196539    0.2772033788418083   -0.1560597189350164 O
  -0.1012777106632883    0.3032898720554830    0.7592821488494539 O
   0.0676161012131991    0.4228727758384246    0.9517103407533472 O
   0.1748904117369918    0.4607944361295037    0.8444008798380497 O
   0.2249409497795414    0.6294957927757026    0.7875771383816511 O
   0.0337765677459049    0.3689076957195060    0.7158343471212584 O
  -0.0062663889690954    0.6142734586062523    0.8953054235826231 O
   0.1290784117505672    0.7512715899226770    0.7469630099351039 O
  -0.0068179603121607   -0.0779731532949043    0.9277803073147082 O
