Li1 Co1 H110 Cl3 O55
1.0
  12.6500866094000006    0.0000000000000000    0.0000000000000000
   0.0000000000000000   11.7057865283000009    0.0000000000000000
   0.0000000000000000    0.0000000000000000   12.9083235490000003
Li Co H Cl O
1 1 110 3 55
direct
   0.4147784490899123    0.7881423637698818    0.5780251204718233 Li
   0.5166077914315533    0.2470296427505372    0.7041848029292839 Co
   0.0732347005443894    0.1155011891709554    0.1984336126048245 H
   0.1554869437208772    0.0370886111027561    0.2542317181656197 H
   0.5755931583337480    0.4233415885570297    0.0163831711916133 H
   0.3614025299481203    0.0698430013415539    0.1489810250881867 H
   0.4879566041953585    0.1080126705833257    0.1491607540817460 H
   0.3986995077924783    0.2335508389453807    0.2203388583888059 H
   0.6345579720169785    0.1227013888154846    0.2590828516038461 H
   0.3725336790341169    0.4425560172035996    0.2347861256340128 H
   0.4405687863479649    0.3111381072424985    0.3160995507287311 H
   0.6555594092563557    0.1528078664236305    0.1331540279398368 H
   0.6820208881644338    0.2681243380452976    1.0024202775349877 H
  -0.0622143325655324    0.0210280841535001    1.0000961957217205 H
   0.9264263294443844    0.3728768035917609    0.1172325181310808 H
   0.7804834551380427    0.2455876208958595    1.0715152298434225 H
   0.8664662656582302    0.2956073268408161    0.2104979212974947 H
   0.7396062646517931    0.4633679463645340    0.3095657820576991 H
   0.0570326770856962    0.5129383018974287    1.0663712620967243 H
   0.0593771669627823    0.8797073344285138    0.0654236215333651 H
   0.1384925936711113    0.8420020508977625    0.1446373161791902 H
   1.0370816983143367    0.7303752074694325    0.1651318443025184 H
   0.3152067988006546    0.5511450468195875    0.1824718187113052 H
   1.0000938092628646    0.6109710139433622    0.2991190343070629 H
   0.6548945916737038    0.5193317210682863    0.2261986433339904 H
   0.5037983929662818    0.5351632074491433    0.1485394495436659 H
   0.3629282112020067    0.7729148521824236    0.2600132590230908 H
   0.4221285963949046    0.6522651208221589    0.2643561932381495 H
   0.5100568481409025    0.7634101512611299    0.1661428198912897 H
   0.6104182163434414    0.7907163044382134    0.1020254310717231 H
   0.5840618750554497    0.6030185367838868    0.0920486126637295 H
   0.6705553540160571    0.9716404990559646    0.1711667100776356 H
   0.7412038821720544    0.9179405619795202    0.0774557804276184 H
   0.7979797780355898    0.8641697198000320    0.2392375170003573 H
   0.9308294613532687    0.7605150019332256    0.2329369312045898 H
   0.8763160005926466    0.9078686202338747    0.3268027221727645 H
  -0.0232186311737775    0.5606053252666849    1.1510762972509374 H
   0.2594095523631870    0.2571331927951300    0.3418496025257943 H
   0.1405487060759602    0.1984177875262612    0.3584838307572856 H
   0.2034115167866070    0.2029189801520293    0.4907891602229624 H
   0.1617888768586916    0.1552169313704261    0.6061325659214772 H
   0.1796701773576080    0.3962857389364750    0.3690568536197759 H
   0.2221046694346121    0.4681655735777270    0.4604986272567128 H
   0.2875627192937091    0.3622666664856610    0.5890280984697681 H
   0.2005656864684770    0.4485692825087396    0.6248731869697264 H
   0.5737417876101202    0.4543254100305512    0.6376393683700032 H
   0.3501931205283753    0.1299166237589725    0.5897067303592423 H
   0.5398353003864454    0.3798186694632720    0.5335832533445896 H
   0.5641560824885525    0.3013104891049322    0.3870653888968459 H
   0.6199746726534061    0.0897915113742165    0.4312771719245662 H
   0.4651290925018479    0.0790938107372491    0.5731034898852611 H
   0.5824587239762364    0.4387185988557252    0.3696525932579101 H
   0.9109086491263593    0.4497934633841856    0.3502736244049501 H
   0.8605374524954594    0.3274642207879635    0.3809677729127705 H
   0.7050531415391654    0.1804454796004859    0.4140859387518285 H
   0.8275890614788884    0.2277015950834269    0.5341247644070809 H
   0.8788535326263124    0.1335344925709156    0.4555188946248189 H
   0.9984179314088546    1.0231022268555989    0.3429791062870421 H
   1.0673265505286842    0.5348001391504241    0.3773786158991481 H
   0.2583913775160339    0.9111234207470985    0.5669129106286549 H
   0.3258557377494125    0.5933079547802605    0.6200910012919603 H
   0.0676312606479916    0.8879383063300654    0.6193635636844076 H
   0.3180621152198449    0.9213491325957310    0.4548534325322867 H
   0.5566557385834368   -0.0598109092547819    0.4978861313867428 H
   0.6377358158722236   -0.0087579536455880    0.5759528141883267 H
   0.4816301652964713    0.7920122446950534    0.3871048982876715 H
   0.5772571785614323    0.7644686021366901    0.4520381947624824 H
   0.6763837726092715    0.6371828365541884    0.6508579710299296 H
   0.7061250709589943    0.6246907242431982    0.3686811270599644 H
   0.7490860416448526    0.7356110794761382    0.3605003590772637 H
  -0.1362557228674779    0.5454008791946748    0.6393607382996965 H
   0.9683548961314987    0.9538031671094779    0.4449458717623285 H
   0.9005925142231384    0.8730465261341288    0.5893805842114470 H
   0.9185528655642250    0.6183699187320845    0.4656441443912865 H
   0.9575170256699539    0.7728994751721249    0.5451471097534696 H
   0.8006343053156678    0.6608036329296845    0.4897348017736768 H
   1.0169869742346525    0.4696776462570988    0.7212544091537939 H
   0.0527595047613398    0.0782804523202831    0.9914506113763664 H
   0.1806140444131211    0.2369722237368404   -0.1150083293050869 H
   0.2959389465300715    0.3771832207537456   -0.1512671043678067 H
   0.3139206415985442    0.1108358042463312   -0.0818963610175309 H
   0.1738488733401889    0.4164766077370121   -0.1934453158089181 H
   0.2011751684616098    0.4758463902219255   -0.0333153816502620 H
   0.1300333630504701    0.1293092318521740   -0.1639922269893825 H
   0.4249617785782873    0.2227877860146437    0.8833808070594403 H
   0.6282259995591395    0.4446823160165693   -0.0844675701969422 H
   0.4986537641578402    0.3386518500586144    0.8820793212440107 H
   0.6574866687884672    0.0799179330614242    0.7240293628388349 H
   0.4134954539214888    0.0919354937490296   -0.0154555101398474 H
   0.7151771828959127    0.2041713522130231    0.7285225876778182 H
  -0.1063318170723417    0.2327162089975015    0.7017801529464900 H
   0.7720732360395471    1.0719156917704578    0.9807443411565820 H
  -0.1758981391990279    0.3451144657758161    0.6767931746781163 H
   0.2965555430989997    0.7954763434040096    0.9180638546527650 H
   0.1817673962003854    0.7359408309192103    0.8231948350351966 H
   0.1507802565780590    0.7930382329933163    0.7223645455665978 H
   1.1013658431672051    0.5600551700093316    0.7079622105697808 H
   0.1997957312657385    0.6072941999252740   -0.0068921982906829 H
   0.2591099496713616    0.6879226991481340    0.6722015637090379 H
   0.1333874902837549    0.9776973325569508    0.6746395255311554 H
   0.1751682318960108    0.7813354738776592    0.9836339495444110 H
   0.5716200630062700    0.6831370318318399    0.6790428858733589 H
   0.4236748308677552    0.9483614140204395    0.9093872825499006 H
   0.4745535339053882    0.8056841154072936    0.7698974415054770 H
   0.5813243443910930    0.8557721636202444    0.7172058586350823 H
   0.4716863598598723    0.8334515788933379    0.9679463973048572 H
   0.6444385367798413    0.5688098145393888    0.7989074053926163 H
   0.8016477371122906    0.9831476284294884    0.8908488566194057 H
  -0.1115950221440387    0.5415762750220492    0.7614610245233170 H
   0.7373414580236146    0.5959502377165864    0.8802432966115296 H
   0.9347899085459995    0.5700937948993300   -0.0176831425578640 H
   0.9128928252648332    0.6883882808488444   -0.0692254669715980 H
   0.2812663197148466    0.9217421006366978    0.2414748330925959 Cl
   0.7440283687627983    0.9279783325911687    0.6645127263768122 Cl
   0.0257850649384187    0.1231874731965934    0.7183400105599568 Cl
   0.0944672824462725    0.0925610817846816    0.2633738813250752 O
   0.0113366263115887    0.0149467328638710    1.0277295284814680 O
   0.3816023916478910    0.3012626495173363    0.2633359213221252 O
   0.4174780353500273    0.1297269739652886    0.1253303938624416 O
   0.6201833668767356    0.0990891352234878    0.1878450958635790 O
   0.7137068372315455    0.2045796972642884    1.0424719541169598 O
   0.8710116890830211    0.3097866388929132    0.1347940550060658 O
   0.1974526643038116    0.5305731698749827    0.0285318130663475 O
   0.0948838803845099    0.8121296455574968    0.0917755330506707 O
   0.3833778735630354    0.5237790941580091    0.2101175465740567 O
   0.5805101207167391    0.5272636955473634    0.1198842954800187 O
   0.4255601934535163    0.7332370399416895    0.2891487233281466 O
   0.5351467949373264    0.7593642889958732    0.0920262240089284 O
   0.6723703613522866    0.5059298023146234    0.3018552532952162 O
  -0.0191264062271488    0.5041349635014256    1.0909213129842039 O
   0.7053124283014839    0.8981469326116994    0.1502778627399898 O
   0.9810267461313938    0.6983867546563961    0.2160160662161289 O
   0.8426245316596749    0.8354223990466207    0.2964564112429965 O
   0.1932187011971716    0.2582300861964370    0.3841726817332660 O
   0.2214351088014299    0.1868867383589394    0.5635197511812847 O
   0.1988234059070441    0.4751518619234344    0.3856089642938651 O
   0.2709233075252877    0.4425483286984503    0.5945725829822860 O
   0.4256953703936275    0.1417082278230222    0.6073627798946333 O
   0.5548644464998582    0.3734602757047614    0.6103159131853583 O
   0.5324732954551277    0.3786730821960191    0.4023624953917708 O
   0.6383200015958619    0.1576037850801237    0.3841726817332660 O
   0.5826713707416745    0.0135627165091534    0.5242187530249982 O
   0.8554861036807788    0.3923107817742623    0.3362663833163886 O
   0.8419842198380957    0.2068845402523929    0.4621123147290581 O
   0.9401100302240591    1.0075201897529207    0.3940577763790293 O
   0.1446237769898379    0.9029052630207958    0.6462500914881584 O
   0.3249229378118032    0.9001117728165328    0.5266055850472237 O
   0.3316888993931571    0.6707423072527414    0.6454258171383862 O
   0.5089034963536382    0.8010351326269879    0.4600035978304869 O
   0.9928290368674161    0.5551353809920990    0.3667172779277536 O
   0.7077361271224247    0.6976076528012624    0.4132167321536666 O
   0.9698726723011680    0.8556380419193057    0.5490314251573769 O
   0.8699445027137223    0.6416831749016066    0.5263406397205111 O
   1.0973658705533889    0.4750314086760946    0.7059828675588150 O
   0.2151474048152061    0.3851698690472181   -0.1371885914369716 O
   0.1734140937082524    0.1524123355476141   -0.0997282660767926 O
   0.4521908411638388    0.2872157506094780    0.8357526237662173 O
   0.6022372446872396    0.3802876682773823   -0.0423689198232383 O
   0.3927872953065633    0.0855327629441578   -0.0868001736435248 O
   0.6485057026095020    0.1621545258501876    0.7428854132838099 O
  -0.1352248998855775    0.4953333336621222    0.7066367092422808 O
  -0.1780672943081803    0.2570486192384872    0.6805403692550408 O
   0.2317275284519998    0.7533792148762808    0.9339373334373801 O
   0.1558972175917409    0.7136168290789042    0.7509724433000419 O
   0.6595807255975576    0.5712829503624290    0.8726977776577886 O
   0.4318162771028719    0.8651717883044969    0.9058856659512446 O
   0.6031202425942815    0.6053259426070410    0.6702415880465160 O
   0.5178164788083368    0.8055739135001529    0.7057822218289361 O
   0.9000312532437292    0.6063143426579072   -0.0759133997362433 O
   0.7978517156712741    0.9916220696607695    0.9693563402715727 O
