Li1 Co1 H90 C51 N3 Cl6 O45
1.0
  13.9878253124000000    0.0000000000000000    0.0000000000000000
   0.0000000000000000   13.6511410695999995    0.0000000000000000
   0.0000000000000000    0.0000000000000000   14.1089268891999993
Li Co H C N Cl O
1 1 90 51 3 6 45
direct
   0.8308794894512369    0.5909318491158464    0.3742321075206440 Li
   0.6181366267446238    0.8512646653896535    0.7576666551998934 Co
   0.2887501855288039    0.2003857421773867    0.1736789384368937 H
   0.0241679565300488    0.1955758878461455    1.0192676989210350 H
   0.0035300093472162    0.0723092692227906    1.0586895489573942 H
   0.3817324734078941    0.3251430786752582    0.3241340380111153 H
   0.6010288923645080    0.2472587469128618    0.2412248267588110 H
   0.4118965618617272    0.2426613290354830    0.0709383110749644 H
   0.4837875797677452    0.3379625198566046    0.0762470068098140 H
   0.5051106942146774    0.1491585226772302    0.3562697208706718 H
   0.7135210035295723    1.1006950963433477    0.0904592854313364 H
   0.8224500161509467    0.3092499017683729    0.1775367796765180 H
   0.8814920746236014    1.0046452501572354    0.2893411721996295 H
   1.1348752790062047    0.4819188374992573    0.2152809684572846 H
   0.3191208822248375    0.5968141412693442    0.2532831499279692 H
   0.4177966927367417    0.4125223676239549    0.2426501654934949 H
   1.0038463335435213    0.4663236063816114    0.1063215832345317 H
   0.9766433915920885    0.3908489413153753    0.1935925719971517 H
   0.8241743728297949    0.4946297895812348    0.0037227100978321 H
   0.7313415005999085    0.4171169285972991    0.0599346393415146 H
   0.8598618359522773    0.6134867402000553    0.1907773330840913 H
   0.1985381638729879    0.6519736327844416    0.1379249789783509 H
   0.1425559091256528    0.7438978165286485    0.2024408707359850 H
   0.2503160481276586    0.8093780570039741    0.3514373193325939 H
   0.4032783530045481    0.6926793875024450    0.2993454766452104 H
   0.2723823803205820    0.8851929646899530    0.1882987604559513 H
   0.4672732185399694    0.8071291607510179    0.1885128093360480 H
   0.6758982860415667    1.0349225726090874    0.2189134204787938 H
   0.6601131303744977    0.9218558339291077    0.1742417027110552 H
   0.8684836193465187    0.8562093069881729    0.1863049872780966 H
   0.1640746222406334    0.1665145809577811    0.3162234434721760 H
   0.1106967751968821    0.0380828263475878    0.4604055641944236 H
   0.0603894554896372    0.2805284932061882    0.5082601179320880 H
  -0.0173131162629917    0.0219193423666501    0.4369704012938986 H
   0.5755026227675125    0.1273969718672726    0.5723359053466518 H
   0.5384517597187318    0.2710135376916448    0.3884415510576619 H
   0.4180133096827164    0.1867495194579144    0.5008879484668384 H
   0.4641424959993340    0.3125368064872701    0.5238475968188306 H
   0.6660189805088119    0.3599709364767402    0.5205900138459412 H
   0.5414134066563209    0.4067151607688049    0.6386767409998920 H
   0.7042615227234185    0.2359651855018436    0.5105834625958904 H
   0.7612925466448293    0.3177341742119360    0.5953637374809794 H
  -0.1161526405723488    0.1595745017719482    0.3817153130705160 H
   0.0394576813602844    0.3245160248666163    0.3850862285464766 H
   0.1593312115589757    0.4021374482038706    0.5012279459760517 H
   0.5342654763836026    0.3232970791451443    0.7428256965894775 H
   0.4612540555807806    0.5976162720175484    0.6810010087978279 H
   0.3462673464906861    0.6508396616445146    0.6723788080482359 H
   0.4559988426825444    0.7243287564304492    0.6641159542596009 H
   0.6458850430517620    0.3889721751264262    0.7219658535758118 H
  -0.1708773731811707    0.4749246675970341    0.6732002737834416 H
   0.0318439174176085    0.6470077475405361    0.5119514971850252 H
   0.1446012592326946    0.6692014966531792    0.5668062856517818 H
   0.6063427991613071    0.7991950254690086    0.4753463177794011 H
   0.7177332380037738    0.9022911690678849    0.4391711356405885 H
  -0.0213394748099542   -0.0483927286247989    0.5892442075778164 H
   0.6548063726518233    0.9962942999019582    0.3760536493148448 H
   0.2910157271188828    0.1642239299535486    0.8411570587756393 H
   0.0118265098687893    0.2227150110968040    0.8581668570320683 H
   0.1761172376034855    0.2435901891165085    0.8938428516667348 H
   0.1655780725290322   -0.0043517215811572    0.9171437024388547 H
   0.0281635740582756    0.1251158438764890    0.7699517851294190 H
   0.1651741498409936    0.2451329172952465    0.7715932990575780 H
   0.0850830724233430   -0.0432539640598192    0.8373594630817375 H
   0.1212573874937092    0.1207374553084371    1.0201727996491263 H
   0.5181621654707675    0.2121371407734529   -0.0677405562383060 H
   0.6348239955662145    0.1981786006757069    0.7736239283339925 H
   0.4909260732626191    0.1861590926240764    0.6579872103317980 H
  -0.1032600002960844    0.1183120170369263    0.9245999746859331 H
  -0.0799468695758346    0.0351365524943663    0.8289683217192697 H
   0.7423239082700858    0.2512459593900086    0.7264970273852768 H
   0.6974348718418587    0.1319079500841144    0.6861658239940693 H
   0.0853046937212050    0.4928541870966939    0.7988575979671185 H
   0.2915783592524871    0.5784852705380030    0.8155257685407441 H
   0.0586300683475785    0.6335260906547361    0.8062082633164008 H
   0.2836879261411901    0.7415507599832182    0.8187485508513398 H
   0.3592350520452586    0.5992469049358157    0.9222950509836993 H
   0.4078987996112630    0.5173599773668549    0.8301767764893523 H
   0.5488898368850637    0.5353811082558941    0.8819872370396549 H
   0.6471161136160143    0.6273324692154056    0.8718418871399705 H
   0.5022489198426087    0.7152467317580874    0.9103643066172478 H
   0.6552245934881111    0.5225155170862948    0.7461909418964289 H
  -0.1204420850470958    0.5958427938975461    0.7395851950007283 H
   0.8694401654643873    0.3741404479493564   -0.1090300181920656 H
   0.1273419644811377    0.6998824483673696   -0.0145323990272393 H
   0.0585778801064690    0.7692195092895401    0.7065585868356036 H
   0.0665305101626499   -0.0602122533940003    0.9671382913639658 H
   0.3819376518352695    0.7895738517275340    0.8919638994113160 H
   0.3870127795563076    0.8125477554034990    0.7668090939560782 H
   0.5398913687751982    0.7477663576074309    0.7835892503676354 H
  -0.0827342935770076   -0.0048798825578287    0.9628062822409483 H
  -0.1142474123181487    0.6998655999589598    0.6694225236810720 H
   0.4777857175679380    0.2606993815868815    0.1026076225335155 C
   0.4602828538609567    0.2589090550584695    0.2111268608869304 C
   0.5607370680520910    0.2044330228932117    0.0649988090378431 C
   0.4232571555530945    0.1549910021449948    0.2381983740501585 C
   0.3914730869026319    0.3331321544194732    0.2468850729722300 C
   0.8703438084337340    0.3433415573762976    0.0307722513561496 C
   0.2922725343499837    0.3418076196715124    0.2019241765850230 C
   1.0055042038330111    0.5385165238070027    0.2395733900348858 C
   0.9611584970382518    0.4648433784726786    0.1733933036730559 C
   0.8162417601811628    0.4362165773864124    0.0560314367498169 C
   0.8526841655312006    0.4785862955697545    0.1549064263897341 C
   0.8020572822105871    0.4323925747089915    0.2381523039269588 C
   0.2028376170515093    0.7264377376396548    0.1571546484018760 C
   0.1847497446089138    0.8008110075973542    0.0716768505884108 C
   0.3265594938514612    0.6713170707178493    0.2830912284092552 C
   0.2994616432896596    0.7476249774846880    0.2012919527404989 C
   0.3766080170753963    0.7236496923175859    0.1263358622947028 C
   0.7955887999426686    0.9939172092371885    0.1324596448246227 C
   0.7175187657800364    0.9677465032003437    0.2054708673002683 C
   0.7612618056260936    0.9204669390445459    0.2990818137862833 C
   0.8084592780891470    0.8112833922332702    0.2957236561905935 C
   0.0267988158078936    0.1312852915124489    0.3027121394944141 C
   0.1773468783529130    0.2808017304382249    0.4285941441250799 C
   0.0710094051016982    0.2668695617623376    0.4323385819845205 C
   0.0364650789317360    0.0769315934430361    0.4620862731658587 C
   0.0198756524256520    0.1707706354299881    0.4047744728886195 C
   0.5461102768654276    0.1942763627801050    0.5999664971741854 C
   0.4846605532090975    0.2353146904293273    0.5186475698730422 C
   0.5823058246859437    0.3514624902298065    0.6877258292427214 C
   0.0159593896202081    0.0916973920654590    0.5663448756486594 C
   0.6933291585721133    0.2945024166333519    0.5615676873813084 C
   0.0239942340288216    0.6217754245981659    0.6648438622061550 C
   0.0624648317080023    0.5129144881809625    0.6578135614058916 C
   0.4191821833020850    0.6605604607574556    0.6964529281189835 C
  -0.0894058095500641    0.6215710460787605    0.6691850853538124 C
  -0.1285405562154181    0.5717239309892129    0.5834293783817844 C
   0.2720306458736527    0.6751042999125670    0.3785102500380742 C
   0.0649984635777528    0.6770806914729827    0.5737722300337910 C
   0.0429893239778261    0.7869813944509177    0.5713315057837871 C
   0.6040829768305279    0.8529260649667559    0.3467147773190688 C
   0.6820893842334513    0.9214815062466124    0.3718201593783619 C
   0.1566066994100989    0.1957333838378020    0.8338673477432057 C
   0.0540067621112137    0.1577226419258657    0.8386260370841642 C
   0.0887877226346995   -0.0150431355264002    0.9080785197354200 C
   0.0460384040919587    0.1193800596222065    1.0110197293260490 C
   0.6787865119878962    0.2036763095937643    0.7123407416827201 C
  -0.0698173464487196    0.0498041908243149    0.9037947070489807 C
   0.3649385833818472    0.5849931514211506    0.8459214182856070 C
   0.5785304701314952    0.5985964098632993    0.8395998886114917 C
   0.5153000121977703    0.6884343211226791    0.8368782074870829 C
   0.3637439730956302    0.7614062430243835    0.8217664983064785 C
   0.6270307898630118    0.2647752313430536    0.6379027629301383 N
   0.0314421394518072    0.0784955652671604    0.9136962396812701 N
   0.4154153361458446    0.6687802864429349    0.7999285511387283 N
   0.6566529784982018    0.8463778944113242    0.6106590183832562 Cl
   0.3977413950950622    0.2702458362997562    0.8737881726523732 Cl
   0.0730197247455296    0.5530405111417706   -0.0709619210066493 Cl
   0.7887478509128597    0.4272108100755920    0.7925360682930033 Cl
   0.5188628533747917    0.9668659907260593    0.8163670798674819 Cl
   0.7509814370349500    0.8419350423676176    0.8465182035738238 Cl
   0.3596768648261576    0.1148932552087353    0.1910048486155848 O
  -0.0393272602148057    0.1026737638746758    0.2540854788427689 O
   0.6213937449157817    0.1690630858646328    0.1189490496179869 O
   0.5472802228459148    0.2884611634092054    0.2625049710502826 O
   0.4619286422151759    0.1075385586681228    0.3105603621742524 O
   0.7779062800029367    1.0732585620572819    0.0765425643694178 O
   0.8914457305272516    0.2770709067847050    0.0901268717731729 O
   0.7818318366047426    0.3349224809478853    0.2342873749760730 O
   0.2474678569964267    0.2644712274521817    0.1640424862057836 O
   1.1002036993168249    0.5272494803257425    0.2571707595548918 O
   0.2459236569855177    0.4210984272663765    0.2082783097309410 O
   0.3609572640018696    0.6600681942160919    0.0683860262497050 O
   0.8211832002160714    0.5784654919716089    0.1463869974534335 O
   0.7761905022130380    0.4765406790269597    0.3094050652386310 O
   0.9610240944447098    0.6017236209720518    0.2815418547274954 O
   0.2034395690927988    0.8876960521480479    0.0819774213647217 O
   0.3068223300083254    0.8452285399419796    0.2372344453185970 O
   0.4615917778424258    0.7702069725302519    0.1300746299851342 O
   0.5652377676672193    0.8560847752738397    0.2687790130589459 O
   0.7830078592982358    0.7455951105410589    0.3508766813718107 O
   0.8699241577826211    0.9472734893639855    0.1210824507076928 O
   0.8683442124010894    0.7921377399638033    0.2206031308435310 O
   0.1199769883179972    0.1400970091107585    0.2651685329423473 O
   0.2389568842511162    0.2283958548888806    0.3898817739859949 O
   0.5487284107913306    0.2176934528511965    0.4337844750818627 O
   0.0322249630684486    0.1689949596914977    0.6111509055448030 O
  -0.0247724602045767    0.0172479380001674    0.6171258461382318 O
  -0.0797845855932066    0.2031496136960850    0.4254429476982253 O
   0.2071735305080661    0.3509218760817018    0.4811502319000904 O
   0.0782099525599735    0.4800542314659431    0.5778799839724951 O
  -0.1648707211017000    0.4814818776898474    0.5959357157797810 O
  -0.1318391390164985    0.6072074116396838    0.5056817928556540 O
   0.2717453978160820    0.6140061107027739    0.4421741989020782 O
   0.2255995541567541    0.7608670939552709    0.3971643973071670 O
   0.5696075677351266    0.7950591074741582    0.4155754360799909 O
   0.8336511854893359    0.9857061740256622    0.3340454934391709 O
   0.0256320869107625    0.8310436451399457    0.4985917426494563 O
   0.2339046335672767    0.1263875324416785    0.8297267068242482 O
   0.5675077416832555    0.1810276534540575   -0.0231212875339024 O
   0.8874408192026629    0.3273956376256947   -0.0570097613884232 O
   0.0961148087049798    0.4669682631143440    0.7353977751874451 O
   0.6005763559724223    0.5672840091034905    0.7436570851204493 O
   0.0685937329550032    0.6707947700571464    0.7441014846165442 O
   0.1370897270500002    0.7705900906867001   -0.0056607108412430 O
   0.0380557479244546    0.8239343493305190    0.6578979051699032 O
