Li1 Co1 H90 C51 N3 Cl6 O45
1.0
  14.6267353352999994    0.0000000000000000    0.0000000000000000
   0.0000000000000000   14.2746726519999996    0.0000000000000000
   0.0000000000000000    0.0000000000000000   14.7533683660000001
Li Co H C N Cl O
1 1 90 51 3 6 45
direct
   0.7208807655972902    0.6900963732166430    0.5599788453760349 Li
   0.3644738244380531    0.4463595054915169    0.6193693505314053 Co
   0.1033581405586425    0.1039624418842330    1.0863250876277890 H
  -0.0278891922188208    0.1453840572455601    1.0039567789234172 H
   0.3596217505901917    0.1977474296480281    0.1371215123769383 H
   0.5619062612601399    0.1030804601879146    0.1432387594869601 H
   0.5061965638245509    0.0320385508760457    0.2556625774824769 H
   0.3900201949325143    0.3235527663993678    0.1495993408587545 H
  -0.0622844272775867    0.0419112816514344    0.9564943972741038 H
   0.9645414265924187    0.3477900997823876    0.1997377215762525 H
   0.9531793559600938    0.3191302481715221    0.0803249911207429 H
   0.6963106895166300    0.9951387448460839    0.1709944549892627 H
   1.0091426301450377    0.5271100087150355    0.0183784594997891 H
   1.0927491200395181    0.4921796105086613    0.1708338137078140 H
   0.5245915093699631    0.3519842414947450    0.0548806321996231 H
   0.9642385565466807    0.5966735653869198    0.1842985354630031 H
   0.8152688821763945    0.3745458797089058    0.0584120291462395 H
   0.6732132592114094    0.4458287052283712    0.2447464262684160 H
   0.9012374849558067    0.5828855083996780    0.0217736163722654 H
   0.0903962597524420   -0.0113459816521472    1.0602889994294336 H
   0.2437777183329931    0.0354943218910881    1.1033306956879922 H
   0.1021712728399039    0.7396113440486340    0.3001846136510952 H
   0.0201673278375451    0.7953338127448640    0.1889605216815881 H
   0.3175248652712935    0.8200489154026170    0.2190946570851724 H
   0.1706451993204680    0.8322383367814409    0.3315740556084479 H
   0.3692397546611674    0.6677133730744133    0.1768771793845956 H
   0.5915456845533015    0.8936001642190232    0.0778726697862212 H
   0.6501240330609266    0.8401572574289250   -0.0121894751448383 H
   0.6810871967210361    0.6097057381403831    0.1162537354488231 H
   0.6777105033668600    0.7606429997173149    0.2758667771340590 H
   0.8020670298441125    0.7233132470153965    0.1546354789227392 H
   0.7594334560694483    0.8461230684899631    0.2362249824271757 H
   0.1363873838535606    0.1223460508395832    0.6146178932193551 H
   0.2757486256667320    0.2167580232087833    0.5129384222819180 H
   0.2057056545925590    0.2442416657107381    0.4151875036968761 H
   0.2818149144157914    0.1005452006494110    0.3486745572526295 H
   0.4590604131938566    0.3167617175001541    0.3059195751799477 H
   0.5569849990406560    0.2549312278267998    0.3282297345845313 H
   0.6160856787332560    0.2414668209934093    0.6300679243136305 H
  -0.1647755140194151    1.0253439909145174    0.7172134471599894 H
  -0.0298376789690540    0.1946580418158089    0.5977702151953439 H
   0.7291033796832743    0.1823866570863344    0.6536645695924325 H
   0.2189348541073003    0.3315879769289717    0.6335267954496351 H
   0.2205490215519672    0.6086156956308745    0.3987329562350602 H
   0.1047959186764462    0.3726432091074757    0.4235767743318610 H
   0.0983276263452334    0.3676609582542461    0.6151587866480307 H
   0.5281980557927106    0.7012377845734714    0.6742103861463361 H
   0.3346059154354432    0.6114248668796723    0.3488311316661935 H
   0.1093929800478736    0.9515636650411645    0.5292079740239571 H
   0.3343447498429558    0.8134224937461634    0.3778475562127776 H
   0.0014755286265359    0.7309652613671719    0.5705301307596998 H
   0.5185919409093092    0.8519312577228267    0.6835763828849821 H
   0.5964278403018681    0.8184299640919008    0.3727199136213853 H
  -0.1422380172750510    0.8535439041604160    0.5700164853458523 H
  -0.0732670557532871    0.9350848283116201    0.6269228798160682 H
   0.1144713518305867    0.2197542390270149    0.9503154693344962 H
   0.2541976785295911    0.0975377761678426    1.0029007488960029 H
   0.1973087022183961    0.1470212226341987    0.8947342637645356 H
   0.0845070440098073    0.1775998573000411    0.8438340231299556 H
   0.4566545448169897    0.1518381457032098    0.8932457901187064 H
   0.4370060727955941    0.2854489153857481    0.8176298377256961 H
   0.4688426370955011    0.2163096766753093    0.7210180020662000 H
   0.6189140610791209    0.1275959085299801    0.6898590159556516 H
   0.4407724634998169    1.0341701127508278    0.8060806107442379 H
   0.5843902942627959    0.3320272164234845    0.8563430309322217 H
  -0.0391534966738532    0.1340927300166014    0.8795838252711055 H
   0.6569669817918333    0.1253744915649082    0.8552700556219541 H
   0.7047548157805356    0.2170298332947019    0.9073971347351091 H
   0.7705411979049007    0.1513792910478575    0.8189820712973852 H
   0.5720858397229196    0.3609798943640252    0.7421589369539096 H
   0.4749998552262381    0.6230720691695760    0.7522508696099888 H
   0.4507866598766733    0.7063118063577715    0.8843339269605274 H
   0.5416913607220537    0.7496227820328163    0.8245950267896943 H
   0.8049118204994531    0.2790922021908373    0.7550719202993972 H
   0.7466889853638002    0.3477879981580120    0.8261438256424810 H
   0.9746865476052996    0.5469113034200597   -0.1262854536523134 H
   0.7277428573559186    0.3651509182082504    0.7130069501444996 H
   0.3260284716570482    0.6592045965188275    0.7879952492606257 H
   0.1564513279444708   -0.0199542350948476    0.8609399472646502 H
   0.0505972214396960   -0.0705284246121709    0.8999012194121472 H
   0.2400796955849188   -0.0939202044547172    1.0266499017204840 H
   0.0509896535079886    0.7210049629094640    0.6746875653114834 H
   0.2788320204890308    0.7484542788799496    0.7065263961701043 H
   0.4131025842873823    0.6589250804768646    0.6496295588394175 H
   0.3002380275591367    0.7774938239613510    0.8207667484874891 H
   0.4514206359340387    0.8376892498704424    0.8661143588367174 H
   0.4091680084110341    0.9784105153572946    0.6494418051054036 H
   0.3295890748132638    0.9273998885112927    0.7281539995813590 H
   0.4181994154182554    0.8202814951668568    0.6195530373975344 H
  -0.0663885556851831    0.6705918979276079    0.7922552933699316 H
   0.0457198514480596    0.0099483770634911    0.8043047451012177 H
  -0.0066609418347011    0.7997640369287538    0.7967810395143765 H
   0.1186007763819581    0.0514274368244196    1.0334781728990281 C
   0.4171068954790019    0.2482865920924237    0.1358634945779134 C
   0.4468565279174749    0.2440230967756696    0.0383325467764573 C
   0.4836582466647130    0.2058015547970129    0.2093639978595244 C
   0.5166586728661146    0.2832576217033940    0.2715965658550412 C
   0.4254580413225453    0.1420249609517981    0.2708109825419647 C
   0.7341598737200199    0.9376137829769968    0.0501095183594632 C
   1.0813624369429800    0.3689408474990226    0.1161764649590123 C
   0.2409445502301978    0.6472596641090387    0.1937946719739621 C
   0.5745987039511590    0.3569559842260963    0.2305015436906634 C
   0.9774807459730901    0.3688350657387811    0.1288698374387217 C
   0.9359813965909302    0.5105280522827922    0.0293549359208076 C
   0.9353688197038393    0.4639856890218795    0.1215535421140043 C
   0.8349260369282209    0.4630901168212652    0.1507400973004350 C
   0.2493674824276972    0.7186329295308032    0.2797506359640231 C
   0.1491455281504385    0.8308190397864123    0.1960138262164232 C
   0.1660727504132540    0.7754825694338451    0.2854639075308234 C
   0.5951343185715379    0.7168920840062987    0.1249608995901350 C
   0.6250405136295911    0.8961165091381459    0.2633435352941962 C
   0.6567618779233877    0.8625570705661602    0.0565087349761629 C
   0.6764074101226689    0.7848397016957387    0.1310293442855394 C
   0.6866229501303829    0.8186142064955003    0.2295492187943109 C
   0.2088410090615308    0.2027577021595998    0.4804599198740023 C
   0.2022804199895175    0.1025431448892044    0.4619984408921793 C
   0.1370929411610135    0.2419256756487616    0.5476771122736297 C
   0.0457403618349041    0.2566153294931613    0.4972051128273170 C
   0.1652865189175459    0.3410305752488089    0.5826651900599605 C
   0.2049652296274704    0.4049753690982223    0.5094004566658564 C
   0.2737365567172806    0.6588788447406001    0.3637328134073379 C
   0.2986101865232402    0.7125809518703631    0.4474186517441152 C
   0.0823473002750751    0.8512874601224164    0.6187762656315416 C
   0.0172069953363136    0.7703111723868062    0.6336033881281318 C
  -0.1268299309978559    0.8782765203546329    0.6372811923186001 C
  -0.2168589066929297    0.8985284733799442    0.6862767831604754 C
  -0.0743308611509583    0.8029486983993361    0.6896888853158050 C
  -0.1276018052227729    0.7078053607474066    0.6879699558231717 C
   0.2207814726028723    0.0392744436014406    1.0311946265817247 C
   0.1242336122890358    0.1607294178951656    0.9037206861672689 C
   0.4940836079298467    0.2378555297745682    0.7913341477940291 C
   0.5808450738967136    0.3015627700153862    0.7904001238031583 C
   0.6587356608173959    0.1936681767348734    0.6755043279450099 C
  -0.0168060628475820    0.1022286017743141    0.9465753065031277 C
   0.7019462601419537    0.1804314458755127    0.8443701718794322 C
   0.7427236439071853    0.3162902530985479    0.7615673861227034 C
   0.9036166898297757    0.4578448827044948   -0.0513283338566373 C
   0.0842998891026772   -0.0065577807829369    0.8719767488926263 C
   0.4623250514679053    0.6751650325690425    0.7002247843826391 C
   0.3260277879774867    0.7326374538287380    0.7645226434523094 C
   0.4703461168191635    0.7661597637034205    0.8399894773562112 C
   0.4032965683369980    0.9344956729449769    0.7113768139340173 C
   0.4432692612583613    0.8408830183799860    0.6873680593762245 C
   0.0760574483094100    0.0744871600156117    0.9400683178874814 N
   0.6680583153178099    0.2447481571852720    0.7678805207025087 N
   0.4233386346819408    0.7569714619330382    0.7461993701974377 N
  -0.0826505577346734    0.7222105947596338    0.2335022143783161 Cl
   0.9350577455033635    0.1294593488097313    0.6998323316317580 Cl
   0.4921094831960578    0.4032886754284640    0.5673042911534931 Cl
   0.6354098815386392    0.7288138985479552    0.4457641821074557 Cl
   0.3289470997050290    0.4449084739684158    0.7592160586739870 Cl
   1.0436985299007526    0.6590343649443990    0.8810146849552335 Cl
   1.1146774582945989    0.2998450423590140    0.0752969867925278 O
   0.4209519093327954    0.1749546127525446   -0.0102590685221965 O
   0.5640014656442679    0.1648114729741545    0.1760604167510691 O
   0.4973932323190411    0.3125220405929908    0.0040922304318745 O
   0.4451275023064785    0.0528327229902771    0.2782275939411733 O
   0.7738255945182763    0.9473667211629729   -0.0202974540844593 O
   0.7503596609294150    0.9830095700326956    0.1264995312732097 O
   1.1350948647187971    0.4388901923521321    0.1494346327094210 O
   0.1641153758287215    0.6192239949377439    0.1725113967102853 O
   0.5601170718477326    0.3913483665923017    0.1530751572776123 O
   0.3195663324418888    0.6313293513415413    0.1517974829504775 O
   0.6403173334309810    0.3936636561128197    0.2801688455448412 O
   0.9799542986265440    0.5256009023050205    0.1845459365926605 O
   0.7903562826354302    0.3878288463045310    0.1237754076017219 O
   0.7915971610395262    0.5282910515600102    0.1905479557792802 O
   0.2153619447189780    0.8711436072236454    0.1599190181163812 O
   0.0676310977141032    0.8410294315448237    0.1590981886149700 O
   0.3317242060837825    0.7702481236555363    0.2649784161838774 O
   0.6108828772703526    0.9764910317608592    0.2260110437345532 O
   0.5184882745774011    0.7480416599608620    0.1345587077982134 O
   0.5821921277367081    0.8798548402607530    0.3384538404468657 O
   0.6133085723545026    0.6278868906142114    0.1150546872341274 O
   0.7562208458100288    0.7415091108598544    0.1034654693851355 O
   0.1258429939767723    0.1888064190125150    0.6302861795567803 O
   0.1665431219515559    0.0447428702269060    0.5168877163383367 O
   0.2355455327331481    0.0642235271063503    0.3861527782448104 O
   0.0450710395442100    0.2982926424868604    0.4246470383968720 O
   0.3598610384367115    0.1801512292920915    0.3098454583113878 O
  -0.0281729192368372    0.2294686474327706    0.5349665233865414 O
   0.1613738207871653    0.4196433061574069    0.4306490575834918 O
   0.2806191588627535    0.4511116284756118    0.5231501031850532 O
   0.2946762943264535    0.6712679204351115    0.5201778327914625 O
   0.0639002583470777    0.8974069065048007    0.5430726722356144 O
   0.3296649632445887    0.8011307933143909    0.4444160831847828 O
  -0.2159496128761542    0.9811307178408561    0.7335697119812564 O
  -0.2819315273551041    0.8438974482761399    0.6858694185606834 O
  -0.1674767319668437    0.6893019592026438    0.6174470776445330 O
   0.5059469524166527    0.1515929561927162    0.8428274733284727 O
   0.8481812162662986    0.3920208863925127   -0.0432589901619216 O
   0.9218743525192417    0.4965392201135289   -0.1334912657328277 O
  -0.1285104153599869    0.6572956210442702    0.7627427109414046 O
   0.2501626017577047   -0.0413459690732248    0.9823650995118113 O
   0.1495181335114480    0.8639021101665820    0.6667219267478296 O
   0.4578250042262526    0.9694596971413618    0.7872367784001143 O
  -0.0609266396684768    0.8347203551690944    0.7769245570669431 O
