Li1 Co1 H110 Cl3 O55
1.0
  12.5955340244999991    0.0000000000000000    0.0000000000000000
   0.0000000000000000   12.5979991319000000    0.0000000000000000
   0.0000000000000000    0.0000000000000000   12.5768631966999997
Li Co H Cl O
1 1 110 3 55
direct
   0.5684362408511868    0.1371943709476451    0.6061932120324278 Li
   0.5109380832826951    0.5513355329984423    0.4041499870837185 Co
   0.1278491256716624    0.1485366482810497    1.1371443638070722 H
   0.0668145559182361    0.0444012227849422    1.1724472841820428 H
   0.4498156252350649    0.2116998531415021    0.0559550571150883 H
   0.5375276664912002    1.2168745532996348    0.2325881305020111 H
   0.5686958566795939    0.1598217736816385    0.0792273147060588 H
   0.4601677071512721    1.0302099905084374    0.0940669449923269 H
  -0.0681266856912058    0.2833032871912672    1.2869432421549207 H
  -0.1767596342695267    0.2284977587282826    1.2637657617736056 H
  -0.1157133937128050    1.0011339446883931    0.1502711024952466 H
   0.2527608600165232    0.3786565244333806    1.1890571491963027 H
   0.0050407558962170    0.3742351874086018    1.0725734141752845 H
   0.1797318008110312    0.6238406975437458    1.0356405166208387 H
   0.2842323323041570    0.4917474990463570    1.1512973363898307 H
   0.0093849146983423   -0.3438526537861954    0.0327407631028415 H
   0.2227803923947869    0.6629897715225767    1.1486893729026708 H
   0.1328651892920779    0.4559791206489502    0.3161065709566716 H
   0.4989711432778640    0.3570618253742951    0.3332109949005088 H
   0.4024361335168731    0.4256377945385116    0.2694924040669636 H
   0.4934048846449528   -0.3792558948350566    1.0624198490133840 H
   0.3729566371114208   -0.3451242842913471    1.0298759631812320 H
  -0.2421335992318965    0.4884064923071659    0.2441140569379475 H
  -0.1738236730051556    0.4037763864596191    0.3200073846359420 H
   0.7619206929799835    0.3927024056997110    0.0018484814644481 H
   0.9151051467909120    0.5772856856041995    0.2949757058241215 H
   1.2181649450158254    0.9807338797805272    0.1712612330127883 H
   0.2454638291942316    0.8146551256788471    1.2703969860062014 H
   1.3259491800755925    0.9237010134914153    0.1713828849681345 H
   0.3852022473173861    0.6988414964886731    0.3164262055060125 H
   0.4834084843529851    0.9169539103117710    0.0386231519658619 H
   0.5290889611696750   -0.1190455260552009    1.2070664092524535 H
   0.5111167180270119    0.7277222732049298    0.2840683756055664 H
   0.6152115501674893   -0.1277643709169908    1.2971206606413987 H
   0.9662343802753626    0.6820554975545624    0.2414098850416575 H
   0.7190451786151657    0.6771571006461407    0.0935283369233629 H
   0.9550796329080250    0.8324325518919431    0.1659681802890004 H
   0.6786657870776013    0.7892629981948888    0.1336524912619749 H
  -0.0888229102016507    0.9671761712736653    0.2731522991679994 H
   0.8665720715905324    0.7510648688759656    0.1389646266454249 H
   1.1785953643191638    0.2035445898394236    0.5829553032288490 H
   0.2814488060216029    0.0846953992398854    0.4521158423661619 H
   1.2481517640951374    0.2939732355372413    0.5363069465739130 H
   0.3035312361479461    0.0265924900130926    0.3395194041404866 H
   0.5692166762008020    1.2071825380262868    0.3535650367626456 H
   0.4624978981493600    0.0915893511357927    0.4446775806520211 H
   0.5849095400059828    0.0620637894886153    0.4280502231997376 H
   1.3643119838328694    0.2039494160302023    0.6428692887922537 H
   0.9516816031050213    0.1999384616341149    0.5819081422798887 H
   0.9014415736811699    0.2171880262455093    0.4689228948635973 H
   0.7610807127155961    0.2162100931728832    0.5768639592425281 H
   0.9046173024690239    0.0408221623700364    0.4416259453277162 H
   0.6695149245754000    0.2881937463312424    0.5422297270665517 H
   0.0731752231074290    0.5557536949158424    0.3585527669318391 H
   0.1959296054934808    0.4647781369720512    0.4713114077646426 H
   0.2266230242280904    0.4560632609944846    0.5991405790656261 H
   0.3611961194778002    0.5033469600774326    0.5366870095455175 H
   0.4358273338567646    0.5987113101953714    0.5822746883675659 H
   0.6859524967813325    0.5934231688562195    0.4831434518659926 H
   0.7215103380867375    0.5115053984868897    0.3850991318543425 H
   0.7655108543746524    0.6442272682452526    0.6382560558189299 H
   0.2150951287281801    0.7000329555325138    1.3420205686047908 H
   0.3025674024608324    0.9268046809540518    0.5509353954265868 H
   0.1271425260163649    0.8459981981672516    0.6482243601599437 H
   0.3784689083549385    0.7674619171561907    0.6173772408160840 H
   0.5595442002451955    0.7928230873432071    0.6093521873173322 H
   0.6534600276884036    0.9146598952306918    0.4594070085787403 H
   0.6771954246488249    0.7846471858431674    0.5830053952104621 H
   0.9512608190406305   -0.2127485012372578    0.5243198558628080 H
   0.8118002771864133    0.7059227797199210    0.5358974645019962 H
   0.9484979349951976   -0.2711569827981725    0.4119380975583320 H
   0.7455021751467779    0.9772015728217722    0.3952519019054235 H
   0.9066656475371898   -0.0878635902662631    0.4260274612755501 H
   1.0374818556308685    0.1473888469636655    0.7155217447909604 H
   1.0875313413274483    0.2487438309282838    0.7323105097395529 H
   0.1790672795621727    0.0466423723281666   -0.0432978313418311 H
   1.0724625082290808    0.0002450044699705    0.8160213670124734 H
   0.2597450815532112    0.3042097817260289    0.9057114576461998 H
   0.2575570044183798    0.0012588956336599   -0.1340724531330228 H
   0.4168190091970642    0.1993724987438694   -0.1593124509794883 H
   0.4402463604650635    1.0267253101603622   -0.2303770706721406 H
   1.4513110739761312    0.2805806326140695    0.6914251163025851 H
   0.6607618221038771    0.0291608026206138    0.7805276200408812 H
   0.4326603383230772    0.3137644736052501   -0.1400445304964553 H
   0.7844461372722323    0.2763037629750196   -0.0039406408994736 H
  -0.1806506959668449    0.0526104629124578   -0.0876992048215494 H
   0.9443536089270480    0.0092288914201937    0.8029004482731094 H
   0.0408772674027562   -0.4687891602520932   -0.0017785755597524 H
   0.1493003797014196    0.5468864137841003    0.7457932039016786 H
   0.2109531844566215    0.4423690228703404    0.7984589592367447 H
   1.0503991324754649    0.6366665437998276    0.8403692505197337 H
   0.1335440013204817    0.3403044024065925    0.9205084699925556 H
   0.3383451629847963    0.5575436617005599    0.8053557504829721 H
   0.4218787390883126    0.6016705102722790    0.8853486695650511 H
   0.4751722317416856    0.4630413532359263    0.7603683803294622 H
   0.5855954974241593    0.4012775769526167    0.7720732066997311 H
  -0.0544263535207443    0.3744915773294284    0.9622358857871157 H
   0.7185402377378970    0.3454337883768115   -0.2824711413281616 H
   0.7482205989891810    0.3626285823859242   -0.1594007082804258 H
  -0.2221503258343248    0.5433056864378208    0.7611666715919952 H
  -0.1135213469169888    0.6138605412757848    0.7617797020336416 H
   1.0587671778314602    0.7155449426309387    0.7408945261442418 H
   0.3034383460809014    0.9107862642287313    0.6776068853747333 H
   0.0333750845007691    0.8948789762616638    0.7054874462519486 H
   0.4232570053822413    0.6892852170557625    0.7013067535642999 H
   0.4269106813526674    0.9195019339831425   -0.1683957969786700 H
   0.6204046606678276   -0.0404374876173824    0.6895915907533806 H
   0.4905014746006572   -0.2123087488653140   -0.0501784818384277 H
   0.5804936891264717   -0.1362927093360614   -0.1041850325480053 H
  -0.2765450024448862    0.7460227983586595   -0.1308864440802636 H
  -0.2843819071611131    0.8024222307257294   -0.0280833858153657 H
  -0.1851776973539309   -0.0715292503567663   -0.1228073230458024 H
   0.0768920960807333    0.3271729520653152    0.2185838436424535 Cl
   0.7542203446016343    0.1455179149407924    1.0853190406079596 Cl
   0.6748144219901313    0.5219276884573287    0.0776619005251074 Cl
   0.1248155107470648    0.0706682511070891    1.1293284244537847 O
   0.4919837460123881    0.1612847044063543    0.0993409945675346 O
   0.5705719184610186    1.2535867323653471    0.2934069521777293 O
  -0.1404618481565517    0.2719451343209693    1.3180559285124120 O
   0.3134276009830964    0.4242153464328737    1.1766693226322926 O
   0.2437656082249266    0.6193907845525591    1.0854701116636183 O
   0.4526269391445126    0.4215299993673752    0.3320676255424185 O
  -0.1942404333822694    0.4805234944628073    0.3061311106182846 O
   0.9671156450139919    0.6346725763660315    0.3051586900863344 O
   1.2619900022882113    0.9330517047215579    0.2138942800304810 O
   0.2673692124406519    0.7373666618675980    1.2966674474744231 O
   0.4634839619379887    0.6698662603279014    0.3155269351694339 O
   0.4539408969304872    0.9527691215430129    0.1084276005210752 O
   0.5762866424147620   -0.1719459900909917    1.2425124495748903 O
   0.4509572997342984   -0.3326738944827916    1.0138067735240663 O
  -0.0591997120685480    0.9710339267387326    0.1957371293619487 O
   0.9447346963815905    0.7574254027322584    0.1400586991327213 O
   0.7385759106604682    0.7519340545208726    0.1001878671011242 O
   1.2490727254436151    0.2149082991476341    0.5520079999217632 O
   0.3218988575246971    0.0245477764256171    0.4165696180804988 O
   0.5328228242919943    0.1096344389009094    0.4575710976970780 O
   0.6941657253589201    0.2482112066655142    0.6019624273631661 O
   0.8974957306622613    0.1717125508147059    0.5313685132755134 O
   0.1266629909693989    0.5026190667108756    0.3750401848799336 O
   0.2400452419499556    0.4288160770245465    0.5271202361682281 O
   0.4336972137723115    0.5302742519789712    0.5443001956398946 O
   0.6558743754993697    0.5349519789245764    0.4336485984781198 O
   0.0528815222208445    0.8325674939555360    0.6636367882804038 O
   0.2783754944871571    0.8805116153732445    0.6095398334706766 O
   0.4405242367340008    0.7252933160602578    0.6320844056398640 O
   0.6180188944159523    0.8407830842978089    0.5983852237873328 O
   0.6637088984190056    0.9585636925090604    0.3909050310565505 O
   0.7446320254589059    0.6789319856708095    0.5639338670997854 O
   0.8778220908215054   -0.0175912406073151    0.3974774170885214 O
   0.9101351312379204   -0.2148154961407630    0.4608119693963658 O
   1.0583940296988874    0.2102956619032914    0.6738968982920844 O
   1.0146245476802886    0.0154761533207532    0.7655024108893987 O
   0.1926030295882037    0.3247495513585558    0.8724122165357544 O
   0.1844612549083429    0.0126361785259142   -0.1119858647957269 O
   0.4097133160342407    0.2522531183585436   -0.0995145515956950 O
   1.4362898768095815    0.2075484002439091    0.6672839616083316 O
   0.6010382725872966    0.0248129756818657    0.7281671872604095 O
  -0.1705844296415445    0.0016304625746471   -0.1437012451542141 O
   0.0099344745650804    0.4026817681908273    0.9979045571389442 O
   0.0626577651145942   -0.3901814393250125   -0.0088732698888926 O
   0.2172562121683148    0.5018435467336390    0.7403347681274854 O
   1.0388871156194939    0.6410212035696545    0.7625573204148741 O
   0.4149461231444272    0.5915292173048511    0.8105207903648597 O
   0.5083768580152908    0.3921539059000481    0.7627584834521459 O
   0.7993148994569651    0.3417228816280071   -0.0480840804294252 O
   0.7193873633920570    0.3960592879757952   -0.2247127011957601 O
  -0.1900865801277563    0.6132064691557816    0.7527170289157608 O
   0.3886582341707682    0.9768681865470132   -0.2046138899066045 O
   0.5062951677948524   -0.1411863435834152   -0.0785554304001043 O
  -0.2775374176910906    0.8185811459525555   -0.1032324897865365 O
