Li1 Co1 H90 C51 N3 Cl6 O45
1.0
  13.8026370000000007    0.0000000000000000    0.0000000000000000
   0.0000000000000000   14.0771619999999995    0.0000000000000000
   0.0000000000000000    0.0000000000000000   13.5190459999999995
Li Co H C N Cl O
1 1 90 51 3 6 45
direct
   0.7508278432592266    0.4327476376275275    0.5040789416649667 Li
   0.4008786509418454    0.7248731079460476    0.8668361643269800 Co
   0.0686489545439759   -0.0035836690662507    0.5234697329974320 H
  -0.0153719394344718    0.0756158023897146    0.4624986592988884 H
  -0.0415735464172535    0.0307774386627077    0.5838854109971962 H
   0.1489801296665268    0.0459575090490541    0.6694472820049581 H
   0.0444043004246218    0.0957225838560358    0.7284130625785282 H
   0.1495526340365250    0.1677780223030750    0.7079369261706780 H
   0.1984784523421140    0.1055933752840239    0.5078008359465601 H
   0.1878688007226445    0.2262590428383221    0.5476710235322818 H
   0.1206343664620029    0.1858160657666652    0.4407965732197376 H
  -0.0735348020816602    0.1870584617837033    0.6194635338913708 H
  -0.0267388651893113    0.2366073069273480    0.5097509920448529 H
  -0.0315906076498281    0.3604357078507728    0.6244977463646474 H
   0.0941201503741640    0.3319884277811110    0.6241046897835839 H
   0.0708657838353642    0.3198143489433453    0.7806673126195445 H
   0.8624357439813856   -0.0034946859317240    1.0080900286898944 H
   0.7331159705207055    0.0120467172289415    0.9983904929386290 H
   0.8020178578919377    0.0830721270381061    1.0833408858879541 H
   0.9686432889599285    0.1206827434393381    0.9591565514312179 H
   0.9022866434870380    0.2143308075874953    1.0211737603378228 H
   0.9266076714181500    0.2217718301458775    0.8909757759534217 H
   0.8918662020887747    0.0281442459779890    0.8345123161797069 H
   0.8304175202173324    0.1251300354432236    0.7747409928185762 H
   0.7623811167387796    0.0260519080479432    0.8216839879086144 H
   0.7182679911092351    0.2064916792177287    1.0102494325413200 H
   0.6686800239693328    0.1445220471285334    0.9069916642047080 H
   0.6672047551493240    0.3032451754124873    0.8565388060666412 H
   0.7759459478648899    0.2656881315992528    0.7986577521816259 H
   0.7969256092151087    0.4038597850902050    0.8900791986357618 H
   0.3964052963212754    0.1435040699254580    0.5063576357384981 H
   0.4286041225310787    0.1223616521568765    0.3785647315646385 H
   0.3713550642533017    0.2322336632909389    0.4145474799035376 H
   0.4709814479653417    0.2618208769636948    0.5967301435323173 H
   0.4646843041659358    0.3524184590615637    0.5040410565952657 H
   0.5807681017764939    0.3187819995251884    0.5562986722583828 H
   0.5554034725393415    0.1088648613974891    0.5545336579223120 H
   0.6567389818336887    0.1765808569937606    0.5112578254412331 H
   0.5980787816125281    0.0928549049872410    0.4295558895206067 H
   0.4939529830422983    0.3111738559235164    0.3340072938578655 H
   0.5532850287955845    0.2022348993355337    0.3045809933629933 H
   0.6731861984054206    0.3190522145017582    0.2800544772168095 H
   0.7057905492986594    0.2685952466839552    0.3956506191339241 H
   0.6230605361859477    0.4488193259408396    0.3605954103566184 H
   0.0731114634109410    0.7696898600726482    0.9148420228764664 H
   0.1637790177340750    0.7822112795178461    0.8229837408645552 H
   0.0712200922186101    0.6272103404081022    0.9876012804453806 H
   0.3424109987098842    0.8712372905845653    0.9683290847593832 H
   0.2842584304723800    0.9820984201218969    0.9568411905692163 H
   0.3203267375647132    1.0436957932287774    0.8058549641742473 H
   0.0543818742751838    0.8966622817866273    1.0700983553129415 H
   0.2530683810637054    0.8342515721563765    1.0885093674509281 H
   0.8724084506460613    0.5886645965997978    0.6598318890253054 H
   0.8405503680202558    0.7029533282347679    0.7058127363424904 H
   0.7670338602688748    0.7006926808116579    0.8594814242070040 H
   0.6286089346550228    0.6206153093926177    0.7679275135242533 H
   0.5695288791554831    0.6565679261203360    0.6596284020336939 H
   0.5551235477684445    0.8142557413205873    0.6459467739069754 H
   0.5961879624886173    0.7079832390932207    0.5233860910007999 H
   0.7275396918719227    0.4846756618983287    0.6783836507398526 H
   0.9017953808391831    0.6939630182560945    0.3465787386180949 H
   0.9789381594256228    0.6458804509033853    0.2548934710333851 H
   1.0503504236183274    0.7852305038472954    0.2404454463724733 H
   0.8043561675931925    0.6700145498076957    0.0840918819271715 H
   0.7785632173040558    0.5472789266757035    0.0976586565353798 H
   0.9231440876116643    0.4613793369714720    0.1361296640310271 H
   0.8214744168089040    0.5847600446737774    0.4111656562156827 H
   0.7315017724511628    0.7162954727664568    0.2541381699566670 H
   0.2868413593721257    0.6393490676600867    0.3971984125211202 H
   0.3134929455871368    0.5632598665839038    0.2944727697501732 H
   0.2185471261759619    0.5877912479802393    0.1573564673128563 H
   0.0728787658474247    0.5027803501870619    0.2819838123193013 H
   0.1006201068679847    0.4015803171122134    0.3523970826047933 H
   0.1233220173797224    0.2949204655029188    0.2374212899342158 H
   0.1952479174812755    0.5290568361719501    0.5536821185459389 H
   0.1128299635786988    0.6328985707488484    0.4237981881265883 H
   0.4435423817926966    0.4033262812490189    0.7112906287914104 H
   0.3204453569270858    0.4283005672592246    0.7354475049496837 H
   0.3532510889042434    0.5849668043885551    0.7121682173431469 H
   0.3435323098042787    0.4302328757742506    0.9661923112030244 H
   0.3269670599900584    0.3089365583773207    0.9895923380984132 H
   0.1873874673368574    0.4214470828708230    1.0361808103915027 H
   0.4005399997116493    0.1699263296110395    0.9122179582790089 H
   0.5090084380252846    0.3922416016807934    0.9036276997652053 H
   0.5624076935443568    0.9201372940085509    0.4637414881197979 H
   0.4542109793947345    0.9382503170738534    0.3937217581773152 H
   0.3492958591898055    0.8166239395412229    0.3846368279241006 H
   0.4988394891497908    0.7233530785537596    0.2844658099395475 H
   0.5490156779461780    0.7824289533643216    0.1813680765639824 H
   0.4330556494385819    0.7989264853242437    0.0766222831108053 H
   0.7109695074933869    0.8962245358830141    0.2232370545968998 H
   0.6534144316046275    0.7695618740481924    0.3907763587756119 H
   0.0160022066797816    0.0539578126613873    0.5334886041515060 C
   0.1049645600329850    0.1100758015003308    0.6786756558118080 C
   0.1493590398704248    0.1666262454037256    0.5136354332990657 C
  -0.0082274539278255    0.2177911776535640    0.5860978444780793 C
   0.0215665021111546    0.3051733680410867    0.6448362421431217 C
   0.8026661861787715    0.0475371278671084    1.0111950954231534 C
   0.9108263623827824    0.1737360520536739    0.9525255938917585 C
   0.8258909706891516    0.0715718047430299    0.8333914989267734 C
   0.7305578752813684    0.1869636663980993    0.9325922590987560 C
   0.7413680762596306    0.2772309937187624    0.8716070734576982 C
   0.4212739536655206    0.1757055513035937    0.4370815359308638 C
   0.5087184477864628    0.2944959097579470    0.5340770894632654 C
   0.5877650872076111    0.1437400343904546    0.4898451140709190 C
   0.5516220451207983    0.2618868050250470    0.3567283689988184 C
   0.6497019910036032    0.3101378367315799    0.3575627037588304 C
   0.1519469547739320    0.7746711155274053    0.9031581984409256 C
   0.1981720550935303    0.6823547111271434    0.9379755087748056 C
   0.1873001963320487    0.8644633065954630    0.9587118040725656 C
   0.2846712139136891    0.9089108720919743    0.9276148398341126 C
   0.3167095526746085    0.9051040912934014    0.8212261627040843 C
   0.1044925067579478    0.9374544663192766    0.9432084179608532 C
   0.8164637358788759    0.6286754325907452    0.7004304186848689 C
   0.8008739047473320    0.5813141221220584    0.8000020948223714 C
   0.7216041992555480    0.6224534774836009    0.6430144323793262 C
   0.6371349184941979    0.6655856350875270    0.7016271651120944 C
   0.6517398139210645    0.7671612559406505    0.7391981838067568 C
   0.7361194081971438    0.6656541474766008    0.5404448324238265 C
   0.9092657337869569    0.6820222954030082    0.2663221672594354 C
   0.9096034873625960    0.7799748550169417    0.2182664582989066 C
   0.8283364439708151    0.6156124203159701    0.2303046028543730 C
   0.8304777203080832    0.6035992176548086    0.1174473797929233 C
   0.9273971227382131    0.5821865486807639    0.0710880745579237 C
   0.8412266706716984    0.5190347273122239    0.2824609073746772 C
   0.2547336534315870    0.5967750140262648    0.3368018808427755 C
   0.1931406259543013    0.6622465423073203    0.2737108417265538 C
   0.1895366428893261    0.5208672422751121    0.3831101129473189 C
   0.1338490202995268    0.4592095643994152    0.3091047955602785 C
   0.1817682316792074    0.4203977037417059    0.2166593722663567 C
   0.2530660329616725    0.4585702054149836    0.4501189610568675 C
   0.3921602147473704    0.4232288610445770    0.7705673114804108 C
   0.4268912027462578    0.5156237528558669    0.8138318317727450 C
   0.3905758327195014    0.3420190873700253    0.8463409363353006 C
   0.3194411212871859    0.3634734110469142    0.9312504011007878 C
   0.2134591092991868    0.3717108313451248    0.9040296630398329 C
   0.3655005047223947    0.2480576972830177    0.7926201160939907 C
   0.5092177559983646    0.8853374032351123    0.4147281354024537 C
   0.4587990505002776    0.8080234908144128    0.4737086034029325 C
   0.5625242401144072    0.8584492314573067    0.3182529262789697 C
   0.5042715504290955    0.7935023778230300    0.2479218082400193 C
   0.4021733716535471    0.8221260144622901    0.2196362169342423 C
   0.5867014071296666    0.9521092404846944    0.2615507336834271 C
   0.0664031090580735    0.1379949545227937    0.5790397702618957 N
   0.8177980743824531    0.1210635737515843    0.9317471099661915 N
   0.5189857959750734    0.2197637968505300    0.4551157884957268 N
   0.7735837985161820    0.3008224846741127    0.5996737321553607 Cl
   0.3966993611438162    0.1970063085158784    0.1475644464853511 Cl
   0.4599925007083791    0.1140113561241961    0.0401665605694366 Cl
   1.0005039210985553    0.2334987044973980    0.2830126585855245 Cl
   0.5191075922666082    0.7786605268874508   -0.0334838146123624 Cl
   0.8683827003492159    0.1740086680823877    0.3421012251900024 Cl
   0.0151897126614284    0.2875266378265733    0.7477580474243524 O
   0.7934115198421866    0.3440990300459709    0.9288190912287747 O
   0.6474123582327058    0.4014965260753553    0.4066742520145283 O
   0.2879051379819668    0.6689289311297264    0.9337133308075142 O
   0.1437207281478170    0.6129830977294998    0.9686095372410155 O
   0.3434379401559282    0.8288442620749836    0.7818240244171076 O
   0.3198451853801560    0.9838464599611769    0.7671112221971876 O
   0.0983127948666621    0.9883682002096731    0.8704635127360318 O
   0.0356634706831745    0.9378236664464046    1.0139136674289000 O
   0.1870902436976355    0.8455354744088334    1.0622933600492224 O
   0.7959518003697409    0.4933400702499552    0.8024434009618726 O
   0.7920350683713554    0.6349382986428657    0.8797909919087487 O
   0.7104200987101232    0.7866324568829997    0.8056023516748150 O
   0.5975406090879590    0.8366755557689824    0.7011902533655112 O
   0.8167401685634419    0.6666210369675365    0.5008430772408053 O
   0.6576865109181673    0.6889679453855827    0.4873525972172889 O
   0.7005404996161240    0.5219372264096983    0.6224286336476702 O
   0.8348122050880568    0.8206906001365900    0.1925381805787184 O
   0.9963506987831383    0.8221787239501827    0.2083082341756956 O
   0.9710524691767233    0.6425839363076166    0.0211612772084657 O
   0.9639696066773328    0.4961454560230251    0.0854965372556614 O
   0.8593331332266435    0.4441832565399191    0.2391072594915351 O
   0.8298434031120285    0.5198719976370237    0.3812095698172786 O
   0.7340371278328917    0.6465322335567355    0.2589081552056262 O
   0.1368369000793109    0.7198297107044731    0.3132860691501457 O
   0.2008633060479675    0.6556085516384624    0.1764419027792346 O
   0.2216502969686155    0.4716356798337620    0.1528877311313239 O
   0.1753526749997120    0.3281888984441609    0.1977958207997813 O
   0.3061553832068466    0.3961277457771674    0.4191051247255169 O
   0.2475078349158932    0.4809385265297083    0.5476117419823855 O
   0.1186927903704198    0.5666495775213783    0.4469133561643330 O
   0.4840955818804769    0.5242543475737511    0.8821873000506102 O
   0.3973357938776482    0.5980843276507012    0.7671798646147073 O
   0.1827088388979584    0.3526730210251185    0.8203777492879305 O
   0.1536390922980877    0.3967823088204853    0.9758228679745597 O
   0.3462050838546287    0.2433467882233649    0.7047446202934734 O
   0.3644212754417870    0.1674535279199032    0.8481877878069207 O
   0.4849553943931149    0.3277412620526780    0.8887622336664881 O
   0.4991098244487630    0.7663177599291676    0.5453112926755335 O
   0.3688480802617645    0.7873486083345493    0.4526485374781624 O
   0.3374620900339551    0.8437818531888743    0.2790583862204478 O
   0.3784510256989299    0.8167081759803575    0.1241756008523087 O
   0.5337156754901256    1.0217012981735951    0.2644586511503845 O
   0.6691011282843995    0.9515850858290897    0.2088412954582742 O
   0.6548062192753457    0.8155149610411532    0.3355234074948780 O
