Li1 Co1 H90 C51 N3 Cl6 O45
1.0
  14.1151360464000000    0.0000000000000000    0.0000000000000000
   0.0000000000000000   13.7753874588999992    0.0000000000000000
   0.0000000000000000    0.0000000000000000   14.2373398339000001
Li Co H C N Cl O
1 1 90 51 3 6 45
direct
   1.0480148734856050    0.7736934631638350    0.3362798087884448 Li
   0.6260387777242672    0.7473000131730618    0.6577113439902296 Co
  -0.0111396363154504    0.0613679456946110    0.8205935977718167 H
  -0.0323601189955584    0.1269465003955425    0.9946001206828721 H
   0.0812980132906812    0.1029479013734575    1.0620158044551036 H
   0.1068896901128206    0.2842124942896259    0.3130254646579719 H
   0.0293325205324958    0.0092692296228302    1.0021001172584787 H
   0.2253880166256985    1.0355249369253734    0.3661498550865184 H
   0.4913736215577565    0.2298154762575947    0.9280406361825700 H
   0.4155611747997300    0.1975622999802954    0.2755606007000336 H
   0.5345234004899502    0.1119451074680073    0.2167961117041410 H
   0.3611755849282254    0.2920910385646097    0.2129386495208452 H
   0.6607036933433266    1.0490635760784599    0.0856107904439981 H
   0.8671855855772547    1.2153652504839891    0.0978981982070310 H
  -0.1327636854465848    0.1801892859206886    0.2918529701107636 H
   0.6822699041824801    1.0545697732889778    0.2719798756070907 H
   1.0070191651836944    0.5122365705177385    0.1562763790818725 H
   0.5144567784560634    0.3701919270666534    0.9813490497524171 H
   0.4091354485650096    0.4894061419045086    0.9898225427930727 H
   0.6283689005011134    0.3727087346775784    0.1680636934227447 H
   0.4437451043553691    0.4513471761175771    0.2338898948714515 H
   0.7926790419249019    0.3764770497362203    0.1496606769142718 H
   0.9215102479453209    0.4558340190600648    0.2189706752364577 H
   0.1999387401313627    0.7137924257184686    0.1622437859845093 H
   0.2311385811072008    0.8184275950957732    0.0961338236614303 H
   0.4722924027076773    0.6833308505902211    0.2362063388409543 H
   0.3877860262846017    0.8080257098183160    0.2067766838008790 H
   0.6057279568396807    0.8944203759248645    0.0960354906851627 H
   0.7573609267922359    0.9911806306891567    0.0481129147011700 H
   0.8121907206713666    0.6723511231269271    0.0743074148220427 H
   0.7063461864714259    0.8326333661191914    0.0993352644173411 H
   0.9551875712412050    0.8976057672709097    0.1840701948238968 H
   0.1468786776893138    0.1955877638678881    0.5804938993814883 H
   0.5484595042124624    0.1355248434986001    0.5104591378577222 H
   0.3417439620874415   -0.0315303487321789    0.5458135443600862 H
   0.3722792682001960    0.1253755826943479    0.6941942829422962 H
   0.3324744800527026    0.1443884780326047    0.5774672103719728 H
   0.4510948741102599    0.0803467222103371    0.4572774825180680 H
  -0.0298054146072010    0.2100599520800024    0.5428242921193928 H
   0.7093394271926711   -0.7283913284063250   -0.6378305349836173 H
   0.1916759788220414    0.3626770749211976    0.5101335503495164 H
   0.0496808897622245    0.4611181535511765    0.6425083634808637 H
   0.0789360098434311    0.4176621707858248    0.4972880467558929 H
   0.3978702365629931    0.5284787270935556    0.3610084451845291 H
   0.5485773210010879    0.4481945969157528    0.2959134196522116 H
   0.3774000123263878    0.3210368668536269    0.5416932521787953 H
  -0.0558908875909281    0.3340789682490345    0.5131135290881694 H
   0.8836423876396936    0.6517520655071961    0.3673544340457959 H
   0.3655432367735453   -0.0435888117333542    0.6702024414898167 H
   0.1869597649803067    0.7875863573253240    0.6814594601372460 H
   0.1528042316283657    0.7713472496655628    0.5642283608257113 H
   0.0744613806374230    0.8993262270453234    0.4955485364057199 H
   0.2176381798802072    0.7206909612611914    0.3316448137142334 H
   0.4509489314857448   -0.0902190790791188    0.5802586026168480 H
   0.5360584193469258    0.0039525007672160    0.4921661629734768 H
   0.3749841659691224    0.8326689368065106    0.3206638297787552 H
  -0.0773444533946550    0.8469589159876637    0.6189688537192148 H
  -0.1117557405691687    0.7291219400882125    0.6519679957978024 H
   0.7139479552143753    0.7795212484250135    0.2860766101334467 H
  -0.1618997843582839    0.6713435289636840    0.5291849464083614 H
   0.1965190068860490    0.2271963121790780    0.8667468825613955 H
   0.0785980747371509    0.2632286925009332    0.9308424236277933 H
   0.1789527574935581    0.2088316744689021    0.9899250900397517 H
   0.0708779932840364    0.1344991010255003    0.7688044286853033 H
   0.1786552045697894    0.0282922880146067    0.8171568602512658 H
   0.3558968543686994    0.1125469054228549    0.9833599591170886 H
   0.2265364292195775    0.0168087634696912    1.0265414808881814 H
   0.4978851422188302    0.0394781802778726    0.7474436967263828 H
   0.4910523352460204    0.2573217806087797    0.6752125066306486 H
   0.6179616327626302    0.3646203959406513    0.9163298810875061 H
   0.5812125006044391    0.1051961139985035    0.6784167569001670 H
   0.4906594945407114    0.2365942329552634    0.5464449123055641 H
   0.2828192732097789   -0.0435452557896981    0.9358208817405392 H
  -0.0159458244936580    0.1876221077055923    0.8491389584038860 H
   0.2699416077446728    0.4068504240785643    0.8296837790493503 H
   0.3472196443441288    0.3263819070726175    0.7809618964439826 H
   0.3429759728837126    0.3352143265136686    0.9045559119362703 H
   0.1211084691129131    0.6583892653879828    0.7991001162949350 H
   0.3181749366875872    0.5594526653056769    0.9264293801285859 H
   0.3188557661155438    0.5461136575610139    0.7481488846419015 H
   0.3993473742917023    0.4691389079821972    0.6937974391452164 H
   0.5341906371368689    0.4159185537680340    0.7636307093768261 H
   0.5409052730913819    0.5117006146310510    0.8595566348610315 H
   0.4427645966256168    0.5778122214890931    0.7460536898690007 H
   0.4423232264553598    0.5844624881529764    0.9228591907116718 H
   0.8423710886536255    0.4833772007768786   -0.0411804515337888 H
   0.9600228062524471    0.5028446023871861   -0.0056548543435270 H
   0.1220762245745038   -0.0407990535421847    0.9020161116349596 H
   0.0614576094093863    0.7812395304022443    0.8105439675972727 H
   0.0993445981172559    0.7791822379968906    0.0118891533794085 H
   0.5782619799815351   -0.0179125829481172    0.6666069664504337 H
   0.7076299147996854   -0.0298461855774785   -0.2343984284939166 H
   0.0357986289497277    0.0881330730712489    0.9982756668600729 C
   0.4541280010924769    0.1828868506977862    0.1315716235514532 C
   0.4297820791778493    0.2483361894325382    0.2142661447004572 C
   0.5171297955545860    0.3095729424833565    0.2419180800052955 C
   0.7901477166948406    1.1090509994787441    0.1415271350201412 C
   0.7333469889254131    1.0261124975013025    0.1125680735093463 C
   0.4818408051854822    0.4073494300063837    0.2830191569499276 C
   0.9021480541200828    0.3665237906784204    0.0323136149285816 C
   0.8916940280650075    0.4722958935936548    0.0177455844945433 C
   0.9357453215102863    0.5254852722725546    0.1863409841972754 C
   0.9395617919872917    0.6097590542960115    0.2531238250293852 C
   0.7574452334539704    0.5168039919559899    0.1307407099019924 C
   0.8690403321354133    0.5385000786099378    0.1072693308453290 C
   0.1934435848810963    0.7928319448063000    0.1585766683481314 C
   0.0948997242036246    0.8234031357260818    0.1422189777460236 C
   0.2369231516371338    0.8265340821425570    0.2543220825830456 C
   0.2352816513410095    0.9392837238229823    0.2702611556576143 C
   0.3412990496204730    0.7905888137080138    0.2636552867876403 C
   0.3509872311265150    0.6814652043369539    0.2910150326772836 C
   0.6073035704169705    0.7879740052238626    0.2076890733449616 C
   0.6555397331972541    0.8698497421760968    0.1460834637133386 C
   0.7133004233755070    0.9470969341824821    0.1913931920422220 C
   0.8073923255459243    0.8917322482688924    0.2225492931941948 C
   0.1352564021787748    0.1835612418920606    0.4413584272279538 C
   0.0729084377590870    0.2742998874459049    0.4479720924981889 C
   0.0978036990477391    0.3318946376746839    0.6234015638136758 C
   0.5845323410824875    0.2524464186488800    0.3030854055141260 C
   0.3942011256291876    0.1426418846919973    0.6240653114034820 C
   0.5027905855508950    0.0704820269046378    0.5103207060984896 C
  -0.0311939949181218    0.2615815518983406    0.4830963506695987 C
  -0.1099541284616831    0.2430165568473469    0.4139916575542914 C
   0.0558012700204108    0.6488744694963202    0.6810338188256878 C
   0.1180762631278410    0.3507775911143668    0.5184949297496588 C
   0.4355347690373785    0.3950122815590490    0.3746001696399109 C
   0.1306840055835284    0.8024062671542923    0.6310371194208515 C
   0.0392955842633528    0.7571305896562306    0.6709961290839762 C
   0.1286833164008547    0.9080178156018867    0.6228487920113719 C
   0.3977611338242780   -0.0309191136562057    0.5999189467025819 C
  -0.0454970805799488    0.7424892591962521    0.5174690920460997 C
  -0.0531385230460672    0.7706685028769229    0.6182004517475241 C
   0.1434950758704577    0.2089405643280421    0.9239296153961842 C
   0.0302095931982713    0.1267149279617712    0.8328121724514623 C
   0.1638158151858364    0.0251504526122175    0.8899148341484332 C
   0.2491150284588872    0.0252644239981175    0.9541922912209262 C
   0.5331535235056662    0.0437757000519355    0.6777628426079878 C
   0.4472046530157204    0.2381832989663147    0.6130393752502814 C
   0.3382675520947432    0.3769801208854476    0.8364778853310364 C
   0.3881629266547088    0.5240901753972517    0.9239815913979257 C
   0.5405905046055951    0.3565792428093517    0.9090750145741663 C
   0.3901827442396248    0.5205785500332226    0.7528189986362085 C
   0.5139394047675638    0.4393880206679376    0.8419894486508329 C
   0.4595630886288501    0.0577890989908728    0.6052099632041782 N
   0.0940807452039182    0.1079851462572788    0.9120081467805471 N
   0.4079834936744192    0.4623474474676288    0.8403585260015953 N
   0.7404032439747863    0.6289207657750930    0.6283982837648715 Cl
   0.5109889833289677    0.7319196835357191    0.5479053677166579 Cl
   0.7176666583021422    0.8955092745162656    0.6386066514582476 Cl
   0.5770614956259966    0.7363072189266711    0.8141029189597563 Cl
   0.1721366701612268    0.7289419088544343   -0.1049957436178242 Cl
   0.6947239109608870   -0.9972331312993035    0.8525321484635184 Cl
   0.1660786343251635    0.1527642859976616    0.3664188660144503 O
   0.0776869960229447    0.3257728497938272    0.3622895833896149 O
   0.4290219023035544    0.1921816890739856    0.0498484917322923 O
   0.5043234081839094    0.1063416353166574    0.1569050077515829 O
   0.7817305112488965    1.1367075718355424    0.2247055948880619 O
   0.8460770394732311    1.1467588317665685    0.0773248324366528 O
  -0.0802994373114156    0.1889469343251302    0.3416846105911507 O
   0.6645251230357280    0.9859444803293063    0.2658853382137081 O
   0.2850764246743676    0.6353416378023879    0.3314607905729328 O
   0.5748433802711690    0.3301749038326645    0.1601001271018766 O
   0.4289198841582623    0.6357532414699375    0.2656240534481972 O
   0.8683580857887720    0.3278519201710089    0.1080805778995363 O
   1.0031198049636392    0.6733710581408727    0.2621290185202875 O
   0.6966275412136647    0.5764111719681569    0.1189723597779718 O
   0.8769864121187235    0.6395897941736407    0.0778663661845263 O
   0.7402275460578943    0.4287169596586861    0.1675769451902203 O
   0.8692209892677014    0.6018819618858162    0.3110637217814342 O
   0.2300404691266256    1.0016928576905426    0.2083745946652268 O
   0.0602588962022036    0.8189096142055667    0.0564831581167446 O
   0.0461201731077918    0.8618354485433850    0.2028426623717750 O
   0.2477186550952009    0.9630718024507299    0.3601466268853842 O
   0.1855223009747667    0.7839784733258151    0.3274607455740490 O
   0.5241772019467739    0.7652174765283691    0.1863522222517060 O
   0.6507916386851156    0.7516011626090960    0.2768059176066220 O
   0.8165633317320826    0.8197444364589743    0.2723823384313858 O
   0.8842792925884271    0.9340649958405942    0.1765357817065964 O
   0.1153047701807378    0.2503150811393109    0.6573805237629294 O
   0.1588204683632329    0.1472334070857385    0.5240243615760000 O
   0.5841629503814089    0.1640409198102110    0.3048827918446165 O
   0.6520767839320597    0.3091119754129967    0.3403578177899407 O
  -0.1912413364792519    0.2774380931863228    0.4242815011422891 O
   0.0584820801716988    0.3989290497923187    0.6731053714249153 O
   0.0284908708338357    0.5934575164503434    0.6138014558163549 O
   0.4017561360555446    0.4790895536833778    0.4103336708371383 O
   0.3851130091860792    0.3200198355692583    0.6085357249372274 O
   0.4302666653679870    0.3203319864987932    0.4198860171031294 O
   0.1614601878726671    0.9644031624618162    0.6825551704442273 O
   0.0830436571101245    0.9502525623003623    0.5445070502946914 O
   0.0180821861766678    0.7725689938851149    0.4648479276473865 O
  -0.1167284166928184    0.6905059663751598    0.4768571935632626 O
   0.3045661411812207    0.1058480012885556    0.9358026199020896 O
   0.9429376007533824    0.3148526487868631   -0.0279069044944728 O
   0.1121500007294468    0.6103078591860777    0.7469674841698870 O
   0.5113515161436127    0.2646050603204642    0.8721453629584843 O
   0.0133518031480870    0.7904574199446514    0.7618206802351012 O
