Li1 Co1 H90 C51 N3 Cl6 O45
1.0
  13.4969747968000000    0.0000000000000000    0.0000000000000000
   0.0000000000000000   13.1471552321999994    0.0000000000000000
   0.0000000000000000    0.0000000000000000   13.1904155737999993
Li Co H C N Cl O
1 1 90 51 3 6 45
direct
   0.8397369832154653    0.8443491328536197    0.5403843227697898 Li
   0.1811901507721425    0.3435274810430788    0.7128005735903709 Co
   0.2899078465588974    0.2074744742588360    0.1786157360788338 H
   0.1078233396972064    0.4095364377088153    0.2110036466499430 H
  -0.0217353226198180    0.3985561155440299    0.1996628364106410 H
   0.4266207046459912    0.1628556963072929    0.1437957565694480 H
   0.5631886413688942    0.0530091192726702    1.0547010978587490 H
  -0.0080166928685125    0.2299667925419386    0.2006241404672915 H
   0.6459016949832999    0.0271373626840715    1.1553620658601906 H
   0.6917830876155823    0.0417777922371187    1.0354681935896901 H
  -0.0214071009207562    0.0825090371750695    0.2475923346484185 H
  -0.1035403208970449    0.2596477381996177    0.2918176281379354 H
   0.2603649300162558    0.5192701005826342    0.0259313882103459 H
   0.2988802275422798    0.4131417803980008    0.0944167209844183 H
   0.0261042866052868    0.5170017543531047    0.2472155459132802 H
   0.5626691175418466    0.4942667828158452    1.0427750141717071 H
   0.5760430774637986    0.6561510050989537    0.3165507381885397 H
   0.5867610347970447    0.4078197165169394    0.2881960591484878 H
  -0.1308745943586409    0.3806914143328692    0.3600095660619102 H
   0.8309727970344223   -0.4476824663775646    1.0414702789339345 H
  -0.0641137080440547    0.4817875812621760    0.4172785729232594 H
  -0.0698312855873051    0.3534779226169028    0.4736520052718948 H
   0.2501278211766691    0.9988494763975287    1.0005307045150196 H
   0.2581007189274682    0.8440251083840853    0.2857586833266177 H
   0.0317863006235824    0.7296718529879807    0.2115858875927723 H
   0.3435657966479577    0.6883556906390629    0.0949178424208899 H
   0.4738432867131306   -0.1016593214725700    1.1086743783832913 H
   0.5437911094077268   -0.2241230766777011    1.1318654596868711 H
   0.5595044824556102   -0.1161628392779266    1.2025000803163095 H
   0.0199584649490393    1.0042361930483330    0.0689391309782692 H
   0.7799724795289615   -0.1211266507525310    1.0391716402117230 H
   0.7428567548912620   -0.1202245544594141    1.1741476756549407 H
   0.7195159689193796   -0.2347383008486449    1.0960591579553225 H
  -0.0494207858903424    0.8362812278105414    0.2109551265713739 H
   0.2959032641408570    0.0558447136915064   -0.3645854966580538 H
   0.1263200772075402    0.2682305835381768    0.3109360553466204 H
   0.3260715059972868    0.2391588951577208    0.4332881519102514 H
   1.0272234413364330    0.1285235543322362    0.6612100837993085 H
   0.2775413716626434    0.1096647217086778    0.4312093697940561 H
   0.6250110876994476    0.0362617700468289    0.6351168952963138 H
   0.4595365992585625    0.2675095150003396    0.5566230075027752 H
   0.4931453898823360    0.1594245357860026    0.6310427249489636 H
   0.5220574243104154    0.0998329369828523    0.3884605271328726 H
   0.6946481740947514    0.2605802593255547    0.6587749823561211 H
   0.8744492062916377    0.1785807711503778    0.6559403483909663 H
   0.7245689530900377    0.2385747383675743    0.4654856211729768 H
   0.0522879318532418    0.2490134985081613    0.4289421933102916 H
   0.7190825384589934    0.1337938959975034    0.3723185034939115 H
   0.9080248783827972    0.1474249817217428    0.5231419547240286 H
   0.0866289606376988    0.5076130236490143    0.4548996014059155 H
   0.1722644469152633    0.4548938545391491    0.3639412086784635 H
   0.1464608868402625    0.3880701969125716    0.4712326728542425 H
   0.3674852308071252    0.6252203594331879    0.3790453575117822 H
   0.4324169664882040    0.5344321258633415    0.5484151538992053 H
   0.5345914923180187    0.6091925575035426    0.5816106205279991 H
   0.6364751381499741    0.4235828224010494    0.4428601778478410 H
   0.6820653544216893    0.5640535909728573    0.3312765820342649 H
   0.6642806283172209    0.4623776027920809    0.6007366289989604 H
  -0.0304431998863492    0.6539992087977500    0.4619005938677016 H
   0.0361346824560739    0.9510672764535124    0.3571582533197473 H
   0.1827549458701527    0.7558607884587292    0.3436764946135832 H
   0.4498739895283494   -0.1301666292042125    0.5058971606743389 H
   0.6603864223346728    0.8396013376920383    0.4739070389348737 H
   0.2560610025899578    1.0308100026542562    0.8228964224948216 H
   0.3495360233997410    0.2471020583862366   -0.1195788111659624 H
   0.8959925524397642    0.1434826840090743    0.9958371450396858 H
   0.0678336376990989    0.4192176195121811   -0.0398739683490108 H
   0.2229209836794944    0.6489045705420190    0.8552608311528739 H
   0.3154654255862943    0.4661040363158906   -0.2030811082571747 H
   0.4578393300300957    0.3097688471666816   -0.0664447763754201 H
   0.9643412019622273    0.5504748359610686    0.7701785990032550 H
   0.7389773670441118    0.4719240786481356    0.8970244887812362 H
   0.8269882004259473    0.4020884386344471    0.8145358064563818 H
   0.9101008991520324    0.4784273866634386    0.6668513010591952 H
   0.1186265013089900    0.9405448480226699    0.7860446646953544 H
   0.1244092786479908    0.9092605136753700    0.9114448077572214 H
   0.3281912402659455    0.7197967128753865    0.8273655766067733 H
   0.2442465032372727    0.7619929135136266    0.9389920823648341 H
   0.0716404166827999    0.7261752790761271    0.8971366914629272 H
   0.1367787171713243    0.8328888589510968    0.6576506811605275 H
   0.2164765765949807    0.7268134399445293    0.6584550530880561 H
   0.0741091180400773    0.6828936725270287    0.7667223015314336 H
   0.0255337883924706    0.8067349120380913    0.7991041470927216 H
   0.2696077419706485    0.8488018071368461    0.6821480139543351 H
   0.3261730102247619    0.9213848095541923    0.8059394131611450 H
   0.5858808375544139   -0.2791593173868572    0.7730041354536782 H
   0.6497944191523082   -0.0631346375348992    0.9055579575995785 H
   0.5553637027000423   -0.2721007561725867    0.9702723705173579 H
   0.5294979064563707   -0.0836493416846932    0.9416781235893710 H
   0.6768649298038230   -0.2492821315574882    0.9066003811625868 H
   0.7272636310121320   -0.0036677805463115    0.7016553599178006 H
   0.8481018206475369    0.7039872091212258    0.7746947569413206 H
   0.3562619750568133    0.1503122983563732    0.3093750734439047 C
   0.3577623112658430    0.2502457042373766    0.0462764636553562 C
   0.0560376610156611    0.2717423698664404    0.3468257509632096 C
   0.6292112881779608    0.0132849363010657    1.0751098559068812 C
  -0.0272076600222344    0.2216646162861453    0.2802046505829098 C
   0.3191595867409718    0.4665760775970949    0.0351547518958428 C
   0.0339215939344088    0.4317800329836133    0.2491760603379634 C
   0.4173008383875298    0.5185399958694495    0.0460626720591611 C
  -0.0636780548633587    0.3996909618082208    0.4017125735920610 C
   0.2232091964129821    0.7197921491504635    0.1821993987568993 C
   0.1082182430055584    0.9174782610200873    0.1553397446377582 C
   0.1030770909292834    0.8584921163900578    0.2579286276360944 C
   0.1953029429250301    0.7924299162668862    0.2705051836264534 C
   0.0063242985695015    0.7946524503043967    0.2536808463826142 C
   0.5437150923731359   -0.1393762260988663    1.1264880703542040 C
   0.7222150922820934   -0.1475011777034823    1.0944049265266069 C
   0.3308436865021560    0.2058406607363950    0.6322595175443296 C
   0.3425270453565703    0.1536255626504855    0.4223514987629055 C
   0.4276609377509185    0.1167658776888964    0.4931607916751928 C
   0.4306921355278973    0.1890332224657339    0.5815105478659502 C
   0.6982156401917775    0.0665519729817312    0.6626634117776987 C
   0.9268150149740079    0.0319452468904728    0.6274249465906543 C
   0.8684812022601642    0.1224378271473894    0.5901865444150893 C
   0.7601258098838862    0.1140877317799044    0.5644883396766964 C
   0.1149204856459942    0.4400182410284023    0.4168678201331228 C
   0.4821565570340178    0.4987956713052858    0.3429342890367214 C
   0.5471237821493744    0.5426330634879259    0.4317521123604252 C
   0.4849274742627339    0.5907256727887895    0.5171905122117905 C
   0.6239360319763355    0.6179822917052786    0.3707575215911959 C
   0.6699463423865790    0.7010519733749037    0.4333343976101376 C
   0.9265631066722450    0.6402776091958708    0.6360099679924764 C
  -0.0320346676280755    0.7619799829596782    0.3590073231889671 C
   0.4335549992867569    0.6892144315454111    0.4911104317112718 C
   0.4133651416258678    0.0041270616222062    0.5232570382853846 C
   0.7429701136270555    0.0362381908013933    0.4799086314970702 C
   0.6661062225982328    0.1409673109556699    0.7438450844860978 C
   0.2036870439331189    0.3682400515012305   -0.0761124020303155 C
   0.3145889328775130    0.3941718971346490   -0.0625252637785091 C
   0.3746949945849364    0.2954052835922976   -0.0597891862229479 C
   0.8124064142877188    0.4762330716583687    0.8540561685771503 C
   0.8200570175936153    0.5638754535766954    0.7733657616642635 C
   0.8985886897614629    0.4735690732966380    0.9259917338132231 C
   0.7175933158515120    0.5420257077627540    0.7163296511800461 C
   0.9117427485541113    0.5539436472129738    0.7073663247906304 C
   0.1694015831564037    0.9027655724890924    0.8407866852147260 C
   0.2571656945838656    0.7236317630523641    0.8634955982375252 C
   0.0796022008320507    0.7483625884102079    0.8166441554954552 C
   0.2052673980732968    0.8011648857695458    0.6973886255086293 C
   0.2687927445237682    0.9592112435786410    0.8537938569023860 C
   0.5995942809583301   -0.2290275597283063    0.9166493443099861 C
   0.6013176301050971   -0.1170002828013007    0.9463322605008675 C
   0.0341075615336515    0.3891023593659945    0.3562424368367553 N
   0.6233284884250248   -0.1017422291420048    1.0564083981233996 N
   0.1816554402236342    0.7950898072761861    0.8049477840553889 N
   1.6930563509548657    1.5629426105408148    1.0831657052018091 Cl
   0.0331154873687672    1.2926636081831782    0.6469921845261036 Cl
   0.6798967203062177    1.2911347603339662    0.3322879224219397 Cl
   0.2071811602599258    0.5248373505851849    0.7047523055577195 Cl
   0.8365725704012599    0.2191507644743819    0.0420855418689492 Cl
   0.9529453149345307    1.0211615275461718   -0.0539849718241180 Cl
   0.2875473175900240    0.1992514025683750    0.2640353343997536 O
   0.2741939548762750    0.2423245990126554    0.0886322178675071 O
   0.4252804042992580    0.1109874413155330    0.2595358552386962 O
   0.4351063098815551    0.2021820745897741    0.0801525760113273 O
  -0.0314078605007476    0.1194797727764522    0.3094410304257096 O
   0.4969310382049598    0.4580453347847404    0.0327090366854686 O
   0.4222938091098266    0.6118760277582782    0.0629006555750978 O
   0.5222021234025751    0.4389275868338826    0.2723216540678845 O
   0.8981093230813433    0.5181892964277400    1.0144195770054276 O
   0.1768239871771737    0.6461260226847205    0.1588187858964089 O
   0.1700669174357660    0.8912817193411338    0.0951869772317029 O
   0.3114674926559614    0.7464640788422316    0.1397731388055776 O
   0.0440764621225376    0.9959073950638219    0.1441930147127325 O
   0.2775458171032628    0.1325358291603910    0.6604064699980076 O
   0.3088935825373594    0.2953459551682983    0.6549350730131126 O
   1.0189860398687827    0.0533894296829218    0.6641061259889022 O
   0.5236031040137623    0.1367922632719274    0.4525492584749787 O
   0.7290218027770838    0.2125257571277983    0.5441859467383023 O
   0.7323610695889834    0.0574541873476914    0.3840770412846445 O
   0.3906719081708702    0.5209224732530955    0.3425688721949978 O
   0.5939285668889721    0.4632807639543465    0.4891438826018166 O
   0.7245222759635345    0.4611958262232649    0.6524196101897953 O
   0.9742300846199650    0.6189345889725487    0.5543232315912221 O
   0.7476230081419721    0.6831317468438463    0.4729775761797841 O
   0.1031222862422468    0.9286844875685623    0.3389571588465096 O
  -0.0164089438510701    0.6642546593205958    0.3793129760701399 O
   0.3577986156975677    0.6891071840097200    0.4210520704087266 O
   0.3497820044473449   -0.0233115738566293    0.5824286387276252 O
   0.4499098494160122    0.7673712633354054    0.5457259285445123 O
   0.4728447666593482   -0.0593117572910497    0.4763067358832300 O
  -0.0800380172493262    0.8281053146109517    0.4098155783383481 O
   0.8900586301197055    0.7283156660650233    0.6568842155443811 O
   0.8979478054055071   -0.0590272851041814    0.6319767364614191 O
   0.7396715966874998   -0.0543966255489574    0.5073569327256642 O
   0.6175827564245184    0.7860057128169154    0.4413026075131499 O
   0.6912036985215273    0.2408946318701093    0.7293209022169255 O
   0.6174797703835037    0.1160288361138287    0.8170118467158617 O
   0.1695779189676378    0.3123572398188542   -0.1461435541825507 O
   0.1441233259812558    0.4063327028128554   -0.0102600416448450 O
   0.3603954939260363    0.4522323662261261   -0.1437076946131357 O
   0.6466403790328814    0.5952199530308973    0.7283285149849417 O
   0.9797957762753877    0.4277183178021258    0.9061379241637250 O
   0.8155582316868359    0.6595555438915265    0.8264603738909684 O
   0.2961277588921340    0.9625366778058814    0.9563630286188034 O
   0.5493702855663615   -0.2346919029785942    0.8189465848488050 O
