Li1 Co1 H90 C51 N3 Cl6 O45
1.0
  14.2505542472000002    0.0000000000000000    0.0000000000000000
   0.0000000000000000   13.9075461698999998    0.0000000000000000
   0.0000000000000000    0.0000000000000000   14.3739304370000003
Li Co H C N Cl O
1 1 90 51 3 6 45
direct
   0.9782589067396535    0.7808837340698247    0.3043576172623438 Li
   0.6867404206557701    0.7401554853133387    0.7207865144408171 Co
   0.1995263881654760    0.2285425873170302    1.0250581970657691 H
   0.0842129784906995    0.2124606705455393    1.0711409301709007 H
   0.1836427954241990    0.1320971048707444    1.0949020024466396 H
   0.1795187453009171    1.0240006691994612    0.3312834467490196 H
   0.0279751658345731    0.2439737782243435    0.2698173081815368 H
   0.5219064879361683    0.1169686273212420    0.2122658956694379 H
   0.3480988551217001    0.2872574741866721    0.1428130759013496 H
   0.3693268014003115    0.2180482845682191    0.2461000652538500 H
  -0.0031513428124260    0.0702846190807957    1.0461505490378908 H
   0.8165985277791196    1.2081575268299698    0.0968541780970635 H
  -0.1794553627415913    0.1794289628389523    0.2757801866284348 H
   0.7235467083903723    1.0164242068449407    0.2998327588539171 H
   0.2089309346606646    0.6643843904611995    0.1690056334380742 H
   0.5588496054365590    0.4095924266804688    0.1446358202171673 H
   0.3813515968593140    0.4368137635989370    0.2216648558628335 H
   0.4911689395993333    0.4575937773029705    0.2742816403474153 H
   0.9435220122011649    0.4943883342829442    0.0322024112005239 H
   0.9758597018100126    0.5199737967112568    0.2058104588349066 H
   0.7253648832873305    0.4001218846890237    0.0765535372056288 H
   0.8881213599665249    0.4511613701114261    0.2487562628865949 H
   0.0996783418847796   -0.0039772231869138    1.0574014731124721 H
   0.2621590398165773    0.7663549309631116    0.1129082421550055 H
   0.6548286793921381    0.9908546350703279    0.0936121977490825 H
   0.5918851626390096    0.9143695393528533    0.2869789329077160 H
   0.3695057418089276    0.8460807133876017    0.2310596418326051 H
   0.4644702587340079    0.6976296512966934    0.1957484927892308 H
   0.8440220225584042    0.6733471505683548    0.1366185280433189 H
   0.6949632587269998    0.7983167159228516    0.0974768331209783 H
   0.7739566775423544    0.9736819435629721    0.0573639355021181 H
   0.7231368997682868    0.7556255040622716    0.2108410940057759 H
   0.9486860218756979    0.8295558716080076    0.1304608524939670 H
   0.2875917348341210    0.2013436842626088    0.6019936757329947 H
   0.1065966692908432    0.1642436815952288    0.5449161767430084 H
   0.1841333026619349    0.3025218491818426    0.4266637608537079 H
   0.5741767285933946    0.0853944017435924    0.4591532042976451 H
   0.6272199286604039    0.1244020018890536    0.6591408842575018 H
   0.3540775699507559    0.0596091197377604    0.5509085530368496 H
   0.5713466632288895    0.2124836796368693    0.5893471695601195 H
   0.4188631203219915    0.1521279569417538    0.4846053937042579 H
   0.3936037518963229    0.2983909982539961    0.5277476645478496 H
   0.6847580416191407   -0.7070041900260469   -0.6599249121926164 H
  -0.0875670068723950    0.2643454524606791    0.5160439693938113 H
   0.1167653965898865    0.4850695084874564    0.5756788134440864 H
   0.1042051833592209    0.4049197835552102    0.4255269806201025 H
   0.3415524430747209    0.5233971899841150    0.3711278026480684 H
  -0.0728581052841508    0.3555391098108829    0.4372975955358731 H
  -0.1504396491891697    0.6601917026004034    0.5629073588440660 H
   0.8738398101776815    0.5973948591219914    0.4306981479863134 H
   0.1381729850042067    0.8212539038424869    0.5169755865362965 H
   0.2183488139706129    0.7765939766049801    0.5893269941459368 H
   0.1926052538510419    0.6926208597277850    0.3363815652018102 H
   0.6115875542182821   -0.0030992825458519    0.5404240859900302 H
   0.5072407355468489   -0.0216855951017971    0.4736406822294962 H
   0.4253772529227104   -0.0552227837835409    0.6190217253032056 H
   0.3355674127018315    0.8261016317720851    0.3486036919729111 H
  -0.0425673536044529    0.8450575278575190    0.6195205450262748 H
  -0.0657285580232109    0.7331988303565216    0.6644546709308665 H
   0.2412756415404385    0.1247830899642074    0.8907316808451312 H
   0.0355531167076922    0.1194672708328638    0.8317158115449421 H
   0.1690693271648290    0.0202894587911355    0.8667716372433144 H
   0.1547912860114487    0.2477407978955337    0.7196198189379063 H
   0.0616236816524204    0.3100292842623728    0.8341946046736668 H
   0.2306613175375864    0.0341934212614172    0.9678657677853350 H
   0.1411455009685120    0.2887688838734143    0.9172087812922258 H
   0.3669016325682438    0.1845434524211581    0.6914681591136463 H
   0.4382820141558487    0.0183530999488917    0.7196295587930290 H
   0.3607832740477581    0.2644331746213749    0.8085370434647527 H
   0.4721432234554667    0.2829022846183577    0.8642441448389765 H
   0.3758283029133634    0.2570558847136803    0.9884426031398917 H
   0.5166557097066338    0.1813998353181911    0.6969016068642326 H
  -0.0077125689144052    0.1881961456698022    0.9260024790601400 H
   0.7351069605140655    0.0051027394792039   -0.2180902986305443 H
   0.1569062914685818    0.6487302989816264    0.7616952973639884 H
   0.3250569443086861    0.5579781285713178    0.9340211626418629 H
   0.3182080878847910    0.4292726058189263    0.8084973883403247 H
   0.4401436961325488    0.5754822948006471    0.9799097943484782 H
   0.3784696036899558    0.4595642902651573    0.9961071734175112 H
   0.3839150059286264    0.5950968261254034    0.7722101666728695 H
   0.4896787519454621    0.6321198921436486    0.8324741288366374 H
   0.5336517083042033    0.4165339819211007    0.9572249760637964 H
   0.5840674316183450    0.5269312426055885    0.9063954549942281 H
   0.4174533505929336    0.4053297768013474    0.7431513089143247 H
   0.5024541848754319    0.5555974066527626    0.7368670152483778 H
   0.5774083923730015    0.4269558060322223    0.8361460542178913 H
   0.8400439316703855    0.4722272430138711   -0.0180141947002523 H
   0.0303266533219166   -0.0116090511674470    0.9467483704714690 H
   0.0946097670948418    0.9115178500961362    0.7108351653211775 H
   0.1386901578714619    0.7816157107877617    0.7750611614080681 H
   0.1476526162983048    0.7534489878292704   -0.0124450846818857 H
   0.5457021168020862   -0.0347425353974916    0.6735482170957721 H
   0.0518563422503513    0.0322283010550108    1.0036159060131675 C
   0.1441980138213750    0.1752751028197757    1.0430303168789434 C
   0.4330906371247037    0.1702332356820803    0.1198993710212847 C
   0.4027248006460963    0.2478472149429352    0.1848252452691343 C
   0.4805969999128751    0.3189208599932257    0.2170307719362452 C
   0.5583511686826765    0.2706420341099658    0.2826544372332418 C
   0.7558619427322565    1.0890861982311082    0.1446142533951099 C
   0.4308451104283447    0.4028505472105354    0.2706987650701402 C
   0.8794374871954490    0.3510070378529688    0.0576658710109215 C
   0.8773898475392066    0.4609065831306237    0.0462945901551812 C
   0.8837938089863855    0.5898773575640043    0.2981971588972425 C
   0.8982297387356034    0.5185434940714531    0.2201343072006965 C
   0.7341238408573160    0.5190987322066112    0.1520061077292940 C
   0.8396285092315592    0.5290062312230959    0.1290576176523624 C
   0.2079814979043604    0.7450305365388913    0.1659139251405576 C
   0.1081145049921634    0.7717232395840519    0.1247679071747549 C
   0.2225423350760634    0.8041186021085424    0.2567046803706471 C
   0.2022168098385512    0.9135174839395377    0.2464660055248882 C
   0.3342222018652939    0.7986417193378885    0.2794945499498663 C
   0.3570788567258583    0.6913028702150360    0.2878130819285806 C
   0.5811436856869762    0.8160941151117251    0.1871683761300786 C
   0.6894750511356800    0.8150968148093886    0.1734365718149607 C
   0.7294040244324063    0.9875233500662004    0.1154913908743303 C
   0.7347217123402214    0.9118040256695537    0.1950249606944025 C
   0.8411175741220823    0.8789556716595029    0.2035028088747665 C
   0.0766413431614139    0.1517770682989707    0.4113840152780197 C
   0.0447710037962459    0.2610127293883434    0.4085483260294424 C
   0.1156573695106519    0.3306540585033388    0.4576867995385305 C
   0.5529009245270669    0.0310073811463105    0.5057845695277592 C
   0.3691113711828796    0.1992189384851003    0.6127402144530081 C
   0.5569701697644157    0.1539845029984465    0.6364018010657081 C
   0.4065534236633884    0.1205105893178603    0.5523577739087121 C
  -0.0572467826548073    0.2746024739551493    0.4435459213082596 C
  -0.1408968624567365    0.2351577010744172    0.3879791434181963 C
   0.1138405980678789    0.3363631892896054    0.5624552904255856 C
   0.1075945252165378    0.6561241266737146    0.6365785098657911 C
   0.3889141097363957    0.3866639390734927    0.3632426942223138 C
   0.0807106585714720    0.7654388815145342    0.6439341875952339 C
   0.1828610714430290    0.9194480772298558    0.6129377943712112 C
   0.1560586051407063    0.8180800873071492    0.5914774150162391 C
   0.4745872687463257   -0.0058963252106601    0.6585578843580152 C
  -0.0213001106086551    0.7670286659186194    0.6097765156799611 C
  -0.0465784256658242    0.7372139167936138    0.5112437931092236 C
   0.1919238768441155    0.0720182103056935    0.9189299528331926 C
   0.0608791492071588    0.1660836898675281    0.8890077264884151 C
   0.1126518723729939    0.2562210861188622    0.8539045929223041 C
   0.4007157559799475    0.3097905649398236    0.8595815370509575 C
   0.3917252284694001    0.5221727468083047    0.9513386250500052 C
   0.4534795283186787    0.5753730016168292    0.7974377828485105 C
   0.5399654276472723    0.4613100331664138    0.8942790752216022 C
   0.3907905279820406    0.4114711189875667    0.8119105118568900 C
   0.4945703511626432    0.0769802646578378    0.5912874878413467 N
   0.1162327857265939    0.1136826414656705    0.9659317108395438 N
   0.4412222506738938    0.4958809052761597    0.8635992272890669 N
   0.5457082920005012    0.7084360148466683    0.6462174879175673 Cl
   0.7271177975646758    0.8904918548251025    0.6582823855988305 Cl
   0.7762162387805658   -0.9429624216156240    0.8484050532976710 Cl
   0.8085048074929306    0.6248562096243960    0.6883952348224378 Cl
   0.2326752742933834    0.7546648744992422   -0.1203640708491624 Cl
   0.6767709838510287    0.7493468982655864    0.8773045948545661 Cl
   0.0446418860112053    0.2957780283198282    0.3120089691651539 O
   0.4040636959388003    0.1569102527678821    0.0405181603634889 O
   0.5030277064282239    0.1084696442112079    0.1479244127289497 O
   0.5469980663967224    0.1857305777269674    0.3094473872678865 O
   0.6312506490803683    0.3225268160251057    0.3016339363476774 O
   0.9518122160732853    0.3005667954528931    0.0460733563031087 O
   0.7321309359142972    1.1241103494400559    0.2191825842144223 O
   0.8074669531229571    1.1356465326056557    0.0843878592439580 O
   0.8018327862963738    0.3165509235862314    0.0835891911238975 O
  -0.1228687917204366    0.1823209180054969    0.3174695493692962 O
   0.5166599411210022    0.3560330862403748    0.1342941811886828 O
   0.4293756938964147    0.6507615703256067    0.2422089931323354 O
   0.6843678813556483    0.4508293920655799    0.1084494756206256 O
   0.6915304097899411    0.5685170114345809    0.2095429104587088 O
   0.8547289745374809    0.6191679308271473    0.0908370347430533 O
   0.0962581240353878    0.7722999049355110    0.0328028036984440 O
   0.1734333679537842    0.9477025223490430    0.1722990958774180 O
   0.0409374686893055    0.7933985226510553    0.1772205055301257 O
   0.2196519211815937    0.9606796498591864    0.3259724428914043 O
   0.5458032356761316    0.8663208043828938    0.2596969030051248 O
   0.5244032960871209    0.7592717260039790    0.1485004555890631 O
   0.8830015590988263    0.6766345744921345    0.2826342618190590 O
   0.7007146139780493    0.9496058056224999    0.2849273019965152 O
   0.8803146460612141    0.8799414674161744    0.2791898316253136 O
   0.8824085997055690    0.8558401632820598    0.1184397841607559 O
   0.0675462583140673    0.0973713528149831    0.3455905982203133 O
   0.1084281770025611    0.2603749461380388    0.6081923978146494 O
   0.1096309372392984    0.1148647335327514    0.4922131249701971 O
   0.4025374395123688    0.2908814060711537    0.5944299825262888 O
   0.3853254773847769    0.3041705943824609    0.3965578686694739 O
  -0.2216495110932698    0.2574923384148470    0.4124929673541317 O
   0.1091916560793231    0.4209921371731171    0.6030080120736291 O
   0.0954258757035497    0.6091079246771907    0.5641496773649650 O
   0.3075095566308255    0.6366699399541643    0.3401355836476698 O
   0.3401560061604226    0.4550428600119834    0.4023983032234011 O
   0.8794809942751909    0.5450822519149335    0.3782051988025772 O
   0.2497742583590647    0.9571340926920477    0.5743212167807711 O
   0.1662953999677330    0.7620924967942214    0.3344189843945883 O
  -0.1250504612513679    0.6811723987228812    0.4994221483096496 O
  -0.0070775058955912    0.7656754437347714    0.4408971677076442 O
   0.1835024500056766    0.2478083871013158    0.7825831123785340 O
   0.3586654616822544    0.3130312516468391    0.9499875680037007 O
   0.1620317061530213    0.6105718781130646    0.7039177810722559 O
   0.0758526019093178    0.7935847524840077    0.7419574809578579 O
   0.1262541503361886    0.9646429658407861    0.6716433797153488 O
