Li1 Co1 H90 C51 N3 Cl6 O45
1.0
  13.3230211409999999    0.0000000000000000    0.0000000000000000
   0.0000000000000000   12.6134378194999996    0.0000000000000000
   0.0000000000000000    0.0000000000000000   13.3117558447000004
Li Co H C N Cl O
1 1 90 51 3 6 45
direct
   0.6531574166553369    0.6515159488950300    0.7702302793122683 Li
   0.3750238041073150    0.3791469049307585    0.7664381424530201 Co
   0.1564487550113991    0.0749705134581212    1.0272384486261716 H
   0.0398213036581715    0.0310419661477763    0.9706598868807000 H
   0.2766977573243798    0.3127700763467501    0.3415159859779155 H
   0.2362827497745543    0.2306576487262002    0.2276842707873678 H
   0.0635321419625450    0.2349990503950888    0.2029985716328994 H
   0.3271450239681039    0.1759192015335879    0.3215546823677840 H
   0.0465359968987833    0.1619761352167975    1.0111684423478360 H
   0.1317749219129607    0.0632766356976926    0.2480745185628382 H
   0.4532658926672493    0.2030450339114228    0.1178557840680826 H
   0.6031334774191364    0.0617742697074545    0.2396962098482591 H
   0.7613370843708398    0.1692263394282633    0.1338619370118231 H
   0.7482432073774939    0.0582193308682842    0.0352964272994138 H
  -0.0529609554794296    0.2450502356321542    0.2666873899894613 H
   0.2149760208430491    0.5949980502696527    0.2431405338378892 H
   0.1216796140562395    0.4190836776971198    0.1854869824241166 H
   0.0975199286070096    0.6062937019420093    0.1857807077632541 H
   0.5909072714951117    0.6470476983826383    0.2980040701377063 H
   0.4899273972037000    0.5756753244999021    0.2929949638426454 H
   0.4958472406960507    0.6576704962207389    0.1279678986208442 H
   0.6622957343620716    0.4366998108385926    1.0358481317766954 H
   0.7556784579075073    0.5320595388693191    0.3265893299966829 H
   0.0158132354719199    0.4181981142084148    0.3185595853674229 H
   0.7164898989106843    0.4106117605616663    0.2816516067557500 H
   0.7560207226199731    0.5952136140230805    1.0762823168894207 H
   0.1187981354791427    0.7863118724434442    0.2248642070453674 H
   0.1775085429551823    0.8499915774924710    0.0399389403323286 H
   0.1657799719091506    0.7401159020554841   -0.0246828879250230 H
   0.4809786010756882   -0.0654860397316124    0.2995838767571593 H
   0.4259016787895075    0.7992726530283586    0.0616776202913075 H
   0.6603569849052753    0.8490077061500513    1.0278221432259409 H
   0.6899523744064289   -0.0181206815676093    0.1818781421959414 H
   0.8986640450231498    0.7912938607720227    0.2221981425220964 H
   0.2759877081621153    0.1146361468214950    0.4783019983749928 H
   0.2405197767523380    0.0213729130517636    0.3157477849981348 H
   0.2234395666714795    0.2470607898016760    0.5013952028768162 H
   0.1495666823171034    0.1362028286328129    0.5241087279389801 H
   0.1146241572641816    0.0203739784091778    0.3715495897086494 H
   0.0270944605341147    0.1633001200208596    0.4037880115221673 H
   0.5053946247806228    0.2143250673199230    0.7210729774781505 H
   0.5981706390883824    0.3103639123465534    0.6889081748033422 H
   0.4290938976976588    0.3321692285447113    0.2685842096347866 H
   0.5755181193028177    0.1203689217425567    0.5815632071919562 H
   0.6833300025685218    0.1993965440501690    0.5826509675271765 H
   0.8861391080562273    0.3213339588937433    0.4647038673611890 H
   0.0895592717201409    0.2999353518000668    0.4166165220501748 H
   0.1041220347711524    0.5348652370862864    0.5613724823067030 H
   0.4614479708045072    0.5784210469980506    0.5212726633025458 H
   0.4190948893203441    0.4555141898680051    0.5717822285202478 H
   0.6188070996246421    0.4928196419369521    0.4983161875704831 H
   0.7922640036963670    0.6405887138325222    0.4553597206196812 H
   0.9134091991380410    0.3802060927740081    0.6603627293765250 H
   0.2135739364507550    0.7136433412216893    0.5628993282192272 H
   0.9989370976484889    0.7154279458887215    0.3869765553468272 H
   0.2260185613031296    0.5708647406711069    0.4417565564606798 H
   0.3606066536752034    0.8942285260535826    0.4601506738751371 H
   0.4856171135681605    0.7363794108090500    0.6404990838075388 H
   0.6895598207998069    0.0631854630914249    0.5547649392428012 H
   0.6805288361059728    0.8013157122140280    0.4696392042743999 H
   0.8959521976412662    0.6720218572525544    0.5406332948380628 H
   0.7919487598822538    0.9317900542253511    0.4912304205912492 H
   0.8941447997736837    0.9593019827705981    0.4075035243799013 H
   0.1292372092093493    0.3089146643095322    0.8755920374727004 H
   0.2067323951039882    0.2459944667109793    0.7881460225682531 H
   0.2731272458392926    0.0498972539292185    0.9093396516297662 H
   0.2544160243106530    0.0891260515877790    0.7853702805526187 H
   0.0779312784624215    0.1809511365942957    0.7355654307841364 H
   0.0333940827528107    0.0555166576963994    0.7813392571004146 H
   0.2493998947637037    0.2736506858157109    1.0224870093165945 H
   0.3243386034419864    0.2050333895333316    0.9359093997626408 H
   0.5062746879341606    0.1378478995719918   -0.0377825873211345 H
   0.5902722803838265   -0.0192654923802235    0.8064013153211436 H
   0.5107097705910636   -0.0008248417559815   -0.0342496198787723 H
   0.5033202229082915    0.0489886990876286    0.7167166776273619 H
   0.6217231049051894    0.1534344512174174    0.8604542898794533 H
   0.7419555944469547    0.0162838960114794    0.8178934131168607 H
  -0.0096081758142727    0.1880974833151434    0.8328981955310095 H
   0.7260522946054522    0.2086303470519122    0.8076836405229535 H
   0.8165505372517520    0.0850724382325878    0.7200077536139637 H
   0.2777140433346401    0.4276642091548228    0.9531302684950904 H
   0.5711318769196870    0.3731318913329028    0.8471134502432827 H
   0.8598890558872229    0.6612642825182320    1.0390137547412104 H
   0.8928748175511133    0.4029128285663088    0.9611096816723754 H
   0.9525106907957281    0.5864987020717917    0.8700555777554541 H
   0.8573843687260423    0.6263618232283941    0.7826553870087750 H
   0.9693026779608260    0.8523969486873959    0.6909770228442237 H
   0.1715834604108732   -0.0177131796578561    0.8276569635843031 H
   0.2726768975334166    0.7099718600075507    0.6826437870717117 H
   0.5855991661298529   -0.0610709071724377    0.6764815646754333 H
   0.7494156141337913   -0.0400116207351317    0.6990187869247017 H
   0.0055467952589658    0.8121486034491803   -0.0595302818685268 H
   0.0305088512731648    0.2640529851941686    0.2712570350993677 C
   0.2581801855672669    0.2271946752985696    0.3103044760278272 C
   0.1690810249912220    0.0599690521033531    0.3229917580040245 C
   0.4004444648129978    0.0801245405307006    0.0668918084727738 C
   0.5034391974248988    0.0680398097712286    0.0138935407588350 C
   0.5986450059705718    0.0784834336178812    0.0786325586655612 C
   0.6103930921098581    0.0099446250574193    0.1725495456194468 C
   0.6114318955354122    0.1970886879036872    0.1107545420454056 C
   0.1984655013691237    0.5137374919137524    0.0968420272606835 C
   0.1775055406331431    0.6120239398862009    0.1714925851279725 C
   0.5667535156319091    0.5670354119273343    0.2791267707842893 C
   0.5954055004903036    0.5551967679242580    0.1687904622510478 C
   0.2133367530096603    0.7225298955143431    0.1405101959667255 C
   0.1517426152149945    0.7716029562340048    0.0522611314777820 C
   0.0379966424388638    0.7818008104463704    0.0783395845421248 C
   0.3245615258533950    0.7170809448806195    0.1225163262778243 C
   0.5447845495166133   -0.0855685900739458    0.1674217472436091 C
   0.0795330172703206    0.2269013373479690    0.3713249762140148 C
   0.2122333996602640    0.1629988540175401    0.4762299201065965 C
   0.6519092012675506    0.1252177187854571    0.6030186788316133 C
   0.3093217391825498    0.5836015537667114    0.5772377071849135 C
   0.2342426719489359    0.5152768819101879    0.6444384589442064 C
   0.4166022114473203    0.5446122625807899    0.5850916673401118 C
   0.6053829672069871    0.4905300995922509    0.3563472375651061 C
   0.5422703299829583    0.3878455643739736    0.3404019330931561 C
   0.7702922604331849    0.4079154298319566    0.4404320129364669 C
   0.7152289236542314    0.4594615673167627    0.3476068428825876 C
   0.2854240063312379    0.6997565640792034    0.5997952122581121 C
   0.3547566291818736    0.7732028372726858    0.5549308076696083 C
   0.8691527205390929    0.9023769786381035    0.4673676782373565 C
   0.8269971167870565    0.7058675071149582    0.4996036646095714 C
   0.8686670949492565    0.7903163318717782    0.4229094559784478 C
   0.7515232442052912    0.7360591174792052    0.5774472963655257 C
   0.9440606554164741    0.9050606244834630    0.5496269994549985 C
   0.7933921262025865    0.7882923000126341    0.3343982172098139 C
   0.0933992416082439    0.0962216587712255    0.9822804425613084 C
   0.1907450302453889    0.2464122750892671    0.8703252641921558 C
   0.2137518240315761    0.0575034277077644    0.8490921524000299 C
   0.2715172506457858    0.2695130351016989    0.9428919497045409 C
   0.0525421421381500    0.1350056926722538    0.8037795725242385 C
   0.5761471057700245    0.0061978273424508    0.7321196043631040 C
   0.6496634643822486    0.1828887526788033    0.7887965753654220 C
   0.5696268879395002    0.2598360539529673    0.7468757343801826 C
   0.7472111591765280    0.0336748724557345    0.7370626036764664 C
   0.4676466399446360    0.5736122866213809    0.6818204546632854 C
   0.7892121433435471    0.6301696669492984    1.0078368007133738 C
   0.8740960437765922    0.5614399508793646    0.8392301926757408 C
   0.8093059341712261    0.5300396850939579    0.9373472266145823 C
   0.9089364898801822    0.4545845464061828    0.7866127913222694 C
   0.7123339346279582    0.4816471129233207    0.8989443287576827 C
   0.7290260945852537    0.7217505679320719    0.9651835244195434 C
   0.1806947572192552    0.1676597562110018    0.3699472466181628 N
   0.1359308861956868    0.1371692582592511    0.8799588543433047 N
   0.6552455316335821    0.0922988582858967    0.7071101312414533 N
   0.8712513436444752    1.0985732920788509    1.1249903917342692 Cl
   0.3495213301260647    0.2335783433478557    0.6645545129887684 Cl
   0.4554155552472977    0.0137508831677798    0.4240084845491848 Cl
   0.9556023319155672    1.2560608881194002    0.5864220703467933 Cl
   0.0832971785269345    0.5417627618725503    0.4060574341552474 Cl
   0.0407880513547854    0.8476512163298415    0.8039681276652194 Cl
   0.3908370342876423    0.1609113977366446    0.1384608795340731 O
   0.3284232625762821    0.0216424668442074    0.0528688649799872 O
   0.5412114109997418    0.2632102331901459    0.1107079666719362 O
   0.7032609174255757    0.2257335351824699    0.1345109873775899 O
   0.2488527215720643    0.5310501709093552    0.0186802872063647 O
   0.1731018847821852    0.4162589125133634    0.1292336970772296 O
   0.5639300569282194    0.6279220640034804    0.1031161807964286 O
   0.3805931114899820    0.6582857131117281    0.1711117187675052 O
   0.6534974296262733    0.4837256897851709    0.1428059111493448 O
   0.8638491186568927    0.4646878982301388    1.0008918115565293 O
   0.0337821328763739    0.3747301867610400    0.2599722728371595 O
   0.1928263899990459    0.7963123181431083    0.2189949587725254 O
   0.0069428750071815    0.7708093581568395    0.1667351360927865 O
   0.3548789738049699    0.7835465676550799    0.0483360294394357 O
   0.4887173113058111   -0.1132335300366682    0.2393153434877918 O
   0.5531094631248848   -0.1443971196642565    0.0895372057830033 O
   0.8265805446041211    0.7734176875013690    0.2415457029044138 O
   0.7269665016663805    0.8074044567021699    1.0211828988594522 O
  -0.0214193107163816    0.8036077122550720    0.0093276517274343 O
   0.5634635711413828    0.3069374079614299    0.3845178263570651 O
   0.8457556248878131    0.3543059373465206    0.4084951291053782 O
   0.1407751328058934    0.5356555291654681    0.6342654959196541 O
   0.2948152696697729    0.5491417969406988    0.4705106896092680 O
   0.4631840635236593    0.4008539132752015    0.2729810751334356 O
   0.5817787113350044    0.5372214939946175    0.4474949429583869 O
   0.7513716269423129    0.7020105094671965    0.6671251731179973 O
   0.7500701203383312    0.4276570739073758    0.5274307540124681 O
   1.0267153317354327    0.9496432361431200    0.5446085029636737 O
   0.3147709536836499    0.8344549725791749    0.4796453974133038 O
   0.4421951303800006    0.7881765504429377    0.5785801296428130 O
   0.6795853564051625    0.8016050861382692    0.5462605014120043 O
   0.7009513811969413    0.7918662661783298    0.3532785214260354 O
   0.9694798149611372    0.7842814981421250    0.3947208380096620 O
   0.5213985624568784    0.3273275667492578    0.8190976118857541 O
   0.9472251028457630    0.3820184456255566    0.8356498986442081 O
   0.6757664027713337    0.0578260994534251    0.0081452382138732 O
   0.2638643317679323    0.4582151981488189    0.7154801765833202 O
   0.3138469890760943    0.3713203312866262    0.9119486237597521 O
   0.4544051988230647    0.5211078061239099    0.7568518788910417 O
   0.6662527948097025    0.4165482864376045    0.9637021270569369 O
   0.6843237711634883    0.4897153336143261    0.8114712700879951 O
   0.8861848934673247    0.4484737619314824    0.6876483860725658 O
   0.5146617270912277    0.6673625406696364    0.6885100304817493 O
   0.9085829664600695    0.8535235249787565    0.6340416336407207 O
   0.6838066211922406    0.7123764383972035    0.8826271725136789 O
