Li1 Co1 H110 Cl3 O55
1.0
  12.6778579953000001    0.0000000000000000    0.0000000000000000
   0.0000000000000000   12.5961632185999992    0.0000000000000000
   0.0000000000000000    0.0000000000000000   12.7226928276999995
Li Co H Cl O
1 1 110 3 55
direct
   0.5983269019507977    0.4556819016860878    0.4313913719547217 Li
   0.7424159113621051    0.5212740971555769    0.6847261056977724 Co
   0.1273293562917685    0.2043831573727525    0.1128149467520764 H
   0.2299034662464705    1.0792320942083606    0.1214058953413586 H
   0.1973545924420013    1.0401487645105483    0.2988722564786944 H
   0.2758110635878956    0.2950234563420522    0.2771527978906217 H
   0.1808928210546447    1.0714598862509854    0.0085043249385405 H
   0.0809846188591659    0.3201906437227214    0.0780201115709438 H
   0.3165687373362183    1.0057017672408333    0.2843957614084840 H
   0.3450230708785039    0.1958932705600691    0.2713002632889936 H
   0.5863548479921346    0.0306416011528071    0.1468509803075830 H
   0.6013305639269863    0.0643583760650969    0.2615106690822681 H
   0.4165099104010785    0.2905649558427039    0.0171364597772352 H
  -0.0430504508334402    1.1670921815058801    0.1303576166115631 H
   0.7909777425664174    1.1832240778995333    0.0608026087225629 H
  -0.1258230296388687    1.1725224064730351    0.2167174788576932 H
   0.1149376730864320    0.5109884254195449    1.0286367902718490 H
   0.2352505840344384    0.6582896287939342    0.0017983546572928 H
   0.1331497401474132    0.3477744399922824    0.2224466119105092 H
   0.2010642096358077    0.4481296019620316    0.2608182056140926 H
   0.1906215938525200    0.6340401811884157    0.1886479494871127 H
   0.2867498199654645    0.6208202826280262    0.2719565708893642 H
   0.4246011826047921    0.3425482454076653    1.1781255837023685 H
   0.4448798448279619    0.4547578107706246    1.1188535404162048 H
   0.5541845870418068    0.6360328514614505    1.0942439703951228 H
   0.6065822397246393    0.3745024201047392    1.1494995683664437 H
   0.4406756645934333    0.6365163320177367    1.0212405573143790 H
   0.4375221350291472    0.6649575322294801    0.2140702405366774 H
   0.7202970329124522    0.3447639994841755    1.1033222372026443 H
   0.7046895067772521    0.5361984829973232    0.1034248748845945 H
   0.7220228765059135    0.4225083080490213    0.2716618219670420 H
   0.7224259414402182    0.6342799367352111    0.0365390189164883 H
   0.1379494468504350    0.7276512260388693    0.0248475160236301 H
   0.0134919871924273    0.9222716003112558    0.2410393739305888 H
   0.4209806971870650    0.7618116281019847    0.2939621324313709 H
   0.5196550947441104    0.9316951047498712    0.2835586744690892 H
  -0.0668225265351659    0.9900382674452241    0.1761781050800713 H
   0.9849489955108552    0.8690649223436064    0.0550215998594183 H
   0.7817348562646902   -0.2950744862619448    0.1857617680397344 H
   0.8606377750677596   -0.2034894551711664    0.2043655340195807 H
   0.1346917987512600    0.2551097150483855    0.4918321929675335 H
   0.0491181158466087    1.0404266268992186    0.3955137471325464 H
   0.3232189143638561    0.2837620906755182    0.5456871440599798 H
   0.0065725217722813    1.1289059503772030    0.5340331646699260 H
   0.4582306805971232    0.3102900098681324    0.3560527614120604 H
   0.5978228735887219    1.2071281822505617    0.3788820479423167 H
   0.4240253755557855    1.0817090389302206    0.5197374489387399 H
   0.4820225545960135    0.3090531252922805    0.4822563899791323 H
   0.3663657929771669    0.2981180494592992    0.6493798149329032 H
   0.6214751340976474    1.0958879596777917    0.4327409290203939 H
   0.8238492260736862    0.3026678476006391    0.3891707503241743 H
   0.7788502995822004    0.1948119889218724    0.3773281316238344 H
  -0.0504571436702595    1.1791911038011200    0.4367125724990438 H
   0.6889936376427525    0.2213446714697210    0.6400162311685740 H
   0.1731075942413620    0.3475140432394714    0.4168716470425707 H
   1.1396202341954149    0.6151574471469274    0.3696332197584115 H
   0.2456790018356959    0.5265352230119125    0.5985132249142402 H
   1.1200506822969809    0.5905428089734424    0.4917748151773215 H
   0.1744950525964344    0.4215651637126207    0.5555136801316363 H
   0.4287722342145833   -0.3900931025841479    0.5155190023624656 H
   0.5180144390428310    0.6103226415840658    1.3559574335033839 H
   0.5945849449090335    0.6666477294451340    1.4325842933358743 H
   0.8646210978040390    0.6647931964738951    0.3336557733012099 H
   0.7905801990695689    0.4924415079220781    0.3392017690236230 H
   0.9527195763020679    0.6220039764037614    0.4092631948610289 H
   0.8090636053426847    0.6327127928631111    0.5240973749977287 H
   0.1013456293781114    0.9242563316589002    0.3892941518729865 H
   0.2423535189334872    0.8290289215989248    0.5779083102511081 H
   0.1222661981444066   -0.2314400297937721    0.4687796832534386 H
   0.0789181025746554   -0.1449343231678851    0.5433126467417526 H
   0.0053529939935563   -0.0520592167011379    0.6537452429717753 H
   0.3728187758099395   -0.3254924788959419    0.6080002102273816 H
   0.5017190995559407    0.9949127676350387    0.5859773567485986 H
   0.3560099426396199    0.8715101113639042    0.5748539254187248 H
   0.5935697891938668    0.8346576197008442    0.3756193738714923 H
   0.4725816853226416    0.9388639543775624    0.4015965788921489 H
   0.7054530426997707    0.7837540239890013    0.3450645215878916 H
   0.7078020199490063    0.9000426092176393    0.6055423972137782 H
   0.7278416828079992    0.8481537928648257    0.4934458450676064 H
  -0.0945054363871386   -0.1155523602973583    0.6075844177476258 H
   0.7609371789206351    0.7422644060053051    0.6001575309022346 H
   0.1340615661044704    1.0214922898426915   -0.1487004450803841 H
   1.1099622272876712    0.2923750308317556    0.7823249408513266 H
   0.3548709489700779    0.1821335250731204   -0.0038592526570396 H
   0.5243680360013916    0.1262323758279091    0.9938406974953143 H
   0.6505060634657195    0.1235267900548003    0.9967174469771782 H
   0.3682699001227864    0.2966509360471205    0.8560868411588461 H
   0.6351525234535058    0.0479516340744219   -0.3222470385493987 H
   0.7921758944944189    1.2282616016402785   -0.0565996598245451 H
   0.9066865634527084    0.2143806461171066    0.8025557208823911 H
   0.7651942071993875    0.1564550708972980    0.7151221865618823 H
   0.1285282969965496    0.4264880913473177    0.9379327219092537 H
   1.1117290872736645    0.4150552448923472    0.7404202900655087 H
   0.2779407608924411    0.3484357524773175    0.7923008163769597 H
   0.3757025437156499    0.6174335370564059    0.8679160979080407 H
   0.4089203002291022    0.4477818770299243    0.7792501200936623 H
   0.5495386918107800    0.5503337396552462    0.7792139642258574 H
   0.4211329311055010    0.5539594468811229    0.7005993176612265 H
   0.6465803214343406    0.6174176592056247    0.8257316321452982 H
   0.8602591622136182    0.3346347245783379    0.8132358498330926 H
   0.2686671122963150    0.9195961824546313   -0.1509672607923228 H
   0.1033633992576512    0.9329653328123635   -0.0616606953200976 H
   0.3269119672452938    0.8677153050272083   -0.2458347559323587 H
   0.3595665371382108    0.7373113104541239    0.8988372248524471 H
   0.4895877126878265    0.8947394070567336    0.8645677501504614 H
   0.5947687298986479   -0.0696288524830246   -0.2692291743963473 H
   0.5739000626444413    0.9672614904996577    0.9215368218568817 H
   0.6583772669479633    0.7971708078990771    0.9073495737291100 H
   0.9656634032530272    0.8334191473399142   -0.0707067362454451 H
   0.7698740198319313    0.7570570056855678    0.8869293683906332 H
   0.9081300249591224    0.7124434205606794    0.7955171166173387 H
   0.9225804155588528    0.8370313583926268    0.7653010290951269 H
   0.6416559880001639    0.3993496687921681    0.6046778003749667 Cl
   0.0572893700157598    0.0987268573626992   -0.2923956536937401 Cl
  -0.1185583955000304    0.5081216794610074    0.7906942382510227 Cl
   0.0634386737884398    0.2532932889190214    0.1217265821688451 O
   0.2222649519141676    1.1207685518518611    0.0538683062761562 O
   0.2664687914119564    1.0605041692119888    0.2624389316883012 O
   0.5863398612333248    0.0742110588103268    1.0066367307097255 O
   0.3508647517071941    0.2702373373801306    0.2627981323749711 O
   0.5994611629596630    0.0033488458880647    0.2170177297598987 O
   0.7432961862479839    1.2135904675184914    0.0034230107171324 O
  -0.1083137626883875    1.1302952623205540    0.1520479933059667 O
   0.1233657529749757    0.4363275954763993    1.0147482210520304 O
   0.1812028103289730    0.3737847412494310    0.2768792708907067 O
   0.2153852408437064    0.5910770986522282    0.2501632285714294 O
   0.1683828213323890    0.6540462731726705    0.0369890494310610 O
   0.4730123574442274    0.3829756351741024    1.1284741452407989 O
   0.4761406461515708    0.6279383231332178    1.0912257414305444 O
   0.6795945735386919    0.4005230419648955    1.1435024102935962 O
   0.6992043530528784    0.6160283472622737    0.1085532703338616 O
   0.4186616934554488    0.6847040213534631    0.2868032706060111 O
  -0.0411086401577625    0.9151503842359079    0.1868888879186942 O
   0.8125807610023026   -0.2517438314801737    0.2415101862091780 O
   0.1817415448693450    0.3155289067333744    0.4861698696704439 O
   0.0192981730660417    1.1530879171169017    0.4643946052864116 O
   0.3858209722425790    0.2655311424085964    0.5829764197207964 O
   0.5081933793617588    0.3242188544659003    0.4095768077143797 O
   0.4568905488488186    1.0095442071298726    0.5189129379533640 O
   0.6459579765553457    1.1452601366817923    0.3750212300584599 O
   0.8537438660152681    0.2277688498957762    0.3751855034578341 O
   0.7138637694991661    0.1501785564835075    0.6579872694618355 O
   1.0975311052433616    0.6391123606204555    0.4333335708535429 O
   0.1792221918357458    0.4872240461553907    0.6038855152717647 O
   0.3840201948550689   -0.3976454023082042    0.5796524378741290 O
   0.5524989710640982    0.6019081745625928    1.4247872018440464 O
   0.7391409101737819    0.4353638099339832    0.3479962908685890 O
   0.8817691049895270    0.6072232851115844    0.3883368073732843 O
   0.7794876312200051    0.6593351852678732    0.5965191502050903 O
   0.0841915486114216    0.9858465148389992    0.3455298318865975 O
   0.1347974948397078   -0.1555669259434853    0.4909007863729956 O
   0.3111080356920079    0.8131232845789031    0.6100100048790554 O
   0.6083774956746931   -0.0266120234219430   -0.3372430777200222 O
   0.4855854593088400    0.8843155980189056    0.3443028903726112 O
   0.6536106888696789    0.7905600647263433    0.4052498935346909 O
  -0.0270916823983461   -0.1245344604842576    0.6372542372671340 O
   0.7603810912911149    0.8572041678100839    0.5654494698038335 O
   0.4110815486048261    0.2288866505907695   -0.0334528304553071 O
   0.8449805559954535    0.2596499864792567    0.8213929280087164 O
   1.1360470753844554    0.3667222732219733    0.7985557815071983 O
   0.4207779815547434    0.5299441975746264    0.7728835433715043 O
   0.6255570539313595    0.5748801030703723    0.7626034869580348 O
   0.3622081505726265    0.6664040044356433    0.9298998312795681 O
   0.3558135372215341    0.3355326170400121    0.7902077060299096 O
   0.1575702692395340    0.9809402589476225   -0.0910058980264883 O
   1.0199470212155517    0.8459150159046829   -0.0158062517757378 O
   0.3385558900637010    0.8836169725845346   -0.1680446203531036 O
   0.5675780167570591    0.9060682535890874    0.8721447624469555 O
   0.6984479161213751    0.7290357746269860    0.9094874859123532 O
   0.8994061537782809    0.7887698370507682    0.8241674978641755 O
