Li1 Co1 H110 Cl3 O55
1.0
  12.6993937322000008    0.0000000000000000    0.0000000000000000
   0.0000000000000000   11.7514129871000002    0.0000000000000000
   0.0000000000000000    0.0000000000000000   12.9586372200000000
Li Co H Cl O
1 1 110 3 55
direct
   0.3858945528772917    0.7353515277767904    0.6383458360291995 Li
   0.5924414208076237    0.3704039249048783    0.7636337017543270 Co
   0.0316508547239419    0.3631094829433799    1.1160527040358030 H
   1.0253660246066090    0.1962350822093847    0.2241433308679352 H
   0.2538992753586687    0.0874555676605168    0.3045044045148445 H
   1.0011443958827067    0.3204695041978404    0.2693733955768537 H
   0.2848983929781051    0.0108971996593579    0.0366099229375603 H
   0.0990810973054240    0.0080075897003448    0.2532922292889067 H
   0.3252326019018932    0.0078897315328614    0.1491570507905614 H
   0.1114216864158028    0.4516273489346339    1.0662017830606418 H
   0.4516134381720954    0.3668460548814270    0.1227592132562223 H
   0.5058317744580371    0.2566499447267137    0.2656029373743052 H
   0.5615745929679540    0.1356968302748350    0.2509054042335480 H
   0.4776249161186709    0.4726460979370851    0.2012296559992749 H
   0.4073963667243293    0.2040290385702532    0.0598666431376493 H
   0.3759381720715368    0.1123870376311166    0.2834605250257943 H
   0.6299534477630613    0.3809277657515712    0.1883942013772957 H
   0.6334496776568885    0.0318322651080884    0.1231057003075822 H
   0.7448006625794599    0.0801346607964282    0.1602809056799879 H
   0.7305614001537666    0.3257301481789397    0.1574356990912043 H
   0.8807449475119440    0.2308513449895755    0.1589505188725393 H
   0.8569721591122493    0.1790167272573363    0.0558821192156192 H
   0.7498694084863442    0.3885872701957438    0.3154476848608005 H
   1.0932826526116990   -0.0877656591196460    0.0725104881051682 H
   0.1555528482506372    0.8119746539479527    0.2112970726407912 H
   0.2159746302806265    0.6181800862223567    0.0841927350444031 H
   0.0352911859850147    0.8315995280165570    0.2189792075991151 H
   0.4791541229776377    0.9649843389938126    0.0457207112091683 H
   0.5506772223596937    0.7950149912913190    0.0616561059959976 H
   0.5302360890682835    0.6752140787078338    0.1248389072504647 H
   0.4024236883956088    0.6357566959650947    0.2411073060350709 H
   0.5205631863620280    0.6524610701723059    0.2869886737982160 H
   0.6963542553749943    0.5103887932612031    0.0823264122521674 H
   0.6671379000257438    0.6199628505608237    0.0283179013170954 H
   0.8554602759149187    0.5969247699234406    0.0728487181154378 H
   0.7267289337363664    0.9238999178667543    0.2498296738335576 H
   0.9652607931210607    0.5455309502472042    0.0935440270007034 H
   0.9117621762321817    0.6959332892629625    0.2142171327796458 H
   0.8596415778825364    0.7838274004761276    0.2883128871169989 H
   0.0772857261375714    0.0781999998305548    0.3548839304570022 H
   0.1044031623917777    0.3583568629766312    0.5845894117869287 H
   1.0462725344446975    1.0203223652136264    0.5453406859089462 H
   1.0133260797695327    1.1465625034530449    0.5035461676424645 H
   0.0262397460167788    0.3334832583879006    0.4927618546296491 H
   1.0277125933191327    0.4761775881540961    0.3647445352282190 H
   0.5050766202985371    0.2091322546742086    0.6539439268290589 H
   0.6254894551351093    0.1912203661012291    0.5038911113216580 H
   0.5238924791528168    0.2024709280672780    0.4412911645658369 H
   0.5430178015990501    0.3538944208807263    0.5670119461836436 H
   0.5929674301700284    0.4708650355216142    0.5659493344470677 H
  -0.0586180056779010    0.3756909486924179    0.6363687762840234 H
   0.7581957902199769    0.3306955085202071    0.4148454824943391 H
   0.7739335493771912    0.2266424894200968    0.5855146634006937 H
   0.7821654384109907    0.1312990612527836    0.4994654916344669 H
   0.9197389349764318    0.4164137111827945    0.3742046349222515 H
   0.8906273090361629    1.0022734718394568    0.4613604045317969 H
   0.1119866740168886    0.6263961194862703    0.3439105543538011 H
   0.1497502090417154    0.5354615228404834    0.6121795043198223 H
   0.3161195684421493    0.5244015762500033    0.5853495225788874 H
   0.2168738858073721    0.8768051556787925    0.6229121143650629 H
   0.0808508569583603    0.6478114165468244    0.5053241323781731 H
   0.1578600450048971    0.7200980429237968    0.5721313116596376 H
   0.2790823673033735    0.8438142293599250    0.5171216692182390 H
   0.3175471956487955   -0.1873315582404071    0.3535450551026384 H
   0.3391608258573022   -0.0527290213594063    0.3685921620390883 H
   0.4253531294492924    0.5342182680917958    0.6391784853129795 H
   0.5528828394616330    0.8206025525769345    0.5940826939825390 H
   0.5231601607291096    0.7861556311348608    0.4838311315886965 H
   0.6284360524915736    0.6752234392843126    0.4212944630916985 H
   0.6412256394139929    0.7789479872461660    0.3425014555658655 H
  -0.0051526974657131    0.6753527854320200    0.3547349950429433 H
   0.7146567038935139    0.5171479804404125    0.4630696892061000 H
   0.7307007768860206    0.6021522264061151    0.5532751622164788 H
   0.8242028782492716    0.9405021766941966    0.5428790073035165 H
   0.7770014123651080    0.9002687170652129    0.3627651604247935 H
   0.1978178580076831    0.4571041371362442    0.6993291004407022 H
   0.0245662015588168    0.3577245985835616   -0.0710590067741707 H
   0.1075353591594976    0.2969914764659526   -0.1415756810576105 H
   0.2600798853669233    0.0954072922831283    0.8480769947814003 H
   0.6649803167128864    0.2394324407361632    0.9165255503618459 H
   0.3939988767663165    0.4053835482447471    0.8223875650714451 H
   0.3561088790115464    0.2774848860455806   -0.0288855134722261 H
   0.4256381824271226    0.2321235324291975    0.7499856616867311 H
   0.5469408235204573    0.2806930108933232    0.9588525320257403 H
   0.8203900978110032    1.1223781776777548    0.8917235596475784 H
  -0.0207042272603395    0.1717563237557608    0.9044872474638194 H
   0.8048948699166941    0.3418082147235678    0.7031736405072384 H
  -0.0503695804216306    0.3897650009090795    0.7610747907024131 H
   0.7610203345058234    0.2412807291099821    0.7678980390501279 H
  -0.0115044967484987    0.0572128214996822    0.9582892011849994 H
   0.7093123542787828    1.0715927954726421    0.8518891240324421 H
   0.1081896423619258    0.6641149878884423    0.9605502414087953 H
   1.0452331147465326   -0.1334818636807264   -0.0285918097489575 H
   1.0166018266970824    0.7344163210904059    0.7947357376518948 H
   0.1877787960895742   -0.0007197012316122    0.9037232782414446 H
   0.2735458825323151    0.6381155612377584   -0.0172766538795042 H
   0.0946280500818694    0.8926866501173654    0.7177330418391017 H
   0.1731938478703245    0.9954913086997996    0.7424408868512179 H
   1.0439180913405210    0.7123406779073457    0.6700837412593298 H
   0.3540686241343152    0.9186579950386127    0.8003883382113849 H
   0.3950304220728286    0.7341567778334930   -0.1292510826227142 H
   0.4700229784170925    0.8823193861863181    0.8182667613871206 H
   0.4390136240885076    0.5297728452258523    0.8400668932377136 H
   0.4707245867133538    0.6785217660508511   -0.0345464482414147 H
   0.5657692814013813    0.9475396282832763   -0.0399090491708356 H
  -0.0135838086083276    0.6913985154397213    0.9721872675435542 H
   0.6858569038626945    0.5206956389258870    0.8972333982816753 H
   0.7141495930710757    0.5669249732703066    0.7796770554241970 H
  -0.2400030425209908    0.8943545346535920    0.7037716972217237 H
  -0.1209170426779092    0.8486570512454693    0.6892292729836911 H
   0.8405540525162363    0.5484888924145127    0.6706123462263265 H
   0.8576572311860399    0.6787081266189295    0.6816158180867726 H
   0.2390032886691350    0.6593198198467899    0.2551836318788466 Cl
   0.2794414395627396    0.2587186321285339    0.8458622557225968 Cl
   0.6298833656773516    0.9099356396833443    0.8097627807501814 Cl
   0.0391215026934938    0.4220130378401276    1.0626134427737302 O
   0.0930108862681412    0.0911048309488614    0.2815166477821964 O
   0.3242506652627935    0.0530816587149778    0.3029587172901813 O
   0.4170275351548250    0.2755812851743870    0.0253453742414436 O
   0.4926232698996907    0.3901300633917536    0.1885176711506089 O
   0.4997251837313186    0.1755882033815923    0.2826525696966768 O
   0.3528929774605575    0.0176439628006953    0.0778404467132695 O
   0.9893721803618244    0.2692050306693114    0.2098439877461127 O
   0.6787990866243221    0.0434976793140638    0.1863299411047175 O
   0.7040971446871572    0.3941721305076096    0.1891674308326690 O
   0.8192026395497665    0.2176316581169812    0.1094008641442622 O
   0.2089223251164110    0.5997040101761534    0.0079964511885610 O
   0.0995710419540590    0.8714492040099089    0.1993930431212427 O
   0.5580043437925907    0.9455313591478194    0.0360232640265239 O
   0.5561475622408689    0.7097299280312518    0.0588983314404414 O
   0.4792368040899917    0.6134198076021253    0.2301609389447820 O
   0.7215247482930546    0.5605172331898022    0.0263073272453259 O
   0.9262195593066566    0.6227420908135365    0.0974779283156752 O
   0.9279519254702646    0.7512755702902668    0.2690531458523229 O
   0.7458794542358886    0.8634629303504755    0.3010140683605000 O
   0.0407263745818520    0.3226207348649739    0.5654824643667277 O
   1.0186097965685372    1.0654914015314447    0.4866470141063182 O
   0.1954862506392996    0.4620286513256039    0.6225077508574625 O
   0.5572987983005030    0.4169174803896549    0.6119163593654487 O
   0.5497102470647344    0.2125939660483775    0.5133566128182728 O
   0.9915376380663344    0.4008870676889190    0.3727916777038998 O
   0.7704585803408263    0.4047946828880792    0.3887084748561238 O
   0.7651551775626898    0.2112664661113806    0.5096617798518785 O
   0.1001109102457725    0.6587760554495200    0.5785656302214162 O
   0.2509085814089489    0.8129183702493178    0.5839010678007082 O
   0.0485294714925919    0.6197577688397876    0.3903228421421925 O
   0.3763555148291333    0.5776913381439507    0.6000756081047232 O
   0.3455477449268592   -0.1301112051868515    0.3979139181426981 O
   0.5041592536709900    0.7704273097659415    0.5574090845642178 O
   0.5891483502184378    0.7322472202318129    0.3820781480292108 O
  -0.1822561913354455    0.8790542469182046    0.6521358663361054 O
   0.8179710846952741    0.9823354439395610    0.4745408028329695 O
   0.6760328128367060    0.5679384684145137    0.5076114099287981 O
   0.2421286347161170    0.0131138692656933    0.8522055153265569 O
   0.0318925591757235    0.3210549657085160   -0.1401526919201771 O
   0.5001724491771955    0.2272449701607339    0.7274640033483398 O
   0.4543159293873240    0.4528357142619003    0.8095930098118760 O
   0.6068082483780919    0.2984798081260857    0.9140638717564161 O
   0.7401878439492706    0.2870156548240200    0.7069849980721971 O
  -0.0636560414573395    0.1138333317932448    0.9355090280087337 O
   0.7524986678592021    1.1453881765857015    0.8629319518831317 O
  -0.0966969888323375    0.4019660868684781    0.7035695154679237 O
   0.6976086459652795    0.4994326639734882    0.8225959203139109 O
   0.0458705177888114    0.7008688659517972    0.9236019117448525 O
   1.0903218813502598   -0.0723224098525819   -0.0009668370051029 O
   1.0024751680720236    0.7612939400071032    0.7230082879039035 O
   0.1311666447411922    0.9567300124624858    0.6863678609871602 O
   0.4132194793515483    0.6626266562283092   -0.0916869474643723 O
   0.4016582975269601    0.8572568681450148    0.7914506699956834 O
   0.7989032453081060    0.6187025765821748    0.6683057765236212 O
