Li1 Co1 H110 Cl3 O55
1.0
  12.6844855751000001    0.0000000000000000    0.0000000000000000
   0.0000000000000000   11.7376176898000004    0.0000000000000000
   0.0000000000000000    0.0000000000000000   12.9434247300000003
Li Co H Cl O
1 1 110 3 55
direct
   0.3780841374453762    0.7556356050519079    0.6773412792890711 Li
   0.5832197722012608    0.3726064317719758    0.7653264936937598 Co
   0.2920294059754013    0.0785747047888143    0.3014917571201420 H
   1.0752562811355850    0.2564278309656962    0.2392609320639979 H
   0.0383376286504363    0.3859600784950419    1.0900913907504912 H
   0.0956457225180325    0.4898346493169830    1.0538567766677931 H
   0.1259264932852752    0.0600994054792749    0.2564534452235347 H
   0.6012969735700039    0.2769660701868876    0.2202366007810052 H
   0.3981992614280836    0.1277228381874094    0.2862878984733742 H
   0.4160123606398913    0.3041692053066719    0.1608720959433431 H
   0.4298000699612148    0.3237779543801750    0.2886219020798524 H
   0.4499144055792746    0.1268785442035790    0.0510372547281773 H
   0.9804948504978650    0.3423660534106621    0.2639445074441283 H
   0.6771266155610167    0.4205940230265004    0.1023464726402438 H
   0.7091397388048262    0.2525957075153740    0.1712464754295365 H
   0.8974091002906327    0.2152158906227796    0.1445070299412171 H
   0.8569186919915203    0.1941852175744903    0.0385997582109785 H
   0.7627028096899175    0.0126785391067321    0.1344131017324655 H
   0.7201500394727663    0.3737071662090181    0.3181998544368249 H
   0.2462269966809732    0.6365833376387058    0.0048766741659725 H
   0.1909886509197990    0.6868354429285698    0.0983970542238399 H
   1.0879962538402903   -0.0772557242078185    0.0406818810310337 H
   0.1593815354694872    0.8540857361210251    0.1993649995135406 H
   0.1053289689747207    0.6742920117237912    0.2826142185168021 H
   0.0357697586483655    0.8744442114364767    0.1819414810318134 H
   0.4141455131544494   -0.0390743818056503    0.1610760605087553 H
   0.3555684431108230   -0.0374331629050943    0.0516411134566856 H
   0.4135037843313287    0.5909633477777885    0.0172057140706994 H
   0.5384477555012045    0.8569798498072734    0.0789481830594305 H
   0.5423304513904788    0.6708441229724673    0.0793041166779358 H
   0.4877117602422933    0.6124992340777543    0.1823664072097555 H
   0.4096486812047193    0.6296219590898879    0.3225735036974252 H
   0.6070599191437287    0.5207940833012562    0.0620431517740977 H
   0.7119683911603016    0.9257101510762480    0.2838812711201203 H
  -0.0168783519940510    0.7061178906944978    0.2575999733109276 H
   0.6940859158595080   -0.0980989656956206    0.1067466218424866 H
   0.8023953929656907    0.5862971538832987    0.0283197509659408 H
   0.9209496686670248    0.5474451472792422    0.0393580351125509 H
   0.9004443041837711    0.7159827545075884    0.1043737568055530 H
   0.8609472353405947    0.8239169225373520    0.1611170079404479 H
   0.9634504068174364    0.5327462531288620    0.3304871743168085 H
   0.1365276327011273    0.1301134425452583    0.3558707190009672 H
   1.0883352506387447    1.0914933663270725    0.5489695357466647 H
   1.0636357862304271    1.2087488466445144    0.4864752564601965 H
   0.1242930017355135    0.4084101196332015    0.4839990957323704 H
   0.0127576941644103    0.3869398343794062    0.4392296462174428 H
   0.2867276537205040    0.4656585338990651    0.4519349389379112 H
   0.4600843095329068    0.3278878173246736    0.4620219138092056 H
   0.4728179753204314    0.2229781131118606    0.6562124045356890 H
   0.4282753727328175    0.1113976344651484    0.5158770576015858 H
   0.5530175225529159    0.1738889354586551    0.5328965099177426 H
   0.4759635502642293    0.4500838231842271    0.4041114290931563 H
   0.5912634567004010    0.4981012330961019    0.5995457946314336 H
  -0.0179192298382355    0.3634478441572661    0.6058864657993804 H
   0.8673960581577043    0.4394325987787294    0.3783130019407159 H
   0.7075756233440506    0.2539153960935307    0.5905559018922807 H
   0.7568515672756649    0.1711839572561710    0.5140684172696541 H
   0.7231363647577553    0.3263559902985110    0.4385814406478184 H
   0.9047014732806403    1.1062749007563948    0.4476261874935785 H
   0.7033815234189866    0.4975670531487138    0.4591710454517396 H
   0.8933726732950825    1.0241798772630526    0.5362688785845012 H
   1.0101610121858635    0.6997281784051654    0.6006675997412008 H
   0.1943502377770306    0.5523609659338353    0.4717140936315392 H
   0.2067456951307484    0.9019489409763174    0.6508181598549768 H
   0.0758062108161150    0.7217139004503001    0.4436898258997331 H
   0.1570022509631258    0.7617961396604628    0.5238193141638489 H
   0.2931220793769311    0.9162704161208077    0.5660523406929876 H
   0.3041710099126021    0.5694121261683283    0.5978901277235612 H
   0.5249612014752522    0.6692535105932429    0.3473335657895852 H
   0.3924583900644906   -0.0087333015786568    0.3972438494645613 H
   0.5251236045926512    0.8968882888431663    0.6130530389386365 H
   0.4728818328568845    0.5113356051897672    0.6432289783169312 H
   0.4346548194609409   -0.0874102549780254    0.4997514954452090 H
   0.5468052091300770    0.7899969218590215    0.5466903862467937 H
   0.6501432587686935    0.8004087450440790    0.4046723316480398 H
   0.6485752014846801    0.6751294900145129    0.4657782612222136 H
  -0.0727138051392934    0.8601099568674077    0.6465696706686067 H
   0.7716081767488501    0.9452115529832905    0.3928678824248086 H
   0.7446532010838394    0.5584797544221000    0.5624095644584476 H
   0.0025397788037412    0.1696129399946338    0.8889545159042309 H
   0.0472905096583131    1.0149360934844851    0.6849544112116918 H
   0.1478241097361347    1.0857596644994449    0.7292703486057974 H
   0.2780193778234635    0.0172560437946460    0.8707290458357694 H
   0.0595826124067347    0.3756786054406868   -0.0898830224046893 H
   0.1315956234659394    0.2935827299857060   -0.1467226931523246 H
   0.3037594835665714    0.3751691323808174    0.8363641069360165 H
   0.3940106800555527    0.2024279464277291   -0.0286169342910839 H
   0.5623123417477471    0.2736331962567718    0.9441253856621300 H
   0.4359824255274461    0.2090383167814531    0.7740297544110646 H
   0.6281825731460285    0.3876282193833769    0.9517045234905153 H
   0.8393223930577940    1.1071013035458153    0.8398562275256496 H
  -0.0047429761375660    0.3489500129535902    0.7278140107050323 H
   0.7508473821197842    0.2228724698686769    0.7315379092099067 H
   0.8135728269389153    0.3324492199376183    0.7004958930216609 H
   0.7461566124667522    1.0228252582577142    0.8173119623031948 H
  -0.0072631414064479    0.0575977905199193    0.9485677957042518 H
   1.0580462808791673   -0.1374570375129922   -0.0698288245849752 H
   0.0911592969816503    0.6868039203479424    0.9233967141090641 H
   0.1991616272211405   -0.0679301521119475    0.9203217937668651 H
   0.3321611083598701    0.5255497331677966    0.7108161909942980 H
   0.3797933120013045    0.8470442731781809    0.8603608470939823 H
   0.4014299797538188    0.6583407339647018   -0.0877529833636233 H
   0.4968828061874564    0.8091251645683668    0.8285300134008660 H
   0.6250440934840589    0.6082027915344072    0.8123596408475425 H
   0.6115914391379519    0.8083379520143211   -0.0219897083605940 H
   0.3607992425474393    0.5000956752920123    0.8626168188023295 H
   0.8802306346201175    0.5018967221959654    0.6892183522590779 H
   0.9870934625980124    0.7380494129083881    0.7211318534086303 H
  -0.1158081818693242    0.9892579696977548    0.6942695656252331 H
  -0.0307133631942286    0.6753697431965918    0.9159952726823637 H
   0.7138770219720647    0.5560780745629496    0.7489189350738397 H
   0.8635961405564246    0.6371158136628169    0.6834099977031350 H
   0.2665092539689651    0.7366794585935552    0.2323238190608306 Cl
   0.2664840263002429    0.2083780465115554    0.8466627723032311 Cl
   0.6576019766993381    0.8218764744129585    0.8409146800052508 Cl
   0.1665201773532190    0.1280738463825034    0.2873046309282319 O
   0.0306288485488649    0.4462210291149161    1.0394324644092863 O
   1.0113041409248376    0.2928142605877090    0.2097973234785443 O
   0.3692670672269713    0.0545114742880079    0.3031366077253033 O
   0.4510417670252974    0.2769251760282359    0.2269203032635088 O
   0.4543970469653485    0.2028045134719804    0.0202353604601214 O
   0.6747914794749192    0.3125729549096018    0.2136324753827344 O
   0.6683883818073688    0.4726812536858607    0.0420541608078714 O
   0.8293811148519565    0.2024961033588153    0.1071287463654142 O
   0.1745220785260381    0.6488149508837652    0.0346654671665093 O
   0.1049974616404182    0.9120532060098483    0.1752168311176172 O
   0.0364145778609046    0.6814646767589764    0.3107396959382635 O
   0.4283455371864511   -0.0218743838728977    0.0910839974421515 O
   0.5929024668026956    0.7943998596071908    0.0575958743957558 O
   0.4941795038109444    0.6081567856059240    0.1039256528360867 O
   0.4847136094875908    0.6086194007756717    0.3146961449514297 O
   0.7472926459238983   -0.0634999515913437    0.1553295133968767 O
   0.8750037770067391    0.6140762150707615    0.0199128028614109 O
   0.9171734020051722    0.7674523129789799    0.1602331614903284 O
   0.0586435912750159    0.3589997524422522    0.4920665123688636 O
   1.0648183332017795    1.1259637342239242    0.4793133188792454 O
   0.2324408640889448    0.4893311399885836    0.5050970667637205 O
   0.4319806865763889    0.3862378179892181    0.4089355001023751 O
   0.4748401306414443    0.1828967258633365    0.5296323042780966 O
   0.5336450380682179    0.4581237851674844    0.6328182869573500 O
   0.9420147720500521    0.4553438343408055    0.3584828561057349 O
   0.7512116065869607    0.3940375267903966    0.3892243335972179 O
   0.6947686396443021    0.2241947143317495    0.5210634747516316 O
   0.8488458380004200    1.0579090385343417    0.4789586986689264 O
   0.1052696839532235    0.6984417163309132    0.5096561383565137 O
   0.2559073261884654    0.8578863369907200    0.6076603394440260 O
   0.3838005695048946   -0.0236307027908255    0.4811219592111771 O
   0.3524197147084349    0.5823653509212628    0.6543180063751179 O
   0.4921329091858569    0.8255024231467450    0.5919890620015218 O
   0.6085317959407389    0.7467777598956160    0.4471031419981842 O
   0.9584364076589016    0.7385324751574615    0.6478969855298876 O
  -0.0690400258816248    0.9447174152329154    0.6493996790137011 O
   0.7149775790200701    0.9044111101118067    0.3595019063397451 O
   0.6810644969756208    0.5508035800585153    0.5185440488129605 O
   0.1249292120061012    1.0296920690646501    0.6771388599097606 O
   0.0616789528410837    0.3252850745188189   -0.1539062633386983 O
   0.4965193700849274    0.2345341207775278    0.7320385495068276 O
   0.3384522582474658    0.4439633307726853    0.8065497411054980 O
   0.6172645111418540    0.3168395787955987    0.9089724018505573 O
  -0.0509707081593573    0.1191837970762734    0.9215579426481512 O
   0.7955610598359204    1.0788417359941946    0.7872982674655690 O
   0.7384101414397454    0.2991928973757398    0.7029117914915244 O
  -0.0559279450632673    0.3760440969836367    0.6714440765322858 O
   0.2777513338432903   -0.0580899951863757    0.9050399032219659 O
   0.0267968129718434    0.7200926174520870    0.8886918342669576 O
   1.0735218789109346   -0.0632741817571207   -0.0362731769059393 O
   0.3793470976107807    0.5909846468187530   -0.0540331596612916 O
   0.4189135425429429    0.7889140786163894    0.8184476740878766 O
   0.6508046967080033    0.5291952770192704    0.7973968312326255 O
   0.8228928738024688    0.5644520055085293    0.6845039894630731 O
