Li1 Co1 H90 C51 N3 Cl6 O45
1.0
  14.6876722897000001    0.0000000000000000    0.0000000000000000
   0.0000000000000000   14.3341428658000005    0.0000000000000000
   0.0000000000000000    0.0000000000000000   14.8148328907000000
Li Co H C N Cl O
1 1 90 51 3 6 45
direct
   0.9015908295071633    0.3935090493871112    0.5476620293498725 Li
   0.6219685776626618    1.0023958228560661    0.7934018920171982 Co
   0.1892928020425480    0.3110178944523298    0.1293093522912821 H
   0.1152749468945690    0.2748755171333434    0.0121510952386783 H
   0.2314710306808895    0.0192711162073787    0.1758174705456922 H
   0.2880286651116730    0.2551164005505332    0.2912349047223128 H
   0.4328344558489499    0.1592773948379772    0.1648966588704175 H
   0.4019316694136685    0.1608261445754287    0.0491410501064114 H
   0.9539245134864169    0.2132834143989379    0.1398589144195266 H
   0.2479705818160238    0.5643207974576402    0.3202254443503103 H
   0.2992121934992984    0.3758826030508727    0.1056195811956989 H
   0.2829672776750720    0.5868809186331837    0.1542505718599452 H
   0.1296434591977741    0.6074102242746184    0.3339508776036038 H
   0.5216205803129670    0.5501253201343685    0.9576278416414631 H
   0.4156499765780582    0.3330164194392928   -0.0000670648555607 H
   0.6951190387301687    0.3252601133217317    0.1998474412261904 H
   0.6369171682677210    0.6473414573702261    0.1742939974045157 H
   0.8026765855517874    0.2832778332765262    0.0297469737695554 H
   0.9700380265967257    0.3655080727149983    0.2312457029164726 H
   0.8166052732270609    0.4034368840216838    0.0439118314866974 H
   0.9066488127283778    0.4615850417318087    0.1864608575594589 H
   0.7589160776018155    0.4694080138515819    0.3000773939333949 H
   0.1738499193633735    0.8851066332798069    0.0672553280047779 H
   0.0880718617413012    0.7658215099202824    0.2229189130761742 H
   0.1750611391978789    0.7384867746892804    0.1337110219207071 H
   0.2039690554166899    0.8238584646087183    0.3616724187799346 H
   0.4168339626894719    0.6663059676688212    1.0089203540583276 H
   0.6943483243666722    0.8372900315885171    0.1018848107525755 H
   0.6632017961097197    0.8877876446496384    0.3207667936897979 H
   0.8263426909185146    0.7175598170882297    0.2989784952741856 H
   0.7749349535243804    0.8748925589978125    0.1917272011338760 H
   0.0545280850091978    0.0764716065105873    0.6684284945000213 H
   0.1037203590298185    0.1543186051380649    0.3680363110152081 H
   0.1587985214536428    0.0563120474280937    0.5155751739997586 H
   0.1679041167693680    0.2816069974111224    0.5901198150461834 H
   0.3129577343867799    0.0821461697378083    0.6364072085699047 H
   0.5220647351028703    0.2826834482421530    0.6235417242673684 H
   0.6060491048293817    0.2366904644849616    0.3833992922704928 H
   0.5697147565763746    0.2026319229613660    0.5594473799703039 H
   0.5794194257158106    0.3544993921487890    0.3471025615569416 H
   0.4949995138643238    0.2743850797164837    0.3657608887915014 H
   0.4498174055689627    0.2422324770589772    0.5313796992163058 H
   0.6325876871392108    0.4437576067472099    0.6196820789766074 H
  -0.0109199983248861    0.2051608498975199    0.4093914855568395 H
   0.6948112976592319    0.2807140245895288    0.4954069681074354 H
   0.6877101043630592    0.3842179462324360    0.4530432097963995 H
  -0.0894191626076119   -0.0231981130796021    0.3803091460408490 H
   0.6643258680303316    0.3290998964545844    0.6565977839349345 H
   0.2947138632876193    0.3181177260190162    0.5637340297400671 H
   0.0934062672518970    0.3366943512482317    0.5194309987951811 H
   0.4393548900001912    0.3968360707825645    0.4437145186785431 H
   0.5372433757753164    0.4628866193827831    0.4386891498101074 H
   0.4962626139413190    0.4473667517434853    0.5494812871301555 H
   0.7847431788958726    0.4565297691090633    0.6519105896538846 H
   0.0249311555961656    0.6286008879120460    0.5748357411946220 H
   0.1126611903208387    0.7101530261141203    0.6010095767593430 H
   0.0225733960194977    0.9071630619731702    0.4930771409501093 H
   0.4421034535032257    0.7595253538930303    0.2639811379752400 H
   0.7326048968798025    0.7182393135946612    0.3713451569780116 H
   0.9277106933244568    0.7956300589211057    0.4041777919181831 H
   0.2298193053753751    0.1650747418281672    0.7649392017451601 H
   0.2708537176438633    0.1383999693231242    0.8787460878868459 H
   0.1062122446927132    0.0808646142118180    0.8671091020853913 H
   0.4061501731205799    0.0031543520476469    0.8903236737607759 H
   0.3857221574294613    0.1623372220219692    0.7231162527742706 H
   0.4010499776285732    0.1568335793738814    0.8454571535034155 H
   0.4732170289552372    0.0854236590470637    0.7657789007206246 H
   0.0599428300029142    0.5946560608962003    0.7381282344578178 H
   0.4122512079362083    0.5889012696420394    0.7048352500793288 H
   0.3052199528133376    0.5417795124275523    0.7260410242056918 H
   0.5233075392477314    0.5177820538267515    0.8369352889011321 H
   0.5105691354823365    0.6692527779800804    0.7386952337660093 H
   0.5451965760984145    0.7515520832852225    0.8255730277644798 H
   0.3786127940163611    0.4160442649925524    0.7191810075757508 H
   0.6037267490927331    0.6031086067605977    0.8766805904070054 H
   0.3576578057834171    0.5386612234291465    0.8962184415684386 H
   0.3166907969795809    0.6494308742457517    0.8495692484861569 H
   0.4275490710399193    0.7537028920422328    0.7840828533875647 H
  -0.0247622189293433    0.6286915804642392    0.8093122976045585 H
  -0.1541414672213008    0.5502460109922871    0.8059892766590503 H
   0.9254809322463201    0.4461825163023485   -0.0382929432134280 H
   0.8253690853179847    0.6918931271825639   -0.0065862068995224 H
   0.2475048851511550   -0.0029290252994598    0.6752216862114969 H
   0.1786982029167815   -0.0196429650336324    0.8616159587876977 H
   0.0768781207075164   -0.0399343771343144    0.7384569590567335 H
   0.1244622433795695    0.8044753733000010    0.8313321207376823 H
   0.2974052359721611   -0.0502335628883669    0.8737699939582889 H
   0.3980379278546261   -0.0813027383646743    0.8059514767051709 H
   0.3710853929538024   -0.0249268526514061    0.6634119006208791 H
   0.5156336582013085    0.7289005719224690    0.9842673591379951 H
   0.4056626894772377    0.7726729834209631    0.9423276353095853 H
  -0.1277601596623265    0.7887395178594803    0.7089878450126553 H
   0.2407679429013343    0.1535686474949296    0.1680711799971137 C
   0.2576725956674583    0.3115306561897292    0.0995216386359343 C
   0.2478562001790385    0.2954864460717520    0.0022346823379144 C
   0.3134601965778226    0.2329483502544706    0.1546251964028574 C
   0.4033743758944537    0.2033504870287422    0.1120016984087357 C
   0.4763707621735691    0.2833845714341073    0.1046982073198877 C
   0.8278773112147345    0.2303936108226926    0.1997387663587870 C
   0.1659357994329121    0.5527044767917372    0.2100473537810501 C
   0.1888808919807853    0.6113037253037702    0.2915481043401709 C
   0.9432502557206071    0.3295156869246390    0.0392496121751749 C
   0.8444558401468349    0.3381258983028491    0.0683771766359854 C
   0.8277282065808073    0.3343544834016496    0.1723729497484287 C
   0.9014914264178784    0.3951352366114353    0.2247616608277967 C
   0.8773970707555334    0.4062030068635735    0.3270139110675510 C
   0.1630640033328875    0.7633079309544996    0.2025123379746905 C
   0.1832414687715621    0.8697691274339189    0.2063888582448619 C
   0.2230762355378589    0.7146583530530672    0.2775756213883083 C
   0.3186441357683364    0.7244168716690453    0.2445816616449727 C
   0.6095295746405067    0.7820903585136918    0.2445101117322723 C
   0.7047550108031057    0.7518011389862451    0.2261150341765157 C
   0.8195683022994428    0.7665142614920344    0.0952104188961495 C
   0.7470401318045823    0.8194508065721333    0.1527824486512350 C
   0.0485128364213084    0.1531082083837954    0.4260403402432015 C
   0.0935798822366069    0.1821619162963652    0.5175145411334936 C
   0.1395694704216382    0.2769112161125702    0.5260987756596781 C
   0.2214415313092768    0.2808089029518231    0.4626718030483387 C
   0.5209829163036354    0.2608272407986313    0.5517861393179541 C
   0.5595004763935845    0.2944971996178303    0.3915863572812727 C
   0.0122865379646679    0.0539359025606343    0.4212869960428625 C
   0.0179341312908187    0.1908551462415828    0.5877964678809511 C
   0.6555668218409487    0.3460266148689023    0.5056075556614715 C
   0.6750273595192331    0.3814029889393654    0.6021766503353705 C
   0.4982145229596122    0.4167263427485463    0.4837737623013686 C
  -0.0693145473782078    0.5485863372871532    0.6930160145002411 C
   0.0373340739352240    0.7039084950781167    0.5933652110864035 C
   0.7983396151494269    0.8513313315730606    0.3463688374521747 C
   0.7651335365836610    0.7576396464424305    0.3141146768061938 C
   0.0042900360218540    0.7707949499555490    0.5225372100052236 C
   0.2408755161075467    0.1074235793040605    0.8121020692006961 C
   0.1547890365714605    0.0416645026138902    0.8235122552788741 C
   0.4102052744889409    0.1210218810528914    0.7776912861860581 C
   0.3588690256179225   -0.0235699525435938    0.8386329118298246 C
   0.3783731372531537    0.5478621921396422    0.7538381652897816 C
   0.3719480211327335    0.5952399814053206    0.8468078268554289 C
   0.5331149476075310    0.5739969951416277    0.8877553018945036 C
   0.4886575286836412    0.7109280986178630    0.7959439389155903 C
  -0.0076145051846254    0.6248134274054586    0.7382348843276918 C
   0.0257427205442996    0.8056669339088151    0.7403618067325866 C
   0.3145291202091736    0.0216612137751755    0.6813641787169051 C
   0.4505356269311998    0.7075257326405879    0.9558039938667804 C
  -0.0122033875255846    0.7156866670679336    0.6890773943058393 C
   0.5604017764593058    0.3315458048237308    0.4866670112712512 N
   0.3307978655411054    0.0528413132191652    0.7762083129954667 N
   0.4607972257078619    0.6450357736394706    0.8733406944820868 N
   0.6641127641471386    1.1331228581272761    0.7424873791391283 Cl
   0.3036900984186587    0.3152316099542248    0.6774390585060317 Cl
   0.8608022015895780    0.5523165917223574    0.9291503013875436 Cl
   0.1787921592614481    0.8329612063088386   -0.0520332264486027 Cl
   0.6390155266319402    0.8741119054139350    0.7270123480205581 Cl
   0.5882797813550947    0.9948062515075369    0.9404653125818467 Cl
   0.1604754379530171    0.1723141003982277    0.1848131845698214 O
   0.1683364521234495    0.2674310538683232   -0.0295159289224584 O
   0.2789727713405901    0.0716146715231381    0.1646901091224335 O
   0.3355351716729146    0.2680924118643160    0.2416568902135514 O
   0.9076707581873955    0.1830807016135831    0.1871345067375246 O
   0.7603118059102675    0.1891326853849307    0.2258943094458269 O
   0.2264607064750856    0.5425713281716997    0.1382726663549432 O
   0.0903370266594572    0.5154981363085223    0.2012986894554901 O
   0.5379020914525980    0.2936035291612197    0.1597275151774048 O
   0.3375375311632352    0.6744159747399355    0.1800713153554815 O
   0.4725174626933180    0.3433693230896444    0.0325286453755760 O
   0.9978109774056881    0.2692037444461899    0.0674051778219428 O
   0.7420863175741937    0.3746045356999668    0.1978494436639916 O
   0.7002314893975666    0.6580271329236245    0.1958851960606138 O
   0.8023089302900489    0.4643124458302621    0.3538917032733587 O
   0.1895093101411274    0.9179596614942510    0.1274031546170763 O
   0.1821562049063560    0.9148363495237238    0.2767966723387213 O
   0.2081201556589493    0.7524694733324067    0.3637109162927185 O
   0.5980253691634760    0.8561526871746495    0.2986207457106839 O
   0.7436365972611914    0.9188651917461483    0.3565458000350362 O
   0.8972436464586434    0.7502049500676465    0.1204459381057310 O
   0.7792623921236589    0.7373552106919171    0.0143313425785100 O
   0.1609493047348134    0.1171862837301399    0.5509992927780031 O
   0.0636384462264641   -0.0097867775152924    0.4449762271391045 O
   0.2171787728023412    0.2563833057411692    0.3833392173437916 O
   0.0132009102174733    0.1316036089887763    0.6529575133765095 O
  -0.0743609562671083    0.0447257250679160    0.3953656776700398 O
  -0.0351192038211343    0.2603912189130875    0.5858646202380413 O
   0.3015141239436282    0.3068871975174423    0.4949157037068380 O
   0.7707661513621114    0.4057954484867180    0.6059309957546101 O
   0.9266111317546275    0.3784429235627857    0.3892198101687495 O
  -0.0488204899085916    0.5072520904091183    0.6248849726284412 O
   0.0086236022088281    0.8587423083572711    0.5445232831795265 O
   0.5448952349524043    0.7372505654393866    0.2112650522953090 O
   0.3791860638874422    0.7645490236495115    0.2988097454800810 O
   0.8852975738244490    0.8623441979493711    0.3677926363125210 O
  -0.0235768711317750    0.7417105461022369    0.4482727881168971 O
   0.1165324640583304    0.0172723918840460    0.7338608896645000 O
   0.3084566808027916    0.3056091301665363   -0.0533481248442659 O
   0.4229145722127814    0.4558870379680209    0.7561385624830158 O
  -0.1478082649163152    0.5283132032239132    0.7366661862416953 O
   0.9729213970290642    0.3949524562370154   -0.0179727680065259 O
   0.1126700412808435    0.7876526025031968    0.7629466041763727 O
  -0.0166411227033846    0.8803020209186229    0.7479649974557643 O
  -0.1078870310792021    0.7351562651187428    0.6706141418332643 O
