Li1 Co1 H90 C51 N3 Cl6 O45
1.0
  14.0722654158000005    0.0000000000000000    0.0000000000000000
   0.0000000000000000   13.7335487159999996    0.0000000000000000
   0.0000000000000000    0.0000000000000000   14.1940980447000005
Li Co H C N Cl O
1 1 90 51 3 6 45
direct
   0.6185306306635757    0.6660025057721578    0.3289944177991408 Li
   0.7138393787841251    0.6677267505751352    0.5796821324249141 Co
   0.1301686081363514    0.2774081147403271    0.1782437330242827 H
   0.3081818793462157    0.1502727299897103    0.1706032334547807 H
   0.3216480835713885    0.0833766917552761    0.0680338419080161 H
   0.3001540318986285    0.3263255514416891    0.1029568076673721 H
   0.2774419815956866    1.0008387593212948    0.3131554402683391 H
   0.4831573312187613    0.0926124692387919    0.0641364473834900 H
   0.6432615456738378    0.3074040035319885    0.2612627453129854 H
   0.6776284358446986    1.0191865298218965    0.1674152887289165 H
   0.8739969606237562    1.0925943591344669    0.2576612484204732 H
   0.3294130024932073    0.5636291113149753    0.3035225633099434 H
   0.3314162336125087    0.6049410847700961    0.1364517150931752 H
   0.1583033816288603    0.3849098268273111    1.0226101705574617 H
   0.6298408209774465    0.3833676180043777    0.0641942178735499 H
   0.6727244635302965    0.5825928915720461    0.1719488631622725 H
   0.8377135346853339    0.3741114524910971    0.2369702542428149 H
   0.7488010559173325    0.3934101789514489    0.0310163436249045 H
   0.8238309085247547    0.5001672182512685    0.2636559935414408 H
   0.8198550028445520    0.5724571282031924    0.0879857965238112 H
   0.1600003365465232    0.7987154729513248    0.1245263360048432 H
   0.0804523770017052    0.7460517357806561    0.2450792583963389 H
   0.3343034730725022    0.8585747283411757    0.2481636389509982 H
   0.3852995265717677    0.7261821444868861    0.1184421170761000 H
   0.6461715248982220    0.9000534467540168    0.1569912378639694 H
   0.8774008191060031    0.9630364395614236    0.1223113308737676 H
   0.9203938967749837    0.8090114279826174    0.1829647092912475 H
   0.0816952472491895    0.2321860084338598    0.3800818484845139 H
   0.2410363294236638    0.1622048244096388    0.4143052276996084 H
   0.2641065310157607    0.2921472039725351    0.3789926633914341 H
   0.0022076902035346    0.3178725286723627    0.4507352987313553 H
   0.0527986916495890    0.0013607450183817    0.5226149628556257 H
   0.3904600318532033    0.1336492042920860    0.4564395005584120 H
   0.6236079936814575    0.2473131983755218    0.4962093399819730 H
   0.5724329355993782    0.1425209098155137    0.5484572529993776 H
   0.4984609794684739    0.2593268449145100    0.6376579190799367 H
   0.7298709126796343    0.1383399074258616    0.5374302754832937 H
  -0.1209935107952343    0.0310697451054937    0.5834153037636725 H
  -0.0200062171357216    0.0569079321129486    0.6500503937159479 H
   0.7412763257568915    0.3320327434880306    0.6121134992190788 H
   0.1149485995825386    0.5178745133596830    0.3427261814791007 H
   0.2418251150009694    0.3793948647758960    0.5594506954505002 H
   0.6099520545471490    0.4021879539091738    0.4986950209945241 H
   0.5707596442490345    0.5033498625119670    0.5664224663716508 H
   0.4940795953644778    0.4043815602830968    0.5398154217527772 H
   0.7141982406909172    0.4613354486170522    0.6332807476806452 H
   0.2744502813430228    0.7970167131855537    0.3405259712296258 H
   0.2685208877781234    0.9705574381129244    0.5867846619186881 H
   0.2791261453958797    0.8425708531196213    0.5683491122151471 H
   0.3797851337070003    0.9608148724609658    0.4805446602467909 H
   0.5005759196803451    0.8862543913227563    0.6286865846845435 H
   0.3873034683087064    0.7281168228827944    0.6385512481213501 H
  -0.1172428709060279   -0.1342174684866790    0.6455943162814527 H
   0.7104568388309945    0.9225938699469932    0.3536236685552701 H
   0.8396499677467374    0.9235040498472137    0.3633122024492113 H
   0.1148924607891988    0.2811930068374034    0.6749156580595168 H
   0.1629522422115031    0.0565482290163815   -0.0300273378595652 H
   0.1934107353776962    0.2468457299787686   -0.0967853662327606 H
   0.3124676143162430    0.2416030937534995   -0.0765487862756950 H
   0.0094929422202350    0.0290593397418870    0.8193122934459619 H
   0.6006777837638915    0.2444981939801203    0.7156973969327481 H
   0.7633083149810214    0.2200078013689117   -0.0024975857915281 H
  -0.0888401945642899    0.0974808394890904    0.7734876135014077 H
  -0.1094715564254743    0.3101549312624144    0.8293601316073486 H
  -0.2304016234557127    0.0107370542784916    0.7169084636694908 H
  -0.1072025543098554    0.0332534487221023    0.8852495581494044 H
   0.1359466401445245    0.5356858602342909    0.7533665745244618 H
   0.2529640464642720    0.5975504239803069    0.9014429083204514 H
   0.0406258115241425    0.6231665270921081    0.7550926440445430 H
   0.4700845959793128    0.3942854079435007    0.7241544330629743 H
   0.5498993213851403    0.4890396500487428    0.7330024767783616 H
   0.5726513794610573    0.3736119457618561    0.7957412289833681 H
   0.7200395176688023    0.3672530649069567    0.7287309831047895 H
  -0.0124573259756154    0.5741369562270391    0.9954876299925295 H
  -0.0550211905917199    0.4540889603234579    0.9181442160931221 H
  -0.0719409965337445    0.4956265855794413    0.8050317101104334 H
   0.2612221340263161    0.8753256792248306    0.7334801400986127 H
   0.0024812779938613   -0.1250020790329281    0.6848162519230679 H
   0.6101858477497918    0.9518121010319064   -0.0011857729562665 H
   0.3463875259932972    0.9736833599622411    0.7271465217371721 H
   0.3374593259993620    0.7033679391799232    0.7468878254197001 H
   0.3449215218077282    0.8098822881111482    0.8741146484494524 H
   0.5111551260555212    0.9606787095478928    0.7348018161882748 H
   0.4027245816538502    0.9236649696535726    0.8648171221406725 H
   0.4608196342871027    0.6921108341739981    0.7324134995870197 H
   0.5624622595316526    0.8387153310622880    0.7274248064148995 H
   0.4747161174916076    0.8159266107925314    0.8740695592864789 H
  -0.2276088961414684   -0.0257968387724325    0.8410924727167001 H
  -0.2454382926591247   -0.1238654463735329    0.7563178011447148 H
  -0.1073588901900421   -0.2193149202937593    0.8091820266585142 H
  -0.1195360340213119   -0.1301602505634568    0.9058172616470570 H
  -0.0090357020524383   -0.1432464530968647    0.8464115849112358 H
   0.3165351896716462    0.1560381735496660    0.0939706783903782 C
   0.2326197741285214    0.2122166614230256    0.0501468300527752 C
   0.1403794729654547    0.1651268659613062    0.0937839810749409 C
   0.4101263749630534    0.2111834252002955    0.0834641988993700 C
   0.7045530275010349    0.2675170077286527    0.1170189903697474 C
   0.1838401370397211    0.6616438362659827    0.2484172654927244 C
   0.4233062002804298    0.6555070393067371    0.2472047897196388 C
   0.6391676774658578    0.4490767088345325    0.2532256020129504 C
   0.7043675562977225    0.3761327800135064    0.0937501642027107 C
   0.7185706710126846    0.4508572391625396    0.1699043514286907 C
   0.8991350595401409    0.4696294665985296    0.1410944898431078 C
   0.8223208460456786    0.4479906821775896    0.2082787517100375 C
   0.2519158854493839    0.7330638326764720    0.2025362240944533 C
   0.2680945171957961    0.8229488307587113    0.2651143461563664 C
   0.1857033764844917    0.8960413737538455    0.2689920141720916 C
   0.3454239284772374    0.6774074239938788    0.1710005817034851 C
   0.7060176104513294    0.9486046270635299    0.1513635467103334 C
   0.7414269766959805    0.9481480808255794    0.0486898864741925 C
   0.7895023917063035    0.9224067369595079    0.2203556022052338 C
   0.7902314854020832    0.8065357386540180    0.2242438379935309 C
   0.7765449897093747    0.9538254189711938    0.3263630424287315 C
   0.2477516660953199    0.2416387728055881    0.4380855340591263 C
   0.1550515953209768    0.2866009317325525    0.4943234152887871 C
   0.1309843971838711    0.2012879493251000    0.5604869007770861 C
   0.0738358161816216    0.3039992025612442    0.4191826070006377 C
   0.3343681392774885    0.2536633415033790    0.4997065681851088 C
   0.6157869359662991    0.2095283540697348    0.5616387879874259 C
   0.5756931071953808    0.2672133717139392    0.6419427985987667 C
   0.7790946857916923    1.0638945665207191    0.3559647824390373 C
  -0.0533796638497595    0.0011699713112956    0.6085042526266805 C
   0.1099010825054197    0.3851850652291377    0.3523252415652662 C
   0.5664058321093622    0.4217158272612050    0.5572224453778012 C
   0.7047043890577611    0.3859794702460500    0.6562846750152124 C
   0.3139222486196165    0.9028604415662962    0.5928590175930307 C
   0.2453028777174864    0.2100431518212995   -0.0563516593362312 C
   0.2643758551002642    0.1123823048154978   -0.1054438945600247 C
  -0.0692029867775655    0.0312350337753737    0.8178736673398371 C
   0.1367276089278208    0.4787091081812419    0.9324445259374515 C
   0.1031459512460797    0.5931429688314800    0.7961111010233856 C
   0.0628816453039942    0.5367742897661704    0.8798585851013796 C
   0.0171278181144438    0.3728372006307886    0.8003663907790141 C
   0.5446696019458402    0.4087362249977110    0.7278052462274888 C
  -0.0209826057692513    0.4657519473133677    0.8508211641464145 C
   0.1691445643021710    0.6784566793828527    0.8171360368143168 C
   0.3315221156404533    0.9000920383817861    0.6990010207872775 C
   0.4085424082497072    0.8479030510470722    0.8502920709996469 C
   0.5040909898228157    0.8854112006631921    0.7049379954181852 C
   0.4013253755261792    0.7334424675149637    0.7112293426893381 C
  -0.2137660645685730   -0.0507204770161460    0.7703708251108612 C
  -0.0682230450558498   -0.0813047060953099    0.6716551479619920 C
  -0.0850540237932228   -0.1446743433243304    0.8363045672234465 C
   0.5968326317289356    0.3691083756155659    0.6446551935588942 N
   0.4130761487751217    0.8367260418723665    0.7382546597466085 N
  -0.1053556590707407   -0.0603669276706413    0.7744267362239661 N
   0.4768621116942250   -0.0591917033834767    1.0446235453429538 Cl
   0.4027679293297201    1.0335542656548145    0.3595740290314355 Cl
   0.8490770213219956    0.6062648504169765    0.5402092474106243 Cl
   0.6047489122074805    0.7017543722528127    0.4836584896610173 Cl
   0.7723544775027338    0.2967519861237299    0.8852763298399200 Cl
   0.6871386316835105    1.6856100587483438    0.7297123769176356 Cl
   0.0990883245375975    0.2117557463215540    0.1606991170003722 O
   0.1043476056706057    0.0926896524943306    0.0532283925347487 O
   0.2330255367993696    0.3089520375062833    0.0839820197553944 O
   0.4927707087384965    0.1615356601469968    0.0748091931629632 O
   0.6624141122319834    0.2354815878165776    0.1891243116643370 O
   0.4154510329186851    0.3006846914366019    0.0925503697567115 O
   0.7391835568153013    0.1983841113714370    0.0605279053092632 O
   0.8443933404751295    1.1230424253005578    0.3184111458274433 O
   0.1469306569629148    0.3617759663393909    0.2780619811114894 O
   0.2118334976224248    0.5945635776197439    0.2933697519410091 O
   0.3996717682843862    0.5907357250313773    0.3104754531440989 O
   0.6097630302556505    0.5295174618289096    0.2758202042898983 O
   0.6241189277626131    0.3673266074428945    0.2966408298111057 O
   0.7044357755908948    0.5437726266117685    0.1222310158022210 O
   0.9787618976426895    0.4321690613792556    0.1412882323402598 O
   0.8862771440124217    0.5476514492745475    0.0829069250257438 O
   0.0916417623172499    0.6750744508736339    0.2457739133134001 O
   0.2063176835223830    0.9847453223975589    0.3023565857361744 O
   0.2195280653981594    0.7611629065560742    0.1117576486652715 O
   0.1042417236426610    0.8687803935263663    0.2552609550103033 O
   0.5000527629758295    0.6978172980764196    0.2542584256523133 O
   0.8811493271422979    0.9644737956598516    0.1936015246439761 O
   0.8277883381463900    0.9520436507985225    0.0247257008719230 O
   0.8656358335043165    0.7621022122131016    0.1916880532902862 O
   0.7205824295436325    0.7588750783588805    0.2510049607365032 O
   0.1283273978383343    0.1174618368026474    0.5315146477529812 O
   0.1173014545793485    0.2122741847927195    0.6529663944276278 O
   0.3934382303707600    0.1779545774030515    0.5142294071390761 O
   0.3497629597700556    0.3290713821646737    0.5445047651538434 O
   0.7083782822421486    0.1811598669396674    0.5883176934597886 O
   0.7218217467029308    1.0919885433928802    0.4168344479351559 O
   0.0944927602777456    0.4724857276284481    0.3904347430141434 O
   0.1680793484639898    0.3722444914797651    0.5470003094207949 O
   0.3961783719798506    0.9140170627112371    0.5346966040743879 O
  -0.0007676658434733   -0.0441475218487149    0.5336971745963525 O
   0.2153979556906816    0.0383504561633362   -0.0765642856754671 O
   0.3276513813705580    0.1112005272330517   -0.1660204804968153 O
  -0.0469450211448022    0.3017121025079706    0.7874638449868647 O
   0.0991124855372627    0.3654734811660459    0.7721046443308285 O
   0.1059429422661472    0.4020283447618711    0.9756385350297679 O
   0.2230655199962022    0.5058386584311294    0.9364962099415278 O
   0.0193733698480346    0.6111142889253505    0.9401110926792978 O
   0.2569946697025401    0.6562096981897071    0.8592810183493265 O
   0.1481614467105665    0.7604194716135743    0.7932246900749070 O
   0.6785763997727396    0.9481488089694996   -0.0164547952863557 O
