Li1 Co1 H90 C51 N3 Cl6 O45
1.0
  14.7218658171999994    0.0000000000000000    0.0000000000000000
   0.0000000000000000   14.3402990761000009    0.0000000000000000
   0.0000000000000000    0.0000000000000000   14.3874854235999994
Li Co H C N Cl O
1 1 90 51 3 6 45
direct
   1.0062307721411801    0.6670921567628602    0.4170006457180339 Li
   0.2503041702971351    0.1322246509112330    0.2078987831322900 Co
   0.0338947803760723    0.3051527040041410    0.0752564245954994 H
   0.1463282192181887    0.3350579380389551    0.1119202323749140 H
   0.5901775302454494    0.2483540280715387    0.2113788909152574 H
   0.5792380201317354    0.0403520900247063   -0.6266417669700123 H
  -0.0524359888199838    0.1957567986834101    0.2125201605337180 H
  -0.0072936129654537    0.2174683402870929    0.3276667585127186 H
   0.1848246983355205    0.5447677205226457    0.0774555580137756 H
   0.0725692260658842    0.4650272636512965    0.2197326787010542 H
   0.3370092127047811    0.5164217008306666    0.1618087277490001 H
   0.7125438133218310    0.3837514831522350    1.2122410691232473 H
   0.0246411978688307    0.3756777324315849    0.3019409288001220 H
   0.6974152961375628    0.6585449152200195    0.3447489652197266 H
   0.2764143118221927    0.0207109375978770    0.9742766229953617 H
   0.2196986746626357    0.6862395956372433    0.2921671569518920 H
   0.2074400382750420    0.6510534396636244    0.0279583749388328 H
   0.1560314729887199    0.7297163736801152    0.1996680189289947 H
   0.2977288655544642   -0.0952134229177689    0.9811416169183432 H
   0.5533311816415760   -0.0005773213414913    1.0646815799217779 H
   0.3581722910719263   -0.0150812029478828    1.0673762829125040 H
   0.3853196652541488   -0.1361247035602891    0.2720753902887728 H
   0.4100420750708973    0.7935937025376889    0.0798319287966726 H
   0.5179218791473934   -0.1299923349441726    1.1572085198842237 H
   0.5395670974883799    0.6743451435693449    0.3220924696332702 H
   0.0088925147277901   -0.0204730012353302    0.3243833494520559 H
   0.2194167810459209    0.1941891884208413    0.6036684282337081 H
   0.3214520813707611    0.1004442816468604    0.4107862171804841 H
   0.1989988527933206    0.3004519652230128    0.4498892281261751 H
   0.3033918705726594    0.1555679576458816    0.6815576470239364 H
   0.5105876865022023    0.2530150187276818    0.3496587877439690 H
   0.3875727764026859    0.2315705566304775    0.3606975478416498 H
   0.3373855237015521    0.3315614977113217    0.6542429364661504 H
   0.4838054154982548    0.1899800711855810    0.5982407945853775 H
   0.3853067592813354    0.0048598037551497    0.4528093353417895 H
  -0.2854132515248776   -0.0288005820874638    0.6501678671768478 H
  -0.2756590531248196    0.0795604773126033    0.5187482379413947 H
  -0.2084325200013005    0.1655803011289610    0.4666411477913485 H
  -0.1555479189821562    0.0534292231447919    0.4697555210595570 H
  -0.0259964053573197    0.1338006292001144    0.5101631380185554 H
   0.1619974287371676    0.3978843822587658    0.5648548354787158 H
   0.2751658287679234    0.4261794685639219    0.5330445512959581 H
   0.5404298278078725    0.6777753370220032    0.6035315036814325 H
   0.7960719486321879    0.4541952022573409    0.6338794058439459 H
   0.9549689273878951    0.5054190990604593    0.6231124097053503 H
   0.7318497901272938    0.5999582709986154    0.4479865328883335 H
   1.1892299947568634    0.7848456283633448    0.6885074368625406 H
   1.1798758815140225    0.7303021355220004    0.5723363374111825 H
   1.0258512471262549    0.8002511648049239    0.5784166215904113 H
   0.5542487283824393    0.8424023080127676    0.4508120440046344 H
  -0.2146138017172146   -0.1165769940939509    0.6163926809165090 H
  -0.0966185678542295   -0.0285760400480745    0.5846373055643594 H
   0.6674517028351007    0.8644973841557800    0.4187992921971158 H
   0.6956913298743771    0.7034505337557754    0.5923321873828598 H
   0.8882627087472760    0.8250470214403424    0.4220293910386944 H
   0.2398910880218643    0.2090773019020884    0.8534744154637337 H
   0.1953335565143016    0.1288300215704035    0.7198881810792759 H
   0.1066681647624656    0.1114189481558940    0.9499930188968368 H
   0.1082583164654277    0.2534278413591056    0.7984800938915892 H
   0.3809058225519499    0.1344826233445950    0.9255280071427588 H
   0.3493480019761636    0.2586181096795235    0.8110333646461676 H
   0.4883409819019364    0.1071986735522168    0.8944947871703781 H
   0.4266092685930014    0.0119935461866793    0.7816953679377489 H
   0.4604273325654585    0.1075354866113007    1.0220653768850572 H
  -0.2739812766590715    0.1479607243921615    0.6717866553696613 H
  -0.2160402513439640    0.2397788931076560    0.6148545386109954 H
  -0.1712205248097702    0.1974959534853881    0.7215257153186749 H
  -0.0132582101904474    0.1298599861423848    0.6290661950596341 H
  -0.0661890010070292    0.2274799864346463    0.5719345993847086 H
   0.1185749435754612    0.3675230907899125    0.7633551234661770 H
   0.2655291426466406    0.4166922187319609    0.7063854740891207 H
   0.0843809082370964    0.2839913601305145    0.6764281891772619 H
   0.2705054140588150    0.3321723636321448    0.8599209901965124 H
   0.3524793985377421    0.5662843568467966   -0.1297960854950242 H
   0.5448264172622050    0.4806348879283259    0.7050711373969715 H
   0.6136405888202964    0.4289367332339384    0.7920814775045316 H
   0.3431307193887171    0.6124754436912799    0.6986287329551252 H
   0.6620352698238151    0.6084650670809449    0.9077778588381011 H
   0.4614104280629797    0.5211803463538783    0.9740076392302313 H
   0.7471820858296691    0.5321545247280437    0.8742612306155623 H
   0.3103977760251801    0.0290650172000007    0.8284624005490415 H
   1.1022192845720566    0.6461002654220647    0.8115602114006092 H
   1.1092122840517640    0.8881886613179294    0.8499352285592261 H
   0.5406160813734224   -0.0494493843494408    0.8879147631277674 H
   0.3586104148858565   -0.0829228842710719    0.8167577839991772 H
   0.4680371016933033   -0.1419990580317657    0.9126001052527662 H
   0.6376946050976537    0.7127557790154364    0.7489592791680303 H
   0.6012264014972143   -0.1087598628468886    1.0302780698276459 H
   0.9864710485020655    0.6429245994364159    0.7972387372907545 H
  -0.0953490276864225    0.0096065666809974    0.7021811257809183 H
   0.8920923863642347    0.7423702241358862    0.8696815561234568 H
  -0.2234374115512503   -0.1402682712561003    0.7651379228397163 H
   0.1312350236437258    0.1925490552635629    0.0648320873618376 C
   0.0983777753841434    0.2777167350670831    0.1143105041275852 C
   0.0724958657993657    0.2756784233244280    0.2217517945607547 C
   0.0457186892583709    0.0951682410567378    0.2638640874431614 C
   0.1463839186798046    0.2793380401651580    0.2974523056600374 C
   0.4544205531872167    0.2044065485485806    0.2261264297486909 C
   0.0106348210576054    0.1959464739464967    0.2547777185502649 C
   0.1165296865153933    0.5912945744229239    0.2515791054052248 C
   0.2370409058152736    0.5969067307366043    0.0663938613159673 C
   0.2731993660681903    0.6352734340445545    0.1629944804707382 C
   0.1918896995582922    0.6626849962382005    0.2262473681857263 C
   0.3092851453163156    0.5592212545040561    0.0035169948333709 C
   0.3279254456292954   -0.0272880613314533    0.9971603994376261 C
   0.3305942649547708    0.7260058513459834    0.1536015951943209 C
   0.5872607803896104    0.8012351052321857    0.3114484970771762 C
   0.4549596832199553    0.2066903223964065    0.3319322710879274 C
   0.3791492517258671    0.0568642979461326    0.3948445850434481 C
   0.4697793400969459    0.1091519103606933    0.3783684606185946 C
   0.5118440489925050    0.1252282835783359    0.4768441120813564 C
  -0.2002745866597478    0.0995286801011518    0.5092119641617566 C
   0.2679717678170172    0.3510652750395185    0.6658954243793616 C
   0.2327873688806522    0.3729204677615684    0.5680221714417639 C
   1.0281315287438728    0.6208978621749569    0.6203315207020246 C
   0.5614723372184711    0.6568036684114633    0.4691511763986244 C
   0.7181925538437587    0.5472648093078915    0.6876921449852845 C
   0.7215827491233332    0.6686827790977887    0.4195026117628406 C
   1.0616354341675818    0.7120570488183307    0.6734276648515040 C
   1.1649769547934881    0.7261906452603876    0.6475899323322252 C
   0.3630867496669416   -0.0085848251871662    0.3071343311077577 C
   0.6416329645909361    0.7284430390095411    0.4663321292332684 C
   0.6114900461925399    0.8144077733193406    0.4140098520711178 C
   0.8122288680711697    0.7123806125024196    0.4124133256925526 C
   0.2742617314092551    0.2678947641826163    0.8183543103777425 C
   0.2337417316071203    0.1808498571429595    0.6753494739227852 C
   0.4388895734296872    0.0966131202667212    0.9476486203444205 C
  -0.2058513254386110    0.1771414268154058    0.6576292127031420 C
  -0.0610211777878342    0.1506531368582549    0.5738869905894930 C
   0.1273163627405270    0.2954562535143638    0.7418211311889861 C
   1.2252987924618131    0.6474482149939266    0.6768723251615473 C
   0.5783631310273291    0.4958941233765388    0.7730621706594908 C
   0.5032483362227177    0.5237756199811925    0.8452638076666110 C
   0.6513640680922753    0.5773632052834226    0.7678868396125615 C
   0.7107981106833805    0.5983669513281609    0.8517847525876815 C
   1.0428144502352137    0.6917687690233234    0.7800119604980950 C
   1.0392680247584236    0.7829453890548486    0.8310806482060095 C
   0.3757264518833955   -0.0096008430486265    0.8297836877260779 C
   0.4917462567918508   -0.0729119354590446    0.9395457450630477 C
   0.5384052203043063   -0.0708052848348363    1.0322214254020772 C
  -0.2162915781829627   -0.0538670049069912    0.6606943765383499 C
   0.7702369081065747    0.6856796352098222    0.8449378299254063 C
  -0.1348555689918383    0.0080619684907884    0.6369807122005667 C
  -0.1508270499793426    0.1095298662158144    0.5964920525877849 N
   0.2283959418154450    0.2749001968773521    0.7259448336098886 N
   0.4081360666648693   -0.0060416425236483    0.9287961251366699 N
  -0.3157898359573700    1.2673948390372649    1.2643002009275726 Cl
   0.7286728830300048    0.4712345958364638    0.1891248284037636 Cl
   0.8878694162073294    0.4161692170874207   -0.4449630425062931 Cl
   1.0196360023239897    0.8483366333394848    0.4318051090226926 Cl
   1.1163499662793273    1.0399260824451166    0.8423939524567304 Cl
   0.4954701733579119    2.1861065011920107    0.7271688139985056 Cl
   0.2013681176971786    0.1532451330085966    0.0807014344560479 O
   0.2245961517144754    0.2407119280415159    0.2835645418071372 O
   0.1230628258059056    0.0659603425479774    0.2491304495795020 O
   0.0811829440262696    0.1652302386948820   -0.0066314081502733 O
   0.3834408273172017    0.1855171238188372    0.1816078789983727 O
   0.5250084808930845    0.2295266662036140    0.1773659980717799 O
   0.5341831331876460    0.0568545352487678    0.3250492059042395 O
  -0.0157218924743617    0.0400403810445603    0.3038898447624628 O
   0.1135239533733142    0.5170311860271480    0.1931025909046468 O
   0.3229016258962293    0.5657402259358169    0.2104259794372370 O
   0.0631179783960788    0.6018612996492161    0.3177553670637243 O
   0.0229926296573446    0.3615615693776792    0.2315985465002991 O
   0.3758337752362653    0.5166703706792574    0.0402690737708516 O
   0.3073777783868334    0.0062070559914855    0.2422140220683560 O
   0.3441271963422607    0.7733981683676469    0.2256496264854363 O
   0.3605340840967871    0.7463722327199085    0.0696494684370816 O
   0.4805918961938792   -0.1229227473810399    1.1004696266054190 O
   0.5986737359270599    0.8629297738932112    0.2545970059432005 O
   0.4024846090960336   -0.0866766414078192    0.3166398142393458 O
   0.5571015597097655    0.7210896358873045    0.2704941549769592 O
   0.1220031775117489    0.3237848119247706    0.3718023375457580 O
   0.2441188130108588    0.2910253835818185    0.5043100651902855 O
   0.4602005270748054    0.1855952253977552    0.5250183398628899 O
   0.5861101110240325    0.0881153895462304    0.4944132697595541 O
   1.0400172504433307    0.6215052414181497    0.5351607654295313 O
   0.5456360972408172    0.6040837079707494    0.4038683995723607 O
   0.5074309059298848    0.6552423341686291    0.5486034897351109 O
   0.7316677479844516    0.6019108104715659    0.6213268301378563 O
   0.8782191448515060    0.6580700297267769    0.3960456288319377 O
   1.0031156778610504    0.7878560258293188    0.6418710733671251 O
   0.6681825884533780    0.7591774049848332    0.5545145296073389 O
   0.8173518600163813    0.8066052861183255    0.4158892631845877 O
   0.2973138366392528    0.5775200360432320   -0.0859920445910991 O
   0.9866856952078050    0.5528685975952593    0.6632187926493420 O
   1.2019661521385545    0.5679877383362879    0.7010245650957060 O
   0.4311351894801592    0.5551612276042661    0.8140776770267142 O
   0.5178061329491086    0.5167593646390923    0.9326258423094580 O
   0.5980263995012064    0.6585009830818781    0.7375500582258675 O
   0.7533810283504859    0.4641192630628220    0.6948337682067725 O
   1.1222452788081647    0.8213497484812055    0.8309305177324482 O
   1.3164625088456416    0.6658648462370055    0.6671166245740237 O
   0.9725916936337937    0.8176664222325897    0.8729399434385259 O
  -0.2082627045695445   -0.0729663276300768    0.7552258363422333 O
   0.8525532404959217    0.6844272206050298    0.8842247507012098 O
   0.7387952412861094    0.7470291227854512    0.7935153625367388 O
