Li1 Co1 H110 Cl3 O55
1.0
  12.2388244259000007    0.0000000000000000    0.0000000000000000
   0.0000000000000000   12.3974356635999996    0.0000000000000000
   0.0000000000000000    0.0000000000000000   12.7307549396000006
Li Co H Cl O
1 1 110 3 55
direct
   0.7644211476064230    0.4568680963943212    0.5303509887538641 Li
   0.6455494366174801    0.8745625406739619    0.5354771576503373 Co
   0.1346253656121746    0.1508402933108648    0.1963912180905240 H
   0.2046860160603850    0.1337899930926809    1.0303315500166350 H
   0.1512707551455749    0.3224427164027893    0.2624477877118714 H
   0.0407013121248668    1.0655052536860017    1.0050149052827502 H
   0.0438481012820426    0.1713284012464250    0.2717779492430251 H
   0.1992868046900380    0.0150293848547300    1.0918518607692829 H
   0.5471894995754487    0.0657509225228999    0.1853525954270031 H
   0.6123436330322951    1.0949064951919532    0.0365479087459851 H
   0.5093680566090455    0.1491625269917323    0.2797649068494210 H
   0.4340895847608598    0.0091295276596849    0.3112272986636007 H
  -0.0791108486654183    1.0173178691163021    1.0032868066661029 H
   0.8519540643899091    0.2041456717723410    0.2088303861329006 H
   0.8840976744548986    0.0895840770572305    0.2491084373900958 H
   0.8480648019621166    0.2909103890241704    0.0476891176273852 H
   0.7233559290437308    0.2830216608505571    0.0840135934494396 H
   0.1320728328759512    0.4575254904087889    0.2465697034223665 H
   0.1029090841710789    0.6063603019027165    0.1932649305931346 H
   0.2982987651390817    0.3845224900659593    0.2114908725031664 H
   0.2893224128214920    0.6371255351613858    1.1603552609319288 H
   0.2310684518862226    0.6556221022113989    1.0526397321588106 H
   0.4067176748173633    0.3505832133141234    1.0758119636093100 H
   0.4107286809640089    0.3521093353697959    0.2744745685843663 H
   0.3980093220956384    0.5052950466355506    0.2111146183043600 H
   0.4694173241706198    0.6069515532065262    0.1846448604935488 H
   0.6206164864107400    0.6651039017697654    0.0630456303344111 H
  -0.0266664326280667    0.5586375295444691    0.1960157493910888 H
  -0.1738290960770567    0.4182673717779340    0.1617334148342889 H
  -0.2119937092576770    0.4932538468220843    0.2482985875383852 H
   0.8107736386838725    0.6116605915580143    0.0619897620796395 H
   0.2480709018567963    0.8024750522408510    0.1378738714339866 H
   0.3119275250751271    0.9023666777030469    0.1814596605433192 H
   0.4953054314735972    0.9224837411641835    1.0160825914230058 H
   0.5192538099943101    0.7357564160289642    0.0381760132926783 H
   0.3770236464243320    0.8793135231834284    1.0182112947189668 H
   0.6545609230284301    0.9785356553548166    0.0779300579193438 H
  -0.2157743011176339    0.8500978039146886    1.0204264029457604 H
  -0.1840792635469422    0.9106587150879901    1.1164301360942364 H
   0.1582518177890744    0.0842297439676144    0.3748818112078083 H
   0.2220479776839479    0.1139834777242683    0.4778709902643957 H
   0.1893324172619300    1.2651755780312206    0.6002730007809033 H
   0.2512550312015666    1.1726725773205893    0.6490320887489812 H
   0.5333842521006632    0.3218466253884436    0.3713093600675753 H
   0.6041361454089392    1.0520750569487149    0.6430135925668210 H
   0.3807609334715426    0.2613220120441618    0.6025517344567642 H
   0.4268070225720125    0.3039340500764364    0.4322436882893055 H
   0.6382587037092468    0.0453034681558418    0.3701240415164294 H
   0.9078417849909585    0.1725181634198483    0.3998426247265377 H
   0.8121708316988987    0.1157370661751308    0.4742341281757241 H
   0.8892452276681532    0.2719032325126137    0.5441286477247712 H
   0.9505011109058824    1.0304738155898843    0.5333751613329971 H
   0.7579000964643620    0.0025902801733657    0.3717680917003581 H
   0.0299813282902795    0.6664380486408447    0.3610342427928641 H
   0.0136561492496212    0.3652588288959967    0.6287269300033741 H
   0.1230866756950982    0.4344239387838109    0.5870326233798993 H
   0.1296085439090979    0.5629101873292984    0.4673869301569443 H
   0.1861613610681775    0.4549023672982991    0.4257373969976280 H
   0.2894131078066779    0.5586318832155105    0.5495352398967640 H
   0.4668337427007291    0.6100158965942110    0.3609769013387662 H
   0.4485329654197013    0.3673294183869645    0.6524309445281782 H
   0.5680109437870942    0.5632465472115474    0.4154222192549854 H
   0.3928756591053402    0.6168164965156561    0.5223302546745064 H
   0.8471251692327130    0.3389695212646669    0.6511592210461999 H
   0.8323933621795416    0.6357712228297400    0.5871355237975269 H
   0.9114614136790089    0.6263660520215261    0.4909063523295157 H
   0.3220706561210544   -0.0107843405545995    0.3860170502939872 H
   0.1514080232312617    0.9211366883983415    0.4799831980735616 H
   0.0574694258634466    0.7451285154818491    0.4562658300594470 H
   0.1857168739335726    0.8363288274398850    0.5653449857409742 H
   0.3061745215553611    0.7170460950969464    0.6470007873750494 H
   1.0039131035329383    0.9161598527305302    0.5560996581419105 H
   0.5109637981051544    0.9599592330809602    0.6639275133251108 H
   0.4670723277068038    0.8893075254401840    0.4079670447228942 H
   0.5116999799218437    0.7689753825293648    0.4352882838520898 H
   0.8423779812693782    0.9424959442303744    0.6060872671265506 H
   0.7557634533448920    0.7085749884221727    0.4581408170585095 H
   0.8004703615379772    0.8233019399139284    0.4077612438876389 H
   0.3121015613980514    0.0336781608010990    0.7346947226755648 H
   0.1871157010924761    0.0461982499720984    0.7678380831441197 H
   1.1584704314407530    0.3325286731597281   -0.1275534355899731 H
   0.2736387169598378    0.1807634169362773    0.8715978370838577 H
   0.3360491228468257    0.2579108227347333    0.9455918778512152 H
   0.6142474106492607    0.1940419694101037   -0.0888770175506615 H
   0.5293756971698335    0.2588569861445133   -0.0051606939660457 H
  -0.4435273845021129    0.2099936553366249    0.6920311098280251 H
   0.9441279497847102    0.1988760336171042    0.9402504821270323 H
   0.8099075424289439    0.2840347735894178    0.8188044243452793 H
   0.9966493339986789    0.3161252809165173    0.9285858164646623 H
  -0.3317576628035840    0.1902024657182428    0.7422323746416324 H
   0.1641036870134124    0.5374145922258659    0.8866794250109625 H
   1.1009649084012521    0.3843885914077977   -0.2291027942991447 H
   0.1526605945131536    0.6604852046816151    0.8952335131633672 H
   0.3392593984936316    0.5626286774997901    0.9248546944514463 H
   0.4483050023488285    0.4990058427940718    0.7864214272680491 H
   0.4595135952027057    0.5799951721396567    0.9770511276679102 H
   0.6314900797697863    0.5116479733324195    0.7015639301969491 H
   0.4380956884758737    0.4048129764879678    0.9735713654534793 H
   0.4267008032199930    0.5399352747966778    0.6688054644202837 H
   0.7374732979990660    0.3558891492983799    0.7466657330927042 H
   0.7474750755996136    0.5244530407921447    0.7351573818052036 H
   0.7875271249584271    0.6584896307039546   -0.0521109339821166 H
   1.0799661595789278    0.8111865312055775    0.8056370983857972 H
   0.2171112290308552    0.7589612148120428    0.7199634674680168 H
   0.0329045665650511    0.9625565444019248    0.7276613613058098 H
   1.0173457662037169    0.7045015653877403    0.7823721780094958 H
   0.0272358031621561    0.9839238664181844    0.8481978108157094 H
   0.3710108140280875    0.8600434090660847    0.7449729819477610 H
   0.4552550162586608    0.9157000802296142    0.8244678748116556 H
   0.5466461467362719    0.7824217116351045    0.7061292525423831 H
   0.6599568661110227    0.7337987531171688    0.7036808510023421 H
   0.7804177820205656    0.8466293446972512    0.6818376844879188 H
   0.8947441218150108    0.9186845683934556    0.2770588615156253 Cl
   0.6597779273564667    0.4414641043767860    0.3767473722144162 Cl
   0.8162398499531855    0.6829866322001342    0.7645554812718610 Cl
   0.1236046993041781    0.1829517727169535    0.2656510541476388 O
   0.1624409456183373    0.0856582651941450    1.0743587897725837 O
   0.5365585765821701    0.0776483022716059    0.2692258617859853 O
   0.5900825080648157    1.0266101133453436    0.0744858002764912 O
   0.8978980194980526    0.1691134270578011    0.2623660957772663 O
   0.7959895390266298    0.2784900785520540    0.1113695516508424 O
   0.0454998122059464    0.5634643341856657    0.2307387490951338 O
   0.1805938328784764    0.3953376298769826    0.2756481046449441 O
   0.3766837444978695    0.3921514871074762    0.1989896500104648 O
   0.4091125126694347    0.5866675197318989    0.2322264849041930 O
   0.5404282292834358    0.6650401789143753    0.0656916635162468 O
   0.4274304484611734    0.3366633991942825    1.0006318187914356 O
  -0.1555748918965297    0.4935490691647779    0.1919013036847256 O
   0.2246683273910761    0.6726788553769639    1.1297993353921176 O
   0.2613319794204664    0.8855486835905891    0.1193360862735870 O
   0.7767907996850677    0.6718391655989751    0.0199189656075469 O
  -0.2138925844430109    0.9247019418264981    1.0425067902702871 O
   0.2015631671110106    0.0512359853308205    0.4319821169986949 O
   0.2500523013079300    1.2167865388558563    0.5839621063378653 O
   0.4525693007964438    0.2975351461294757    0.3576935139671361 O
   0.4516263997792857    0.3030943602984474    0.6107939793588012 O
   0.8801920705883340    0.1622482976625431    0.4751955794060770 O
   0.7004027441442471    0.0206847479396828    0.4209317118446058 O
   0.0929408065200145    0.3839973814728077    0.6412540739753255 O
   0.1753890846295190    0.4995083660713888    0.4862326310708556 O
   0.3481344338908333    0.6016786885775988    0.5830045826043684 O
   0.5134076602735423    0.6245705194126853    0.4231688140537930 O
   0.8818752387818743    0.3466130374377916    0.5819802914243192 O
   0.8366666484184815    0.6020569926178262    0.5143825720366708 O
   0.0280008276182783    0.6722811924945927    0.4373321532159610 O
   0.1273591448620995    0.8506624368105505    0.5133755618427881 O
   0.5958118164983619    0.7472983190388041    0.6616542781448482 O
   0.3801178978558550   -0.0488944798463249    0.3410024378284357 O
   0.5669177015332315    0.9892233494550595    0.6137788769693741 O
   0.5127017101185818    0.8449112474569859    0.4597440212751355 O
   0.7680947030424219    0.8990595421701415    0.6245747803271932 O
   0.9592846342459597    0.9734700916605127    0.5847028322449100 O
   0.7417089989288298    0.7839034696775307    0.4476504729560885 O
   0.2526914436696462    0.0841639239043254    0.7393205284725815 O
   0.2675572505207500    0.2154472024922282    0.9399284273848391 O
  -0.4009906193779807    0.1553291248329669    0.7352304332467254 O
   0.6018597829879667    0.2176347516544817   -0.0123789618877819 O
   0.9286362658286298    0.2780891891959921    0.9427640801148831 O
   0.7682965198112589    0.2805880930693923    0.7510700280670415 O
  -0.0290391278306017    1.0658924305288782    0.9666354060057536 O
   0.2032651279591391    0.5991426802567561    0.9203302180733148 O
   1.1154679353116121    0.3927790362403055   -0.1529046422961906 O
   0.4201111180350885    0.5312520274767446    0.9295127057226823 O
   0.4779516405694204    0.4954776938133576    0.7156204414446334 O
   0.7046768474551256    0.4750847668516712    0.6947183031769117 O
   1.0793942092218995    0.7330800561025789    0.8227554861824323 O
   0.0728375685424089    0.9524254170133172    0.7937579913950886 O
   0.2757998722374662    0.7869710395389061    0.6734469802047244 O
   0.4214118965613586    0.9213222106355533    0.7534343811743637 O
   0.4524589960847311    0.8610355497259562    0.9901689671670065 O
