Li1 Co1 H110 Cl3 O55
1.0
  12.3827420985999996    0.0000000000000000    0.0000000000000000
   0.0000000000000000   12.3851655598000008    0.0000000000000000
   0.0000000000000000    0.0000000000000000   12.3643867002000007
Li Co H Cl O
1 1 110 3 55
direct
   0.7053835071221856    0.2417107599769819    0.6400762967056007 Li
   0.6176210397020762    0.5930262090108552    0.2799444027453469 Co
   0.3190135123420376    0.2362962179043539    0.1868884325708304 H
   1.2077972657599738    1.0597571519352342    0.1749808464066401 H
   1.0893259297409623    1.0233345463736108    0.1644433241534828 H
   0.2400116246978944    0.2378642227813362    0.3300795218604723 H
   0.3916210166283177    0.1545169316195159    0.2502898789189392 H
   0.5604616484812881    0.1376112230127929    0.2886322578411651 H
   0.5499001751857417    0.0622408942519173    0.1859834139660807 H
  -0.3295084334479769    0.0929270403647786    0.0441030245431566 H
  -0.1018157319809271    1.0639395748305838    0.2506522098706173 H
  -0.0985143630535534    1.0940643235227623    0.1326770902493259 H
   1.1456058711667627    0.4438695432335241    0.0916786151699432 H
   0.0216320462113384    0.5937100916734731    0.1477073545484030 H
   1.0086814333888254    0.5859903725031188    0.3074297935083601 H
   1.0028991923125057    0.4446438566614469    0.0917452581842697 H
   0.2571273813140288    0.4772449549713931    0.2998815016065474 H
   0.4066176949505607    0.5151217195358205    0.0368577804261515 H
   0.4702215392145097    0.4509094168289973    0.1856882112933965 H
   0.5361390874845560    0.6134805177382462    0.0755777761370796 H
   0.5470760834198353    0.3687021992440560    0.2555647058538607 H
  -0.1612864044811045    0.4706112124022444    1.0437615033417911 H
  -0.1321967248986858    0.3553765800423483    1.0945120998101019 H
   0.7285140865786036    0.4421812331419844    0.3283503620955441 H
   0.8030258540573365    0.4679322009800882    0.2217724919631998 H
   0.1955521668802077    0.9927576438549078    0.0091782352697012 H
   0.0765681818897928    0.7053258785860804    0.1885116428833706 H
   0.2456089309688403    0.7848403586505603    1.0888749419235022 H
   0.2075180140907986    0.8668570256943237    1.1793282759317236 H
   0.3071098484502842    0.7456693037577072    0.2940332535896174 H
   0.5904178566495853    0.7186724906440196    0.1397182805736783 H
  -0.3760603195657676   -0.0244931098123244    0.0459167821151062 H
   0.9015403826073513    0.7496942802313205    0.1802694225071387 H
   0.7483473349854945    0.7622794975420947    0.2951477447758060 H
   0.8642626943276132    0.8769658933873301    0.1951330792703995 H
   0.7420248258533008   -0.1537688140626482    1.0951186806443844 H
   0.1933555613316616    0.2352998646509058    0.4541010392378927 H
   0.3010094225996529    1.0595956684257615    0.5823492118685942 H
   0.0295080077086731    0.3179398580412346    0.4100511390522903 H
   0.1318304165831381    0.1598434651794811    0.6111795945348234 H
   0.2253549356903345    0.2455702158533853    0.6323994096669202 H
   0.5938452073657727    0.3257952233595462    0.5201601184146050 H
   0.9475883415698874    0.1896678545440400    0.6587395758148078 H
   0.7866942533190102    0.1564999491158437    0.3762136337926698 H
   0.7188134888399508    0.0238162565107255    0.6336473486366508 H
   0.8920352181564735    0.1904978797827310    0.4104854509296367 H
   0.8823523870803457    0.3230645372143586    0.5758062266027993 H
   0.8129412668974281    0.0001047042846330    0.4572811403584250 H
   1.0935172469457248    0.5272491310972390    0.3760518789035277 H
   0.2154960531400953    0.4076253769498682    0.3934235452229357 H
   0.3163767781082130    0.5195197229163163    0.4682028304732946 H
   0.5369183979089484    0.3725398548466806    0.6263222784818542 H
   0.3770216654861794    0.5332070651792434    0.5866308637841837 H
   0.6257573635629592    0.5531640046974579    0.4841842135205268 H
   0.5019124197057029    0.5367467837068904    0.4525490010765750 H
   0.6279467009313814   -0.3480932248571103    0.6551664103136604 H
   0.6842419862929988    0.4691037638413144    0.6452192934058715 H
  -0.0430478117411706    0.4169809240711834    0.4121863035889651 H
  -0.0385201393117869    0.5686244358943979    0.4877654667661314 H
   0.7697795830196360    0.5450179690620950    0.5879135800550800 H
   0.2559184406867592    0.8314194695404851    0.6253250595902936 H
   0.2734274866051518    0.7241395148572263    0.5609522751328870 H
   0.0100420042919297    0.8619802237082405    0.5526041053042670 H
   0.3441105383097460    0.6820690235517863    0.4071581528599852 H
   0.6647398438695283    0.7625120337957358    0.3952093191990637 H
   0.4696320090489073   -0.0248600003458470    0.3486392778406285 H
   0.3622817961949797    0.9717244167460565    0.5163920382720415 H
   0.6076886677750289   -0.2153021053473152    0.6162061277149118 H
   0.3973951819489444   -0.1284651555457845    0.3876966133728622 H
   0.5405605637265744    0.8612051028627704    0.4781062735610152 H
   0.6651404013519103    0.8948421178859854    0.4977036871550174 H
  -0.0688666487527357    0.6690486081829826    0.5585065412090596 H
   0.8460599409951762   -0.1078114146841944    0.5277545104598231 H
   1.0068401610907796    0.1111061271854505    0.7321730603875051 H
   0.3011596316555461    0.2738370967690776    0.9790757231738945 H
   0.2891049511323301    0.2970713441120454    0.8095371887663535 H
   0.2624493043158372    1.0746459315086401   -0.0575942153191052 H
   0.0925544633146786    0.0205538213171945    0.8882584406651036 H
   0.6077960753257483    0.0519263773095969    0.6864845831748939 H
   0.4353859594563906    0.0070512404116308    0.6742704714957795 H
   0.6290005870493419    0.2172686159831564    0.8254651927001689 H
   0.5361883495942844    0.1087597717928085   -0.0562215633298460 H
   0.3864234602641843    0.1874159670044397    0.9167515643874716 H
   0.4828738256590213    0.1031966648914655   -0.1752718676992645 H
   0.7443853692424185    0.2374911958744537    0.8524054694867735 H
  -0.0258532357494706    0.0702294027237893    0.9204557513488242 H
   0.2101240604529891    0.3814327517133559    0.7893113574280346 H
   0.0683893795539637    0.5076256550260863    0.9162015977643887 H
   0.1217696401405693    0.5883657949274659    0.8430883878721926 H
   0.4635541953142169    0.4840111140183097    0.7458187028355264 H
   0.5752136314060275    0.3832720488862528   -0.1587858093979091 H
   0.4966962891034753    0.5175488166831991   -0.0576011707793383 H
   0.3583182153007649    0.4122357311453208    0.7123006634819614 H
   0.6382368288356366    0.4877857910522398   -0.1101056755106162 H
   0.9961236332859241    0.4925519768343339    0.7774531065050326 H
   0.8635843308493858    0.3856046781805896    0.6881757305408738 H
   0.8231247948265332    0.5165217815629510    0.8570640102940638 H
   0.7459124946439996    0.5904666953857090    0.9212807012834484 H
   0.9228523018816642    0.5282317582523819    0.6784752898390264 H
   0.2159353742498044    0.7512420996696186    0.8567324127713227 H
   0.1675276794737200    0.7196373546131206    0.7467641601625615 H
   0.3037882901336775   -0.1232104821475347   -0.0587335358807771 H
   1.0286608529737631   -0.2002033972115945    0.8327118117337317 H
   0.3677062812940914   -0.2300124456427535   -0.0674242216871553 H
   0.5182310992349202    0.7697569914482396    0.7446103938136356 H
   0.3937320191665161    0.7610578747929319    0.7405940199162390 H
   0.4761079575392717   -0.0733354928292672    0.7609662394292315 H
   0.9504713863523541   -0.0950114243058211    0.8271070048249605 H
   0.8127183760402962    0.7807104178957897    0.8355829610160027 H
   0.7077811989874920    0.7364098393245283    0.7881184151206121 H
   0.6898150652968651   -0.1859928483779751    0.9882067866659620 H
  -0.0419601689644125    0.8363366424039363    0.6672074442613929 H
   0.3063103486366590    0.4036867941538229    0.1157090023783273 Cl
   0.6481393204666190    0.2788745748470863    0.3588913027144502 Cl
   0.8661524211598184    0.2103684256233773    0.9921859569388558 Cl
   0.3136334438992384    0.1741105332414161    0.2367372455321745 O
   1.1644708364660410    1.0055390636296917    0.1435373135063215 O
   0.5176092660465450    0.0782330906455518    0.2568652151625626 O
  -0.3955390422977278    0.0511212205313648    0.0470061204160332 O
  -0.0704761468623873    1.0397897159889042    0.1821190896644777 O
   1.0711231764085252    0.4791924460956369    0.0663192497923683 O
   0.0075558425230045    0.6602090008744332    0.1888844879028430 O
   0.4562311000516375    0.5638356424209776    0.0028802763099786 O
   0.5324282777435380    0.4450992401581606    0.2311106017133691 O
   0.5845952367947995    0.6392645896957919    0.1384015957760622 O
   0.7658483051481940    0.5017718778076919    0.2836437370600250 O
  -0.1341777077702239    0.4340255084960531    1.1110677127137882 O
   0.2192028250032667    0.7886877032637534    1.1632983664177488 O
   0.6789442905582700    0.7359730264314039    0.3197482370909711 O
   0.8415698208297658    0.8012349719498015    0.1927051383843776 O
   0.6719934876331464   -0.1475298986741608    1.0585782511872006 O
   0.1900485393753027    0.2821341194857977    0.3844137978977248 O
   0.2101725149871483    0.1825076757340094    0.5859167159486216 O
   1.0112575994549511    0.1437395221972913    0.6604549864141590 O
   0.5961427598604835    0.3251371780584439    0.5994855248243005 O
   0.8587631047005548    0.1220975022577267    0.3811269385503588 O
   0.8427892599394365    0.3143331238571563    0.6451699581646831 O
   0.6697912290556151    0.0806730257319333    0.6481737464560506 O
   0.2392993430457555    0.4829469376908829    0.3767789671302212 O
   1.0146009623119294    0.5355195090348961    0.3735932045885690 O
   0.3677151646253540    0.5643249374546806    0.5163418942564074 O
   0.5759687145633402    0.5354347301924228    0.4301637419682099 O
  -0.0472090871347545    0.3362537028505617    0.4326685164265742 O
   0.7010815520644265    0.5408064791350404    0.6201723575966744 O
  -0.0750413715557443    0.5863343323782962    0.5572763952771345 O
   0.2534981367055119    0.7496280719924365    0.6312080849083892 O
   0.3327422970204507    0.9860560782117807    0.5935466940694512 O
   0.3371710414425929    0.7522626754494877    0.3676980476537878 O
   0.4443225907064681   -0.0694994520617373    0.4126254681129857 O
   0.6075489572015369    0.8355938182603607    0.5122397902677657 O
   0.7837231827994877   -0.0623987799249476    0.4975912675070637 O
  -0.0500998846426867    0.8254365055145123    0.5872932500552204 O
   0.2320222795906273    1.0009529319606600   -0.0679288969412785 O
   0.3061076471687600    0.2157490561590159    0.9232379354420670 O
   0.0189907087967686    0.0363412808433437    0.8633158367594033 O
   0.4887376318678424    0.0026712424424413    0.7341691157195176 O
   0.4953920545590261    0.1564926823579174   -0.1155002010635028 O
   0.6860259207256231    0.2665735685129844    0.8078015588058596 O
   0.1075393510336095    0.5108270656013875    0.8452154646644103 O
   0.2586932703429373    0.3346655125348953    0.7482337033304168 O
   0.5691366252469064    0.4607041990960790   -0.1412362127004450 O
   0.4244820741194533    0.4489909927364587    0.6829397247793464 O
   0.7750780863299340    0.5136950127296270    0.9201079783371687 O
   0.9226988625234939    0.4761832008966085    0.7384653255751299 O
   0.1445973787584929    0.7227725569495378    0.8249961035216571 O
   0.2951868027448671   -0.2056906068634853   -0.0411538527739325 O
   0.6101323914477864   -0.2711083839685242    0.6806630247146724 O
   0.4457358479527753    0.7933707250384688    0.7859015643649206 O
   0.9614544140950845   -0.1690895620238942    0.8003203951830409 O
   0.7437191193977307    0.7442329079409453    0.8564816926931526 O
