Li1 Co1 H90 C51 N3 Cl6 O45
1.0
  14.3544839557999993    0.0000000000000000    0.0000000000000000
   0.0000000000000000   14.0089743104999993    0.0000000000000000
   0.0000000000000000    0.0000000000000000   14.4787599317000009
Li Co H C N Cl O
1 1 90 51 3 6 45
direct
   0.5324933658594908    0.5285740762441096    0.3503083129926912 Li
   0.6479547788300576    0.5396000797598864    0.5563839723775396 Co
   0.1054789904995659    0.0907668632347300    1.0383154383950657 H
   0.2861270728677406    0.0837963315001683    1.0039920569491210 H
   0.1812107272410150    0.0144586356438804    1.0940916239116096 H
  -0.0065675313365695    0.3158061794705438    0.3257730626207148 H
   0.3242322392871150    0.2342099130584311    0.2272314743403378 H
   0.5508703413615194    0.1468080824274562    0.2264427327592997 H
   0.6090958409735965    0.2812947306460834    0.1215856864955495 H
   0.5193874889377372    0.3515689690149925    0.0697331795445726 H
   0.0458753152553369   -0.0560140469464529    1.0432723546184550 H
   0.7914318976412729    1.0007171363568330    0.0944279739666539 H
   0.2320143647835084    0.3820201634097357    0.2322650545878033 H
   1.1150178944839668    0.4412284952701427    0.1316825456664740 H
   0.3897100372277529    0.5613002409038860    1.0412783993255854 H
   0.3922367738287817    0.3235212339495138    0.2792932533570367 H
   0.4695110250951819    0.6570724202414120    1.0150068124083116 H
   0.9562904886771296    0.5159175465032344    0.1803469342828872 H
   0.6768802352434338    0.4098636008630862    0.1268382081451070 H
   0.7772544461476042    0.4679507514255714    0.0010228752993946 H
   0.8727862677179585    0.3869719891795929    0.0963611505737692 H
   0.2081375050471809    0.6420434826951280    1.0148838737030359 H
   0.1519174415126835   -0.1117297605097925    1.0159198740283923 H
   0.3232875867282524    0.7438560757078062    1.0025285338228340 H
   0.2702588604888508    0.9551213642579975    0.2701211971432138 H
   0.4491801653513817    0.7378484981268465    0.2953305383935554 H
   0.5935641088203194    0.8671841625260577    0.1689129440253691 H
   0.7545145133847752    0.9147222609791936    0.3082335771124290 H
   0.6295772460108850    0.9291972678930126    0.0734095993658211 H
   0.8049900304588140    0.7630844641700579    0.0456268333072938 H
   0.7189186674056834    0.6894131177084937    0.1295974223449732 H
   0.8522087254733520    0.9495827717614830    0.2009792260958038 H
   0.0824471628826341    0.2255133448943589    0.6142031505356863 H
   0.0897368711244772    0.1523609514866631    0.3847898571549737 H
   0.1486285737174100    0.3418737552905872    0.5077309659513677 H
   0.2235124917537441    0.0925043209143945    0.3868756711433581 H
   0.5694385463085391   -0.0121286070581663    0.6837035776956696 H
   0.4399521777477954   -0.0155407055416486    0.6573981481011006 H
   0.3705111582677993    0.1212430416141850    0.6350557650844623 H
   0.4266734001486200    0.1286168862448069    0.5213105266960367 H
   0.5317141668277150   -0.0171468188445430    0.5647755750129273 H
   0.4318278870830043    0.2241028205003503    0.5970787558244268 H
   0.5460936457860373    0.1450170876376953    0.4484644400853471 H
   0.6654524472083425    0.1379858805116909    0.6229110786037496 H
   0.6577287282407093    0.0334143417587074    0.4188687425241343 H
   0.0422792263845041    0.0965453019844768    0.4845438420827711 H
  -0.0919373714348514    0.2449651615627466    0.5823157511880966 H
   0.6660327536843991    0.1836087780796420    0.4552427830140897 H
   0.0456363655299018    0.4094878417330224    0.4794398138131814 H
   0.2838295329421291    0.5322996166615035    0.4502603121160085 H
   0.3359143032690978    0.6479068669928946    0.5409799598065670 H
   0.0081505177866549    0.6901969010003061    0.6322191961936360 H
   0.2500031688948303    0.7270475646219152    0.3090941480493585 H
   0.2416747608260962    0.8279693001225880    0.3806852238659111 H
   0.0952090288308684    0.7857249511157921    0.4980227588491662 H
   0.2674325659229910    0.7497644311780538    0.5431570108902712 H
   0.4353083326464837    0.7772246856887403    0.5138631831038607 H
  -0.2043447561216438    0.8588038202256221    0.5877153848838547 H
  -0.2213986607241208    0.7654522320925916    0.5010638342042176 H
  -0.0493604315823356    0.6837331872413244    0.5144348480833925 H
  -0.0267117595018156    0.0515698465346258    0.8855558090874813 H
   0.0931163029556298    0.0859849285609124    0.8565588506476361 H
   0.0275409745148144    0.0210993787802478    0.7800184559434136 H
   0.4932061297779642    0.0945551491451570    0.0008184379018576 H
   0.5859288639492757    0.1308561651031090    0.7656767581060616 H
   0.4718990593920295    0.1111880585099314    0.7754600545118450 H
   0.5090735479799240    0.2308370751223529    0.7376501866376337 H
   0.5935815249810653    0.2449937146881314    0.6005210395721446 H
   0.9017918384707663    0.2964957007728107    0.0043871136892690 H
   0.3841751813426761    0.4287255099610242    0.9371866119688319 H
   0.3154893265926262    0.5087173048749520    0.8676778968062457 H
   1.1307474742233186    0.4958105783728927    0.0233652583160331 H
   0.4143894336512558    0.4507745902972259    0.8151001896275193 H
   0.5715368453552163    0.4698649743662117    0.8873246069763067 H
   0.5339306867735362    0.4881236487224265    0.9994854555338202 H
   0.5888359695009970    0.5832361794807505    0.9401571702350707 H
   0.5115032765655975    0.5872857264884482    0.7821871499578266 H
   0.4933855162336479    0.6913582993753324    0.8559448477881415 H
   1.0019013237315977    0.5545545650317295   -0.0575788284378382 H
   0.9247964968769343    0.4624910083848069   -0.0934472317023313 H
  -0.0369629117169075   -0.1271948470463290    0.8245422965928185 H
   0.2149458306060048   -0.0452823547705798    0.8431633664407765 H
   0.1269329139529108   -0.1077209017057680    0.7706025943196900 H
   0.1799971691602342   -0.1686903903399088    0.8655630748087514 H
   0.0126689665305955   -0.2031290286946379    0.9036222734279317 H
   0.4016784228923998    0.6387991338232814    0.7877718823783817 H
   0.3412471316895211    0.7126682106781353    0.8875400950439808 H
   0.5390750026700448    0.8706476566352327   -0.0187315789045033 H
  -0.0634173632436420   -0.1061461968407969    0.9376334734425023 H
  -0.1544126232628799    0.6437695191246385    0.7820704272545030 H
  -0.1287725514126281    0.8332544836313125    0.7078037079309963 H
  -0.3232344358380950    0.8755680739671665    0.7090103029765948 H
   0.1584554682567295    0.0356878843674713    1.0236104497769554 C
   0.3745168752393779    0.2900084306853865    0.2120340402342414 C
   0.4359708434012613    0.1787133447324198    0.0973156522068643 C
   0.4630909405917077    0.2456939800881934    0.1700787897248370 C
   0.5373436969626071    0.3130579411522578    0.1339576023809569 C
   0.7131859639345322    1.0109791296201265    0.2241690573785839 C
   1.0766368560783759    0.4874784908543573    0.0766488270497691 C
   1.0610361559285444    0.5834817363590595    0.1276884190787829 C
   0.3351006202390450    0.3693697012080048    0.1523618028274735 C
   0.5615619831141989    0.3989942826228584    0.1962626619478974 C
   0.9869603477508245    0.4332024972557323    0.0394129033558054 C
   0.1055228792246458   -0.0525698261969127    0.9997354769456729 C
   0.3508490094320023    0.8317276052513609    0.2754448574817790 C
   0.6432774947001135    0.8658949889149344    0.1128722330924177 C
   0.7606373388566366    0.7887465856096374    0.2141536968999208 C
   0.7499061972513853    0.8588387978042185    0.1333732981974559 C
   0.7863192094926790    0.9584142534429984    0.1601069412598388 C
   0.0864145643005714    0.1552027012905843    0.4626705600134541 C
   0.1775993121487257    0.1485084210441204    0.5051011965388204 C
   0.0855214635775169    0.3405346137100406    0.4611246403279571 C
   0.1161230513010874    0.3446434084529118    0.3589423397042124 C
   0.5144927675241117    0.0081234109491302    0.6342138421533892 C
   0.4289333211670202    0.1487789619071413    0.5916363007818873 C
   0.6095848867673440    0.1374376605043029    0.4872522232000065 C
   0.6023272242612736    0.1647472972785847    0.5894075187486036 C
   0.0360498140088771    0.2502324993681057    0.4892646192986673 C
  -0.0667640526925922    0.2429478832543113    0.4578872774445947 C
   0.2042913201080357    0.6367425949674419    0.4678192744304109 C
   0.4041961030898406    0.6399833746986154    0.3846821131211366 C
   0.2880344907926418    0.6920128797747787    0.5014116540467840 C
  -0.0081398623287178    0.8242224162439691    0.5771109546201938 C
   0.2901453294750562    0.7799864867415841    0.3442504737568899 C
   0.3475887041403523    0.7276607429895536    0.4210892365548151 C
  -0.3165117977901415    0.7597894335006533    0.6198244883010708 C
  -0.2175183401099134    0.7793932955617151    0.5794972087029316 C
  -0.0469326187743441    0.7212691258721685    0.5851088080652577 C
  -0.1411296657851255    0.7226332514374268    0.6339313593980086 C
   0.0397378602084487    0.0307260650037295    0.8543756526286681 C
   0.5197723233920450    0.1517092263997553    0.7352383778802039 C
   1.0221786113649431    0.3439381462559075   -0.0171237063995500 C
   0.3870885567122659    0.4801123555675893    0.8805719568556329 C
   0.3310538011281059    0.6806458805590941    0.9585026639964839 C
   0.4074773077743858    0.6178447089315191    0.9880790919516450 C
   0.4668019064588211    0.6283115708694482    0.8266018652396272 C
   0.5433001632670228    0.5224562122163512    0.9344115124306436 C
  -0.1630977143036920    0.6183315397193296    0.6547356272649344 C
   0.9441967066551116    0.5097303697636044   -0.0342432664426246 C
   0.8629175743928487    0.5750771239020469   -0.0180526533579530 C
  -0.0060833620678308   -0.1296504158294209    0.8941325104476660 C
   0.1562749649313311   -0.0969799297641449    0.8388674184249648 C
   0.6132387972918535    0.7829966999852754    0.0524050381026596 C
   0.5181609941327543    0.1158079541971903    0.6351241411059357 N
   0.4491745921799430    0.5626222506092017    0.9061017675399516 N
   0.0729128598438473   -0.0624113746889150    0.8963999698264297 N
   0.7644270954349649    0.3389770407203003    1.0427591891239616 Cl
   0.5772984596532060    0.4422437730260124    0.6617148161234195 Cl
   0.6876099835558256    0.5049908364809832    0.4075217762939462 Cl
   0.1672687422406322    1.0406436854105188    0.2610064662807272 Cl
   0.7171707815132156    0.9918963620973370    0.7425877641882829 Cl
   0.4767762113826947    0.9825666283778571    0.9312910794506697 Cl
   0.2345369215059581    0.0541895957886802    0.9668687119571795 O
   0.5083620908469858    0.1522524496102009    0.0438898060951127 O
   0.3557784795695483    0.1473177557155746    0.0898232978538860 O
   0.4978547817396418    0.1853683644314796    0.2437867595395348 O
   0.6622374239346321    1.0735161848378922    0.1957667631254934 O
   0.0551476792365039    0.3271346319669590    0.2946571381820738 O
   0.2607781992251617    0.4156747329413986    0.1772527466444891 O
   1.1143428440934522    0.6535875112881984    0.1151928738212162 O
   0.3807852998150759    0.3960832914898791    0.0851108777072811 O
   0.5088755540980991    0.4337457204661779    0.2536508639706959 O
   0.4661922711680683    0.6577048719686850    0.3198022474122434 O
   0.9915616974199160    0.5796870259954211    0.1883600514660780 O
   0.6455820010900234    0.4359201837298565    0.1818919561014355 O
   0.7778939675701971    0.5377000834139690   -0.0082424209437105 O
   0.9346408075769999    0.4136632366408536    0.1182200667719080 O
   0.3317218850543222    0.9214094029443113    0.2476399900829775 O
   0.4225792090804519    0.7953252256982929    0.2402270624216098 O
   0.7229090581558056    0.9822918045460285    0.3093572921319991 O
   0.7482105598411554    0.6986978802554925    0.1974934303344210 O
   0.7830219819402474    0.8175688242011785    0.2913308864707958 O
   0.7988832278548389    0.8332880335536397    0.0484026235123656 O
   0.1988546913695663    0.1637772048436365    0.5868934912924052 O
   0.2448375356175686    0.1169465100719088    0.4488548050079414 O
   0.1932041921771361    0.3685902008850001    0.3314220270614420 O
   0.6420897125372368    0.0433850931430759    0.4860280161488769 O
   0.0256704788506947    0.2510369836758222    0.5858271016241715 O
  -0.1294357588138355    0.2411169140890117    0.5255347144226453 O
  -0.0912887936086706    0.2425895415307322    0.3754140542104972 O
   0.2168330457844406    0.5435016501952775    0.4593561877725735 O
   0.1270046685351843    0.6747211070417503    0.4651745037331524 O
   0.3981540886038404    0.5603865408915727    0.4166696591668442 O
  -0.1908785806328415    0.5607848569906906    0.5937000134299975 O
   0.0600074847310660    0.8400372785664693    0.5120166437506206 O
   0.4159081228683064    0.7969905867363607    0.4533429656174510 O
  -0.3616544864437571    0.6862165953216665    0.5957222860650933 O
  -0.3589584647602773    0.8185296368703766    0.6797474377865749 O
  -0.0336329417822735    0.8961377454943689    0.6237502388672884 O
   0.9617528933335031    0.2689976133709893   -0.0184428801471707 O
   1.1010682463728558    0.3319344123441421   -0.0517136852625532 O
  -0.1726640630782515    0.5911368292747217    0.7437094072072022 O
   0.2447065660887588    0.6230328118139353    0.9595697443316010 O
   0.5528402484711773    0.8032444350237643   -0.0130674197923375 O
   0.8711435754363964    0.6619114611659991   -0.0106563017017911 O
   0.6367081188667247    0.7011955648985270    0.0625827052989620 O
  -0.1442527317300971    0.7690370769846520    0.7237788329479937 O
