Li1 Co1 H90 C51 N3 Cl6 O45
1.0
  14.2644995239999997    0.0000000000000000    0.0000000000000000
   0.0000000000000000   13.9211557865000000    0.0000000000000000
   0.0000000000000000    0.0000000000000000   14.3879964469000008
Li Co H C N Cl O
1 1 90 51 3 6 45
direct
   0.9585134223388405    0.7675369457155095    0.2912530760600017 Li
   0.6651179202422890    0.7700582880909779    0.6137156244156926 Co
   0.2663902964353311    0.0398768178241592    1.0253942081476342 H
   0.1092189918110162    0.0484551285500407    1.0487477029333794 H
   0.1301836249898283    0.2552784731168844    1.0402211509250605 H
   0.2622092874977476    0.2392503499192129    1.0281187014531941 H
   0.1903862278610428    0.1669366702622239    1.1027385419544280 H
   0.0450576100212011    0.2279143658658604    0.3130497175282840 H
   0.5095342773485447    0.1232894322513370    0.2647844845917259 H
   0.3771702082956304    0.2400879240530580    0.2880740371876467 H
   0.6160730870307961    1.0265908673372492    0.1188058552703005 H
   0.0354288109337246    0.1314338709559128    0.9738046763640112 H
   0.8172893999600236    1.1883324665644850    0.1094577851274990 H
  -0.1881212683827491    0.1468995408544414    0.3299693769748535 H
   0.6853436561340097    0.9932753864164942    0.2978877732780822 H
   0.9941662680026040    0.5304987248516918    0.2045467716343574 H
   0.5540925037995045    0.5945477171677365    1.0319878989613707 H
   0.3652791496773722    0.3119921549482188    0.1812078723484634 H
   0.4480145444954204    0.4662086390480463    1.0586691677131927 H
   0.5901107320686115    0.3966453272906200    0.1586501798165105 H
   0.4140183289826300    0.4627608146909232    0.2336661838851347 H
   0.7882887330032905    0.3567994977842855    0.1523602144044396 H
   0.9886147237744477    0.4511289500323127    0.0351472302183503 H
   0.9229776505336578    0.4209131399048294    0.2413670476161563 H
   0.8346338570567295    0.6286066708402323    0.0660076770942367 H
   0.1771365516503907    0.6926775004235745    0.1387273225196031 H
   0.2229208428483523    0.8049203360015857    0.0956448820778309 H
   0.3304444189415363    0.8165723857658232    0.2634813149621532 H
   0.4051817063035152    0.6899262920765534    0.2178835833793550 H
   0.5597845366579578    0.8966828318454146    0.2833596907357046 H
   0.6275372116378221    0.8444931996667014    0.0685500741635577 H
   0.6725342337149073    0.7587797705305136    0.1368862044669428 H
   0.7126316797583288    0.9798145787886016    0.0521224915691149 H
   0.8971085340336965    0.8298493006164737    0.1009458286190314 H
   0.1424539468266030    1.0240077484819261    0.3320481931679479 H
   0.2736979485422009    0.1123025571422801    0.5610175296671799 H
   0.0922474885632027    0.1522439246930412    0.5674305837946626 H
   0.3482452537743869    0.1927290689327565    0.6342848538488680 H
   0.3447246255241279    0.2150864079908988    0.5173571213317756 H
   0.5105035507518448    0.1839912886891103    0.6986781141210179 H
   0.6105110271865996    0.2391720518226527    0.6370913599631158 H
   0.5704965844057889    0.0999307395546184    0.5443138836184084 H
   0.5116032107836327    0.1893011926319772    0.4790644235240341 H
   0.4638893390943479    0.3193169777979770    0.5594025723598332 H
  -0.0609811610871066    0.1969047279722431    0.5507258257078073 H
  -0.0819219588695610    0.3177452692174856    0.5247387467298610 H
   0.6855280299352479   -0.7020745085173177   -0.6323383391201941 H
   0.1658287592018290    0.3082108597161772    0.4657677841548174 H
   0.1190076282623037    0.4557499743916827    0.6238476814076450 H
   0.0743793537876948    0.4006837132452199    0.4856025819359558 H
   0.3310655413289774    0.5263627176922980    0.3909806514243364 H
   0.5148192647309033    0.4687826997474280    0.3125666759855891 H
   0.8019639411430360    0.5681425820167838    0.4106672006284147 H
   0.1123281089535687    0.7695216947136346    0.3582068040203360 H
   0.2587643716829781    0.8064036898492617    0.3660014959646869 H
   0.1997233938636711    0.8197538744783445    0.5921156746835002 H
   0.4709257584114874   -0.0242292099860770    0.4707221918281220 H
   0.3500553418154399    0.0049465284532465    0.4663088601850160 H
   0.4284857135307372    0.0838595164872807    0.4096218848295467 H
  -0.0257566515167139    0.8218858813644955    0.6403169654302342 H
  -0.1060917518174261    0.7461773686401380    0.4796856357986539 H
  -0.0407862710024372    0.6973236663735829    0.6335286679518146 H
   0.1682137009197464    0.1273350733506642    0.8065061919027765 H
   0.3302242920457614    0.1083316224837076    0.9506270226002830 H
   0.0982645240614051    0.2203898469533157    0.8741438232847107 H
   0.2303000011442953    0.3243654091982027    0.8816445201606300 H
   0.0859044689677540    0.0206873191864772    0.9269385263417623 H
   0.2151652254981701    0.2849821849596180    0.7668536939260396 H
   0.2573587843389381    0.0240857439096514    0.8956833059460907 H
   0.3815201681309264    0.2541765531157538    0.8577197158092800 H
   0.4062592064271011    0.0505619938455532    0.6973568738725818 H
   0.5961810466880844    0.2997482003072331    0.8729337868446648 H
   0.3636120740144658   -0.0364286280950743    0.6057986082821124 H
   0.4850635134487878    0.2610804339051062    0.9712497688662464 H
   0.4791941873038967   -0.0334762870229446    0.6332555235974562 H
   0.2133144770750949    0.6360579199743446    0.7692466608778363 H
   0.3575719041609750    0.5513329145158331    1.0096442737605691 H
   0.5162773621541606    0.3644525979746674    0.8023353540643414 H
   0.6137168879967220    0.4838564050645897    0.8802635078651840 H
   0.5913978434719320    0.4365488387891909    0.9840006755457881 H
   0.3885018361405499    0.4744029586684491    0.8139498968268958 H
   0.3609649429366129    0.4308096601444494    0.9674903851188550 H
   0.3760618623649933    0.5995616686722293    0.8408841542428056 H
   0.4775441469389754    0.5663754873604725    0.7862455530378839 H
   0.5673067073320477    0.6409361068893891    0.9165437503524880 H
   0.4618230906465555    0.6624544351513640    0.9800119339435920 H
   0.8835574101632254    0.4569139582051326   -0.0188366585646741 H
   0.2348630774646728    0.7780382289596612    0.7071330786776856 H
   0.0992670127905709    0.7122110796874244    0.8145114760592663 H
   0.0702081594250821    0.8549154664831320    0.7924333499509962 H
   0.1242023425861625    0.7633066935077791   -0.0240555922971869 H
   0.6927915164547487   -0.0196584688079843   -0.2504783615842832 H
   0.0940330401668286    0.0768457310302796    0.9783278912702827 C
   0.1937252864743410    0.2057452295719268    1.0391911256498461 C
   0.4406214354821973    0.1816919106424224    0.1623484014692873 C
   0.4076269375533964    0.2626938056929415    0.2233937320850896 C
   0.5635877545632705    0.2852177975804596    0.3122872764170087 C
   0.7431465954248505    1.0831917711762906    0.1543139263130950 C
   0.6876430708414668    0.9949828595864338    0.1213183663161167 C
   0.4951732267098361    0.3303103178874838    0.2437614046155578 C
   0.9179322579575699    0.3335226948399325    0.0865199145756122 C
   0.9140540987619442    0.4374978260861229    0.0517242429303175 C
   0.9231998805526408    0.4985495097993529    0.2215018772948513 C
   0.7651775120701388    0.5009575713507155    0.1302063307017037 C
   0.8768666741973808    0.5099107072764602    0.1226778328736870 C
   0.8782063636809023    0.5673754043367267    0.2977390381843603 C
   0.1680363375292016    0.7730372074160684    0.1392812564901468 C
   0.0686974159206401    0.7853975317051525    0.0961807454295111 C
   0.1785274171319745    0.8033809523233439    0.2425805591752144 C
   0.1812355387828607    0.9215406816753534    0.2460744438300741 C
   0.2706960906832584    0.7820256852349391    0.2975492966862945 C
   0.2891671207784045    0.6786269429124170    0.3060390124330841 C
   0.5376474823947704    0.8069805097716266    0.1817298352240949 C
   0.6360955210124063    0.8256556832979595    0.1411362750188559 C
   0.6914364040677016    0.9086157490936430    0.1854899139952886 C
   0.8016162247726401    0.8653003800791853    0.1857269171119203 C
   0.0801047562010490    0.1546438691022833    0.4337586714406404 C
   0.0352801902270231    0.2545328453716604    0.4416638721695791 C
   0.1044056438288820    0.3121343845181170    0.6007124240958654 C
   0.5319370822603001    0.2214113138644029    0.6321108193948395 C
   0.3383647809430149    0.1552142240441984    0.5665912035484574 C
   0.5144979215255362    0.1523143211468291    0.5473590609064135 C
  -0.0639234304551546    0.2460515093525277    0.4856095321739802 C
  -0.1484367355291729    0.2263462489411744    0.4275041522424939 C
   0.0974954820083318    0.3227304874755343    0.4970205719671805 C
   0.4559524325236327    0.4255754683059627    0.2905441517815142 C
   0.4047330400191333    0.4043438978434997    0.3880990827394253 C
   0.0095786225426355    0.7532637055444104    0.6154365033505309 C
   0.0299459687303643    0.7598917471678996    0.5126429569760697 C
   0.4201608508322455    0.0371399761003601    0.4650470444716884 C
   0.2657754834175142    0.0725659139724332    0.9555151250028350 C
   0.1677348898693826    0.1850601654568303    0.8669857731433938 C
   0.2378081509969981    0.2597680428737726    0.8383375870306700 C
   0.4180598307474135    0.0151360559734801    0.6262649741925270 C
   0.1250744376764298    0.6232213421254497    0.6655143583638494 C
   0.5342237380202951    0.3489725614529168    0.8722186073519552 C
   0.4049279294364118    0.4889202087516629    0.9948423518400304 C
   0.5589106188609103    0.4477064612152417    0.9164533972581710 C
   0.4243734066179496    0.5411446799916896    0.8309835401770653 C
   0.5198790006072702    0.6130361245921827    0.9677454588543500 C
   0.0926134320014017    0.7359433045879160    0.6759654312811213 C
   0.1611317840372063    0.9081976803578815    0.7041632419698647 C
   0.1764740678398582    0.8040813252054185    0.6685717680707777 C
   0.4224497499236624    0.0926784681521314    0.5545550593473436 N
   0.1837242345790414    0.1375641090847583    0.9593926627966408 N
   0.4792298001902194    0.5214974607381534    0.9293850101263469 N
   0.5208490731973893    0.7819229638789015    0.5371105874275526 Cl
   0.7761123506698083    0.6938419152357209    0.5076989802199920 Cl
   0.7556966326482946    0.8954796271505686    0.6602099367036368 Cl
   0.6564257120234596    0.6799465172553617    0.7483556354241316 Cl
   0.2222085851218961    0.6771672939930575   -0.0923402908391915 Cl
   0.6709295507071729   -0.9767787111459892    0.8370177368298387 Cl
   0.1069497218695410    0.1258416628667328    0.3546816432943666 O
   0.0305011932572868    0.2849793116349736    0.3509292097849996 O
   0.4285852613625843    0.1748713562677578    0.0759631980403697 O
   0.4863254574777187    0.1037350213838152    0.2011682609307025 O
   0.5496020553339114    0.2026463489429323    0.3472490587510863 O
   0.9827315871204905    0.2792118307424847    0.0642673374929300 O
   0.7489392977808621    1.1128947646878631    0.2360737463367826 O
   0.7878183344457589    1.1291383872338652    0.0876986749445484 O
   0.8458946797536450    0.2998509216632708    0.1405851211435220 O
   0.5361483060679725    0.3503747438793882    0.1549762839968192 O
   0.3606838254678048    0.6436794135936380    0.2561085024658826 O
   0.6354877184052826    0.3373133283770684    0.3304433832081168 O
   0.7172494372821152    0.5721293199609006    0.1024310944848430 O
   0.7282466685369564    0.4240184855142738    0.1634138729584259 O
   0.8956671935951197    0.6051143685475486    0.0863836899103342 O
   0.8961474067276222    0.6516435511767772    0.3023199400662343 O
   0.0645556652829399    0.7931526349204110    0.0021266493644841 O
   0.1705628895431270    0.9716507451426760    0.1783568847108595 O
   0.1033603915944861    0.7663854608642627    0.2917430678407210 O
  -0.0018125937931785    0.8038694175128933    0.1408096138317097 O
   0.5075955342504451    0.8627596427623672    0.2505191210466701 O
   0.4858495907998462    0.7452421014683830    0.1454919891887397 O
   0.6578915888994635    0.9309034100291584    0.2805740353355299 O
   0.8493431007737612    0.8614544350426446    0.2557929616595754 O
   0.8281029584546958    0.8427282600038735    0.0987245325464371 O
   0.0897335552885255    0.2305650078503272    0.6368036201089061 O
   0.1013897651485526    0.1062534904346392    0.5066530736508921 O
   0.4717805377873418    0.3005484212207009    0.6259063419104687 O
   0.4178488173855402    0.3303878976528828    0.4385981221770216 O
  -0.1325104845157553    0.1506815544176441    0.3721211805451603 O
  -0.2273445162126952    0.2680504011612800    0.4299978976456442 O
   0.2423971658369414    0.6221603670005018    0.3578002150959093 O
   0.1163864357040165    0.3866885390665835    0.6527252253751735 O
   0.0859255001998344    0.5746082807978640    0.6041062253231740 O
   0.3507381558169836    0.4704227992011057    0.4306227240440367 O
   0.8187749059859690    0.5237033839007819    0.3569821720804389 O
   0.1085649204933157    0.7629489645895502    0.4822076686705634 O
   0.1759840401323848    0.9550968035350778    0.3322024884520893 O
  -0.0435063103515022    0.7622313517596092    0.4539832385701865 O
   0.3293360730108992    0.2199746515421986    0.8224479528593147 O
   0.4570069385001440    0.3037169799723223    0.9235475052096636 O
   0.1931441234278526    0.5884577055839127    0.7187566567496716 O
   0.2041911285986174    0.9788606350066579    0.6719516688220374 O
   0.0983738864682232    0.9222511111936834    0.7786975945433988 O
   0.0534336487177551    0.7390759467814825    0.7684842197665610 O
