Li1 Co1 H90 C51 N3 Cl6 O45
1.0
  14.3027108172999995    0.0000000000000000    0.0000000000000000
   0.0000000000000000   13.9584473413999994    0.0000000000000000
   0.0000000000000000    0.0000000000000000   14.4265385598999991
Li Co H C N Cl O
1 1 90 51 3 6 45
direct
   0.5445119465241474    0.3042119991458952    0.2389131159695103 Li
   0.8681745765761119    0.8216649667533631    0.3357922109926817 Co
   0.0523606970221449    0.1486760754933545    1.0538459531976174 H
   0.2074452840164535    0.0903766113698340    1.0985150189838644 H
   0.2912531729762249    1.0683292207200703    0.2815823950515375 H
   0.3988684369399105    0.1879834559333462    0.9476097972662100 H
   0.2949238058143369    0.2490497034286430    0.9913999273363562 H
   0.3664312293415553    0.1763725656934762    1.0668969008811695 H
   0.5927463692718649    1.0445393254775603    0.0616952761263177 H
   0.7867410626864790    1.1541389079083781    0.1399614517104230 H
   0.7536473361862216    1.0277666863527477    0.1657500356077498 H
   0.2503958832313208    0.3267947400690260    0.1642819079683955 H
   0.2324468382370334    0.4474732767859221    0.2130191706929664 H
   1.0125269323199408    0.5395678320440335    0.3162227211370391 H
   0.3567281736220663    0.5331959915502698    0.2561930753280862 H
   0.6068611760786845    0.4792265219112173    0.2403049952423258 H
   0.6943550795760799    0.6074147763951531    0.0879059987074814 H
   0.8465996455059294    0.4520962838025125    0.2904348304066809 H
   0.9139351326245737    0.4877580581979786    0.1926650158289437 H
   0.7257470307757727    0.6301407997300797    0.2783633276496670 H
   0.8086453019598521    0.6555433385173511    0.1165837025296565 H
   0.2487038962849911    0.6803183003409572    0.0880092805857929 H
   0.1361483101052868    0.8838667273621414    0.2393373341542528 H
   0.1139965653034010    0.7740751464995171    0.2731403145417658 H
  -0.0029351143874924    0.8442240660785476    0.1421310643219335 H
   0.3439774438947050   -0.0021078869719796    1.0587625865054269 H
   0.3299619189665542    0.9022326669061227    0.1825988451118977 H
   0.8500402520195196    0.9211516765596357    0.0169548141423119 H
   0.1379220997262944    0.2617996888422893    0.2698748049530038 H
   0.1382618954518796    0.2698213546666753    0.3924343498264107 H
   0.1106664273590340    0.1013069101536740    0.5695482839410201 H
   0.0438651047143548    0.2558907221798318    0.6529084742601826 H
   0.4138970565313801    0.2723954231945863    0.4002269328866662 H
   0.4259248463816734    0.3159453958478505    0.6191110392084177 H
   0.6026640696163634    0.2929199122722709    0.6410643302688477 H
  -0.1323119873199843    0.1758323910010062    0.6245059577245153 H
  -0.1132687441558597    0.1139007177384630    0.5214689753029813 H
   0.3612196298795960    0.3735341792088641    0.7096171571228908 H
   0.0101176559848336    0.3351588508576039    0.4311234641751176 H
   0.1493472066229776    0.5316138671592210    0.6313606858763449 H
   0.6474492860821270    0.3466386376906807    0.7458053250491281 H
   0.5931882435487575    0.4898198921037197    0.6953108840593243 H
   0.3527366225986795    0.4099728308410868    0.3813138721502250 H
   0.4716837244265522    0.5170614606463898    0.6851046936146346 H
   0.5285108539394339    0.4373311029081646    0.5930451885236776 H
   0.1817361716183176    0.7397640237588439    0.7035914566654276 H
   0.2204665918215957   -0.0223759005325498    0.5270796073796865 H
   0.0424297124826132    0.0058894208424011    0.5228832438688805 H
   0.2971177954992884    0.7925900997517661    0.3804876171237329 H
   0.3876048378881042    0.8149865735395624    0.3142929442966414 H
   0.6173102442245098   -0.1004619493130067    0.5868524348267977 H
   0.5865943886351893   -0.1090803863825221    0.7056279812189795 H
   0.4149674829837895   -0.3269377114576905    0.6548833069535350 H
   0.4760178678481629   -0.2065668737201259    0.5380068994217418 H
   0.6445826966276016   -0.2467497096961896    0.5020561411822273 H
   0.4875163874016083   -0.3229902810127171    0.5076660454336156 H
   0.6340196640717549   -0.3515393015630237    0.5694068085627423 H
   0.7074491008698247   -0.0876818745928833    0.6761850210635432 H
   0.7876961263925477   -0.2083170683802111    0.5725020763440326 H
   0.0892537033018881    0.2974211292388348    0.9618238791229614 H
   0.2270352766814169    0.0438463645512177    0.8390390549847810 H
  -0.0355471140257576    0.1351537978801290    0.7619082868951339 H
   0.1623300601793396    0.0200435738916460    0.9953080027049489 H
   0.0682688701584422    0.1410670630149403    0.9341062115522055 H
   0.2123177869209872    0.1605326950694542    0.8485929753120807 H
   0.3271568563100770    0.1159711485889118    0.8323097900542561 H
   0.4103117222087444    0.2534778463651912    0.7219527564949160 H
   0.5736224421021177    0.2316265621542778    0.7603237072050658 H
   0.6620591039459722    1.1330119162890924   -0.0622734771941182 H
   0.6826496062473809    1.1067912349304672   -0.2193603619371559 H
   0.8911660223377256    1.0915373893706897   -0.0222971517848443 H
   0.7565013406138736    1.2075882623926122   -0.0166866583415328 H
   0.2076025968523726    0.4944860987674665    0.7366887930789733 H
   0.2952608048672835    0.4652650335569937    0.8840706470955709 H
   0.5118858097056942    0.3310244368652371    0.8693339173445452 H
   0.4284201775434299    0.5359152051613298    0.8258598714120503 H
   0.5792619324777768    0.4350790616007646    0.8424210166242568 H
   0.4501703201544182    0.4836166233674338    0.9461479081295725 H
  -0.0152460673424399    0.4937802896069605    0.7467688271353899 H
  -0.0227984818028752    0.5647474233985508    0.8544294411871342 H
   0.7720920914056941    0.5464087075128106   -0.1149583258044885 H
  -0.0146762452923330    0.4626675168623924    0.9708468335523643 H
   0.1231004339100783    0.7250983524994882    0.9579948247887814 H
   0.0277255069172166   -0.0758732546247352    0.7329761907955069 H
   0.2841999645817729   -0.0442515427534684    0.9583885436269086 H
   0.0360532988666930    0.7213636964360315    0.7841936049334913 H
   0.4023460993659617    0.0205558085138158    0.9432393795296051 H
   0.6793355491706856   -0.2254600925395156    0.7991466027786998 H
   0.5726959044569623   -0.2705417541748767    0.7638297457319091 H
   0.6744861188154201   -0.3461447187589130    0.7527418469032445 H
   0.8102408037001514   -0.2151860272017002    0.6982194126592915 H
   0.7683906951685581   -0.3219586476477876    0.6247326233232259 H
   0.1841755693273028    0.0897339897529300    1.0230388404481070 C
   0.3399145777190348    0.1839034892574617    0.9944692706730232 C
   0.6404177519006239    1.1306420251979903    0.1505814628353274 C
   0.7679082691384062    1.0619080194354431    0.0276379034613528 C
   0.7404190746058258    1.0962520971308294    0.1252919591553450 C
   0.2701480829093209    0.3809877302704799    0.2174713821318582 C
   0.3738619885422131    0.3986257951625388    0.2037307333146152 C
   0.8077391800249581    0.5467361078237638    0.0175835165827719 C
   0.7177352628344538    0.4307578789846220    0.1737166035771072 C
   0.8585638110536953    0.5148227446032868    0.2413010761761087 C
   0.7672440593867478    0.5270362090259639    0.1970084000537757 C
   0.7666798306819180    0.5898906210204719    0.1082012343791788 C
   0.8948240701489640    0.6026685465044184    0.2870452439305513 C
   0.2832169341493186    0.6816973935544914    0.2129872850124139 C
   0.1524515132517809    0.8102446421211814    0.2198524106687713 C
   0.1171826746068822    0.7865364178533950    0.1190929669557483 C
   0.2601877333070842    0.7955452994950538    0.2270849148184517 C
   0.3112263097926713    0.8325859521804365    0.3163925470443299 C
   0.7257085765269925    0.9531452062895126    0.0165777313114296 C
   0.3018567572853307    0.2338080368738683    0.3194008916877660 C
   0.1474398758834787    0.3110558835453200    0.3308249764961695 C
   0.2522906289439462    0.3353995653094208    0.3215046534372658 C
  -0.0245044521123977    0.0680782860341178    0.6427341694960453 C
   0.0673452690195573    0.0358404597921292    0.5870312719046794 C
   0.5849443517784380    0.3055309137464753    0.7174000358455868 C
   0.4210068975467631    0.3245717134500147    0.6954945733059857 C
  -0.0202996548003205    0.2183980134852336    0.5363996531718028 C
  -0.0781019840622685    0.1389894680439017    0.5831904337320344 C
   0.0846070317129183    0.3992985060859199    0.3337085510852695 C
   0.2545440479224672    0.6244754131676750    0.6865388560725307 C
   0.5254219290101427    0.4637407021267427    0.6664231506456836 C
   0.1345514100286682   -0.0376548205143913    0.6317585637162831 C
   0.2939540595769157    0.9381578660156753    0.3422788674842199 C
   0.6424082836511200   -0.1247991833685767    0.6545554389774185 C
   0.5081419180278151   -0.2737082954755631    0.5648553356139565 C
   0.6163523838458024   -0.2777775159705629    0.5656382677049153 C
   0.7692737445541838   -0.2452237520105647    0.6371486300636010 C
   0.1073901253629592    0.1589565885397008    0.9964808412157080 C
   0.2608372605273901    0.1054728462766360    0.8676474421101027 C
   0.7922833686879482    1.1330369907111566   -0.1361844847149266 C
   0.7383565285348869    1.1350264669989407   -0.0475866554648268 C
   0.1004068337844713    0.5945193593335342    0.7692870492751748 C
   0.1737929221566434    0.5545557454475178    0.7029627542249675 C
   0.1509245299911263    0.6285847527379776    0.8568201740616068 C
   0.0629761671899646    0.4398494345778870    0.8553686824294973 C
   0.5116261736096117    0.3998535821492167    0.8313123227865363 C
   0.4352727246760651    0.4672146271854545    0.8687752247679070 C
   0.0241289859040266    0.5271438141172224    0.8039689653787885 C
   0.3324132025342533    0.0136209397829007    0.9818356095045285 C
   0.6441254406511967   -0.2763303636114257    0.7469199375345302 C
  -0.0859403582999967   -0.0147676044661945    0.6854498907649643 C
   0.5079410470155504    0.3733249868876423    0.7268035389407146 N
   0.6630470285555440   -0.2299491305010770    0.6497164403700849 N
   0.2787373637505027    0.0998919963371909    0.9670829369132264 N
  -0.0817418535013563    0.9265061402884436    0.2363054218338866 Cl
   0.7184267401443382    0.8574354208581763    0.3899035972242942 Cl
   0.5051537432303281    1.3739606348492666    0.4094280312269822 Cl
   0.9701216842695929    0.8373293164229354    0.4481911758079285 Cl
   0.5271973966347334    0.1094962163998611    0.8227600287287677 Cl
   0.7618779437615080    0.4850231551628269    0.7713360508341602 Cl
   0.2606582734785222    0.1643461564593986    0.2820017610675004 O
   0.5692162144432480    1.0956166396345153    0.1051020848628647 O
   0.6310635810927955    1.1893412472504210    0.2137636320171716 O
   0.4297010536118910    0.3336995194934640    0.1765620539829380 O
   0.8675809828085772    1.0536520868677710    0.0336518200803509 O
   0.2864261160020679    0.6389254443972782    0.1319262602111807 O
   0.3143515914662637    0.6345839873198663    0.2838365740332089 O
   0.4042289592198732    0.4824642029293604    0.2331820114736738 O
   0.6292296630100588    0.4182778376347990    0.2049514003462030 O
   0.8826480566488271    0.5029682026221581    0.0098685682229921 O
   0.7578926852515580    0.3771807165890664    0.1248691273045394 O
   0.7025031853085288    0.5679483524780682    0.2593802570494040 O
   0.9729582094932538    0.5978306158701343    0.3289125288299851 O
   0.8543233561654765    0.6818807950415899    0.2711564706778225 O
   0.1693636918653217    0.7513469739284135    0.0591062974988444 O
   0.0318485015546159    0.8109259499892704    0.0922923592843625 O
   0.3064509912623276    0.9945753156602586    0.2660117854373656 O
   0.3034641448843439    0.8421966199516375    0.1524994558372601 O
   0.7918030401622753    0.8815949847231195    0.0086777073710513 O
   0.0392841549323912    0.2694968200039579    0.5844457591120489 O
   0.3730285800959218    0.2175899006827055    0.3707125765334710 O
  -0.0285889925010167    0.2383128359007272    0.4522901493596555 O
   0.0886929704378566    0.4691183704421408    0.2841817711835387 O
   0.2811809564684458    0.4041005444760492    0.3854936689704831 O
   0.3281881293455466    0.5803917135304715    0.6697198527480297 O
   0.0161633630612439    0.3981436498468460    0.3992738283049324 O
   0.2138713385717081   -0.0556424944912319    0.5852241856177123 O
   0.2467699971554259    0.7170028962330274    0.6971727305368057 O
   0.2731761802087233    0.9755409636652498    0.4126796774763737 O
   0.4738684151749805   -0.2867684873107473    0.6551224495576791 O
   0.1325741624732052    0.2583401350094805    0.9999667779004638 O
   0.0155005516459048    0.1237284583635346    0.7193422896914181 O
   0.7500627010317454    1.1297214357022025   -0.2210170309919514 O
   0.8801016862114167    1.1359671160323801   -0.1343358084098472 O
   0.2039032981197154    0.5804741009172542    0.9074955316301979 O
   0.1122416532227037    0.3816790679073944    0.8162303958851805 O
   0.3453534068328772    0.4196552114593917    0.8606201153831083 O
   0.0339732735917629    0.4234880159749285    0.9419119647848632 O
   0.7563034760246953    0.5697630242234616   -0.0531922967393586 O
   0.0652463662043169    0.6861950284607605    0.7281961113804988 O
   0.1046654670448407    0.7016795587035290    0.8920476125694565 O
   0.1190781194876672   -0.0864453473790858    0.6994809765420229 O
  -0.0423094684657992   -0.0687234622761264    0.7484733247110142 O
  -0.1681282746338814   -0.0295120810520379    0.6645557588324539 O
   0.6404904653892265    0.9398643595401629    0.0168362825906926 O
