Li1 Co1 H110 Cl3 O55
1.0
  12.9654571866000001    0.0000000000000000    0.0000000000000000
   0.0000000000000000   12.3905429342000009    0.0000000000000000
   0.0000000000000000    0.0000000000000000   12.5846807003999999
Li Co H Cl O
1 1 110 3 55
direct
   0.3938639817944697    0.4530512502083865    0.2513240840587613 Li
   0.7020197176469075    0.1102979081996328    0.6766690036028751 Co
   1.2585353804696044    1.0978696445619713    1.1427761810232411 H
   1.2343788856007853    0.2440176337030879    0.2424935064187209 H
   1.1242863543882924    0.1764168833204671    0.2426754736894461 H
   0.1804106526777554    0.2790378908705368    1.0676848837152400 H
   0.3361537144871728    1.0014977578463311    0.0123239161876447 H
   0.4107079693883442    1.0830357506013861    0.2051433335227919 H
   0.5902365403056646    0.1662462232719745    0.1735747932111277 H
   0.5982825350205919    0.2656825439031938    0.1019512040666411 H
   0.3952507435369391    0.2481038146129052    0.2803355471774397 H
   0.4758819148835582    1.0924542240790809    0.3137833564640608 H
   0.6741518226085875    1.0915583795580663    1.0403023852471585 H
   0.7649600357749408    0.2775811346899679    0.2752754267408540 H
   0.8209110130185157    0.1620163844119405    0.1110130152253759 H
   0.8635242423129688    0.3294553748595331    1.1223545266230759 H
  -0.0059895617703524    0.0466295117306983    0.2755535426568096 H
  -0.0297267116117076    0.1637217172704125    0.2492040461622771 H
   0.9252729325810938    0.1490605356769419    0.0520943173535712 H
   0.2532040749548681    0.6434997247047430    1.1453110089429503 H
   0.2100671464261900    0.5221926917537253    0.2598662157631106 H
   0.0375325132231307    1.4959151560614588    0.2779413664495137 H
   0.2816141799514505    0.6061155678958060    0.3178629196426775 H
   0.1019562653499187    0.6633527691844184    0.0731711333900376 H
   0.5160501860447367    0.4730632869138636    0.0834991665832730 H
   0.4278959479372471    0.3936648291364749    0.0551481890341438 H
   0.5734866488923137    0.6389938688841802    0.0622371253467802 H
  -0.0050761346671231    0.6177728456089013    0.1171911616441030 H
   0.6978362940144530    0.6341232187181229    0.0855302868483416 H
  -0.1194939279350071    0.5336393249443117    0.3002049428302077 H
  -0.1291858345289274    0.5306055595799026    0.1829337910914836 H
   0.8030705314472940    0.3959125111103721    1.0383714661735239 H
   0.2828142918932092    0.7297251633859722    1.0474618835407572 H
   1.2622452380787688    0.9871158214819334    1.1970803001558210 H
   1.1876238818029619    0.7946391872726851    0.1718377606617595 H
   1.0335298169932101    0.8844891644619115    1.2780040855298616 H
   1.1877858506382892    0.8072124861851963    0.2855379040396142 H
   0.6602186463695957    0.7057907803992959    0.2933036950299961 H
   0.8166226952831824    0.6668966009788106    0.2074540794759313 H
   0.8001990553809909    0.9442847685718001    0.0634737081708088 H
   0.9302862536745587    0.8875398782361776    1.2039298978573552 H
   0.9005225519827409    0.8714711715574371    0.0458720696967426 H
   0.7920782464897458    0.7802717781167364    0.1584270111943825 H
   0.0354708581950592    0.2750832619038955    0.5109595947075253 H
   0.0029995543342809    1.1171827611276297    0.4500990915105188 H
   0.1249070179317513    0.0115145048814773    0.5930904031568129 H
   0.3332737543390192    1.1619507751642812    0.5728117797991390 H
   0.3060622187238591    0.3295594865200834    0.5677492755118452 H
   0.3388447109941113    0.3094118625357501    0.3745230778918523 H
   0.4231155534545861    0.3213887388347209    0.5413171388594287 H
   0.6235257636464409    1.0346036517670709    0.5110207802090355 H
   0.4381817402607009    1.0366051782644730    0.5123954674507588 H
  -0.0330917298576582    1.1172796091839556    0.5697143631122968 H
   0.7207672246959621    0.2176071687430124    0.3710362989226723 H
   0.1000131792221085    1.4279278205206702    0.3502117737528228 H
   1.2215756348082436    0.4328874848813322    0.6571500340042112 H
   1.1437688914376658    0.3476918638657018    0.6122819905915521 H
   0.5296995311818216    0.6106085106421921    0.6545142897378552 H
   0.5447171273373382    0.5579917687074617    0.3647175053121620 H
   0.5563488035543455    0.4272775612186538    0.3617702712199358 H
  -0.0092674253572935    0.3966776107553467    0.4915335952864808 H
   0.8243046457587073    0.3804636319921174    0.3934969402952433 H
   0.7219118044656087    0.5676031312306721    0.5644587669176395 H
   0.8115476717762593    0.4930478833367150    0.4548842744987599 H
   0.8147484844743947    0.6495244808753506    0.5430684745130461 H
   0.6755987442041783    0.6483534264609433    0.4019715295628606 H
   0.2376720349271451   -0.0169309798621464    0.6169805603373956 H
   0.1418528145078314    0.7098398362208549    0.6509043451487520 H
   0.1303900486476656    0.8381312281672428    0.6117209910582246 H
   0.2093267174646936    0.7292320453658462    0.4679326786584920 H
   0.3212271293915068    0.7367861937592671    0.4416761523415790 H
   0.4871009562105648    0.7439626347330169    0.5370929554045151 H
   0.5232979057855508    0.7555682601494051    0.4164883857588381 H
   0.4782073245907578    0.9278609523531980    0.4592379805088185 H
  -0.1408491332328318    0.7810804593870578    0.6575560832415063 H
   0.7477897966699071    0.9984551147434253    0.4924998494402007 H
  -0.0357257287601647    0.7570096820543890    0.5928957220156441 H
   0.8607167825006282    0.9013730089480617    0.4004244104532449 H
   0.8636245087348379    0.8734000620125948    0.5188183558755267 H
   0.3089552906348725    0.3209521155141182    0.9491995573491444 H
   0.1166844000583004    0.2539397170736773    0.9637489928381338 H
   0.0599821959308740    0.0824500566702536    0.9014271891570065 H
   0.3946992782166579    0.0764180368954215   -0.1341350400528117 H
   0.5505572607711410    1.0924058000509180   -0.1870962566197775 H
   0.3934714001888430    1.1211696727797129    0.6694093835795323 H
   0.4190509069680383    0.2010332380371052   -0.1435337687783041 H
  -0.0144832846229345    0.1563039632229839    0.8547354999525817 H
   0.6899214169281240    1.0300356517770324    0.9353970617487213 H
   0.2113173915788834    0.5740604753862021   -0.2126272977044979 H
   0.1064858395218728    0.5382904528493635   -0.2012221612996117 H
   1.0628924529975510    0.5284595680651477    0.9720765779787459 H
   1.1190030852359483    0.4162239697233234    0.9357466931859226 H
   0.3636197725578474    0.3777196037295500    0.8573895204077004 H
   0.3884287704489854    0.6216822788159239    0.7947927792782286 H
   0.3653458975743358    0.6025410675502439    0.9123452254005190 H
   0.6452619813473689    0.4346194509552938    0.6677557858049508 H
   0.6742073547806998    0.5410619213945566    0.7260600064258743 H
  -0.1415332587420477   -0.6499165594005452    0.8212106128263957 H
  -0.2932579508750109    0.5800311580586944    0.9138867821918156 H
  -0.0631565393271513   -0.5754864069126756    0.8916692935914801 H
  -0.2127648386785040    0.4965820303254746    0.8596223939043722 H
   0.1267951117835671    0.9576498003447755   -0.1967365488836999 H
   0.0316552966388398    0.8672502104358996   -0.0653390156950001 H
   0.2049635855530426    0.9745255741595652   -0.0966330953284613 H
   0.3753625131190790    0.9122361325992846   -0.0720198367663942 H
  -0.4394787877275176   -0.1758913265119736    0.8673778548750187 H
   0.5196011599392465    0.7261385570333694    0.7097202990550338 H
  -0.3366733115444184   -0.1881982932695885    0.7998290612077323 H
   0.6002361876867068    0.9667050936112480   -0.2105183844446520 H
  -0.0059068805363186    0.7523633965521536   -0.0168468040506790 H
  -0.2065660599664765    0.6965660030342530    0.8080199722410750 H
  -0.1193620390262405    0.7788255138089362    0.8260498297640224 H
   0.6223426198683830    0.2742334202096356    0.6883983437040752 Cl
   0.8651670690712888    0.0748232722345882    0.7200566757257477 Cl
   0.4427523465376046    0.7736167025128744    0.9996179998273736 Cl
   1.1856802557790338    0.2049450924455358    0.1984018037200292 O
   1.3051746922421943    1.0359998779124362    1.1539246561685454 O
   0.0190034635689242    0.1187454799126602    0.2876746288910556 O
   0.4650161198735989    1.1299263512058473    0.2438260789645994 O
   0.6375414668634327    0.2006062995221351    0.1222775044384788 O
   0.3455571622981768    0.3132204123507665    0.2941229450567109 O
   0.8944602898604893    0.1811075575151853    0.1168701364154000 O
   0.7069991024129707    1.0242812630970011    1.0134046030897421 O
   0.2786971983552221    0.5562622238349081    0.2524246284690425 O
   0.1066185768388244    1.4642781243283285    0.2849419413625666 O
   0.0312751480695248    0.6389551296616498    0.0514447180355893 O
   0.4477448430665276    0.4443292756691022    0.1101174819759990 O
   0.6350517744804012    0.5921621841806506    0.0531972456145606 O
   0.8315778177450728    0.4042817973112027    1.1109676664069525 O
  -0.0950836818908416    0.5741637799796164    0.2344909195913253 O
   0.2265987655519331    0.6998773994934631    1.0967837546932189 O
   1.1598809341518943    0.8461615461709328    0.2254243407311741 O
   0.7569310092237145    0.7096421047725229    0.1805785465917915 O
   0.9612223012220795    0.9070628322572090    1.2733396843108356 O
   0.8478672548979931    0.8936170937706285    0.0973058736532805 O
   0.0291048428041554    1.1304509448442792    0.5231084925333669 O
   0.3560434874653693    0.2972082003715494    0.5130319555898456 O
   0.3403541062833284    1.0997178283035240    0.6193977849555008 O
   0.4887854320979691    1.0098831853898826    0.4598657278619753 O
   0.7760664701973865    0.2633476986786034    0.3499725940651010 O
   0.7000791767436525    1.0605992842192171    0.5208358881915586 O
   0.0557422374620886    0.3505513027287243    0.5043642744148650 O
   1.2149194869564583    0.3558997366393226    0.6420650267227817 O
   0.6478395996695783    0.5143165235730207    0.6524919897204068 O
   0.5061870552534705    0.4910608840477617    0.3558956684580517 O
   0.8564670287737064    0.4523587866056562    0.4008972075103694 O
   0.7660675940965124    0.6011738958217765    0.5060846200092757 O
   0.1701703658842268   -0.0454359454536968    0.6153166325430786 O
   0.1167090810236836    0.7613282982993886    0.5993122535051902 O
   0.2560015081250216    0.7211831648180271    0.4029576491391487 O
   0.6233954172980107    0.6770543479531265    0.3549929836565502 O
   0.4736907079256299    0.7837114982505783    0.4699684871632867 O
   0.8383882216305031    0.9285873127756421    0.4672779143306424 O
  -0.1128894558544930    0.7649149046519914    0.5851196010055266 O
   0.1728227983827539    0.3044241876349658    0.9958833003845418 O
   0.0171494603005440    0.1428913144889815    0.9270138534249179 O
   0.3767878388699595    0.3299654412895162    0.9138947283608428 O
   0.4270012629421056    0.1303664396046333   -0.1823730537499494 O
   0.6146706960350451    1.0490662948450735   -0.2061146175697214 O
   1.0648592174265257    0.4665324996489531    0.9196715932436912 O
   0.1490727681625894    0.5692059665628659   -0.2558393594918673 O
   0.3502434606003144    0.5718402336949306    0.8395265324343262 O
  -0.1337602972066722   -0.6049822895338673    0.8877359399229656 O
  -0.2578901274808672    0.5583412287773709    0.8416322672265613 O
   0.1336093720698384    0.9657366130479889   -0.1191445921828070 O
   0.3434083757495009    0.9843798638907264   -0.0653705619860385 O
  -0.4087633263081095   -0.1674590890745311    0.7950732790448922 O
   0.4826930900491567    0.6744095889482931    0.6669532227331932 O
  -0.0261514423918988    0.8173331080712538   -0.0585250962923986 O
  -0.1833050213729669    0.7695151873274721    0.7917152280139547 O
