Li1 Co1 H110 Cl3 O55
1.0
  12.4865906402999993    0.0000000000000000    0.0000000000000000
   0.0000000000000000   11.5544951600000001    0.0000000000000000
   0.0000000000000000    0.0000000000000000   12.7414899982000005
Li Co H Cl O
1 1 110 3 55
direct
   0.1948782810534691    0.7281841797145208    0.6939446250280854 Li
   0.5626808407992461    0.5987938446719639    0.6001973474201491 Co
   1.1143174082517777    0.3255919473767818    0.2081466531366947 H
   0.2643007539262703    0.3873930031660510    0.2376212279354862 H
   0.0612908152630535    1.0444913787215606    0.2199678765588595 H
   0.2129504679698633    0.2979472951806576    0.3242453197925550 H
   1.0917972497793411    0.3256135839776491    0.0875540850605069 H
   0.0183481886128763    1.1698884627080495    0.1987301720173790 H
   0.3355347701299624    0.3914026980387778    0.0772479905598989 H
   0.4245022098420174    0.3565236319766652    0.1554298986523377 H
   0.6035823178086446    0.2921538789324310    0.1298387001311236 H
   0.5230439203413405    0.1206820861310569    0.1564227181735857 H
   0.5558455082045716    0.3099988818637404    0.2436354382053075 H
   0.5321921340764274    0.0209044511902327    0.2540204088813189 H
   0.7479612000778790    0.2889248326189960    0.0012418091684909 H
   0.7027022485930707    0.4099167046689039    0.0214238600931730 H
   0.9501332799290809    0.3740319693984795    0.1930126303475828 H
   0.8350738500665286    0.3691715233796506    0.1571832257752374 H
   0.8128508103278499    0.3505960688030614    0.3330166644324510 H
  -0.0938074061641423    0.0095261262890174    0.1511862819318726 H
   1.0299789342570300    0.6727797686056584    1.0305661661983818 H
   0.2155260309018461   -0.0775550474071946    0.1734175908321673 H
   0.0623051033393458    0.8139317598796761    1.1530557651558413 H
   0.2735795076980218    0.6003568727186174    1.2893349601515054 H
   0.1866822888128249   -0.1084425933413087    0.2923118488988463 H
   0.2947822529170033    0.6967868754639730    1.1040662042733871 H
   0.6327872473610751    0.8998117560421394    0.0042394177688505 H
   0.3686046457986084    0.5548516392385594    1.2124522721661606 H
   0.3544438548274269    0.8009930725610344    1.0401490328817327 H
   0.3984294403104154    0.9864533605551314    1.0882674240657004 H
   0.6197692823550488    0.9547167944029845    0.1171612189242302 H
   0.5595727065520368    0.6968509198025403    0.2273327922801179 H
   0.4347668211912784    0.6805507701731557    0.2692627392545670 H
   0.6627233612906512    0.6112920107969477    0.0470920982698857 H
  -0.0489690658894948    0.8545955875496685    1.1056280310301332 H
  -0.2025176249182495   -0.0335652414518818    0.0865281453939650 H
   0.6687338089910650    0.7766120852397328    0.1145210253515200 H
   0.8687499760895001    0.5603499322509561    0.2235969654649868 H
   0.9154640885965140    0.6950931623480813    0.1826904466768677 H
   0.7456347043324157    0.6752004715106912    0.1683954152460279 H
   0.1309553077621125    0.1887889128770902    0.5018791758266405 H
   0.2514493676173375    0.1065708681382147    0.4174180963020300 H
   0.2928834159419625    0.2298716251398733    0.4515679484826988 H
   0.0886528078070640    0.1418262379626113    0.6131047860339403 H
   0.0906369362784531    0.3453894371703558    0.6016956023340325 H
   0.1534738645163079    0.4917264234762119    0.3414254141167608 H
   0.6249332219649447    0.3716354994864181    0.6183781096412649 H
   0.4487089776225248    0.2594125090360071    0.5358846178951279 H
   0.3804213221236725    0.3751449561470931    0.5367267486036648 H
   0.4876091076894404    0.3356140208985124    0.4238129527914603 H
   0.6197652780594456    0.3419007516465133    0.3913332349516736 H
   0.6376917086158831    0.1835727611400030   -0.4277836816314270 H
   0.6384549273578544    0.0120270577100661    0.4658449286495159 H
   0.7192063533512491    0.4623655560992939    0.6018392276086479 H
  -0.0008508070862604    0.4469481797852949    0.5887693276186525 H
   0.9261395406746641    1.0949306226633964    0.3579195604081042 H
   0.9532966734556145    1.1314445502870418    0.4801085665777076 H
   0.7969569602196004    0.2530314427082248    0.4003054980085178 H
   0.7532957226804716    0.0782668188940589    0.4583779840446510 H
   0.8392223003114511    0.4168629190113400    0.4988394999327325 H
   0.0761051873625905    0.5960875386354828    0.3880604623006029 H
   0.1586418084218069    0.5278984928061539    0.6381026473551041 H
   0.1893779806129039    0.5764120792708004    0.5344059839203995 H
   0.3079115373407987    0.8541567972840798    0.5776089374272315 H
   1.0451952575492169   -0.1748522451153115    0.5187123719465841 H
   1.0283852246069536   -0.1109160895524578    0.4136500911466846 H
   0.3456384087959745    0.5352402242124441    0.6254243813106446 H
   0.5522288284157549   -0.1327292450828289    0.3672803180602194 H
  -0.4577458206528245    0.5008423561536202    0.4124328080815022 H
   0.4656423428693669   -0.0428496799768446    0.4178105150851321 H
  -0.4681938287407124    0.6334435627648832    0.3813681523735813 H
   0.8410002075592750    0.6831653370219595    0.3402771967574043 H
   0.9237609890863591    0.7452303593418095    0.4167863020612358 H
  -0.2664221784498313   -0.0127053080093202    0.6124863340317714 H
   0.6946391989664529    0.8109493708161284    0.5904802735129773 H
   0.8617184330102685    0.5514564238304636    0.4819356684318306 H
   0.7466205619099253    0.7185991655303096    0.5090384641055535 H
   1.0522668435844806    0.3743824823325297   -0.0955376098927180 H
   0.2158551840004297    0.3389027842303410   -0.0415643304648684 H
   1.1576759210433041    0.0571415341784608    0.7731182538691797 H
   0.2962542319807422    0.2344732974123294   -0.0881891757603499 H
   1.0664340414286273    0.4713395526750128   -0.0131725960561685 H
   1.0300029600306495    0.0301025769870157    0.7912943070648982 H
   0.5083930035883264    1.1462439852802708    0.8253468393873578 H
   0.5674627706085960    0.2067611390214992   -0.3280480933933541 H
   0.4142127718600164    0.4559273691452219    0.6952458857128517 H
   0.3586844038712232    0.3803247583947233    0.8406197784256877 H
   0.5311718395567302    1.2782791784128453    0.8278740163505346 H
   0.4304990429373803    0.4943020444434545    0.8432489842724711 H
   0.8070125473383740    0.2887768382690638    0.8314057853984527 H
   0.8646015258445776    0.1015960943204030   -0.1016036194419088 H
   0.9745194401526120    0.4317696715448708   -0.2451849431535349 H
   0.9063423032124083    0.0128913100951093   -0.0264989809627993 H
   0.7081897352877057    0.2057147930035569    0.8443085149868466 H
   0.8999994989769282    0.4939662443979941   -0.1616311358554562 H
   0.1384937946647102    0.6754254921597110    0.8838957218261767 H
   0.2567870936564126    0.7139533545920842    0.8925760253083931 H
   0.0842340676089250    0.8914461806828088    0.6778538852457709 H
   0.3251179955477795    0.9013782459449314    0.6866927259163604 H
   0.4892508688867552    0.6910869293314932   -0.1158884479843880 H
   0.5168140372418709    0.7695222038675379    0.7456442300266420 H
   0.5974333214803598    0.5654025112854866   -0.0480430076063692 H
   0.4214765640842341    0.6188241442908701   -0.0258515684544377 H
   0.4218217343652306    0.7423492295703208    0.6686061442031891 H
   0.3529942998190659    0.9845753035998502    0.9736340491459430 H
  -0.0038091005919977    0.8043259745586323    0.6861103764422370 H
  -0.3310979593145909   -0.0600813285467679    0.7175289938925160 H
  -0.0943816221536422    0.8778428169855237    0.8255038069005985 H
   0.7781207537021142    0.6121081433816620    0.9017429280816559 H
   0.8345933345941436    0.7087553775997255    0.8233533519691996 H
  -0.1615608886295268    0.8712670212499357    0.7249001883143039 H
   0.9664788145813722    0.6283018409347796    0.9306955858989218 H
   0.2853529376305712    0.9381864313403719    0.4141508175139227 Cl
   0.3245109443343333    0.1035197612303124    0.8054370800078945 Cl
   0.5703186342328033    0.8705287804283437    0.8617476057078997 Cl
   1.0596988162240331    0.2958078680868996    0.1570034979725767 O
   0.2041009746867757    0.3709786122840870    0.2830217266276895 O
   0.3581334127962219    0.4093905025358113    0.1467393922817607 O
   0.5395199950302964    0.2813416367470269    0.1723219575897466 O
   0.5229518215424667    0.0359635080845886    0.1782529750775502 O
  -0.0014734750525591    1.0902657715164077    0.2321697462006332 O
   0.7292307069643177    0.3427861213540029    0.0619489949143709 O
   0.8730906325233766    0.3949147510915570    0.2208932000494140 O
   0.1576006915649731   -0.0976113109471414    0.2215038036759207 O
   0.3277400083087595    0.6246028476505070    1.2347181139193684 O
   0.3214965106042390    0.7208978380064509    1.0358324262676106 O
   0.3361217998653926    0.9625146253555573    1.0447481810196881 O
   0.5070779929122331    0.7095299679107745    0.2881310191836776 O
  -0.0039145737381862    0.7843839522712648    1.1186877281317678 O
   0.6682621029690072    0.6975363673180162    0.1451438175096679 O
   0.6712725324034983    0.9096780460376255    0.0719665831256423 O
  -0.1212624585379714   -0.0375067377586750    0.0904258057152473 O
   0.8569613298336585    0.6484005122124262    0.2165459847702100 O
   0.2249449350197098    0.1898153532222346    0.4237870531517756 O
   0.0714972041542439    0.1880524029835675    0.5509221056635967 O
   0.0615450079479451    0.4158935992924852    0.6331856400028359 O
   0.5452445360246412    0.3620643327267619    0.3711589853123996 O
   0.3906907386276574    0.3018946766428867    0.4985035894543972 O
   0.5853427513360362    0.2358364032669689   -0.4009877574460898 O
   0.6518180626448771    0.4522829000951349    0.6376545051048016 O
   0.4150088258259340    0.4970948968834049    0.6202318959726388 O
   0.6936036881234636    0.0630217564693670    0.5037729888738909 O
   0.7723777929479947    0.3334919030854482    0.3985772856877366 O
   0.8978772223072284    1.1051950261148407    0.4308694273492005 O
   0.8738354315055731    0.4804096157585824    0.5281233592029364 O
   0.0605733255768708    0.8170206010194910    0.6464698006484051 O
   0.3092121325527203    0.8251092278877202    0.6519620939367007 O
   0.1511874117268766    0.5641155662658999    0.3825995625149554 O
   0.2067021651106190    0.5897480145813657    0.6114864509724275 O
   1.0368422969209272   -0.1912856762060386    0.4398981987108115 O
   0.5446382856703156   -0.0543599189062277    0.3980216206908642 O
  -0.4513517614336234    0.5791279054116631    0.4448458147281615 O
   0.6865200892013903    0.7339343227610128    0.5551194169676558 O
   0.8551834225858346    0.6973433688382799    0.4194649526746901 O
   1.0949606433058747    0.3960251414480666   -0.0315433674520624 O
   1.0944641106510771    0.0183413102143703    0.7433226805058106 O
   0.2928906236740482    0.3177664215750989   -0.0564048240042200 O
   0.5668445073674608    1.2015731010181150    0.8175455539792900 O
   0.4116211917456208    0.4284964865656666    0.8002069224667109 O
   0.7793148346509906    0.2266503680027505    0.8749250284444650 O
   0.9057416588719271    0.0309898507153817   -0.1032611963817317 O
   0.9283899548036665    0.4162017044888355   -0.1800057529554244 O
   0.2027395141816853    0.7026382778025241    0.8384457783673026 O
   1.0350804068555159    0.6236517026763807    0.9652048936849120 O
   0.4701760063513180    0.6130913105250719   -0.0855615395886989 O
   0.4951820315342256    0.7190569960046614    0.6848852450013926 O
   0.6720205348221774    0.5605230250578944   -0.0157826518663366 O
   0.8449644602064500    0.6450944395999038    0.8755450501217661 O
  -0.1100111887520801    0.8247820824826066    0.7662862428553736 O
  -0.2711864893585271   -0.0727837441839389    0.6678385730634415 O
