Li1 Co1 H90 C51 N3 Cl6 O45
1.0
  14.2456900510000004    0.0000000000000000    0.0000000000000000
   0.0000000000000000   13.9027990539000008    0.0000000000000000
   0.0000000000000000    0.0000000000000000   14.3690241281999995
Li Co H C N Cl O
1 1 90 51 3 6 45
direct
   0.5746056871162513    0.6458464221549113    0.3741271513038673 Li
   0.6568617937565711    0.6780385007618771    0.6313171989388517 Co
   0.1062236728991430    0.2489241924221868    0.1443683332696765 H
   0.2624730361824436    0.2067593019042909    0.1628052151091383 H
   0.3068310137698924    0.1318830128948499    0.0665043120238471 H
   0.4591192491753588    0.1386629425791215    0.0886463863332355 H
   0.7301028930830835    0.2826231618299748   -0.0212539093243389 H
   0.7180782035533562    1.0305178814248186    0.2210214163303683 H
   0.8888975876118476    1.0279478953478078    0.3179361398060569 H
   0.8935635602507325    0.9717750342590240    0.1579558948367025 H
   0.2705084489697634    0.3679700042463691    0.1021177256721478 H
  -0.0191553009242149    0.3602571688968630    0.2502384317834971 H
   0.3643529728372580    0.5703479562754410    0.1825783046011658 H
   0.6436549923081013    0.4219312243640944    0.0752209791323802 H
   0.6431193917178396    0.3336157711060996    0.2688089343882156 H
   0.7165549358195845    0.6265884296483668    0.1638198977953053 H
   0.7518863236427155    0.4158755373277215    0.0371947363531187 H
   0.8518948170817533    0.4234564567951890    0.2613449619539626 H
   0.8474394344521456    0.5550431245523421    0.2532845676664552 H
   0.8250375712319362    0.5714038587554443    0.0735924760558159 H
   0.1301684589206566    0.7326008947847704    0.1178439154247644 H
   0.2323818297568266    0.7122395273433997    0.2981616584310580 H
   0.2057351739162867    0.9427017520780079    0.3496474095439748 H
   0.3125618698890222    0.8105355607322047    0.3015362786952718 H
   0.3037893920692322    0.8858319090388677    0.1158124622279733 H
   0.4074431985688581    0.7087323199234433    0.0896081774664884 H
   0.6066143155763370    0.9831123196063071    0.0648806805376828 H
   0.4295046079407360    0.8045044011308237    0.1753335537349119 H
   0.6621602383899851    0.9180117598923186    0.2182383463290091 H
   0.9596024812599652    0.8327857564518373    0.2043055977850703 H
   0.0950855673084727    0.2633579765272450    0.6635420734932245 H
   0.2250666348012347    0.2660667835706321    0.3617011160764932 H
   0.0583495441234628    0.1330921219336002    0.3974780759739361 H
   0.2270300356543956    0.1428290101296520    0.3936747557545242 H
   0.1044947289229773   -0.0061201325553311    0.6214751944479235 H
   0.4397364745248169    0.2677513364372313    0.6777699012271048 H
   0.6271047234790073    1.0837949227693973    0.6619525431398600 H
   0.5113265200999283    0.2022199282317428    0.6030424882573759 H
   0.3583125494044907    0.1157617988047183    0.4465342257660863 H
   0.6412500544021558    0.2251563167074540    0.5020854582560823 H
   0.7300095315123039    0.0977546335547989    0.5540949053369967 H
  -0.0165383690755971    0.2270854246443537    0.4533752609764791 H
   0.7544927259908695    0.2607577807062560    0.5171523339233807 H
   0.1859741094124132    0.3570369540447005    0.5124579413607280 H
   0.4525666006433597    0.4017104760881464    0.5704825178776333 H
   0.5335482165475340    0.3397548226502602    0.4979327754108434 H
   0.5679069593144834    0.4497212397776897    0.5355212709955925 H
   0.2617443947503445    0.8783686637169917    0.7308173450339576 H
   0.2899676677936729    0.9892844580129201    0.7875066506355370 H
   0.3331463413291695    0.9627782847904405    0.6599176102356403 H
   0.4635349004898829    1.0339984754988893    0.6653369065848738 H
   0.5364892464204294    0.9339186286561280    0.6391764661369888 H
  -0.1311295186903824   -0.1788810270117774    0.6742059848787777 H
  -0.0279909557467881   -0.1020619637526846    0.5678769825492790 H
  -0.0508996389226579    0.0036390533088952    0.6340536408606683 H
   0.7339686236867150    0.8505713835792492    0.3736079789555267 H
   0.8583529106995871    0.8448718118820109    0.3782429492503634 H
   0.2200644201142040    0.1036721469764521   -0.0817138258955018 H
   0.2330508040196304    0.2850471341444237   -0.1287671256859237 H
   0.5507205682640328    0.2201724282306539    0.7239825037027876 H
   0.5905294506677456    0.3716124362346093    0.7815904520655059 H
   0.4666084616752834    0.9981092996526749    0.8312465730124878 H
   0.3402656875761335    0.3181426279522643   -0.0749875514361028 H
  -0.1162744994359698    0.3180973133362969    0.8018722747835882 H
  -0.2012580976797780   -0.0150636553321435    0.8582470148336263 H
  -0.1389634670354938    0.0254936452383360    0.7541884520071120 H
   0.7080155109433947    0.3146167192622262    0.6865366761226092 H
   0.2667452055039801    0.5369559754088420    0.7872011323233098 H
   0.1333174815260481    0.5168828952385783    0.7101555382646769 H
   0.0296784163270716    0.6000491695634346    0.9522360003033850 H
   0.1655005487104852    0.4232708826536081    1.0154796828173929 H
   0.4939021904176623    0.4240243999819809    0.7318640410284671 H
   0.6095983760077948    0.4742556445890947    0.7082041183387425 H
   0.0464441889323259    0.6100047187635199    0.6946764077394877 H
  -0.0308079481042192    0.4369484161677429    0.8876414953656115 H
  -0.0782194808261872    0.5008705081547306    0.7940025684631656 H
   0.7020424763135961    0.3823419303042337    0.5806169569808572 H
   0.2954984634039894    0.8144175128334155    0.8519877171111395 H
   0.3662735537218659    0.9059005296754964    0.9041450517577676 H
   0.3461018386999019    0.7649051810122273    0.7000288937060928 H
   0.4132786477259289    0.7936993827012534    0.8886861035356641 H
   0.5401825038064629    0.8944237040822185    0.8080898160169323 H
   0.4709432464262450    0.7472490242161508    0.7197880643684059 H
   0.4160949381166625    0.8274645258339463    0.6239130774723699 H
  -0.0383484743697376   -0.0714796329319907    0.9268362238993821 H
   0.0095298662061281   -0.0189333796798393    0.8247764050198305 H
   0.0390840681080883   -0.1380475230677821    0.8493744568322938 H
  -0.0163081239987874   -0.1954546679819649    0.7212899060945708 H
  -0.1575655845216452   -0.1791104772100888    0.9157129911332597 H
  -0.0932261248872794   -0.2651240918328613    0.8398310112387357 H
  -0.2038834531287669   -0.2232354046884812    0.8024888789399284 H
  -0.2291753132429569   -0.0555986582344485    0.7478699992583397 H
   0.2984769081018664    0.2069873135433652    0.0899136957787157 C
   0.1398605131142903    0.2159207664055181    0.0178475630503465 C
   0.2390540232174254    0.2619503463137802    0.0212994328194742 C
   0.0391921709795173    0.2674557125140152    0.3224889890055798 C
   0.3869577044330711    0.2592731875736084    0.1134775785434122 C
   0.7160249509629036    0.2957629619012960    0.1204133313900103 C
   0.4332292432381519    0.6690014716346558    0.2354413239143050 C
   0.6631135091653131    0.4713335668231354    0.2645351577244629 C
   0.7125523217099228    0.4047545393617307    0.1048165867537359 C
   0.7326061063266917    0.4812368359034274    0.1783421087776415 C
   0.9039610909754447    0.4845238718321515    0.1408719232454633 C
   0.8340136193940275    0.4873717156258006    0.2154511006787357 C
   0.2416021623296793    0.6603737126103785    0.1203242508798392 C
   0.2869457011605454    0.7487257052729946    0.1630446189802230 C
   0.2529227792617232    0.7793598242262227    0.2604332786076809 C
   0.1605664247931207    0.8355830348883038    0.2603031375498530 C
   0.3932796165115722    0.7352320196293562    0.1627404925509672 C
   0.7426975795712543    0.9671162601697999    0.0912248495377956 C
   0.7255092230140504    0.9562285245840987    0.1941427642692293 C
   0.8070426549392008    0.9054926981317893    0.2449339657794061 C
   0.8279352897595904    0.8042720738140381    0.1955944982084229 C
   0.0473504279389154    0.2106844107826137    0.4113628045553608 C
   0.2216929828526142    0.2164839623468278    0.4180257483395601 C
   0.1330661774483106    0.2350154824386561    0.4708976061095679 C
   0.1239644772473507    0.1690395594289155    0.5540126450533855 C
   0.3070029956108020    0.2421967701500679    0.4742189172559761 C
   0.5167875472401712    0.2479603577333555    0.6646166071471626 C
   0.6938533328195039    0.2336876922628482    0.5554283292236194 C
   0.8077144370687950    0.9852787898173220    0.4127052756812977 C
   0.5248752776054624    0.3869043209245748    0.5557785965733778 C
   0.3137264326403250    0.9354622027174950    0.7338426026723441 C
   0.5240861266440310    0.9911301295140702    0.6906295080000769 C
  -0.0199913432610454   -0.0692944614508941    0.6353842809813481 C
   0.7983059774209879    0.8935361130329514    0.3560556387444037 C
   0.3288748739743305    0.1748117783676255   -0.1121682253102252 C
   0.2837447330195321    0.2675427453478574   -0.0778102901021476 C
  -0.1673187098179692   -0.0332305006573767    0.7889075808462738 C
   0.6725317963468865    0.3184749351360256    0.6153947536872646 C
   0.1033231465046986    0.5785009907514881    0.7433860482659024 C
   0.1431028972904613    0.4806642173991150    0.8926919427274178 C
   0.0673368237527155    0.5363445158051289    0.8342655671775031 C
   0.5678785296632310    0.4099654324861392    0.7188227935277245 C
   0.0076619328238395    0.3712153938851803    0.7609363006525680 C
  -0.0113866354819796    0.4621956342739081    0.8167473280991802 C
   0.1843294014399584    0.6493924706742683    0.7572603377250414 C
   0.3666575295054480    0.8473777820729723    0.8578698145483709 C
   0.4841056133827574    0.9428743791864552    0.7782394938118063 C
   0.4134148292652615    0.7963945234318884    0.6987594964361555 C
  -0.0154959485296751   -0.0821817943761110    0.8567486528148900 C
  -0.1414217544104561   -0.2044859428722380    0.8426662768515234 C
  -0.0642685946782712   -0.1425969666549897    0.7043451228004738 C
   0.5713956636048391    0.3402410556723870    0.6373447481465967 N
   0.3969656436406205    0.8809976307227219    0.7659853561314031 N
  -0.0999650051841493   -0.1156707341352880    0.8031980433138681 N
   0.4738957183563111   -0.0068775339936441    1.0841322225583483 Cl
   0.7696538027254316    0.5753606159369824    0.6191660605983337 Cl
   0.5826162502824763    0.7442230148609917    0.5098133943364506 Cl
   0.3297881326478960    0.9890478150184234    0.3998401013764400 Cl
   0.7709538450493695    0.3520717668379822    0.8688608184322082 Cl
   0.6364085900888733    1.7146283230075852    0.7816447355013914 Cl
   0.0800066206775286    0.2265574734043520    0.0840462131126843 O
   0.1030669286600780    0.2659984520068717    0.2643695236508636 O
   0.4669840840551641    0.2108038111992898    0.1077179668076660 O
   0.7015609271590489    0.2559055203996470    0.1976976333782422 O
   0.7251652593322311    0.2451637985765076    0.0431227659284069 O
   0.8249645666953869    0.9707471836841436    0.0632570490515185 O
   0.8927078628463695    0.9562501029726546    0.2287171372793631 O
   0.2193940419180049    0.3536994966147174    0.0594996609701636 O
  -0.0357322444878174    0.3246722483292872    0.3112495340113434 O
   0.2888690899119436    0.5881501268340792    0.1006437216054114 O
   0.9725776336982300    0.4347748970164664    0.1479726142241749 O
   0.3822650570596778    0.3438949961345237    0.1394689052102694 O
   0.4203600877712231    0.5769243298276685    0.2225183864661332 O
   0.6448420179937270    0.5471123474784211    0.3049115949009713 O
   0.7088213687122287    0.5646368761043062    0.1250594367486184 O
   0.8900172244945046    0.5401789235235549    0.0696833727305760 O
   0.1538647487312231    0.6729747722474201    0.0909576080072825 O
   0.2623291330094375    0.8286441444083368    0.1020613544118052 O
   0.0965309167388117    0.8038815049811758    0.2116387332200095 O
   0.1464253056701577    0.9131746044576986    0.3107178347162601 O
   0.4843108684451329    0.7019092334620598    0.2974956424292324 O
   0.6727634453570913    0.9690870863245744    0.0351625872148419 O
   0.7591797576306820    0.7511806066110404    0.1830592001677922 O
   0.9188476987312489    0.7785081971578822    0.1880678910404559 O
   0.1054718665660234    0.1958801976740121    0.6395439232414442 O
   0.1303769430298410    0.0796108051773587    0.5359261001578307 O
   0.3192158122154836    0.3214153502165796    0.5130250049224078 O
   0.1227999144960479    0.3311277829056014    0.5015770034066216 O
   0.6056849116687271    1.0439410776658409    0.7182618646902412 O
   0.3755830360653127    0.1767128343994025    0.4802803588140752 O
   0.7020530058140600    0.1440561011588656    0.6005621528023012 O
   0.7644255547617768    1.0019833396780820    0.4833756281659245 O
   0.8616437305778919    1.0542656173102325    0.3756408240352891 O
   0.6130534560933358    0.3928132029908055    0.2902334930258357 O
   0.1219175423571765    0.1598277453543912   -0.0462270735976006 O
   0.2817974774004157    0.0893850959135742   -0.1087845578066972 O
   0.4051793559691284    0.1805832780267169   -0.1504248247212572 O
  -0.0568586342185047    0.3008302868138458    0.7607080318452547 O
   0.1159824139290478    0.4677513284690517    0.9775821892129878 O
   0.2200974125489907    0.4518692245025084    0.8586346542411675 O
   0.0802930230901455    0.3638183222882092    0.7149978991222556 O
   0.0291189488690919    0.6135608371975364    0.8845821365944250 O
   0.2676486366437792    0.6159157586686064    0.7759783799247306 O
   0.1751848812704454    0.7382889580081122    0.7574712079952118 O
   0.0776873227086892   -0.0598553550169140    0.6595571125460420 O
