Li1 Co1 H110 Cl3 O55
1.0
  12.5174694060000000    0.0000000000000000    0.0000000000000000
   0.0000000000000000   12.4368081564999997    0.0000000000000000
   0.0000000000000000    0.0000000000000000   12.5617370294999997
Li Co H Cl O
1 1 110 3 55
direct
   0.6239487351458042    0.4112482892667992    0.4471158727180868 Li
   0.8091059681955655    0.5375339069458935    0.6881637463432939 Co
   0.2481347549059071    1.0994706926594700    0.1393479270175165 H
   0.1247519887966723    0.2519654592132809    0.0666500192476426 H
   0.2384674654502607    1.0414654560326619    0.3039055829488220 H
   0.1987893177439894    1.1001219851694188    0.0191065466691714 H
   0.3110116811017673    0.3250686210984973    0.2683786491376814 H
   0.3343694374115093    0.2210676601024082    0.0029791273859750 H
   0.4230662789206900    0.3193348348164656    0.0121201402674213 H
   0.3553513141376557    1.0129211546707033    0.2838311299167450 H
   0.4968535573267612    0.1238079786167039    1.0273700193287429 H
   0.3591060666739368    0.2024366739937338    0.2687591697606473 H
   0.5531532755159825    0.0156965497773617    0.1606276273784020 H
   0.7873627554764243    1.1616249037941009    0.0336489303833822 H
  -0.0562262845685600    1.2380995094993368    0.1057689722113921 H
  -0.0158547858567061    1.0406372692607515    0.1669253232953136 H
  -0.1472071340567253    1.2064113146634272    0.1884916082257969 H
   0.7096194058874459    0.3132971120297911    1.0476219955803208 H
   0.8060158867465580    0.3049975548844915    0.3320155488851217 H
   0.0915338528848968    0.5645738030163527    1.1294180081530261 H
   0.1554011549784650    0.4407301302171533    0.2485565497405002 H
   0.0714674966707883    0.4304147825503205    1.1107979718116581 H
   0.1844517552400240    0.6645455951638568    0.2570625389798127 H
   0.2442961196001984    0.4739774067528048    0.3188143491138986 H
   0.4568598506307386    0.3612965659481989    1.1690622069473884 H
   0.4439538873916701    0.4846626242401024    1.1164580170612144 H
   0.5135669994143224    0.6083229702587235    1.0789632025388358 H
   0.6130168130805975    0.3729884725990225    1.0955134614331086 H
   0.3850002781544645    0.6412116338814895    1.0527247930556594 H
   0.6602547955210877    0.5249213460680433    0.0346929738917920 H
   0.7134891976503704    0.3939054150111349    0.2217218851389107 H
   0.9667808093303040    0.5276953697215294    0.2583211228812964 H
   0.8006945236307774    0.4436488855395170    0.2972432877739219 H
   0.8062587473361388   -0.3845459270191003    0.2531649888332826 H
   0.7142257682542964   -0.3493351241756770    0.1677731359803738 H
   0.1991248488216996    0.6799209227876136    0.0568822618338510 H
   0.0856410483884349    0.7359586127825144    0.0681257705674215 H
   0.0345150596408016    0.9529942031071323    0.2428431679182685 H
   0.4098431589248336    0.6688618151557157    0.2625784958763215 H
   0.6501105726049817   -0.0432607719705642    0.2206599300949011 H
   0.9939108936137312    0.8988082744090370    0.0460388570021689 H
   0.8390872677560112    0.9184757000798399    0.1853137037762569 H
   0.7818440681316093    0.8141643700604911    0.1963599467977543 H
   0.0722357829503929    1.0270003297931791    0.3959087826087022 H
   0.1158700018395715    0.2235859911408773    0.4803111226282498 H
   0.2950971225325638    0.2427701738505948    0.5234015008720256 H
   0.1826470773720539    0.3204669580930188    0.4072575315647751 H
   0.6230428012359865    1.1105587466251434    0.3518973534009690 H
   0.6274094985473296    1.1973816666551234    0.4463834899291147 H
   0.4561128945410742    0.2791267690726319    0.4877026163191264 H
   0.3919178105399238    1.0777931049209233    0.5607227725161480 H
   0.4687144831596483    0.2911218081632713    0.3729772406313850 H
   0.3384820897640148    0.2481147927563114    0.6330869684760901 H
   0.4867556696547200    1.0086596110870869    0.5923808146377183 H
  -0.0219016150955073    1.1422067382196979    0.5373971767556337 H
   0.7860158378644732    0.1844867307936109    0.3488563726902368 H
  -0.0546345091582323    1.1709440151401600    0.4110985608656345 H
   0.2715452375278607    0.6600910760217370    0.3356894038537157 H
   0.2008400517356136    0.4596216333298074    0.6616307916080310 H
   0.1495381488372379    0.3899148412742504    0.5723286515166099 H
   1.1071206770001991    0.5732448381117714    0.5349436944125771 H
   1.1124971630787464    0.6540967727357256    0.4398095583298408 H
   0.4822899107871005    0.5946956795690764    1.4256827676572406 H
   0.5108915385113425   -0.3842990791171814    0.5853698415698076 H
   0.6000988665887538    0.6240352010450344    1.4486572973199974 H
   0.9361036822253689    0.5586028176103273    0.3791077622160312 H
   0.9538069409921751    0.6408570412927396    0.5351984362522194 H
   0.1054829183338848    0.9041713868057767    0.4102244779283612 H
   0.2303420211850446    0.8367425104053867    0.6215009911818502 H
   0.0785893035718916   -0.2446780462806764    0.5635941906898682 H
   0.0137123644989878   -0.1401198683594087    0.5868855555156804 H
   0.4926098880772452    0.9148895709509853    0.3406083095635624 H
   0.4165873335868092    0.7474470910320824    0.3642228780984211 H
   0.4752078083968596   -0.2701821785313795    0.6127275230109132 H
   0.3393800348386488    0.8998133554429086    0.6155264989739849 H
   0.4260541032793478    0.9095344992025166    0.4519217367365922 H
  -0.0967736175428045   -0.0003521740984411    0.6381905620196777 H
   0.8245236212163505    0.6697856856420507    0.5263047617757011 H
   0.6854827381473051   -0.0058327603664198   -0.5174784323166762 H
   0.6674207806807562   -0.0612230977690244   -0.4118314189391939 H
  -0.1759980971748180   -0.0792577894019234    0.5837410859325934 H
   0.7147937744358486    0.7820427842827762    0.4628398127700195 H
   0.7256785623734722    0.7107833430460940    0.3512230835941653 H
   0.0739507461992514    0.3153989374878238   -0.0217230295905073 H
   1.0550654269440121    0.2826212348111973    0.7919089526741953 H
   0.1156990407666429    1.0463059262917884   -0.1622449172764702 H
   0.2352463671042425    0.3169427419558508    0.7955294710701141 H
   0.6436907446514594    0.0718582346092491    0.7184342415070615 H
   0.3505396387065873    0.3048713167066372    0.8254075045871825 H
   0.6124312314616414    0.1255166163742859    0.9964188858121806 H
   0.7638923565905937    1.1935462774298684   -0.0893362106342922 H
   0.8379688308303104    0.1752021942351170    0.7400586394197133 H
   0.7538879382902005    0.2626739945805644    0.7271758669480434 H
   1.0451592713163769    0.4064632994807424    0.8118552387182021 H
   0.3382903577196089    0.6207514002911685    0.9140497041002797 H
   0.3904103173407829    0.4949337483414449    0.8023732698057593 H
   0.4232907651893486    0.6017642134640899    0.7423775862287088 H
   0.6217757719758712    0.6421371124974786    0.7280300481790946 H
   0.7044258641346025    0.6646332382300104    0.8213555172003691 H
   0.6672873671331904    0.6492345927262675   -0.0055055272242674 H
   0.1231006965642269    0.9557119422227215   -0.0707480170228794 H
   0.2795804079555024    0.9262912101992268   -0.1168005652207480 H
   0.3127372695014199    0.7473618601604101    0.9286495957847898 H
   0.2965998224305946    0.8444132888558962   -0.2087368951477221 H
   0.5534328847474077    0.9724204093298061    0.9252663057270379 H
   0.5785721513030875   -0.0250839216762345    0.7612292784305018 H
   0.4783202585843812    0.8930833328401032    0.8816417656882618 H
   0.6550061308054776    0.8137647498414238    0.9057626336294100 H
   0.9725327706624795    0.8442605165387478   -0.0682053750359478 H
   0.9308550175097587    0.7375008091208873    0.7934620818277655 H
   0.7851842001218630    0.7991347903123861    0.8656965186631399 H
   0.8969024679795571    0.8510709456242629    0.7437945877117202 H
   0.7602510455139194    0.3973242986559532    0.5980193660445550 Cl
  -0.0035535774410344    0.1386124202132216   -0.2863774314612594 Cl
  -0.0786285761903463    0.5275401852098996    0.8261637694236211 Cl
   0.2216677439427169    1.1452059000247714    0.0789512638635037 O
   0.3013228217911252    1.0700580012842462    0.2688769878614820 O
   0.0733919271781602    0.3099497901545845    0.0552488093939684 O
   0.5563743738620007    0.0747659742434815    1.0160897322420739 O
   0.3776361698822434    0.2807694735143919    0.2650192411273961 O
  -0.1100486649673542    1.1787916878526308    0.1248531163418589 O
   0.8426662659182537    0.2337751006298559    0.3196756949591898 O
   0.0686995250563826    0.4943508013417993    1.1590556290589320 O
   0.2112207441731534    0.4059856849734466    0.2956097557272145 O
   0.1951008725397320    0.6444496029402108    0.3307474121646514 O
   0.4618544703875109    0.4053770078993338    1.1059817589059173 O
   0.4378360374080870    0.6123569634962713    1.1130110415435521 O
   0.6388495105302118    0.5985157915626164    0.0487821081878189 O
   0.6888612165464397    0.3793968692709890    1.0815822670776600 O
   0.9045957162613416    0.5408756003673104    0.3057230067610213 O
   0.7310007243727711    0.4089020281013290    0.2982845450434606 O
   0.1355608828000518    0.6861612699107168    0.1030933868268971 O
   0.5763792160451956   -0.0125816784926620    0.2324162659944019 O
  -0.0100068786139760    0.9638973221625734    0.1817059224723202 O
   0.7634234119653178   -0.3240617585303508    0.2233084491589341 O
   0.7649900225448172    0.8925044061645931    0.1925706619330723 O
   0.1680482799575855    0.2866005516405025    0.4818682321230645 O
   0.3580699147506269    0.2172218180344012    0.5645884799327228 O
   0.5140335473890433    0.2921735249571147    0.4404878084778889 O
   0.4114481159132142    1.0006109221678416    0.5613763445484807 O
   0.6664293662344742    1.1300894812753399    0.4161918055219865 O
  -0.0019611629238920    1.1390306821526632    0.4602111954122086 O
   0.1659184564976439    0.4620909164138235    0.5945604495031593 O
   1.0674161661378221    0.6305915456451867    0.4991341563730830 O
   0.4986670229134331   -0.3375354728380223    0.6479057789290431 O
   0.5466479670259958    0.5688683132578801    1.4649130109621835 O
   0.8835930685637180    0.6522635049299436    0.5786175906827838 O
   0.1125690151417175    0.9665426954437238    0.3612392143016084 O
   0.0870342213560989   -0.1624704583582358    0.5621501228863948 O
   0.3082483430117680    0.8314678451396277    0.6427074532638385 O
   0.4069783626280029    0.6725975003424104    0.3410978915366253 O
   0.4332632281490076    0.8869161556162660    0.3766495034634812 O
  -0.1063785940840190   -0.0763808454505688    0.6196174937049935 O
   0.7350063263338165    0.7144241485831911    0.4304350586309972 O
   0.7009307487417876   -0.0761758089196590   -0.4811418970964218 O
   0.3044145010071695    0.3034923455281651    0.7597263015766113 O
   0.1587612590566774    1.0184370393845916   -0.1061619091426786 O
   0.6147120439065525    0.0022208333482707    0.6940196243820757 O
   0.3899461660166170    0.2680065525138745   -0.0389149194933798 O
   0.7648997487072429    0.1976251500683828    0.7709373307256273 O
   0.7301443212410915    1.1878937016953737   -0.0195553357487995 O
   1.0922294882180119    0.3448397711319959    0.8260443591862887 O
   0.3798458816940207    0.5728596910595917    0.8028875298945376 O
   0.6824030421840361    0.6096705829089388    0.7656681549862723 O
   0.3040534056568718    0.6761402099706016    0.9631750757388358 O
   0.3189022536125862    0.8614755444869036   -0.1331637480765335 O
   1.0265692518441933    0.8569325782138032   -0.0108941928077798 O
   0.5549651433356177    0.9081595483481799    0.8815064340859518 O
   0.7212902952071333    0.7656221723837925    0.9096872500964021 O
   0.8957600645483056    0.8086010455218040    0.8158721991020645 O
