Li1 Co1 H90 C51 N3 Cl6 O45
1.0
  14.3755048892000001    0.0000000000000000    0.0000000000000000
   0.0000000000000000   14.0294892740999995    0.0000000000000000
   0.0000000000000000    0.0000000000000000   14.4999628567999999
Li Co H C N Cl O
1 1 90 51 3 6 45
direct
   0.6036258907135262    0.5924412481959860    0.3479520243070089 Li
   0.7538842654035721    0.5851045591698201    0.4876063820456117 Co
   0.0858618151302155    0.1034769055905728    1.0974298062382606 H
   0.0834646819327660    0.0558850091961239    1.2121204448573866 H
   0.1698178228880179    0.2937817661480342    0.2895035987234530 H
   0.3178432325276246    0.2088955684588173    0.0677457892893380 H
   0.4837302061247454    1.0222523327043940    0.0159456565981181 H
   0.5732979819993397    1.1217035652290011    0.0259291304476468 H
   0.5051201331130497    0.2615910005986609    0.2967691345762289 H
   0.5354278686227307    0.0710359527441837    0.2919429153168339 H
  -0.0586430225093064    0.1133240209987610    1.1316761008601206 H
   0.8284033872192382    0.3020108611453221   -0.0080219910043046 H
   0.6751134668314310    1.0122177550195244    0.1497266889467830 H
  -0.0628724391780509   -0.0908772827000710    1.0691814580152228 H
   1.0172948397928470    0.4709581495099623   -0.0150778711476127 H
   1.0547140472673702    0.4094645232528266    0.0839858308898285 H
   1.1439950853868897    0.5407300999263680    0.1363507926141214 H
   0.4540054066624998    0.3962445124330173    0.0880768758522079 H
   0.4031452799653645    0.4852965780920608    0.1684405299876064 H
   0.6014249245391993    0.3847693976334212    0.0886348083158905 H
   0.3313544101521351    0.4481838942425341    0.3267112802415465 H
   0.8613963153741530    0.5481167551335048    0.1123279724565756 H
   0.7979237620946154    0.4274714510222059    0.1991095740666711 H
   0.1818208795688050   -0.0426367525726180    1.1080856956033522 H
   0.0898985429145452   -0.1108110090486334    1.1592741025896445 H
   0.1468238478904277   -0.2218784876685891    1.0386737936598933 H
   0.4483425099067024    0.6845821647143405    0.2667862991515080 H
   0.3741376031419033    0.8283828377526982    0.1716764003455775 H
   0.5112086775276362    0.8564280496854214    0.0507740216765270 H
   0.4256244904341930    0.8601644651012536    0.3203891950813759 H
   0.6867026250059842    0.8908198932210766    0.1253624886044129 H
  -0.0015952870509076   -0.2070361797319477    1.0702924953440147 H
   0.2156777773787493    0.1791211417609647    0.6242844562980977 H
   0.2270832898295280    0.0718043342432808    0.5622414697825766 H
   0.1157995462441556    0.2635775305040261    0.4781899441313608 H
   0.2728562908525632   -0.0337347891753787    0.6808887392266634 H
   0.0449004711956187    0.1902662374194830    0.6851432328835950 H
   0.0254152425265066    0.1987091677133656    0.4392060511667724 H
   0.6287763117099827    0.0376013785529510    0.4164411652660338 H
   0.6529006817876238   -0.0086718668458303    0.5610351218648095 H
   0.3065274560555085    0.3269811215130127    0.3422058026909359 H
   0.5316467840334279    0.2014733453140137    0.6474610673914426 H
   0.5196719837515035    0.0791880670346975    0.6302927475510056 H
   0.5193542349117092    0.0534159243047765    0.4589051361107069 H
   0.5525813531021008    0.2264820960350913    0.4942950888345753 H
  -0.0696541140306150    0.1291528224370261    0.6181975441541394 H
   0.6673022629213436    0.2137524808288060    0.4485400750768080 H
   0.7484249788877322    0.0577546424726840    0.5198480508427670 H
   0.0878638317704535    0.5886385438382093    0.6322375801190956 H
   0.2278443065788054    0.6245614480974828    0.3118312421248408 H
   0.0679521832957591    0.6934492016798028    0.5736745335522713 H
   0.3261643315722827    0.6058080925861236    0.3820314219496215 H
   0.5734689672982175    0.6250981746919357    0.6735887205269354 H
   0.1316619456351720    0.0193947286165522    0.4474554516087814 H
   0.2179803052033454    0.7095495739447433    0.6170478860367614 H
   0.1401381696662002    0.7776774994398298    0.3647258603783156 H
   0.4587068763166735    0.8334044033010649    0.5348317443974102 H
   0.4887242568070233    0.7168192612446427    0.6554252257234651 H
   0.4532575372775381    0.5932417049895723    0.6491879683667964 H
   0.3494852516084107    0.8469508693403421    0.4180253072550064 H
  -0.1055025940646737    0.7546096604275103    0.5468218440767668 H
   0.0168645863271305    0.0381929895401965    0.9712777589492452 H
   0.1310894440038601    0.0083814980576008    0.9289790299071657 H
   0.4057218851201391    1.0967176236062268   -0.1204057271623452 H
   0.7359141139555990    0.0458376013934587    0.6391479426482664 H
   0.7159162076409501    0.2036815511435154    0.6862997875703634 H
   0.6089488341920184    0.1271940911202183    0.7041529367512662 H
   0.7018255721077119    1.0575957433098959   -0.0747787137324634 H
   0.9423562544490141    0.3261257803266337   -0.0363358566365510 H
   0.6913348101370976    0.2895692108051177    0.5866947048357766 H
   0.7841510284392745    0.2063737375276433    0.5866733254706663 H
   0.3675235745750575    0.5771940787644585    0.9435894121607070 H
   0.4773339090410109    0.4968998515127494    0.7781814022446524 H
   0.5295077287281008    0.4486701557069905    0.9468390756574590 H
   0.3744228105159469    0.4589661826811632    0.9012382691912606 H
   0.3740478671632408    0.5488024536512519    0.7556958274042246 H
   0.6018318667680176    0.5871958683705167    0.8326498176330143 H
   0.5506622552886579    0.6588192881806053    0.9121458833391016 H
   0.4006111081028257    0.7115824348310372    0.8815313221582209 H
   0.6117278670195898    0.7114883473005356    0.8133394233399219 H
   0.7183105583274334    0.3961675317262432   -0.0790697592071642 H
  -0.0889772614359413    0.4964047515227004    0.7222157416416368 H
  -0.0298551640521813    0.6745739600493844    0.7822745161778488 H
   0.1216337761127016   -0.1964057143539008    0.9246610878118424 H
   0.0316821528503091   -0.0546564345942088    0.8853623664545827 H
   0.2102233602571004   -0.1285700304308272    0.9794191591146008 H
   0.3591141308072200    0.7103942233662924    0.7657930946486946 H
   0.4472236622471616    0.7968706428778523    0.8033076735046605 H
  -0.2218045961777308    0.8448845075909148    0.7211529802985777 H
   0.7259624634847013    0.9082688534232080   -0.1299857517025360 H
  -0.0454170522588396   -0.1489185972547833    0.9623404946762387 H
  -0.0853606928075198    0.8048474122251583    0.6552500528609492 H
   0.0605660079357709    0.0425245798648841    1.1414954363581580 C
   0.1072099348912515   -0.0528488135536612    1.1142995046240938 C
   0.5496522038078985    1.0552749175575209   -0.0089164760542382 C
   0.3914538645128007    0.2509220448672270    0.1819667715329785 C
   0.4098671308321536    0.3454001811773622    0.2352324252196563 C
   0.2316953017561358    0.4010257271080115    0.2324944871716715 C
   1.0172704928218919    0.5589888543967036    0.1084348590357004 C
   1.0022164128665796    0.4598796870682160    0.0638243999339622 C
   0.3190612767031134    0.3800678722456247    0.2864070390671678 C
   0.4480741367240048    0.4233459266450034    0.1607018894746497 C
   0.5464104394066349    0.4572589216731507    0.1870736811665623 C
   0.8864187408661607    0.3455427380417587    0.1468418539707828 C
   0.9032459759347345    0.4221685495019527    0.0713464881680606 C
   0.1440629013841371   -0.1624622121567726    0.9865633153461058 C
   0.2630020282654852    0.8060463154547329    0.2473669390620476 C
   0.3294268256802451    0.7387231234591646    0.3030581162033256 C
   0.6119713367291393    0.8918334725269357   -0.0525883120619443 C
   0.6289495230176336    0.9798445166837237    0.0090477078938499 C
   0.5468763013051642    0.9283166252632874    0.1623791351503926 C
   0.6383001511198151    0.9508555783086958    0.1139893560227206 C
  -0.0161965133464580   -0.1415811954442955    1.0337599879692403 C
   0.1668307973657171    0.0623014936626103    0.6946487744743696 C
   0.1607183164005431    0.1401895748786030    0.3994176733827949 C
   0.1814035029238631    0.1156662302807954    0.6056761327689472 C
   0.0850583650887024    0.1445190268503247    0.5658527204124665 C
   0.0938935330343806    0.1867914138498183    0.4688491615833226 C
   0.5708071477451007    0.1355828498056302    0.6412913964147996 C
   0.5748205720000876    0.0919953757320789    0.4229825613328188 C
   0.6117417795744211    0.1785003066165180    0.4794771888080772 C
   0.6994138307276894    0.0541080378814215    0.5738621202396899 C
   0.0550844613322007    0.6588335438670451    0.6378065599018354 C
   0.2814632928990065    0.6601293857644092    0.3559251481792389 C
  -0.0843012517571090    0.5648707506217031    0.6041416460795853 C
   0.0188652117118853    0.0543639274530133    0.5491660569782543 C
   0.2255292574548610    0.6870163231739107    0.4421246793327854 C
   0.3922294894446510    0.8087620237214862    0.3656451730780547 C
   0.4988597616900179    0.6427424377982903    0.6838646089186166 C
   0.4712903647850265    0.7598799877042489    0.4150211616285524 C
  -0.1143989772516101    0.7433398275126453    0.6199237554725540 C
  -0.2202116086495359    0.7327613953901031    0.6374651797170112 C
   0.5453911360769126    1.0826921665025773   -0.1092050088154126 C
   0.7133834270338943    0.2178246176602920    0.6091182105516909 C
   0.4133765727883733    0.5280798176151192    0.9065141447749090 C
   0.4314364602150088    0.5554698381990761    0.8075904430960928 C
   0.5697870792248627    0.6546231268770945    0.8423560493930492 C
   0.8476479286897671    0.4149815451834032   -0.1036208565800138 C
  -0.0578472243729505    0.6565825709782244    0.6543155677085513 C
   0.8823757524321569    0.3623366494519882   -0.0151661472358097 C
   0.0602974956275249   -0.0187677439823903    0.9430990660770504 C
   0.1176450466425403    0.7180694849454000    0.7050715597940661 C
   0.4164296829461233    0.7250476434576086    0.8107201062854518 C
   0.0752409707719276   -0.0915729601983259    1.0217923711060963 N
   0.6469565427359099    0.1477671850055989    0.5734648088771095 N
   0.4798319778237622    0.6439598734202364    0.7857090077342631 N
   0.7519928535742437    0.6331006042748332    0.3408202819004065 Cl
   0.4051271234010969    0.9315797518893233    0.6109975257105722 Cl
   0.6665050735295047    0.4589413065083260    0.5244533040188939 Cl
   0.3016392799154974    1.0998246504657485    0.9741991457430145 Cl
   0.6032252091343819    0.3244528755229408    0.9604053173052952 Cl
   0.8199932478236592    0.9623991204032023    0.7876455644190846 Cl
   0.1595795737875933    0.3473197093564611    0.2441069307112103 O
   0.1962753284108841    0.1911058973507783    0.3371257896779745 O
   0.4302984132298006    0.1766549080069053    0.1971337069363243 O
   0.3262457200180464    0.2645241080836189    0.1176038480402240 O
   0.4837745871746575    0.3281828758798752    0.2990243127668865 O
  -0.0371098657690129    0.0479032503585640    1.1353188688121247 O
   0.9308255290047528    0.2708614734903652    0.1517660045155213 O
   0.7135288132318826    1.0252517291312964   -0.0130833832799118 O
   1.1036688495803457    0.5917804971295081    0.1108762445998985 O
   0.2283235940927469    0.4737533923897154    0.1833833268857646 O
   0.6193408170233298    0.4183141682808323    0.1477556494150095 O
   0.5529233236998564    0.5252593300530346    0.2357765645445581 O
   0.9479630140460668    0.6078438046097056    0.1319100915836492 O
   0.8267540538439763    0.3680082743020029    0.2123123665076339 O
   0.8262914613958323    0.4911290783635470    0.0816430662679130 O
   0.3077489783697051    0.8420932441860315    0.1780205545277973 O
   0.1800818102148804    0.8185414246190860    0.2628842201904253 O
   0.1736639486711573    0.0453286733875632    0.3970059430669755 O
   0.5404141978370772    0.8393183748205536   -0.0415662148622229 O
   0.5191587356912184    0.9568486688879245    0.2376241554842436 O
   0.3899756555619648    0.6956018103321898    0.2372786373577850 O
   0.4939028575291398    0.8578030106425256    0.1272052519455251 O
   0.0389563321439046    0.2095299465053818    0.6223313478467392 O
   0.5514134636867791    0.1251127609000294    0.3304657726176748 O
  -0.2724741208736760    0.6681531988769661    0.6083230361009788 O
  -0.1033204098393692    0.5683990330155164    0.5197654989071641 O
   0.0232017550528315   -0.0173528671032551    0.4971710272360620 O
   0.2417401663444039    0.6523336636348867    0.5194999740890646 O
   0.1548166106410648    0.7476300763466579    0.4313660310837769 O
   0.5179473486732165    0.6929010705361982    0.3761196826681791 O
   0.4959666459128291    0.7804160168048865    0.5013214516608926 O
  -0.0678120917709381    0.0771944092861124    0.5697231441200473 O
   0.1020386382604215    0.0863280275879961    0.7457420088030745 O
   0.2209318537108261   -0.0076326273043799    0.7215074639652438 O
   0.4673681373269593    1.1073965583181684   -0.1547058150254502 O
   0.6205226885562569    1.0931729471730081   -0.1491058006804535 O
   0.5003918122280513    0.5113416459388689    0.9518846058234683 O
   0.9073056594345358    0.4443399196725147   -0.1604830712037800 O
   0.7601233506177117    0.4372318205784087   -0.1222222835397739 O
  -0.0844918537582991    0.6442920309142802    0.7506344351286173 O
  -0.0858518059930681    0.4820747216782678    0.6549769487130898 O
   0.0961911914647857    0.7363744991182323    0.7864696993380231 O
   0.1972429465994077    0.7490556449906228    0.6716238879076133 O
   0.6804670179305524    0.8621951876345817   -0.1031698209418823 O
  -0.2640987628651754    0.8027874655346289    0.6828246062545458 O
