Li1 Co1 H90 C51 N3 Cl6 O45
1.0
  14.5980779375999994    0.0000000000000000    0.0000000000000000
   0.0000000000000000   14.2197195762999993    0.0000000000000000
   0.0000000000000000    0.0000000000000000   14.2665091604000001
Li Co H C N Cl O
1 1 90 51 3 6 45
direct
   0.9430687058698747    0.5764899402350249    0.4199626911908151 Li
   0.2216627752387511    0.0927009341940197    0.2294031808414890 Co
   0.1697203206744441    0.2729464015006899    0.0818309908734021 H
   0.0547216196690160    0.2576662126872523    0.0413095154724925 H
   0.5554124661792968    0.0619084844800478    1.0227500236288287 H
   0.3890992014893872    0.2116667120297155    0.3333304964398641 H
   0.5461985819559803    0.2172821532887039    0.1527684562772813 H
   0.5010496313326657    0.2105879284490908    0.3060729525215944 H
   0.5553847913030751   -0.0317157246934505   -0.6623475520787498 H
  -0.0277611568408044    0.1049515273977239    0.1721411000608886 H
   0.7372635298157226    0.2887462911394741    1.1294656877680240 H
  -0.0645529867170258    0.1804066018978065    0.2548985557724228 H
   0.1613568908775984    0.5797587810690926    0.0514710762558689 H
   0.0381029935021327    0.4298376811092079    0.1803841817200254 H
   0.2943367261886539    0.5606559430319249    0.2145446055855042 H
   0.1647210323906060    0.6972852900155403    0.0396412727557625 H
   0.4237338980680194    0.6265286204060402    0.0532689933014204 H
   0.6199912418256330    0.6068700048827137    1.0997863881412240 H
   0.4573307182861633    0.6003529987277926    0.3653754763897583 H
  -0.0522328716464819    0.3016705966445072    0.1491221543392856 H
   0.0440572020199625    0.6827568741145458    0.1646767653169985 H
   0.2250680180530783    0.8732423464521654    0.2163894857663586 H
   0.3534109415535965   -0.0660813812999610    1.0108893786667323 H
   0.4007438851749127    0.0486473228243503    1.0252636027810111 H
   0.4970846778471854   -0.1149782668024611    1.0687080076477879 H
   0.3455975841727445   -0.1997415417413628    0.3166102183873939 H
   0.6405631281577712    0.7449859493963698    0.3385567223625277 H
  -0.0237935112200877   -0.0037665096707861    0.3887266687700714 H
  -0.1204130803187773    0.2676755521286025    0.7032142529124985 H
   0.1354233397883212    0.2332627778559240    0.7532026552596921 H
   0.3143571700614209    0.0826219731265405    0.3750912378589160 H
   0.2067786239875541    0.3074027771957927    0.4292560648191739 H
   0.1621631614051509    0.4434293696768308    0.6794109527371051 H
   0.3703364574369993    0.0081423046410122    0.4530702996947273 H
   0.5028690100970160    0.1828750050060156    0.5682141643592310 H
  -0.2358330696627312    0.1030393940497979    0.8280289486435790 H
  -0.2231670186394142    0.2155528646154600    0.7101802176683233 H
  -0.1498285966515116    0.1868666449040767    0.6167333916079936 H
  -0.2747080504941666    0.0158147484901748    0.7049546926879777 H
  -0.2160564935111270   -0.0739767550024861    0.6429325126261530 H
  -0.0884157172414849    0.0539983425537984    0.6254236744659848 H
  -0.2798594135928872    0.0198696807756259    0.5303144235101641 H
   0.9989322245800695    0.5138797367621054    0.6231350977978657 H
   0.0700352795190025    0.6861641143023727    0.2829944267029653 H
   0.3859344012877796    0.3592596366818973    0.6475636385208738 H
   0.2592218294062713    0.4331506859646987    0.5248601810514701 H
   0.3640972798966872    0.3713752061258362    0.5054864157601541 H
   0.3337083477443675    0.2513053277545597    0.6187556101952902 H
   0.5954393794823825    0.6015829807894044    0.6225182685580664 H
   0.3640609737471882    0.6459818872947235    0.5330727016255441 H
   0.6690120788878066    0.5542219905542345    0.4159372495530382 H
   0.7081884692622523    0.5871206702707950    0.5334887108912497 H
   1.1939441989077002    0.8172623395519781    0.5924990119070587 H
   1.0045110412125138    0.8194170937182325    0.5502497136923929 H
   1.1534162607415288    0.7496934965206864    0.4944196580673721 H
   0.5297906684605287    0.7749183258905868    0.3705224958304931 H
   0.8308683184626212    0.7866534377614371    0.4449589951913658 H
   0.6739606755666840    0.7626740619256217    0.5192515210001308 H
   0.2457077215323936    0.2637443916229362    0.8488132902555453 H
   0.1978233354517065    0.2013036384677302    0.6505713820072136 H
   0.1371715151377807    0.0768729146052844    0.9240916914345124 H
   0.1855148657498698    0.4293102445476248    0.7975512757166294 H
   0.1172640998436424    0.2955572552713844    0.6395266339032154 H
   0.5681384566003718    0.1559462039178273    0.7593316948878802 H
   0.5748668081285556    0.1803545614903970    0.9236900514863249 H
   0.4724420227293198    0.1339921844784910    0.8747460531928822 H
  -0.0041635297098566    0.2070576197302277    0.7818550743906899 H
  -0.1654642166951682    0.1866022233745364    0.8749191859454168 H
  -0.1328756799005624    0.0666413485593204    0.8877856831337769 H
  -0.0987198134823034   -0.0217331087045538    0.7330176193295763 H
   0.0141464150063273    0.0819609193026896    0.7949725089288774 H
   0.2677284287360469    0.4780496023303987    0.7165181381072617 H
   0.3210073606149288    0.3648553869759199    0.8313289850765055 H
   0.3527266048866255    0.2491843295282468    0.7843413167924721 H
   0.5728487342337644    0.5455654907309074    0.8318708134882837 H
   0.6659774328070444    0.4976219292322502    0.8999904907739886 H
   0.8212581491924149    0.5897824667849179    0.9051206875990926 H
   0.8439440124557567    0.5103477568429157    0.6932440493819234 H
   0.7490815239884790    0.6568885721395139    0.9742777595153691 H
   1.0436703060447430    0.6657452868816178    0.7707640640937068 H
   1.1590211081981421    0.6743643035466349    0.7457600497276585 H
   1.1815199605404798    0.9254501270639098    0.8060740333606299 H
   0.3502098352024900    0.0244808828213601    0.9187168657404426 H
   0.5289315827607807   -0.1180064559146970    0.8208870473659476 H
   0.4081475995859462   -0.0987254849694641    0.8258840651506404 H
   0.4955767122030714   -0.0020885581562029    0.8017611352782600 H
   0.6223223706321420   -0.0018248398754114    0.9416369785952141 H
   0.5881623940837509   -0.1312029186855069    0.9836675828066783 H
   0.4879416659677775   -0.1920972278421513    0.9632911896237610 H
   0.9561813910341979    0.7688865613723223    0.8638905595147317 H
   0.7045510040954696    0.7567653659383931    0.8131584573681890 H
   0.0042821026896283    0.1325638862697239    0.6805464792921901 H
   0.1317434032768416    0.1371582103454874    0.0533580129758005 C
   0.1047234077893501    0.2319167597507638    0.0930201330948987 C
   0.1325688544116764    0.2713500268409650    0.2673711233780928 C
   0.0364075648227001    0.0891108493315105    0.3056495833615503 C
   0.0600565685802973    0.2378050615242779    0.1944373742526813 C
   0.4245161928364687    0.1606889134795828    0.1963481430114233 C
   0.4427196851822349    0.1696307213202888    0.2984467001022570 C
  -0.0032867019483723    0.1513089816683884    0.2271945115976165 C
   0.1984460201666981    0.6438440110984399    0.0748250724054538 C
   0.0466342536127001    0.5518614658040878    0.2310791339237165 C
   0.0831568699652782    0.6493455260601264    0.2187656802242220 C
   0.1869534112960551    0.6468159403107737    0.1863050414797812 C
   0.2966795003638699    0.6537506762224687    0.0326185316721833 C
   0.5494400360845488    0.6444199718236887    0.2824659161952281 C
   0.2335629720141467    0.7347171111667206    0.2202383600342429 C
   0.4593148151051971    0.0739052048854433    0.3554101794554090 C
   0.3698624224284468    0.0293987013215612    0.3798555427940480 C
   0.5119964765737367    0.0918971208741670    0.4486491761184654 C
  -0.1301444984278764    0.0326533365309035    0.6894246146913932 C
  -0.1550210610515518    0.2021025290463414    0.6905314026114422 C
  -0.2210092003201363    0.0021323408339597    0.6524190659573398 C
   1.0366686993649528    0.6419614141979626    0.5928649037970305 C
   0.2901841247119991    0.3631268015514248    0.5358899289898641 C
   0.3198044625296426    0.3251119871875079    0.6293237175230798 C
   0.5261913590018044    0.6112069399164246    0.5091388158963159 C
   0.6821261340955070    0.6140761948114368    0.4624261973778476 C
   1.0821712650341702    0.7309835635594609    0.6316683695766353 C
   1.2561236175873369    0.6889257721388220    0.5950728720985849 C
   1.1709713115568099    0.7477040058103949    0.5708181650704295 C
   0.3378801298283048   -0.0544447242539396    0.3243451168660142 C
   0.5985007414090023    0.6758713656152652    0.4653372108243097 C
   0.5787111498453136    0.7134100805762597    0.3646205615133221 C
   0.7698356260898006    0.6622944452713667    0.4255201123587119 C
   0.1669459828353726    0.2642085357971294    0.6873897791423732 C
   0.5481618541156789    0.1192858466440558    0.8845893861639076 C
  -0.1662102053141186    0.1193906307076237    0.8371769468351942 C
  -0.0167501182172891    0.1371807143054483    0.7520657268199711 C
   0.2938263850306024    0.2952372770906906    0.8009634629204286 C
   0.2157099367642987    0.4219359781679439    0.7275285400376801 C
   0.6321695574066244    0.5599348317649285    0.8787260036742239 C
   0.5864642253175637    0.5926053072625107    0.9663122510141420 C
   0.7011861775607733    0.6267937451843293    0.8363589471501420 C
   0.7426382099849462    0.5791828906687186    0.7478684842200637 C
   0.7774147060531310    0.6465036978663165    0.9035225391141579 C
   1.1007449431004881    0.8156054854998583    0.7915540132442167 C
   1.0933706846220668    0.7188356446730783    0.7420850091546267 C
   0.5549328139928974    0.0361745030160324    0.9491721085132175 C
   0.4776183206175076   -0.0663057176508210    0.8389131809567657 C
   0.3899219125374675   -0.0085148452225318    0.9786558452333085 C
   0.5198008601704673   -0.1285115857239354    0.9953494874776965 C
   0.8324616789104435    0.7307641499498424    0.8750972252941771 C
  -0.1186251737113756    0.1237922646262221    0.7461736056952513 N
   0.2490636427851373    0.3265859965649455    0.7083486553915100 N
   0.4847863875676422   -0.0424219836448393    0.9409549617198451 N
  -0.3508550614055739    1.2901260949812252    1.1982197178514771 Cl
   0.8082893185827102    0.2846765906302988    0.0537112879040492 Cl
   0.8996472360908051    0.4238755382170722   -0.3959614335635849 Cl
   0.9284722637279148    0.8729849574101127    0.4484170941169909 Cl
   1.2224548015897150    1.0569935087714915    0.8303827129472680 Cl
   0.5334061444311056    2.2611297723682808    0.6620822567526510 Cl
   0.1758670202867872    0.0768328294266040    0.0993061838023085 O
   0.2009285387664007    0.2113875222764508    0.2732001596941968 O
   0.1166263446515003    0.0525616053600459    0.3075582492933385 O
   0.3485794835834800    0.1336286048753731    0.1656749071777647 O
   0.4911721597493275    0.1784663385999294    0.1333488493583710 O
   0.5145940103149652    0.0135819337128063    0.3018175317092968 O
   0.0009816681936660    0.3206449511352731    0.1890527353661601 O
  -0.0291962772785464    0.0671631591309133    0.3617263706824907 O
   0.0620479266292310    0.4929121317119374    0.1618793045260448 O
   0.2300296301440402    0.5684986434031666    0.2297080907497989 O
   0.3652378410083055    0.6212247183427603    0.0874567539172994 O
   0.4755187976439346    0.5928176883846416    0.2959828878546493 O
   0.6389464769725344    0.5744163409743795    1.0411210208400801 O
   0.5911155225835627    0.6489038858458942    0.2072085432857996 O
   0.3136913289800438    0.6763108960832511   -0.0486879734411866 O
   0.2804369511040608   -0.0449958740653650    0.2572845634227375 O
   0.1843126526862721    0.8158797525118816    0.2054456733561458 O
   0.3031433650180624    0.7263547802950073    0.2703564367102581 O
   0.1282203367320650    0.3475442157760128    0.3079963382420596 O
   0.2389808085497559    0.2902294427506459    0.4910365599697681 O
   0.4769347374743941    0.1593175784194666    0.4985468064354842 O
   0.5774685205020851    0.0417568915838283    0.4669036767164729 O
  -0.2340520132722161    0.0507324553644756    0.5687111324626603 O
   1.0430955728479574    0.5673283671603260    0.6474935442890785 O
   1.2775099947072914    0.6547394439632499    0.6719662443781177 O
  -0.0031154465262073    0.5311302552891259    0.3001296626076640 O
   0.9948803212916477    0.6420043123716380    0.5160555044071887 O
   0.4517025800921355    0.5878914308994552    0.4701594836891365 O
   0.5327783220534490    0.5987355266056043    0.5997853073021885 O
   0.8253312881531851    0.6160895959791868    0.3774611238359178 O
   1.0248644056259695    0.8104366071963436    0.6184955605953294 O
   1.3081852659254707    0.6818285857661595    0.5214969897156959 O
   0.3660804176853568   -0.1375736491006824    0.3511162068156240 O
   0.6075224770486500    0.7579988642437488    0.5209784325888737 O
   0.7759467045743333    0.7452377124484322    0.4538361492713236 O
   0.1018463166969796    0.1198920470655020   -0.0314125490728970 O
   0.5922841695844160    0.1067054297771750    0.7947951705224351 O
   0.5077955742178145    0.6270680121963524    0.9699284124324656 O
   0.8171110278892694    0.5285189520351653    0.7564879719039416 O
   0.7042132884029604    0.5755552523230248    0.6723047995176894 O
   1.1742032438839061    0.8613848692990277    0.7753461240261709 O
   1.0335052692067224    0.8451609206647307    0.8441120701290291 O
   0.6542957579503313    0.7088881911216204    0.8050450500378736 O
   0.9189867684050446    0.7142631213085269    0.8766007465661880 O
   0.8000937190995863    0.8103627660777221    0.8527420719476764 O
