Li1 Co1 H90 C51 N3 Cl6 O45
1.0
  14.2468239687999993    0.0000000000000000    0.0000000000000000
   0.0000000000000000   13.9039056784999993    0.0000000000000000
   0.0000000000000000    0.0000000000000000   14.3701678631000007
Li Co H C N Cl O
1 1 90 51 3 6 45
direct
   1.0043414946682472    0.7732342686864265    0.2720673807533791 Li
   0.6605006491066093    0.7582053980344111    0.6669319400304146 Co
   0.2438428723979392    0.2624526103368733    1.0392616198902418 H
   0.0918651400456826    0.2199206762405110    1.0208867475494647 H
   0.1628697374363252    0.1102536492009187    1.0502656667118553 H
   0.0697753043960527    0.2602014443175008    0.2942633636422799 H
   0.1767479183160075    1.0363998916852981    0.3017086489736177 H
   0.0560269770194425    0.0061174421897528    1.0248880925962160 H
   0.3685534748375405    0.1719528594686159    1.0230335561528086 H
   0.5283919065460364    0.1253630727584197    0.2866649833700229 H
   0.3514780901389753    0.2943263881261808    0.2490641699941772 H
  -0.0275593719526438    0.1007642292457745    1.0245478042957183 H
   0.7870053356210877    1.1777364373610024    0.0794231453921087 H
  -0.1516501871316362    0.1463679620861432    0.2873699159843463 H
   0.5469464981222995    0.4680884126870842    1.0265046359951036 H
   0.4661727760267545    0.3458867206382567    1.0853682490063381 H
   0.5972907714544288    0.3786228460496817    0.1864462514999471 H
   0.4347956072641610    0.4588086604373608    0.2622950523200698 H
   0.9772708997872686    0.4644036422934513    0.1064757173386230 H
   0.7381733993577101    0.3658329146367418    0.1101799190227721 H
   0.8886637826666709    0.4177476799329541    0.1789995743964191 H
   0.8079419317812719    0.6483305157297713    0.0575820644117024 H
   0.1911413017430136    0.7106000693372009    0.1257002666015015 H
   0.2305542966132869    0.8094543072601009    0.0599439018184283 H
   0.3178411194675138    0.8394099189875343    0.3049041579222581 H
   0.1945911934597666    0.7431779658271364    0.3241802027561731 H
   0.6227364427699378    0.9875373622846173    0.1291553410636094 H
   0.3565894047842234    0.8373666082332091    0.1875603651381817 H
   0.4372305359244694    0.7063336422359491    0.1752278717610466 H
   0.5584515184944860    0.8685456172127038    0.3137105964555864 H
   0.7002133599001895    0.9997950691434563    0.3045930968377541 H
   0.7149268146644976    0.9392545261144841    0.0627671117061970 H
   0.6905515573607991    0.7521991720191459    0.1387439555678157 H
   0.6901170745586281    0.7564260418900253    0.2595887512962757 H
   0.9123027355124094    0.8293249829096934    0.1241957608639231 H
   0.1413695068817253    0.1550935678839157    0.5385520200757410 H
   0.5611618067723900    0.2241187772165741    0.6624281652230103 H
   0.3884905499794835    0.2192568339926257    0.3353310815438501 H
   0.3619232251617627    0.1596181958161433    0.6071706339565174 H
   0.4330639932529241    0.0353603045481132    0.5261011564738316 H
   0.6147227268533217    0.1137260548052415    0.6316150248186448 H
   0.5379047636078489    0.1702727560113461    0.5478560171670567 H
   0.6995086414294631   -0.6879731409276908   -0.6158658794254902 H
  -0.0378872878672526    0.1684358620773277    0.4931604835109561 H
  -0.0696368203237907    0.2885927473892997    0.5172120397135460 H
   0.1743600176811360    0.3623727358127159    0.4610511160772718 H
   0.0989628623325200    0.4528456596865572    0.6339365008318557 H
   0.0599625910287677    0.4056545311524641    0.4800637680241964 H
   0.3408841500207755    0.5406143793699069    0.3705895423236324 H
   0.5237559961041975    0.4550167043338664    0.3542918899766905 H
  -0.1389441973337397    0.6355657570997956    0.5141729450824983 H
   0.8935750527261053    0.5908322833276188    0.3488772002708172 H
   0.2146763717862945    0.7523480510498199    0.6352099723858653 H
   0.0534797426267474    0.8775790501850103    0.4938393899853232 H
   0.1600677094132778    0.7349277660162027    0.5232711964909406 H
   0.5330464878158845   -0.0124363372996252    0.5760915258866096 H
   0.4242936174643528   -0.0484204709358062    0.6250368135617858 H
  -0.0814850750905840    0.7011811331743566    0.6350833211165595 H
  -0.0538754126941494    0.8179562349006768    0.5944428772773728 H
   0.2082503781612949    0.0856677516909408    0.8384525529753135 H
   0.1133050062691247    0.2118524396892902    0.8205181765327265 H
   0.2295084494804360    0.2694513632232995    0.9183374931469418 H
   0.0062081541327172    0.2250156475124710    0.8870608926032483 H
   0.3070190583304037    0.2473604481162620    0.7418078920896054 H
   0.0231993095319924    0.1321848969417259    0.8025107320501554 H
   0.1091925107312905    0.0017186781723463    0.8295013701342070 H
   0.1885330011083333    0.0008685573305258    0.9234452970848817 H
   0.3354815423821495    0.0810338019584114    0.6981612203196421 H
   0.3752096952139328    0.1883050992821794    0.8831075636970581 H
   0.5402759587650279    0.1107218629640534    0.7907203339410933 H
   0.4512349203709212    0.0269216684761330    0.7962101793452362 H
   0.4198308684236376    0.2755561227033104    0.7020839302376486 H
  -0.0149748127278904    0.0151810825016163    0.9247667847794523 H
   0.2806587972067707    0.5361615298302457    0.8805369604618060 H
   0.3342412659501042    0.4290452968495373    0.9271474111107455 H
   0.3901653092136997    0.6212467589273714    0.7582697735549878 H
   0.4801672635305397    0.5425322577428330    0.7328796734896368 H
   0.3425055640321080    0.5460053106472892    0.9820131585057044 H
   0.5705956988661182    0.3572195075287529    0.9784015096722019 H
   0.5660506156853471    0.4747267992048181    0.8594474364640938 H
   0.4704320411186016    0.3937926842862969    0.8358958674619632 H
   0.5139575315267091    0.6094551081645558    0.9718873199360908 H
   0.3632056162434529    0.4957115287294993    0.7353278007721535 H
   0.5299184924045849    0.6426702356746717    0.8517669416326165 H
   0.7915410833878541    0.4374451668357526   -0.0498794499360409 H
   0.9206386284988096    0.4498478689244656   -0.0299903294523541 H
   0.1680884444381681    0.6668382649874433    0.7659273041453271 H
   0.1115642674171314    0.8045118111306671    0.7609127489441290 H
   0.1103317120041877    0.7939241386159120   -0.0500241942438190 H
   0.4232519817964665    0.6781746479897914    0.9101991052648972 H
   0.5580060858834074   -0.0012632177753593    0.7338184238319094 H
   0.7866192846660085   -0.0230865821606055   -0.2763987245200603 H
   0.1451507005090188    0.1667665469556141    1.0015056239151916 C
   0.4386357614009576    0.1779964850471422    0.1990062996301757 C
   0.4102926021898726    0.2534047929171588    0.2688704800325486 C
   0.4914514627564210    0.3241626089401266    0.2784931929554142 C
   0.7472954324708172    1.0638475750071237    0.1483186523501203 C
   0.8684262896905935    0.3297070941935907    0.0344779501687128 C
   0.4643718132257688    0.4200672439997523    0.3226332479667942 C
   0.8524079826981178    0.4313066758265697    0.0026355942297134 C
   0.9348761877221293    0.5601466608942230    0.2260839234761131 C
   0.9125357699071117    0.4870106641812688    0.1493812704173184 C
   0.7365583025438245    0.5122679557740212    0.1214386601551876 C
   0.8341323304846701    0.5098327407500617    0.0759430190305777 C
   0.1839207450613784    0.7882969427898512    0.1134679808220590 C
   0.0847274088416826    0.8066414285694409    0.0832414723958521 C
   0.2104024367581544    0.8276427217853124    0.2094821689056182 C
   0.1978543768964266    0.9342760688665298    0.2121682892326547 C
   0.3105847653336803    0.8046858629443054    0.2381443253900691 C
   0.3322057245505959    0.7005561289344732    0.2582456911327575 C
   0.5582855165838020    0.7996987750279063    0.1979868265008730 C
   0.6654224478284549    0.7938069053695357    0.1985497983517985 C
   0.6989393917484282    0.9660052829593856    0.1322026262739962 C
   0.7126631522460789    0.8969433932858365    0.2109477050218717 C
   0.8182866935557388    0.8706615694264400    0.2067946568063914 C
   0.1227127170889903    0.1765472519707729    0.4076329509373133 C
   0.0614085273332461    0.2661443787641702    0.4245694267195452 C
   0.1333445603918705    0.3215719699619222    0.5942689057536010 C
   0.5726230279089458    0.2775260727758540    0.3370888898200403 C
   0.4636214003601776    0.0103004394960374    0.5909056882560446 C
   0.5523029200284816    0.1559688615087004    0.6201823121624576 C
  -0.0435664483718809    0.2391231943079957    0.4648451566562967 C
  -0.1175639935306281    0.2306241435569014    0.3866102320047296 C
   0.0882531069277965    0.6261504170488035    0.6659277763952037 C
   0.1041303298439614    0.3420870688553989    0.4907349725265298 C
   0.3883122646293197    0.4101018426798730    0.4004347051697315 C
   0.0634251171404142    0.7365704699102114    0.6437596289501065 C
   0.1587193387138104    0.8815340539998759    0.5725878089864551 C
   0.1551009883984775    0.7718893228537663    0.5922042117094772 C
  -0.0326440139864501    0.7440172983334009    0.5931325237603237 C
  -0.0376633783133067    0.7258152185831516    0.4902570379564239 C
   0.1550188648316698    0.0458084479230093    0.8759274109679486 C
   0.0572953298845844    0.1780928608447766    0.8555741344588385 C
   0.2358923284557906    0.2190698361763200    0.9804453271334730 C
   0.0227192025260394    0.0588565801669251    0.9758775308053207 C
   0.5086439261809994    0.0529316262795158    0.7553491396139069 C
   0.3794218620892602    0.2246013754271168    0.7430959772516117 C
   0.3839442735503057    0.1381321467226178    0.6760891051556669 C
   0.3429695270890305    0.5073639380414041    0.9188023450584600 C
   0.5144827784179732    0.4098714038323948    0.9816812208383479 C
   0.4784267352517947    0.6231383137615407    0.9037558959104849 C
   0.4976263828784537    0.4467932595951119    0.8836545301677966 C
   0.4141811881737609    0.5459866108656586    0.7659718408554127 C
   0.4751502155094137    0.0937151307934198    0.6634511177827884 N
   0.0939343731649070    0.1139454176282155    0.9265058041310752 N
   0.4321234327441857    0.5306581840963688    0.8649762514895615 N
   0.7520775509380069    0.6424328922924375    0.5959592130785677 Cl
   0.5187655645416470    0.7128519545789438    0.6333909261333074 Cl
   0.7096393204015680    0.9264732253699890    0.6146507135926096 Cl
   0.8578077826934342   -0.9982672481921930    0.7814935802063324 Cl
   0.2153473985373048    0.7568892210965671   -0.1301506068904426 Cl
   0.6582608516563228    0.7537570076734466    0.8241785373928852 Cl
   0.1306478189929357    0.1517391147483395    0.3253687762065820 O
   0.4956395540903681    0.1087202671072119    0.2299154723156631 O
   0.4147378034599023    0.1784754871458329    0.1179794103765093 O
   0.9399327533228390    0.2810459470566237    0.0237376441771372 O
   0.7557099394698882    1.0978574432365387    0.2293156185016980 O
   0.7860535445391106    1.1031329393234708    0.0712186483310309 O
   0.7939584642774771    0.3004426551641182    0.0836868394967079 O
  -0.0951098661615689    0.1607560056061265    0.3289957345341764 O
   0.3018677347679927    0.6539720960032404    0.3265009828832888 O
   0.4346138123598600    0.3743974146235431    1.0304621402178642 O
   0.5321226327848386    0.3439347511249733    0.1866696309364701 O
   0.3888344862849176    0.6549797265441799    0.2001795635864927 O
   0.9753020399163648    0.6371199966422443    0.2183714178842618 O
   0.6940400541730598    0.4272966515003679    0.1427926208690330 O
   0.6948402325163149    0.5870628388843181    0.1371030561556002 O
   0.8520794884308869    0.5987854442995746    0.0319741519985891 O
   0.8875035240689511    0.5375007218839427    0.3019271572074750 O
   0.2157432762439678    0.9926711715645793    0.1497988020743707 O
   0.0256244114407170    0.8200743447815242    0.1461934162157240 O
   0.1504529348993243    0.7801280151067734    0.2800798132522129 O
   0.1786192125819003    0.9620207910273333    0.2998485454414497 O
   0.5131882232216438    0.8340171896542258    0.2742823861940416 O
   0.5078294288568651    0.7728933572828538    0.1334454788398219 O
   0.6821854822088198    0.9310330951983666    0.3010211135116715 O
   0.8759009380917535    0.8808026048491725    0.2716366272605201 O
   0.8422316795222309    0.8328139306285356    0.1245061260623320 O
   0.0474264636511061    0.3146501738691294    0.3361146492869183 O
   0.1573176227914593    0.2405990386120700    0.6198281061400581 O
   0.1531068597377868    0.1265476320024793    0.4780065199612901 O
   0.5852745494266347    0.1943760553107811    0.3620433651898667 O
  -0.1845599781858940    0.2842385751588584    0.3744823291395501 O
   0.1272428495691375    0.3942997360574335    0.6583962011880752 O
   0.0527216789331374    0.5606975852299544    0.6184474681274053 O
   0.6407551956205511    0.3393892657440039    0.3534248159022119 O
   0.3840523678177279    0.3373624971041982    0.4486815319712686 O
   0.3335505856959262    0.4862998567125961    0.4165653448538525 O
  -0.0955106572440238    0.6585779960633239    0.4604322645729109 O
   0.0098398407537710    0.7706637679345936    0.4294990838171429 O
   0.2305676329190078    0.9283043655250441    0.5942661222092207 O
   0.0905104521487685    0.9266026853966622    0.5306158566929288 O
   0.3212601271078603    0.1587860555335829    0.9669263479642143 O
   0.4149392518673709    0.2120459105069295    0.8283782099767363 O
   0.1471272813990242    0.6042558496488869    0.7370389846799729 O
   0.0528915413533722    0.7877237225606372    0.7309395430565337 O
   0.0526086712899233    0.7975943303720968   -0.0019071501990157 O
