Li1 Co1 H90 C51 N3 Cl6 O45
1.0
  14.2688112194999999    0.0000000000000000    0.0000000000000000
   0.0000000000000000   13.9253637003000001    0.0000000000000000
   0.0000000000000000    0.0000000000000000   14.3923454716000006
Li Co H C N Cl O
1 1 90 51 3 6 45
direct
   1.0289693992401481    0.5999631700836661    0.3643542844456911 Li
   0.4608580215437478    0.5898607409458929    0.6566019940563195 Co
   0.2365761279248523    0.1996468753013687    1.0174827143148077 H
   0.1097148237731649    0.1641059723381421    1.1658178139837754 H
   0.1793562244977040    0.3029856484185834    1.1502442578568541 H
   0.0260617442251809    0.2002393194326356    1.0886337301114122 H
   0.5252799965674114    0.1127091100799175    0.0216943608264629 H
   0.4199179606645577    0.1440102674055685    0.1435952701300914 H
   0.4954536856398138    0.2459702614536530    0.1424411844369168 H
   0.5974891655128889    0.1785651997115472    0.2929364601565044 H
   0.7425496031456554    1.0841875067058206    0.2048472739636262 H
   0.9015873789695281    0.3484580693641389    0.1553515193344951 H
   1.0413537525882746    0.4131320713782190    0.1441671018733080 H
   0.2958971173877475    0.4449592472810251    0.2962173708387262 H
   0.2131537141821249    0.5990138232454421    0.3133160432188190 H
   0.4583270468574581    0.3491589487242801    0.2330865905365918 H
   0.4000375378573422    0.5872360339158559    0.1106784671715439 H
   0.8765131107283833    0.5633537133418636    0.0351376178954228 H
   0.8239067661315624    0.3973250156533292    0.2433920685625796 H
   0.6877755937361044    0.5052093792026729    0.1630104516619266 H
   0.2077398083695350    0.6748014308594007    0.1134757874609606 H
   0.2421337037298800    0.7974926608172360    0.1306168434818021 H
   0.2820886790414096    0.8378348746430694    0.2985046978115925 H
   0.4611806132389626    0.7389778516146265    0.2512170613840923 H
   0.6506029104732456    0.6779589785505288    0.9629968070978498 H
   0.6991416422110021    0.7635445349244943    0.1475202731889375 H
   0.9657244669106263    0.7546729533515594    0.2211816511826762 H
   0.7106352416060151    0.9073957149088882    0.2222551384770499 H
   0.7722626600694583    0.6666716611502217    0.3014062401684240 H
   0.7328059743414563    0.9341296665680452    0.3332592832255565 H
   0.3307998147700913   -0.0004125314012356    0.5751453612709706 H
   0.3601673628828123    0.1135414043200852    0.4647418135562871 H
   0.1804242882463626    0.1487433574288172    0.5536772134551962 H
   0.1573508874608739    0.2294888247788568    0.3888589769362884 H
   0.1800885910445204    0.3759984631559174    0.5125664583550253 H
   0.4398698680533763    0.2879246414306308    0.7490177856744825 H
   0.3864996195943260    0.2263801088464272    0.6526019511089346 H
   0.5175124398806614    0.0301848741078802    0.5293446958199682 H
   0.4999696890411299    0.1874396537408763    0.5294742785904542 H
   0.6208772386232775    0.1903745860614676    0.5676853541295450 H
   0.5532827498348978    0.3019486916603417    0.5824049146360680 H
   0.0349286356608946    0.2195458169709518    0.3713844102997191 H
  -0.0959280959390227    0.1127859482884576    0.5961504157005314 H
  -0.0087358287724524    0.0541375698635260    0.3485889597147265 H
   0.0821420993220675    0.3858983841179121    0.5936442223860937 H
   0.4132895177939459    0.3316319379220601    0.3571059870638743 H
  -0.0693253191441875    0.3666902682110911    0.5149374332643850 H
   0.3074292623904877    0.7332810524711836    0.3664581805799070 H
   0.1311587965956409    0.9623766846327529    0.5229205170658905 H
   0.4703978492074548   -0.0602221003234503    0.5932676333158344 H
   0.7295183844169437    0.7589184439019229    0.3821811216701227 H
   0.9345599926485875    0.8567880600449209    0.3294253007722527 H
  -0.1063704514869309    0.7171579547315415    0.6551234303265930 H
  -0.0357962470553940    0.7979264017327332    0.5754193958268936 H
   0.1825863464252415    0.1454385963474956    0.7786161580065388 H
   0.0204263763754675    0.1219354400175142    0.8278541367222637 H
   0.1759459894576959    0.3259351387786173    0.8887073174444906 H
   0.2648686039966008    0.1651357479553988    0.8760825510116294 H
   0.0659165009566199    0.3219517598742081    0.9431293017934339 H
   0.1985876794366401    0.0604842622661162    0.8610002282291240 H
   0.1670027076357593    0.0902658901593299    1.0248380130191705 H
   0.0423637329768514    0.0621847564513769    0.9349381421084035 H
   0.0797936205676353    0.2768656843136485    0.8197838746354347 H
  -0.0276869520188272    0.1679277755703875    0.9380800900340722 H
   0.5691073337141365    0.1708720433742595    0.8143205538615442 H
   0.4776527633280179    0.0459797937045053    0.7375220916386163 H
   0.4049636665248755    0.1692613134513120    0.7631426550643362 H
   0.6002553384892374    0.2817438333847953    0.7512745408409072 H
   0.5961645982655368    0.0484572873443487    0.6762228404678534 H
   0.6601496062634203    0.1712375634503987    0.7244915539566196 H
   0.8165102144233327    0.2993922054696627    0.0148726791072646 H
   0.0091927846253051    0.5979373702117825    0.7082405543915015 H
   0.5311989199241505    0.6418241952278383    0.9497293379159298 H
   0.9880963376354803    0.5505820540999460   -0.0904833244011358 H
   0.6183647658286969    0.6069015885034247    0.8534406542726281 H
   0.7947782007867500    0.5033792654226321   -0.0364073573160100 H
   0.0989788207772987    0.8040440157379003    0.9011785300313607 H
   0.1682719093738305    0.8214640275394430    0.7587708867431714 H
   0.2654755221109960    0.8129988985462619   -0.0253445322668070 H
   0.1600168418571318    0.7267311337787162    0.6655782933158756 H
   0.5021731662275848    0.8064195371757560    0.7479088628771877 H
   0.4954984686277004    0.6857462078347207    0.7553079348498648 H
   0.4337635429601600    0.7456656482140067    0.8405247608647876 H
   0.5298938357294314    0.8231630854965066    0.9841003861218068 H
   0.5754703725548158    0.9040047801357459    0.8962960735798629 H
   0.6287545591842498    0.8541597624443914    0.6862184315467276 H
   0.6663162026705375    0.9175204055837151    0.7947059607740551 H
   0.6631701802507683    0.6950271144438038    0.7488399133460945 H
   0.7314884153864182    0.7494903239026461    0.8403962203149759 H
  -0.0777282616287122    0.8641989975414961    0.7772459852269239 H
   0.8001262286515880    0.9076664439240247    0.6923355720902009 H
   0.6532590532602639    0.8300943227752803    0.9667140608356489 H
   0.1025993045867278    0.2078786172125354    1.0981082108532116 C
   0.3170390328114888    0.3116791376950891    0.2473483382416502 C
   0.4807952816016300    0.1769149735131819    0.1752120765010834 C
   0.4656959158110474    0.2014299526079574    0.2793243633383323 C
   0.5661815118388742    0.1163600021567187    0.1488953096650318 C
   0.4167312901493672    0.3008399234922494    0.2854936149155132 C
   0.4110552742042324    0.1286871487716614    0.3366861048021592 C
   0.8438558702034554    0.9962472542028560    0.2497885242467250 C
   0.3441674315298765    0.5938161134004604    0.2338932693383833 C
   0.9412017512745957    0.4872710326448291    0.2176596401178344 C
   0.8659593233326819    0.4125593753846610    0.1814278806017095 C
   0.7249601910958972    0.3768314755101836    0.0860000712352550 C
   0.7959492864324248    0.4546185282086108    0.1096723768140985 C
   0.2683993816644103    0.7222465112335504    0.1283204839297599 C
   0.3249044392755273    0.7023095095167464    0.2195085395937752 C
   0.3272136715930009    0.7051424696353501    0.0413881626851873 C
   0.1719001023048051    0.7345011283245442    0.2907151404930010 C
   0.2747215621608989    0.7555095562763180    0.2998352662055898 C
   0.6423730728088775    0.7388055042309851    0.2631622999374084 C
   0.8172587000424715    0.8168487082283491    0.2711012422192946 C
   0.8484084568906508    0.7820848047197053    0.1734423857963779 C
   0.7712976182178161    0.9202700644668920    0.2693850521758622 C
   0.7409166710364858    0.7382159325561122    0.3096015687361511 C
   0.1031032008041068    0.0953975335072491    0.4260224817351027 C
   0.0878608658503179    0.2498882919750982    0.5200326625405794 C
   0.0928346509055866    0.2061249825839854    0.4195134662181492 C
   0.1053444526861343    0.3576140241200821    0.5290761502929291 C
   0.4349079970950414    0.2195723871925965    0.7140457235465129 C
   0.4673277265934467    0.0195302152283564    0.5889514500972910 C
   0.5515267521126939    0.2180083346860518    0.5792696369227140 C
  -0.0144517919837772    0.2216635354474440    0.5619757218696640 C
   0.0481217459420604    0.4144556274731742    0.4594076586646129 C
   0.0080385188811839    0.6511884030723480    0.5880447181107811 C
   0.1577279335873689    0.8743380504982931    0.6261955532949062 C
  -0.0318323569225773    0.7393965121340551    0.6316046785937408 C
   0.0336496223135837    0.1326094879776976    0.9069475688696682 C
   0.1092985312097113    0.2857322390878940    0.8910794116988544 C
   0.1984236853964918    0.1367688048362406    0.8560204978480388 C
   0.1666754203846940    0.1678408837644684    1.0172145161946600 C
   0.5955485693711332    0.2034607792785305    0.7490414093430967 C
   0.5183914199026873    0.0676840742177308    0.6704086387336661 C
   0.9256076000466424    0.4373907555512380   -0.0278625374155516 C
   0.8441817557960579    0.4964675608473378    0.0184092812615444 C
   0.1305665958951052    0.8001022874512045    0.6967768217896424 C
   0.0205980795371613    0.7201302289852551    0.8036767015233491 C
   0.0265376072733037    0.7889399219040374    0.7175218769016920 C
   0.5978627074932268    0.6565412255626067    0.9126575485364408 C
   0.4988815815764532    0.7464713722325297    0.8010940786928074 C
   0.5848082212340325    0.8342105527879128    0.9335478197290884 C
   0.6665425705122806    0.7561522683944804    0.7991249764324480 C
   0.6787271875294574    0.8516930405160256    0.7461989261578003 C
   0.5238066432742323    0.1803360690784614    0.6746073984229222 N
   0.1269285913548910    0.1840616450215071    0.9182813712941501 N
   0.5864686258490730    0.7496849328233411    0.8603943506105519 N
   0.4240465456667541    0.7122036855659531    0.5655578343267149 Cl
   0.4397976826425418    0.1651594457206494    0.9328842725665468 Cl
   0.8033500431160429    1.0755083797112850    0.6660090778611907 Cl
   0.3680131461283715    0.4947435125196462    0.7334032355343784 Cl
   0.6019667634723240    0.5434820600080237    0.6286753436855986 Cl
   0.1830797302041494    0.8981507140047302   -0.0653407928579590 Cl
   0.1191185504001334    0.3102098762495472    1.1127875416417128 O
   0.2790470801771196    0.2538451006578626    0.1948558517674486 O
   0.5825540040112239    0.0981708901556768    0.0587383576546414 O
   0.6278567969388222    0.0866480313310600    0.2061660305233164 O
   0.3756101349967826    0.0527322205727510    0.3108348632005610 O
   0.5533206646963167    0.2215665900441458    0.3257017937104088 O
   0.7489481740283670    0.2984457310878326    0.0454132189287518 O
   0.8135639283345135    1.0762473191186472    0.2212163918718145 O
   1.0300010198687737    0.4678523585031854    0.1847261616285006 O
   0.3222882437546991    0.5595527354184748    0.3121042879816748 O
   0.2628249859578290    0.3839566035955537    0.2785044830746682 O
   0.1510301086228482    0.6370056496268675    0.2979731652677763 O
   0.3971578305455064    0.5440306991792817    0.1763098822778539 O
   0.6449212878942596    0.3872893711267170    0.1156158139118804 O
   0.9292000506868154    0.5612280956102877    0.2639418810016720 O
   0.7478170356488821    0.5317352932074929    0.1468476934472199 O
   0.1067881609028250    0.7891445844221114    0.2720545267292498 O
   0.3848484659251399    0.6361848452122758    0.0340828905731838 O
   0.4130400225875663    0.7462250590967423    0.2022577029952567 O
   0.5739833530916245    0.7232181196088281    0.3113184535933662 O
   0.6324787657199267    0.7464167955610433    0.1708555940831394 O
   0.9358088703389480    0.7477208907639290    0.1613130215906288 O
   0.7948601978068240    0.7763018318844417    0.1063713165321764 O
   0.8904077510701838    0.8057337382116834    0.3319078704180763 O
   0.9276981736439184    0.9888442159613644    0.2718175952293265 O
   0.1703933194572881    0.0627578115019841    0.4697987377486376 O
   0.1546758222846078    0.2081220578919287    0.5836382091004781 O
   0.3912827790986531    0.1647450938858118    0.4255451446663424 O
   0.0447612697774819    0.0377143004307087    0.3889805693482725 O
   0.3720828614751300    0.0562430804003437    0.5778121955319837 O
  -0.0315001638668922    0.1306914052205898    0.5638139212133502 O
  -0.0744644998980674    0.2819233619094216    0.5904550271231971 O
   0.0848711283491517    0.4588402491823138    0.3955479492229784 O
   0.0353911829536207    0.5763645045785835    0.6437111139446586 O
   0.0066557828076254    0.6446032967890539    0.5028951500700301 O
  -0.0441564389568032    0.4118837018293773    0.4707096386178440 O
   0.0994602904592728    0.8988307680560149    0.5565715992300653 O
   0.9283036900998507    0.3483848217260914   -0.0241119326161798 O
  -0.0245192038928846    0.6445932431916748    0.7969370078305174 O
   0.9872266085593090    0.4799097886438705   -0.0837297344326485 O
   0.0550550495283326    0.7417950132230630    0.8844564467215273 O
   0.3253536708128568    0.7688643241662219   -0.0258906559000612 O
  -0.0192896161681537    0.8790768854343298    0.7422725334713887 O
   0.2349067526956498    0.9132648614359723    0.6301129134021419 O
   0.7712261336362128    0.8463222651733040    0.7119744836600869 O
