Li1 Co1 H90 C51 N3 Cl6 O45
1.0
  14.0893371349999992    0.0000000000000000    0.0000000000000000
   0.0000000000000000   13.7502095222000005    0.0000000000000000
   0.0000000000000000    0.0000000000000000   14.2113175646999998
Li Co H C N Cl O
1 1 90 51 3 6 45
direct
   1.0613155837228108    0.6101156675144064    0.3689474081857015 Li
   0.4422211638489549    0.4581645283970944    0.7061659650282996 Co
   0.1352379496240935    0.0639523535754315    1.0215012588599803 H
   0.2237630511280970    0.1585174580489783    1.0256810261285372 H
   0.0100780515321241    0.2108024795127801    1.0407317066179587 H
   0.0717204121114957    0.1656344405096457    1.1408624646227348 H
   0.1821031778227798    0.3007087458866911    1.1083813102260034 H
   0.4703447722347372    0.2237186463328756    0.0763179611927063 H
   0.5519766466784883    0.3187870158649531    0.0902174465219661 H
   0.6402248011577587    0.2516549479128489    0.2460805457677368 H
   0.4867746438306801    0.0245994986879212    0.2434087315726677 H
   0.8051615882992356    1.1390130627328923    0.1687400743444454 H
   1.0782226956555823    0.4051139913254754    0.1457154674766931 H
   0.2987609016213664    0.4592837113430090    0.2712119242183273 H
   0.4601868067727233    0.4064254622504009    0.1962005823672452 H
   0.4422885907258120    0.3737498147066599    0.3159776538632851 H
   0.3938406053124798    0.6370025305402469    0.0581971923880134 H
   0.8272172745974965    0.3408201346702239    0.0382623764421859 H
   0.9254426195331439    0.3791650049173823    0.1426742294068778 H
   0.8571420323032820    0.4383764662907894    0.2293811793001626 H
   0.8728503653411940    0.6107098402785965    0.1852184901516952 H
   0.2030466755311977    0.7106966803176732    0.0850567709078927 H
   0.2327549574744419    0.8346526096617445    0.0928590031425322 H
   0.3135749413451735    0.8737131053678541    0.2715989397061567 H
   0.4432652158053424    0.8350715123694232    0.1944027195101470 H
   0.5922566112050096    0.7184471076713758    1.0873009284362010 H
   0.7179616023646239    1.0262445992780960    0.2199021145064371 H
   0.7603688493681574    0.6709460133101971    1.0749952432522747 H
   0.7730195509797487    0.9190469600261114    0.1833530755003578 H
   0.9290382464611242    0.8657874079576401    0.2739913990854653 H
   0.0729277080855373    0.2047225721582757    0.3673205358077716 H
   0.1076447423443672    0.1344923695972974    0.5968805315750514 H
   0.1790938098451571    0.2244822710604150    0.4438925352051387 H
   0.1244290663855990    0.3651506730129206    0.5565526733458065 H
   0.0019328848077848    0.3676989978179664    0.5749846729691666 H
   0.2615291997340654    0.0087524674373649    0.6567194589741768 H
   0.4071350561589071    0.2834457362127831    0.5496276996723977 H
   0.5114713983100384    0.0449053710856624    0.5397658413779828 H
   0.5323802669940157    0.2202197905574544    0.4598182928957683 H
   0.4121601328762583    0.1085596738500584    0.4940727522577336 H
   0.6328866276859092    0.1740954024907826    0.5301418920589045 H
  -0.1412732845575421    0.0889926992839172    0.5747008147004568 H
  -0.0607897253144976    0.3015800053377313    0.4098746478559156 H
   0.2318890544242769    0.6274615850158757    0.2877592991488632 H
   0.4523144704848458    0.3252320085653858    0.6693755690907196 H
   0.5741106191295634    0.2864769627502920    0.5460212782574468 H
   0.3541219163040490    0.7686332520269121    0.3202960430429372 H
   0.1703638036836571   -0.0293414975421734    0.3657161806945882 H
   0.1722744684468082    0.9161670039108198    0.5497161503029797 H
   0.6656191824953446    0.8740607364342959    0.4337661694164056 H
   0.4015883083416614   -0.0395260696226135    0.6071568482737052 H
   0.6631967832246780    0.7421485646909091    0.3072796566904516 H
   0.6403220378117526    0.9883222680468428    0.3850564001182052 H
   0.7981286101647393    0.9566638413663487    0.4537286393779998 H
  -0.0211320753735374    0.7990604247419545    0.5882641594869237 H
   0.2403032188994461    0.2792479819962521    0.9204395526908440 H
   0.2851697725167678    0.0969067605078068    0.8844597782841354 H
   0.2200737363291151    0.1141581339953904    0.7794111089258333 H
   0.0545961146595844    0.1661777049586666    0.7830244262531127 H
   0.1816049286906357    0.2765869316361885    0.8118978926387513 H
   0.0239701174344850    0.0734227547202110    0.8644693728409651 H
  -0.0086772665831308    0.1870188419273307    0.8861774233855744 H
   0.1925550534922309    0.0219471754676009    0.8606083656014750 H
   0.1180916497176288    0.3136343671081751    0.9099732465708920 H
   0.5163597808748155    0.1409802707348014    0.7470629471240108 H
   0.5966393582007220    0.2374391645326459    0.7017237308925423 H
   0.4314825465137114    0.0368822206149815    0.7015583697295605 H
   0.3649002800088083    0.2257760695273604    0.6577242919134866 H
   0.5505728191023233    0.1160555596279145   -0.0027281930351275 H
   0.6156828374949663    0.1112549055074500    0.6726187588787294 H
   0.9850231371938848    0.5114923703340570   -0.1462110186574994 H
   0.0035142225092338    0.5684930290319907    0.6865745373698553 H
   0.6204928579629734    0.6269692288820241    0.9966175703216007 H
   0.8328413858839783    0.5392888194996438   -0.0537037620984379 H
   0.9376632086460468    0.5855102242697956    0.0094846084317197 H
   0.1720587024408654    0.7389435226201791    0.7779305987687554 H
   0.2259959453869652    0.8479862246662282   -0.0589587287586369 H
   0.0112846377495672    0.8767450591670082    0.8148800228886072 H
   0.0416295713616622    0.7703248626138232    0.8986569137067622 H
   0.1585641002336623    0.6892133713162306    0.6671716918036623 H
   0.5378066400921565    0.9302009718797039    0.8443178282219532 H
   0.5833224790457823    0.6528233803715733    0.8202419465563519 H
   0.5086921405192140    0.7593824838990060    0.9544279564965397 H
   0.4698976965533446    0.8216149901468881    0.8078996708172126 H
   0.5884949012329813    0.8501345555663724    0.9999480145105030 H
   0.5683926780207605    0.8631285393825123    0.7357290226467977 H
   0.6974794464452284    0.9300860645397504    0.8843612652508698 H
   0.7053605837149272    0.6847341668429781    0.8234386944858222 H
   0.7240136968799987    0.8653452328773126    0.7820871451080424 H
   0.6335374744867300    0.7302505641741994    0.7357888341312805 H
   0.7570294445722340    0.8174143268837760    0.9032426954052781 H
  -0.1005517094754366    0.7169089492916177    0.6461166419366997 H
   0.1476487535053934    0.1453663857174588    1.0074687809358118 C
   0.0811857261090374    0.2044258494070033    1.0722938751472260 C
   0.5325633841964277    0.2455314048596280    0.1158104288998585 C
   0.5035745115414190    0.2620235171895438    0.2225612627400863 C
   0.6167609577680817    0.1759768283671106    0.1035181133418755 C
   0.4705109972301050    0.1653551720378599    0.2575080576265522 C
   0.3348243441475432    0.3431226450391666    0.1977887531963921 C
   0.3470974552487349    0.6359829097135704    0.1886270411026867 C
   0.4336075577696083    0.3465276840623472    0.2425481498606400 C
   0.9934089114051141    0.5010066392063083    0.2052954463312346 C
   0.9017402979263722    0.4482785699482045    0.1665221237669216 C
   0.7509879964058366    0.4501074875337436    0.0766726081124627 C
   0.8409879721215145    0.5057105675279512    0.0990442143025683 C
   0.3130390751133091    0.7480932013793922    0.0000766137548502 C
   0.2618358145846156    0.7599933836810375    0.0942374819437280 C
   0.3046504618756857    0.7951557569684695    0.2702654954344538 C
   0.2016711672433126    0.7704324973373241    0.3015813813805571 C
   0.3298489503920867    0.7468575838440689    0.1766042290571375 C
   0.6360890494583229    0.7048487694280118    1.0158416850988687 C
   0.8737588537872686    1.0362037202485008    0.2165343760977985 C
   0.7801185364779051    0.9812540121164088    0.2332499268494093 C
   0.7694821240928450    0.9218040089233513    0.3254130914565643 C
   0.0485738299213464    0.2319214304299395    0.5201371194998021 C
   0.1078619278635070    0.1866588474129193    0.4344656119525917 C
   0.1346885980168577    0.0780830473431373    0.4347597437233420 C
   0.0560007229680078    0.3443124450908376    0.5239963675779840 C
   0.4233430578421601    0.2632264079508296    0.6229456728480955 C
   0.5654835986505053    0.2142518814963225    0.5260478311292888 C
   0.4511626065011468    0.0893541483216192    0.5596701182834980 C
  -0.0517190359857196    0.1872159298332004    0.5138462671848790 C
   0.0419305081594245    0.3960076573603210    0.4372303098647398 C
   0.0076364888332981    0.6457071251725511    0.5751382829346086 C
   0.1712084140358673    0.8493862033333838    0.6655061178769496 C
   0.6635814713010627    0.9156128305371197    0.3646283153415261 C
   0.5887546721480308    0.8630369044152076    0.3132734711001430 C
   0.8042481315569712    0.8131962093411772    0.3053044703734754 C
  -0.0257973054954512    0.7328119796888604    0.6314396073091646 C
   0.2141522370278635    0.0985598262275183    0.8548734997363676 C
   0.1757430489436578    0.2687761415659281    0.8850501528192060 C
   0.0499450796696405    0.1472419935006247    0.8583932296820446 C
   0.5602234505477323    0.1681005847487754    0.6865998692926950 C
   0.3969117221141717    0.0300299613931944    0.6318097348484341 C
   0.9364864322057406    0.4305103316093235   -0.0414360747987712 C
   0.8901996556348284    0.5221106812597396    0.0008970865890484 C
   0.1352386593806920    0.7546145565525788    0.7104906871886617 C
   0.0251270206900333    0.7558167200522194    0.7259797506761151 C
   0.0094825657459860    0.6754797624068455    0.8061876550319602 C
   0.5438580958265926    0.8576973494155938    0.8098467105532557 C
   0.5831886899269658    0.7827043103397052    0.9601994129168601 C
   0.6324309639496748    0.7086748929438069    0.8077469756156508 C
   0.7078773806131938    0.8572886283709490    0.8574446899046010 C
   0.4990020466069286    0.1778037096200431    0.6016077498427560 N
   0.1444775610233135    0.1637879231922909    0.9003372645884647 N
   0.6162172842136339    0.7985397054039372    0.8611354103294462 N
   0.7617670698671942    0.9930058330424180    0.6073376900562001 Cl
   0.3917979258220085    0.5486867853845538    0.5878891062959909 Cl
   0.4493623088890619    0.0860109265382871    0.9204986605108033 Cl
   0.3539828040107438    0.4339096979916710    0.8459102210382401 Cl
   0.6047256151273862    0.4561612134690181    0.6975552222563586 Cl
   0.0772110891574602    0.8841689460419820   -0.0459134921606950 Cl
   0.3190741354703200    0.2924179631305487    0.1298541654564002 O
   0.1117890111229850    0.3000207563702603    1.0891600101068284 O
   0.4946772157496535    0.0883068915524223    0.2029114309262059 O
   0.6139091557553250    0.1157624731848684    0.0361485682141144 O
   0.5866307255270317    0.2828064732265859    0.2788030570959689 O
   0.6855839258544366    0.1843716095385274    0.1573393017375164 O
   0.8721839038952063    1.1223776798588572    0.1845598601578620 O
   0.2704302572358029    0.4003670818405967    0.2355319108985557 O
   1.0759699282119564    0.4622310118866532    0.1918962664780596 O
   0.3218279910724842    0.5904228766836325    0.2622324612361634 O
   0.3868275003627415    0.5894316190611218    0.1211603902707066 O
   0.7624434679055609    0.3556744537749790    0.0641326026422688 O
   0.6730872414247187    0.4908398850361774    0.0739712400074139 O
   0.9855419692673854    0.5768921737732791    0.2496987887466794 O
   0.8213248753167833    0.5953886191975745    0.1401515920907539 O
   0.1500157917613773    0.8262643738451352    0.3421356788534083 O
   0.3711816259054972    0.6843938083929890   -0.0218924963279130 O
   0.4236610287982863    0.7833137555984463    0.1495961773228364 O
   0.5088022237676407    0.9033642899073874    0.2972777691558948 O
   0.7357275197815756    0.7209430696379617    1.0253488964735273 O
   0.9495800219347934    0.9953105251962965    0.2412083726082271 O
   0.8932430919291789    0.8009767591772559    0.2707165443939057 O
   0.0938584301751823    0.2063923648958286    0.6020102459500984 O
   0.1293221283756299    0.0269710989131650    0.5073775144051687 O
   0.1543311118802325    0.0395723614408561    0.3540782731432984 O
   0.4246355246080213    0.1555582304143517    0.3304168498819360 O
  -0.0829980092814352    0.1361679804280124    0.5858139996167023 O
  -0.1048187661455941    0.2028695094861134    0.4441985589063332 O
   0.1747650043509304    0.6706158365232419    0.2896451200713770 O
   0.0899299274025073    0.4626149333091942    0.4033411227568331 O
   0.0238721710238925    0.5600364306207255    0.6178236987828052 O
  -0.0315718851808141    0.3619543580819342    0.3827603427785922 O
   0.0218138768882543    0.6567287754067035    0.4909151984422125 O
   0.1753505535446895    0.8479120439784100    0.5706536178280945 O
   0.5946804299888733    0.7723771949767911    0.2847736505763906 O
   0.7634378369000537    0.7346824966405092    0.3216069700498937 O
   0.8316979680038014    0.9616812194571054    0.3950041054844659 O
   0.2983861501373606    0.0685057387365023    0.6364982515673556 O
   0.9247541556326028    0.3461589624081924   -0.0104157279524648 O
  -0.0183093733813191    0.5924533911972421    0.7830624241373724 O
   0.9846341905779089    0.4406965763915477   -0.1206124069634203 O
   0.0241915614932157    0.6994961237187831    0.8910587441838873 O
   0.2831959394163507    0.8039774407256631   -0.0691738266437615 O
  -0.0095893038121981    0.8492800231331735    0.7550692420704147 O
   0.2013972011962932    0.9150964747689740    0.7156196978991854 O
