Li1 Co1 H90 C51 N3 Cl6 O45
1.0
  13.2898474212999993    0.0000000000000000    0.0000000000000000
   0.0000000000000000   12.9453962604000008    0.0000000000000000
   0.0000000000000000    0.0000000000000000   12.9879927197999994
Li Co H C N Cl O
1 1 90 51 3 6 45
direct
   0.8339640674005456    0.7621071949322590    0.4455280723308802 Li
   0.1991576823040076    0.3774028645415168    0.5667923072267751 Co
   0.1340041878694341    0.0385773923991546    0.0211352412818589 H
   0.2452101297549153    0.1444150177943053    0.2230840763779406 H
   0.1333292365539192    0.2994176117386949    0.2286623055595409 H
   0.3172801821518231    0.3224196113693187    0.1141511542149086 H
  -0.0050606141115066    0.2069399481802517    0.1797748436015411 H
   0.3970373054955549    0.2670794745678313    0.0143582125370079 H
   0.5654919859015853    0.1534004515083603    1.1230899704511550 H
   0.5257200469737646    0.0538260565596985    0.9783147122133329 H
   0.5517755003603113    0.0066440323316408    1.1616355725931087 H
   0.6589613057982987    0.2457962326756679    1.1235503957169382 H
   0.7307597222700103    0.0888176466885899    1.1641571323680902 H
  -0.1346610485935090    0.2367744926183735    0.2493306263533127 H
   0.0235950948614673    0.3764558097157404    0.1334166408376831 H
   0.1469855257682799    0.4855271715804386    0.2798441944272947 H
   0.2411243040656774    0.4051324135471421    0.3275513354280283 H
   0.6553246951986510   -0.3441246817857045    1.0160564949949564 H
   0.4184536537031220    0.5808503254783843    1.0455052333990762 H
   0.5328185483341942    0.3622283580182278    0.2955263713728895 H
   0.6455322577180354    0.4906693857437572    0.2786500145155402 H
   0.5826474123540057    0.6098654280248392    0.2660029486029155 H
  -0.0079522951656026    0.4932295236749058    0.2087523775530535 H
  -0.1004341695647124    0.4042880979479792    0.1709436098247358 H
   0.2290549405195676    0.9035706127499082    0.2810722517833544 H
   0.0557399334331513    0.7044797585066900    0.1930255439763293 H
   0.3808414837395406    0.7870844141301833    0.1220191906547669 H
   0.5787293839260385   -0.0746149711658308    0.9313867524316165 H
   0.5827106184972646   -0.1303374832844139    1.1166509462074390 H
   0.6731992420214590   -0.0478850053123709    1.1930723010244044 H
   0.7147520140356001   -0.1407357744832529    0.9951779800581098 H
  -0.0819471251155620    0.9622555679817479    0.2151590642362965 H
   0.8048629056084136   -0.0800887317657099    1.0673854427686711 H
  -0.0581500121785751    0.7544141125424486    0.2311746260315301 H
   0.1225119566076052    0.2645905588674629    0.3615373415432826 H
  -0.0304845327833245    0.1770103892693970    0.3073973358341611 H
   0.2923137555645460    0.0115847849137502    0.4503130303564000 H
   0.6817380909941056    0.0556707277864148    0.7497867122341564 H
   0.5408277448754130    0.0590510800846184    0.3491782339072512 H
   0.5161212159295838    0.1622985955035632    0.5773843981655293 H
   0.4833502603125932    0.2088464174380137    0.4559226731681741 H
  -0.0660507800859413    0.3082446879981951    0.4349703977957723 H
  -0.1436363209362770    0.3769509664394946    0.3427846362365806 H
   0.7253736559194458    0.1069159725557318    0.5254203253052858 H
   0.9600986983605168    0.1116512466846140    0.5923620782579613 H
   0.8241784020067078   -0.0384469010209056    0.4780586187451768 H
   0.1267046307771142    0.5341662388854779    0.4357768349586167 H
   0.3537207811028550    0.6271495648329531    0.3898049890482200 H
   0.4550618241791989    0.5971829271034710    0.5225884789381463 H
   0.5823396586326616    0.6551270784381497    0.5137789575233729 H
   0.6411236292257252    0.4042865529972031    0.4366942207515603 H
   0.6591697355802358    0.4845351586870764    0.5747304083809917 H
  -0.0419797738614990    0.4455715773602569    0.4019631418441689 H
   0.2675060967895027    0.8257058661076255    0.6326800866906042 H
   0.2104083758040970    0.7757977762350613    0.3325267000893812 H
  -0.0166672183944707    0.9100617234358783    0.3596448243136934 H
   0.3813682016000318   -0.0564424876614339    0.3811377528995279 H
   0.6418933897561285    0.7402422790728772    0.3754625110365086 H
   0.5361897683775630   -0.0909667301805417    0.4764827401285529 H
  -0.0178530860346620    0.6635601922497329    0.5341000345130175 H
   0.1660760383947359    0.2483608509640674   -0.1417706091945172 H
   0.2956636811572693    0.1902529348471175   -0.1261223096932275 H
   0.5765693892255732    0.2938820531077700    0.9827549672430484 H
   0.3602438055779938    0.1118103766145568   -0.3159722775208943 H
   0.9822772825576233    0.0962789864619786    0.8372575034879949 H
   0.8510650914225181    0.2446313397904551    0.8533154120886097 H
   0.8107245229415928    0.0609181530975887    0.8079943210856373 H
   0.9268274360214683    0.1598792025881213    0.7164105001163937 H
   0.7810296748752787    0.1110340388495444    1.0387713214015224 H
   0.0944717550773195    0.5041773538648193   -0.1078631371546975 H
   0.2035286880919971    0.6292761895763158    0.8183123127022867 H
   0.3051762057177381    0.3813115900051618   -0.2124651360400896 H
  -0.0126310546749362    0.6345166626089970    0.9464860833467804 H
   0.6356254472162847    0.3076815534402905    0.7322073984074763 H
   0.6645843951860841    0.5279420956936256    0.9090076207004373 H
   0.7871764723072097    0.4624611337401436    0.8980228593845104 H
   0.8861174125841128    0.5044747568892270    0.7336271713006262 H
   0.9102343185078265    0.6101064403459178    0.8060933344949719 H
   0.2346276154835632    0.6976842925178194    0.9336111146270123 H
   0.1810581517093613    0.9211104389114739    0.8414921840261317 H
   0.0427254875545032    0.7418745195678738    0.8112858227766436 H
   0.0743857456945355    0.7846665661655176    0.9407153686861739 H
   0.1440306385709250    0.8332969817462104    0.6879596064354424 H
   0.2681095649668082    0.8649097645276742    0.9280236461424198 H
   0.3098218572472694    0.9254231690030807    0.8051863429178944 H
   0.1822522963445032    0.7102694615402906    0.6564127763101550 H
   0.6353959487199278    0.0411172914751358    0.9020935422945339 H
   0.3658872112261125    0.6703131720922595    0.7376439582765280 H
   0.3958657344830054    0.7353339704570669    0.8547629028907364 H
   0.3959560289733753    0.8093618318467954    0.7322720735284224 H
   0.7273383135390776    0.7297111221072899    0.7438504600616045 H
   0.7736022005882681   -0.0370100967990914    0.9355890954092803 H
   0.1037171584371108    0.3247563494182369    0.3090326924637979 C
   0.3501654355445403    0.3339518964378476    0.0363092565628772 C
   0.3575026153411811    0.0964589732273994    0.3156364842775433 C
   0.6284884202066305    0.1821697523863307    1.0774408841919560 C
   0.7097910842438605    0.1008149619407381    1.0843611221331877 C
  -0.0508218618309714    0.2306518526925138    0.2478099910691636 C
   0.4242904400514497    0.4277141865666547    0.0370945973172226 C
   0.6223950470148352    0.5609810225365482    0.3229108955001464 C
  -0.0212398818776196    0.4126756357116664    0.1949057421352621 C
   0.2502252362408768    0.7877039393914171    0.1755994485909382 C
   0.0815679199493745    0.8529734748311837    0.2539787657003549 C
   0.0559686794754218    0.9204067138329403    0.1590980534466930 C
   0.1967483243193041    0.8254478593280095    0.2669307286117255 C
   0.0220796523314258    0.7503779286397718    0.2521193559731549 C
   0.5905760210625692    0.0040353829461213    0.9606714932076228 C
   0.6135228608819062   -0.0503314348663953    1.1381585036896780 C
   0.7494980863840236   -0.0671922551618457    1.0103566149906245 C
   0.3680422397296075    0.0246125823335867    0.4082199208363619 C
   0.3656396538316817    0.2065846095017385    0.5693015479311002 C
   0.4597362947002400    0.1622893257989064    0.5223603451484281 C
   0.4526485534332461    0.0481414101788757    0.4783506962110208 C
   0.4541499250718715   -0.0246195915744144    0.5683175621624204 C
  -0.0672674983436757    0.3683842143857747    0.3749343308821154 C
   0.8112971405013553    0.0642459770694035    0.6441822489740999 C
   0.1566282248856987    0.4240279340147745    0.3341920844537429 C
   0.4572151220382951    0.4824165676877498    0.3495354869562868 C
   0.5483496521502687    0.5293122352894490    0.4044207964401203 C
   0.5176699169302449    0.6223895714916527    0.4670771296823930 C
   0.7210741332696657    0.6052645646134817    0.3578262215080426 C
   0.0334244025923172    0.6969149070312997    0.3540773743189175 C
   0.4665513466063167    0.7076793515640847    0.4062894454703127 C
   0.8786425336896581    0.6459114470584491    0.6399390990748868 C
   0.7882193736709819   -0.0495659117568158    0.6278594803543723 C
   0.2318781482517998    0.2370433140534226   -0.0876921988386777 C
   0.2756393730095713    0.3455838308314377   -0.0543429346879761 C
   0.1981095137616304    0.1722565757312011    0.0015610079507584 C
   0.7387071423307343    0.2064880500782295    0.7551516675050177 C
   0.7567208931595292    0.0935343814081583    0.7496612117018443 C
   0.9233842061220294    0.0932949140378559    0.6645595317236144 C
   0.1840077717281114    0.4120507031227161   -0.0325759067800367 C
   0.7492354799078645    0.5382656885224379    0.8983785725497139 C
   0.7560948513596311    0.5794052557699177    0.7832668665105822 C
   0.8636860038139708    0.5860215074687556    0.7401986255538985 C
   0.6944417733350641    0.5058065817058022    0.7194995070834855 C
   0.7912021016695343    0.6067129559661169    0.9789606934808778 C
   0.0895341513622589    0.7279560580255902    0.8812989510265339 C
   0.1997175081443010    0.7080694516350611    0.8558392816893392 C
   0.2108350172710948    0.7873617327945011    0.6809323465678834 C
   0.2546586957180388    0.8822348425313560    0.8468294213880161 C
   0.3669331224062305    0.7455993958891575    0.7775970142409750 C
   0.9863954637725770    0.0035518133531881    0.7107622062204353 C
  -0.0082239310907987    0.3351677726986731    0.2849173417119827 N
   0.6643353328834805   -0.0034815750552087    1.0500578999485313 N
   0.2585413588039445    0.7804951990699279    0.7910987156803873 N
   1.4954931069220552    1.7158586098478883    1.0559695139797702 Cl
   0.8270813698721000    0.9735360260737653    0.3184621711093546 Cl
   0.0723330509467931    1.2743920154662183    0.6058884178386865 Cl
   0.6739840516335907    1.3084087416553625    0.3114079632747347 Cl
   0.2953341062674191    0.4979002961088840    0.6346057114225825 Cl
   0.9418825373824762    0.1958742382461184   -0.0709567413519609 Cl
   0.2609913493093144    0.0964775126367131    0.2824858651411761 O
   0.1981125235779760    0.1937375713227109    0.0950242571370185 O
   0.4293322586574789    0.1319704392924633    0.2699019344656655 O
   0.1557794566762217    0.4335950416960478    0.0534204457046142 O
   0.5150424225058895    0.4191273501528449    0.0195329921546111 O
   0.3761852978527995    0.5141611424951726    0.0462984829813840 O
   0.4662810650984761    0.3934865745965666    0.3028646877745226 O
   0.7291396886219570    0.6553194248097796    1.0381923250806719 O
   0.2172572128986539    0.7380747131339469    0.1069637464288163 O
   0.1195495448693862    0.9408479575521050    0.0939101511845305 O
  -0.0344153529307607    0.9600122994547865    0.1524603841886425 O
   0.3434445156446742    0.8287239274488234    0.1691380960316574 O
   0.6502719660083688    0.2307453222144705    0.7192631349152661 O
   0.3188001394063830    0.2745307721611750    0.5192839652287591 O
   0.3279996430669029    0.1764549794653731    0.6585701535588567 O
   0.5466278114643234    0.0214253488824011    0.4205761026931124 O
   0.7840507780322382    0.1292142471078220    0.5609837114239002 O
   0.1460028207314209    0.4562224680109955    0.4349476845092495 O
   0.0886545325352388    0.6208307161585231    0.3577053406272267 O
   0.3732213812064076    0.5283479542625187    0.3407696982423435 O
   0.6004000616148143    0.4575495034801645    0.4735985377111237 O
   0.8025536240172034    0.5628382851120900    0.3616112559672210 O
   0.9716119983367654    0.6336970662222525    0.6098574684157947 O
   0.7118279774557882    0.5135431776342227    0.6204541790060452 O
   0.0518038461071102    0.9014648448420236    0.3478485442182763 O
   0.5260448814028703    0.7723224094641248    0.3661870207741568 O
   0.3679684992291387    0.7088334297938644    0.3997688073834980 O
   0.5051892168332549   -0.1101527013940892    0.5450111893817725 O
   0.7096782161308982    0.7056956347675154    0.3856611616561741 O
   0.8163950169368225    0.7004018609330572    0.5969524719613017 O
   0.7495552728945911   -0.1056337203738672    0.6926223746788892 O
   0.8134085266678381   -0.0929798010418576    0.5351572417579112 O
  -0.0209027824469054    0.7269827390366191    0.4321345477306694 O
   0.1546259445617462    0.0872155327337283   -0.0376991002892662 O
   0.6049298352150375    0.2224087678263961    0.9720104278049211 O
   0.4211880718531572   -0.0004133028137861    0.6542230615009803 O
   1.0111790440168551    0.0231595561286230    0.8069333411253550 O
   0.7938703038599648    0.2722612394710191    0.8008862173168955 O
   0.1396957505790834    0.4402813569125837   -0.1234567707799494 O
   0.0588332721824068    0.6332528928741111    0.9287504713111473 O
   0.3351321553520385    0.3733388715248693   -0.1415812034831750 O
   0.6394938136745484    0.4382400906996031    0.7561356532736975 O
   0.8813874861969029    0.6243786956159384    0.9959171242974937 O
   0.7055367088392654    0.6763129884314159    0.7940067862972132 O
   1.0072068388946660   -0.0759050050639113    0.6623413290635467 O
