Li1 Co1 H90 C51 N3 Cl6 O45
1.0
  14.6266893323999998    0.0000000000000000    0.0000000000000000
   0.0000000000000000   14.2746277563999993    0.0000000000000000
   0.0000000000000000    0.0000000000000000   14.7533219647999996
Li Co H C N Cl O
1 1 90 51 3 6 45
direct
   0.9729514890137423    0.4628065607691968    0.4886033125013361 Li
   0.4284755779571657    0.8766888770594520    0.7427744753721001 Co
   1.0512843211374148    0.3875146499508477    0.1033794955494741 H
   0.3559383157039918    0.1869391919522097    0.0343326732520655 H
   0.5692569231545840    0.1780191695058862    0.0805534499440520 H
   0.5970837943453469    0.1336411296150750    0.1953465795212902 H
   0.3951214819677659    0.0084133457102694    0.2401764830222110 H
   0.3514554147200518    0.3038536242218531    0.1480182556586403 H
   0.4384887803074455    0.2736721016384122    0.3120463983219531 H
   0.8577969272586777    0.3486561935717448    0.0497664854160833 H
   1.0244190482742273    0.5216734548374679    0.1821075272952211 H
   0.5919917329562383    0.3344407615855047    0.0409582996861136 H
   0.4607642243669755    0.3719149436887939    0.1518235003441386 H
   0.4332716051650868    0.6263117701399677    0.2792815741587360 H
   0.7840372421048961    0.3580322699419320    0.2080732047822299 H
   0.8295595052000095    0.4646948061553446    0.0496444789958143 H
   0.9108308013207803    0.5650702432211271    0.1549434756357931 H
   0.6848931386755760    0.6654987814964778    0.2027577917391808 H
   0.8431565670832789    0.6309984072377376    0.2610924503369787 H
   0.2078945615235169    0.8368881894551622    0.1012694622922678 H
   0.1944315012557503    0.7294212890092145    0.2362492319164438 H
   0.2831597138065704    0.7091251380381250    0.1759068898917764 H
   0.9815487865389894    0.8048733441086623    0.0456582581202505 H
   0.4181513004280400    0.8072579947335964    0.2915520309705592 H
   0.6092307673179962    0.9340115627339092    0.2110142373241567 H
   0.7165305098867734    0.7762028942038297    0.3556643713815361 H
   0.7570871927094517    0.9220140519810830    0.1254030100349051 H
   0.7415765057149960    0.8275226212399028    0.0585550145561208 H
   0.8168874646727367    0.8128812587072585    0.3129736471159969 H
   0.3183071069258885    0.1391747240000204    0.7556820768231054 H
   0.0702256773188372    0.1857020318453843    0.3260649360108514 H
   0.1864741298127005    0.2284597142463388    0.5774247998332412 H
   0.1951233871480406    0.1726130740673974    0.3339906086342093 H
   0.5931478387308062    0.2455529795954547    0.6205742004576470 H
   0.5529972628449069    0.1555625418816543    0.4766573927674284 H
   0.6259433667617069    0.1557944218337263    0.3718220883058160 H
   0.6524442372725321    0.0870815967612660    0.4694495245833192 H
   0.5613448798090233    0.3116107441895072    0.4625205766322138 H
   0.6488925107799947    0.3200915257598513    0.3763858062373194 H
  -0.0025775371202072    0.1239988466533852    0.4690961126526069 H
   0.6834327945392794    0.1614618200580848    0.6209476756663590 H
   0.7898499040181884    0.1449808298694250    0.4980128543205424 H
   0.7853519620365900    0.2158471261584092    0.3897916005710894 H
   0.8126643627392616    0.2710156400726807    0.4923448427229162 H
   0.1781352639744947    0.6335329742063074    0.3990620550711891 H
   0.3176070168530573    0.3393760916832310    0.5447823887783606 H
   0.1547328389813173    0.3436907400965590    0.3759126924520543 H
   0.1628426714460871    0.3648135325886304    0.4910086012955932 H
   0.6589870712539726    0.3868435291227963    0.4764866515603964 H
   0.7200350623412001    0.3727310770548479    0.6189162687688816 H
   0.1628802739402333   -0.0561375494671460    0.4232572838374067 H
   0.3016136505701066    0.8345028382865662    0.4272130031079033 H
   0.2984858067388537    0.7193874021405512    0.4715586089017011 H
   0.0071163858706857    0.8256360571585434    0.4474720336308675 H
  -0.0163790198352897    0.7103188644379157    0.5673510008370153 H
   0.0033663916817409    0.8234279435363953    0.6139004492689374 H
  -0.2200813021692726    0.7629100782202447    0.6163066870020186 H
   0.7800007852787285    0.9023350799760824    0.4487808913949745 H
   0.3050915394377752    0.1303338629874858    0.8761566387041994 H
   0.2187363861084368    0.2719487642302636    0.9346112702819283 H
   0.1308094485237868    0.2907898860156928    0.8344473883083789 H
   0.1717667688295503    0.1944181960861097    0.7220876090020597 H
   0.0694189328989730    0.1345630450740683    0.7467247721350293 H
   0.0616830743305300    0.2150877368289648    0.8934110577840076 H
   0.1422659029675693    0.0567585643581315    0.9258681546427686 H
   0.3449775305012275    0.0317862844441998    0.8184543800514620 H
   0.8010677535445704    0.2854398340701519    0.6499309786146856 H
   0.7046775200501763    0.3586900804404082    0.7697216267288277 H
   0.2579598895932041    0.4310589027753262    0.8007810722620637 H
   0.2102457429302226    0.5217128253912637    0.8625739350610394 H
   0.1646681016164576    0.4324032460624144    0.9694807051947841 H
   0.3181867789446207    0.5199812916222716    0.7084439021487653 H
   0.3534572347720537    0.5708252094032168    0.9306718185341342 H
   0.3961258104023256    0.3694469283680998    0.7444988327785674 H
   0.3832616553140513    0.4510257982253467    0.9510814592047858 H
   0.4590646599997379    0.3641291014310040    0.8547804360596395 H
   0.4739276953086535    0.6236798276024010    0.8659941817092447 H
   0.5182092606910041    0.4155323332715694    0.7649091512626650 H
   0.5308972515126119    0.5270394091241327    0.9221354359959858 H
   0.5574827618193516    0.5579134891716776    0.8047862719141138 H
   0.4335033732653699    0.5630162492045858    0.6830740226807364 H
  -0.0148475728009713    0.6199228119439048    0.7619321946081035 H
   0.8696116309194168    0.4633176774248818   -0.1088459278141816 H
  -0.1389617833885101    0.6007188085416377    0.7591985729806339 H
  -0.1483712947873153    0.4544265874317928    0.7185406112394640 H
   0.1177969345040630   -0.0375829500394130    0.8584826531013552 H
   0.1210553615422600   -0.0221289568590239    0.7066436296363529 H
   0.2402429617149336   -0.0539532543295008    0.7168386216767126 H
   0.2013674522214466    0.0532684558347997    0.6597633404614683 H
   0.2354312098276422   -0.0222620601547752    0.9010845838054764 H
   0.3604430945027077    0.6244111951853714    0.7617864647172267 H
  -0.1294039130582553    0.7864294305795015    0.8994395305721840 H
   0.4153803384503202    0.1328544190828186    0.1817123620562389 C
   0.4759143376266545    0.2238788592415081    0.1884328823727183 C
   0.5703362514729226    0.1937351660158070    0.1537756030684412 C
   0.6410178648240666    0.2735782287877244    0.1554640363622738 C
   0.4259774049824339    0.3057885258158801    0.1334398440633969 C
   0.4324799017428812    0.2924431690576564    0.0309944420308189 C
   0.9688411945627057    0.3349969932530129    0.2010442793478485 C
   0.3117629055810245    0.6099708886836777    0.3208789853359766 C
   0.9581757598594171    0.4434619582539968   -0.0042552462252084 C
   0.8867029900314368    0.4179274920514311    0.0681609867119600 C
   0.9500522537604122    0.5150306196183507    0.1978470333233570 C
   0.9060874176046638    0.4181637854285729    0.1693842911015111 C
   0.9391372752323353    0.5373196071443023    0.2990520367498677 C
   0.2660191296113045    0.7491429941775879    0.2334898533780286 C
   0.2923702738272565    0.8497172455346031    0.2072876189983873 C
   0.3152469475840988    0.7185971888899854    0.3216699936273867 C
   0.6082763476483941    0.8023233651795320    0.1790444883330254 C
   0.7167615943053446    0.9222298194289326    0.3317280673516669 C
   0.7159698908831389    0.7916316678123924    0.2019952516125001 C
   0.7423675254554900    0.8211539788100334    0.3041166588179196 C
   0.8738989989337965    0.8294589239212534    0.1315141760634858 C
   0.7699978381541249    0.8481389206644574    0.1275191436131248 C
   0.1287221682578163    0.1650226834912634    0.3691169348430758 C
   0.1277404013197444    0.2289374850237198    0.4563894151069778 C
   0.1169635264974407    0.0600034825998162    0.4023304715075041 C
   0.0270990349416933    0.2550824750275867    0.4801652806941934 C
   0.2821157318327293    0.3096835485757606    0.4190738192490748 C
   0.1818291962630760    0.3169790102702563    0.4389832335966239 C
   0.6242225398932341    0.1528367264933998    0.4454904460216665 C
   0.6660064313885024    0.2301606342573082    0.5924788331234996 C
   0.6361384284473122    0.3180753611010499    0.4517749289483737 C
   0.7259748890528778    0.2991711903860544    0.6418880442651804 C
   0.7757578565756125    0.2116333560323874    0.4637117659821060 C
  -0.0761676692094750    0.5450627162387194    0.6459006998651359 C
   0.2750068093939603    0.7641360296284805    0.4139149811120376 C
   0.1740475310199459    0.7680359561939940    0.4307091648620537 C
  -0.0490795161082572    0.7693081434839117    0.5993261045543695 C
  -0.1035053661354813    0.8230860782294129    0.5243900323505805 C
   0.1374924372561359    0.1532801706313502    0.7733784302696655 C
   0.1266225817210343    0.2180258169467596    0.8561550417280026 C
   0.2987257790196777    0.0901331649522803    0.8114491780876885 C
   0.1718864131291064    0.0098424547804414    0.8774939646330358 C
   0.2561672761449975    0.4629667050502955    0.8706046687685177 C
   0.3514431084492403    0.4986090355322157    0.8974908169151109 C
   0.3789708688911129    0.5549543927440274    0.7377247651998590 C
   0.4471240221676946    0.4079884587945821    0.7879121061774771 C
   0.5025636354371005    0.5543533262821609    0.8553016745995662 C
  -0.0769539031779867    0.6228251643349453    0.7185778909789905 C
   0.1899855190842448    0.0037981640660081    0.7105180112933368 C
  -0.1043182636907511    0.7266821632913849    0.6856924160223965 C
  -0.1024969356106511    0.7933529035895555    0.7710867430089476 C
   0.6753667177040616    0.2278838673562989    0.4897442080935396 N
   0.1961188277203475    0.0670922839140663    0.7968084076554187 N
   0.4193696212383772    0.5032624668604140    0.8193436712925333 N
   0.1123473075797096    0.7648870124339826    0.0211925817891034 Cl
   0.2456413125109058    0.3442911060147636    0.6603754060031507 Cl
   0.4685383007431052    1.0005309856011204    0.6733623116273307 Cl
   0.7776249913303998    0.4821751919319983    0.8271995291309595 Cl
   0.3914056718644086    0.8411629068797648    0.8755893088499488 Cl
   0.3566507120476345    0.7835095645969149    0.6417348584263983 Cl
   0.3076813257618814    0.2962282064626267    0.3413353951343980 O
   0.3518451132957489    0.1265467239515301    0.1285182406324381 O
   0.4470737715618811    0.0604952642504342    0.2296656299160440 O
   0.4903756415617463    0.2470353299839272    0.2806168666472347 O
   1.0454258525494353    0.3299369663834774    0.1475058286935109 O
   0.6942506902642882    0.2809199263639021    0.2164252220630830 O
   0.9454039018022290    0.2715284380331542    0.2509388049168212 O
   1.0388932737936711    0.4511555389115212    0.0240204194855585 O
   0.2485695212823279    0.5628158937172970    0.3503977609065946 O
   0.6484057294012293    0.3325584007661164    0.0804029753590537 O
   0.3927634637439426    0.5715663845974530    0.2901835256232095 O
   0.5694698216396227    0.7271452226518671    0.1737053518193685 O
   0.8196379161991041    0.4137471378580796    0.2225180871286234 O
   0.8672378880162234    0.6013528005556111    0.3176824171249311 O
   0.2575489968844428    0.8816340147684442    0.1257880080721981 O
   0.3476664506735374    0.9019953163000857    0.2461541198019419 O
   0.5711752656695813    0.8868803862520315    0.1698506267523167 O
   0.6720918823047826    0.9772834441826608    0.2856536983640031 O
   0.4105391882494236    0.7457663737274757    0.3235441478054065 O
   0.7406022592757533    0.6979227443414975    0.1870365866740852 O
   0.9072790748282429    0.8149618733829500    0.0472883994577324 O
   0.9211038027215247    0.8308151764505931    0.2001407540244126 O
   0.1691503189186858    0.1815225883587931    0.5344574599004145 O
   0.0477899782660732    0.0347600922887489    0.4445074131810220 O
   0.1864385783636896    0.0000586619999940    0.3879377807964478 O
  -0.0318350122928054    0.1852824061919368    0.4802813901374826 O
   0.0047023057464990    0.3352197661374808    0.4970417509965465 O
   0.3468706451610613    0.3218575963313727    0.4869731711638542 O
   0.9754858971191969    0.4949521976173639    0.3636103784082721 O
  -0.0368969916865970    0.5572703900901003    0.5744717022119767 O
   0.1366925296533893    0.6854110345408742    0.4236910844428073 O
   0.1256127838327807    0.8395880847279282    0.4474453277810975 O
   0.7413194413913783    0.9475572749794218    0.4141908511845345 O
  -0.2016834273060998    0.7114810663729233    0.6609501918053065 O
  -0.0615867893429984    0.8405142034488927    0.4445568935625755 O
  -0.1819592099221334    0.8532066535142731    0.5309570279215547 O
   0.1954173702840928    0.2072633646697732    0.9201968895406019 O
   0.6824797422331009    0.3070726223480493    0.7337792131310514 O
   0.3766388305723362    0.2331099230736925   -0.0104748624051393 O
   0.4882172583977538    0.3366909078273637   -0.0126391207380207 O
   0.2182331963685893    0.4067229967238181    0.9418164272122537 O
   0.9385746051835656    0.4571807047839860   -0.0894563963796672 O
  -0.1056534940737975    0.4580071361418692    0.6651770364541785 O
  -0.0614596245446130    0.8688694087058932    0.7748214950960685 O
  -0.1426639198576324    0.7494575382817582    0.8427621258497054 O
