Li1 Co1 H90 C51 N3 Cl6 O45
1.0
  13.4748249313000006    0.0000000000000000    0.0000000000000000
   0.0000000000000000   13.1255794551000005    0.0000000000000000
   0.0000000000000000    0.0000000000000000   13.1687688022000007
Li Co H C N Cl O
1 1 90 51 3 6 45
direct
   0.7755688121353396    0.7327471724810587    0.6280406714801090 Li
   0.2011687706163378    0.3948474237368833    0.6660958615686676 Co
   0.3050209547548809    0.2818573645114409    0.1734476802963095 H
   0.0603765889240025    0.1886690977241228    0.2738632939244480 H
   0.1102666619622384    0.3085464719293908    0.1756005011428008 H
   0.5917081673676913    0.0254199240529803    1.0323821919349634 H
   0.4234284300382033    0.1978100274949133    0.1073625349747049 H
   0.5031540595344788    0.0953787402059090    0.3181043318491680 H
   0.8398330978989733    0.1659257208681769    1.0364903967954635 H
   0.6920456490710295    0.0523566395869084    1.1708765361970719 H
  -0.0777372648357622    0.1883041614547271    0.2471417373928144 H
   0.0693021223252291    0.4365537729211320    0.1895661195512031 H
   0.0510978041800483    0.6236624646479376    0.0763345773776561 H
   0.3448025476685548    0.6141748835147776    0.0018803884760938 H
   0.3485406296293080    0.4979993649240532    0.0595266279539391 H
   0.5963716787914303    0.6396724244915276    0.3046930553165817 H
   0.6286823026562848    0.5315424173665060    1.0633888871038986 H
   0.3895207538843788    0.6026272028566786    0.3097330101519124 H
  -0.0184043975015915    0.3389154168863403    0.1294124323008308 H
  -0.1428943265769196    0.3615483224290036    0.2277314186424923 H
   0.8800970718478842   -0.4541619505250699    1.0424378016877809 H
  -0.0881151362153876    0.4699878016054416    0.2885708191995248 H
   0.2033825285057416    0.8115505505367301    0.2195544962879886 H
   0.5048415174506987   -0.0367510454490883    1.1776091321847231 H
   0.4995128471068479   -0.1717469902804246    1.1392479150058168 H
   0.5523065422848503   -0.1374605039931362    1.2486013421659490 H
   0.6463233481772426   -0.2582086968955215    1.0756762924362004 H
  -0.0432039775854687    0.9941344896457058    0.0726523804518585 H
   0.6996383265656624   -0.0412041821810662    1.2603640211473071 H
   0.7872045848299294   -0.0451034386043789    1.1706487244672845 H
   0.7083790709241597   -0.2197311575436291    1.1879069817435479 H
  -0.1056819692693858    0.8451216398366229    0.2979346406662211 H
   0.7624413688548624   -0.1810479129876933    1.0720837014574525 H
  -0.0680109789160419    0.7595391325010302    0.2041650545684147 H
   0.3081497523618961    0.0383252590577661    0.3459763376162281 H
   0.2535345715523448    0.1435670889309049    0.4096512348366817 H
   0.0238417914398095    0.1801071900091583    0.4533717229588374 H
   0.3395201042703731    0.1057653292678516   -0.3905951783465657 H
   0.4474346788502828    0.2811716804979627    0.4670376170680828 H
   0.4807130332842901    0.1918803845205790    0.5602773890196470 H
   0.6000711702693644    0.0813641208415407    0.6320691422351835 H
   0.9081100517511106    0.0005577835953867    0.6300970520276570 H
   0.8832221588315515    0.0389469458966530    0.4245310617167211 H
  -0.1150097342415333    0.1935145980860354    0.4231943384235717 H
   0.7509844482056450    0.1747375223124979    0.5284918055465685 H
   0.0717592971062603    0.4473931419933079    0.3779056702908025 H
   0.1413334848808508    0.3348554056554233    0.3773126004209226 H
   0.0250195432904578    0.3474064705865788    0.4487924793783802 H
   0.5969178825482525    0.3545985340168389    0.3527408272460498 H
   0.3900068455429639    0.5457751604342730    0.5040339382365893 H
   0.4867316643547107    0.6182585127506033    0.5410391440625576 H
   0.6210413870581282    0.4184745710990900    0.4838844995164205 H
   0.8450316812094907    0.4363092122896581    0.6660214430702703 H
  -0.1326337108950904    0.3582654197466952    0.3569097819011599 H
   0.6890890243873605    0.5555577380674539    0.3704858422516257 H
  -0.0562223285395153    0.5652341108656583    0.4683131349431627 H
   0.2199422983830985    0.7773585362690766    0.6628039820732391 H
   0.0325031284586601   -0.0315954635388583    0.3572325151850254 H
   0.1555793100384085    0.7603330022144128    0.3359928682445101 H
   0.6549089884797945    0.8340996502555239    0.4684857402970983 H
   0.4300838782876039   -0.1301404462136934    0.4590813683424999 H
  -0.0593377679024777    0.7237502363530987    0.5148144449135903 H
   0.3941864916821266    0.3293958371658846   -0.1463931539733566 H
   0.5425171757682143    0.0159331047909463    0.8724143140230913 H
   0.8558956442477010    0.0782229261886844    0.7275981942593817 H
   0.7575611570276014    0.2148721313636292    0.6992067777484060 H
   0.1372005925958727    0.4950681419535465   -0.0687928850834298 H
   0.2968991423708264    0.6233973334960594    0.6897822064870998 H
   0.5006480677926817    0.3737504503844112   -0.0676917950561239 H
   0.4306754258617386    0.5643066089567601   -0.2145984671268496 H
   0.5913363629082238    0.5211128663917634    0.8204861489629106 H
   0.9541833776136162    0.4599149510732216    0.7203545406245738 H
   0.7910473063690957    0.4770536229901093    0.9399392294769525 H
   0.8597212969194666    0.3880926743329969    0.8628872274833808 H
   0.2156372331747743    0.9248956417069292    0.9430951813069410 H
   0.1673820607836575    0.6852018429864802    0.8164159127240418 H
   0.1239900313524009    0.9738405284601293    0.7393851731585835 H
   0.2461207461030844    0.9992032182475619    0.8358254721019313 H
   0.0644909280922407    0.9117693640755781    0.8448650415398967 H
   0.2457793687550704    0.7377229528055322    0.9272865660045584 H
   0.1132121547758635    0.7738013599813769    0.9176394986204930 H
   0.0636872070750686    0.8503876930601355    0.7220289568385114 H
   0.2922341466977482    0.8929778127506449    0.6777932345208197 H
   0.3397857849020884    0.9062541789938351    0.8793489030778209 H
   0.3687835642418681    0.7719408706914727    0.8303010376545858 H
   0.4237683231368781    0.7897907493045625    0.7046636280492478 H
   0.6451196219631585   -0.1396409791559969    0.8906734241655543 H
   0.5476716768733578   -0.1856831369188060    0.9666000362139761 H
   0.6472049922847223   -0.0236544807916547    0.7087574048335280 H
   0.8749237207761331   -0.0015312670323435    0.8724150733955239 H
   0.7045192805175929   -0.0270036662619326    0.9885231183438536 H
   0.8524603491521430    0.6931489207026925    0.7907088777623950 H
   0.3384648029902081    0.1737196624880458    0.2701089566175511 C
   0.3862457577174533    0.3114796757648253    0.0178044283882355 C
  -0.0171598544306796    0.2154046792807640    0.2975025577520576 C
   0.0460684252941987    0.3513064888810175    0.1842391219363403 C
   0.3920654993764223    0.5441986205130614    0.0079318273916807 C
   0.4902393166055545    0.5764677482455842    0.0429707901778535 C
   0.4983044158223585    0.4638575579636087    0.3309931601481085 C
  -0.0934606602104849    0.3859076279433798    0.2907593305503495 C
   0.1182727028978361    0.6729021955269334    0.1948991921455270 C
   0.0531638792602025    0.8485317749969878    0.2544803125817003 C
   0.1399501644967245    0.7710365296648075    0.2550862917829349 C
   0.0501315578602348    0.9154431066455692    0.1495790859940472 C
   0.6290080953862374   -0.0461662488252701    1.0186960225817669 C
   0.5427378094324852   -0.1106799720400559    1.1723550343233924 C
   0.7089030109408943   -0.0268893855930196    1.1807878651876906 C
   0.6927848052419467   -0.1974235709718050    1.1086459653434706 C
  -0.0467246170180304    0.7963123661438662    0.2736377603119584 C
   0.3245358650665677    0.1183735345334636    0.3667315049447288 C
   0.3360796143021278    0.2494572711323436    0.5705660501720369 C
   0.4220621785214777    0.2141712099276293    0.5094294312448749 C
   0.4188688160682077    0.1222514585652459    0.4395213772857074 C
   0.4125303292651915    0.0198514079924112    0.4929045758640405 C
  -0.0379957466542465    0.1654594557390117    0.4008546645771561 C
   0.7510007749483760    0.0491095448475260    0.6179470931056604 C
   0.0643365661609648    0.3667823770652205    0.3750732111171121 C
   0.5356573463848071    0.5291577607418539    0.4204011388046479 C
   0.4522407524230511    0.5939913936424837    0.4705477402006477 C
   0.6183356005127825    0.6015979149653352    0.3776368524496533 C
   0.9078035542625676    0.5644349842415057    0.6110269321271508 C
   0.4129889623110015    0.6860056170245019    0.4163725161750869 C
   0.6546106543626170    0.6886744515791842    0.4406821539862177 C
  -0.0462147773700182    0.7266285854674549    0.3621661578797886 C
   0.7310428162089407   -0.0254715434273719    0.5228737404782805 C
   0.6557987959586397    0.1379589555717793    0.7618382972464331 C
   0.6627198506272884    0.0574025120549819    0.6826152494679871 C
   0.8437648743984909    0.0129831397907378    0.6783430201620401 C
   0.2803467937401654    0.4755917446733738   -0.1213915760016182 C
   0.4209786765038681    0.3659961260630988   -0.0762711847999187 C
   0.3927579016931549    0.4827239250331236   -0.0934573016950828 C
   0.9577374126563097    0.4935888929751362    0.9334071078115140 C
   0.7218471494279813    0.5614951521272742    0.7757143097077860 C
   0.8574051258256586    0.4652158218071965    0.8850707743576487 C
   0.8365900130928403    0.5403964264712121    0.7944571400898308 C
   0.8860080948412135    0.4989622938403144    0.6989098631272498 C
   0.1788894459104073    0.7484188615446661    0.8738624372521068 C
   0.2684980312654016    0.8189704134336904    0.7144443449814550 C
   0.1068758943468560    0.8983947164571228    0.7761593019533040 C
   0.2568155047166271    0.9257999827335943    0.8695051582337058 C
   0.3595945765829350    0.7591307695774477    0.7457228954812699 C
   0.5807759288598781   -0.1110380514693167    0.9368797179459073 C
   0.8386345665575763   -0.0828381536083365    0.7457327673228941 C
   0.0021190602360758    0.3330817696738930    0.2897440496079302 N
   0.6409132593358905   -0.0961769932838658    1.1235372587472428 N
   0.2050968364925075    0.8484677778223966    0.8071659971222394 N
   0.7932536430118033    0.2390310647718445    0.1039764932976310 Cl
   1.7487547397342413    1.5688344505734522    1.1067293093235258 Cl
   0.7042825427479918    1.3095392315210397    0.4389298261606927 Cl
   0.1998247828397001    0.5621611798656994    0.6159271624348784 Cl
   0.0675559029776706    1.3053870338838660    0.6818528395456318 Cl
   0.9277578023786549    1.0952081225880232   -0.0439416628533510 Cl
   0.2797634837498633    0.2547865596593215    0.2432408412064209 O
   0.4069161561397004    0.1515103572914868    0.2117276446249249 O
   0.4400779227881144    0.2281644969004672    0.0368904951098269 O
   0.3169780674314058    0.3414143541799053    0.0747254671929242 O
   0.1346254199923759    0.5879747449855502    0.2277693872641235 O
   0.5574010797166905    0.5045916072167452    0.0435699350271945 O
   0.4295559307976535    0.5021936940344993    0.2791006855922611 O
   0.5315387028934853    0.3714145535118288    0.3163395503157480 O
   0.9522167472391877    0.5467947725623151    1.0179229814453550 O
   0.1188671447581822    0.9291468825904940    0.0911347460895132 O
   0.0859591105343031    0.6868977681131496    0.1031928209471622 O
   0.0884066376946295    0.9213537028417512    0.3326584638928546 O
   0.5117613772986296    0.6677481373589556    0.0551845363841906 O
   0.3881307543782263    0.6790322106074286    0.3205722922551986 O
  -0.0427208544255619    0.9492701846438271    0.1301885109269733 O
   0.2988338613844622    0.1796713997250366    0.6300909770481959 O
   0.5142715397810698    0.1172650120450072    0.3874935066251231 O
   0.3694633504392177    0.0107523811335554    0.5773259835672627 O
  -0.0491009002100756    0.0589513960543165    0.3885649811275567 O
   0.7938057837659825    0.1448257000312005    0.5843349911203896 O
   0.3106625864931470    0.3416330111930923    0.5694087665847167 O
   0.5688131760358642    0.4669362791841258    0.5044342034458259 O
  -0.0704985808085264    0.6353023317122931    0.3672023158529562 O
   0.8966108299957263    0.6570423242951826    0.6011315499576172 O
   0.9357742330596270    0.5175494732356748    0.5300325722123641 O
   0.6382304786553021    0.7823960281547632    0.4071817556857859 O
   0.4055083456414775    0.7672591726216688    0.4649881468096718 O
   0.4577783382826398   -0.0520585601144261    0.4454580750267247 O
   0.7739205532441675   -0.0076772814064865    0.4411288927883308 O
  -0.0288067589953134    0.7741182983698290    0.4542609480774410 O
   0.6737812188276114   -0.0982203316440309    0.5477866237498883 O
   0.7034624949880887    0.6711377019989161    0.5181849953930387 O
   0.5961015454116974    0.1309573599230408    0.8327515324946662 O
   0.7124266188721343    0.2219438191559678    0.7593126245355231 O
   0.2497987159656004    0.4183686710125640   -0.1926776631142700 O
   0.2129670686135691    0.5081606458378781   -0.0553937585097654 O
   1.0365065250871901    0.4738229846670505    0.8932271936564715 O
   0.3504812856403006    0.6521206368206612    0.7388505749660157 O
   0.4626131320801213    0.5231408835235828   -0.1586646124845732 O
   0.6592875240304087    0.4959297420100381    0.8189104511652142 O
   0.6926645810454721    0.6397158511457145    0.7350203004158563 O
   0.8859249768782188    0.6337686851354802    0.8186135365440579 O
   0.5118135486629021   -0.0509736556308784    0.8866783657975154 O
   0.8289253495052566   -0.1710963523387464    0.7102936152647280 O
   0.8423637430222943   -0.0646317193082381    0.8443873962797758 O
