Li1 Co1 H90 C51 N3 Cl6 O45
1.0
  14.2959749469999995    0.0000000000000000    0.0000000000000000
   0.0000000000000000   13.9518736021999992    0.0000000000000000
   0.0000000000000000    0.0000000000000000   14.4197443729000003
Li Co H C N Cl O
1 1 90 51 3 6 45
direct
   0.5271211652047113    0.5790706346297493    0.3930924182714921 Li
   0.6938940511980740    0.6115917148041320    0.5053401085316545 Co
   0.2603993071896925    0.1141431141441021    1.0195945091808292 H
   0.3822489891077172    0.0881917609191914    0.9180940968191053 H
   0.2696921326522803   -0.0323583564309823    0.9347414099608793 H
   0.3815606834806802    0.1099974343845837    0.1431892364389225 H
   0.6662666944445647    1.0673770939805367    0.0672135484053023 H
   0.5244190759702791    0.2925564277228240    0.1814458092140095 H
   0.5214806404906608    0.2489379132959129    0.3553788509615168 H
   0.8614656934876903    1.0932660899891478    0.1423508027130985 H
   0.9064426889275802    0.9862460550768077    0.1637464663269295 H
   1.1765494857228782    0.3985507939394741    0.1037384677367313 H
   0.3042025456761596    0.6040199718961873    0.2855239371744827 H
   0.2120885062432392    0.6437422354287791    0.2154720712136405 H
   0.4238124363159602    0.3545093972411045    0.1411767180995170 H
   0.5500284521308626    0.4403568636208986    0.0878741088352016 H
   0.3488227973459389    0.4233057487109637    0.3342793091019678 H
   0.9806055217480510    0.5061448736165788   -0.0475353651128662 H
   0.7292109849414387    0.4856887679968291    0.0299008203786408 H
   0.9401983440535195    0.5292374710114689    0.1435921562029454 H
   0.8872281896703859    0.4030637362005100    0.2114463410412598 H
   0.3225769483296227    0.8919999317609644    0.1550313326359203 H
   0.0968050081880155    0.7445545019460312    0.3241633184000700 H
   0.6486659361239296    0.9496266006173408    0.0474094525340405 H
   0.4308619730123818    0.7401665608174399    0.2463068758052963 H
   0.7490564310234168    0.8946590728238644    0.1992255973551801 H
  -0.0368486955351406    0.2404946028589961    0.6040850628927033 H
   0.1769814217764102    0.2923227673491028    0.3410852549954637 H
   0.0806361214309422    0.2248214390793644    0.6258226188364194 H
   0.1544065361042914    0.0641068236855991    0.5172437037384174 H
   0.0532703767755141    0.0318057856422973    0.4523090713492520 H
   0.3008351642853506    0.3176211616768971    0.3770817322267457 H
   0.4775065707031419    0.1372998606293237    0.4684253764646708 H
   0.4762185158437660    0.0303973726534568    0.5311633124921774 H
   0.5297747093065048    0.0053097027117791    0.3690732684833086 H
  -0.0580196895472357    0.2190824249309440    0.4399663421442538 H
   0.6424564960312392    0.0064514848447170    0.4330133756139715 H
   0.6631770135963712    0.1126680434412859    0.3241175478244667 H
   0.6830581340553604    0.0318022018942341    0.5908927347154082 H
   0.7064206540120764    0.1628147133401358    0.5158645045317120 H
   0.1809314846583999    0.5968596432658987    0.5199529195878621 H
   0.0245776851947921    0.5192168813769732    0.5577184295662113 H
   0.0162256839886724    0.6361547240293562    0.5185604815889101 H
   0.3113877849047409    0.5653656652864312    0.7563575264827364 H
   0.6229789856807869    0.2407562164676102    0.4844579075568642 H
   0.4001764128021594    0.5844512739718490    0.6688178331735869 H
   0.6679965519808071    0.2453878524644996    0.6052251663213671 H
   0.3334296534144591    0.8867182038654092    0.3493281195654753 H
   0.2571333529492090    0.8076664555879529    0.4134187148007733 H
   0.2180272407691986   -0.0858586977673817    0.5773688472624172 H
   0.3970461610938357    0.8452434875299089    0.5247421168311771 H
  -0.0576433598446485    0.7533447191954664    0.6773540455236012 H
  -0.0812381130007306   -0.0533720215744057    0.5705714313398291 H
  -0.0957505894683491    0.7404804971477769    0.5580411814735714 H
   0.2272452199898221    0.2218397606907758    0.9628369149520348 H
   0.3541061026315186    0.2054054088225189    0.8613184717574974 H
   0.0727171092320745    0.1756008096800474    0.9287440775697082 H
   0.1904229674361083    0.2252500553477240    0.8139327496302624 H
   0.1471079782663808   -0.0146503405010614    0.8942628837883232 H
  -0.0058245784921072    0.0039686641865268    0.6933175740056049 H
   0.1128214044708063    0.1241496554861901    0.7967902820796892 H
   0.2226194424373875    0.1354850506101154    0.7278299749976285 H
   0.4396945290617681    0.1245259490328269    0.6291881431304011 H
   0.4793091759885833    0.2418886808555838    0.5918109202017532 H
   0.5256394894128518    0.1955429341525719    0.6970971139607255 H
   0.3693768344850192    0.0994898850632593    0.7935419581989946 H
   0.5777698269912896   -0.0024154246132710    0.6565755911868452 H
   0.1076514177945558    0.1991811551863401    1.0494216676156429 H
  -0.0027635770450403    0.0571909066732213    1.0026850554696909 H
   0.8303968085989960    1.0433244104795134   -0.0674455655002994 H
   0.6463401066423260    0.0927194682222477    0.6953640735299279 H
   0.2988457931437924    0.6659643404191160    0.8809186805192536 H
  -0.0034735670973193    0.6068074111397499    0.7588665862180806 H
   0.4183255772321410    0.5081117779035895    0.7624692853129156 H
   0.3917866387262633    0.5883396406204291    0.9197314351372776 H
   0.6393465297529807    0.4260408652328035   -0.0864888989255489 H
   0.4701562500436859    0.7102680674757125    1.0045651165372749 H
   0.5416690362503054    0.5840326921980664    0.8320724609341317 H
   0.5584823001858609    0.6697072068963300    0.7290019791305007 H
  -0.1370433311098611    0.4645232451129753    0.7203804670714073 H
   0.8035004268254192    0.5625595905529397   -0.0294192325903683 H
   0.9783069726723971    0.3858385228096645   -0.0426399940040230 H
   0.2380699451711204   -0.0365176544331409    0.8076524718626346 H
   0.3540809207183343    0.7299070068620894    1.0222928926607144 H
   0.3063758846834806    0.7437166216488532    0.7354674196812508 H
   0.5387137288888536    1.0300982298774399   -0.0367071565148384 H
   0.4112550556080658    0.8089293684054274    0.7759521872959346 H
   0.5486303663008232    0.7105418658277415    0.8499534991364853 H
   0.4203324358134103    0.8693979494759274    0.9812172685246064 H
   0.4095126071152313    0.7341286620805478    0.6743553793280158 H
   0.8954039174842156    0.8498299683012017   -0.0517178248320097 H
  -0.1455786006841552    0.7861897701947631    0.7866423906735829 H
   0.3309940028114685    0.3485051857360068    0.3123094328123864 C
   0.3910185903741428    0.1890169289294710    0.2475107806423769 C
   0.4172875228108778    0.2953065959865294    0.2829892181770579 C
   0.6955588554585903    1.0078696741405890    0.0260283522851742 C
   0.7762256168564899    1.0197576832158610    0.2371111510704526 C
   0.8418594755809626    1.0215029685226429    0.1534349104383630 C
   0.2525516437448469    0.3548792400412276    0.2481841628986011 C
   1.0565576693997827    0.4535574562618008    0.0686359037168532 C
   0.2493108714175477    0.6622479936775699    0.2803123329978349 C
   0.4696269402185041    0.3432879653055892    0.2031500774663778 C
   0.5195003977926320    0.4353332372608555    0.2209860385866980 C
   0.7926421257598754    0.4890998510783512   -0.0113773038798333 C
   0.9753725802888400    0.4483175148686627    0.0050467043324822 C
   0.8446840468431328    0.3582013744958209    0.0915732035362315 C
   0.8738880711610135    0.4594076382751420    0.0520371351249615 C
   0.2198536289726474    0.8233883583412442    0.2216483249458062 C
   0.2949397986098751    0.7634716744724781    0.2721471397076350 C
   0.8026400447916231    0.9841983014334910    0.0541529840062592 C
   0.8140376584978637    0.8700917631009644    0.0581932775436046 C
   0.0617608785041473    0.2405978148032165    0.4891689480748687 C
   0.0277834826426686    0.2038099241847789    0.5787229628067051 C
   0.0107758982770411    0.0953499393006420    0.5812498453267917 C
   0.0818994140756870    0.0318287216299019    0.5263254320002662 C
   0.5228458359440913    0.0804659168445287    0.4902408117362695 C
   0.5792703192682785    0.0493661511520141    0.4111052202520977 C
   0.6466562795523064    0.1988858543459318    0.5441330292335838 C
  -0.0919726029931186    0.0746351587456901    0.5368838022503056 C
   0.1792918623110679    0.6411784220643604    0.3646272812076613 C
   0.0220909712678444    0.5943194826386972    0.5849744605911883 C
  -0.1417369599283756    0.5327797909470657    0.6027591031873472 C
   0.3163961876380589    0.8102209512074073    0.3652070418319697 C
   0.0793931142162626   -0.0737492130618035    0.5552163741159215 C
   0.3947706954386005    0.7538285251839995    0.4174118507753758 C
  -0.2062201451198444    0.7270801463898314    0.6762375208763088 C
  -0.1084905390468295    0.7151326470967102    0.6315716805296211 C
   0.2095878023645225    0.1447304038635781    0.9686331342079793 C
   0.3454833958586679    0.1264174512605878    0.8590451998358670 C
   0.1055557230195529    0.1456779468514902    0.9935503581689850 C
   0.2226565158095755   -0.0074513073916902    0.8791981229727116 C
   0.1853530089150065    0.1472311432620843    0.7978104111207868 C
   0.4992412898217707    0.1761957118585399    0.6272519090836677 C
   0.6214484849572534    0.0562741839186528    0.6313026050245593 C
   0.1122338264965064    0.6101503313331099    0.6426765930619780 C
   0.3851477071142632    0.5705226787493868    0.7405937241488200 C
   0.3753169680061555    0.6600224861303181    0.8900332665064369 C
   0.5262674283980053    0.6560301907879050    0.7987979459641064 C
   0.7754246921177121    0.4449723727515035   -0.1082888692905422 C
  -0.0747551693509554    0.6093016997917424    0.6399060862508392 C
   0.6744431217559829    1.0379724411219193   -0.0746495767028300 C
   0.4045279872999207    0.7293457919153912    0.9644055974068023 C
   0.3802973908359354    0.7415541880675137    0.7433142994229369 C
   0.5733924410325144    0.1288522496947310    0.5757345603159516 N
   0.2381622788527961    0.1020178609470459    0.8723422455421939 N
   0.4154044753027645    0.6564996617841851    0.7939039618424026 N
   0.4440349115981143    0.9691451260687942    1.0899501253252206 Cl
   0.5754416891676440    0.5250305091600697    0.5531203591507186 Cl
   0.6882770855628025    0.6996759417000963    0.3715622169051301 Cl
   0.3403462855690748    0.9628929191977224    0.6002854116240600 Cl
   0.5085446077481854    0.3864835974610418    0.9632224973768141 Cl
   0.9645891254652603    0.8373750102823305    0.8235778581983021 Cl
   0.1704502127930317    0.3145907443146489    0.2758968594392565 O
   0.3802799033962241    0.1302491946897693    0.3075409710268068 O
   0.3893523871184496    0.1782384482545681    0.1571686798178802 O
   0.4675734950978437    0.2915744807535051    0.3676987642280703 O
   0.0623379640146204    0.0567651574033122    1.0194447145697638 O
   0.8087557522074609    0.2928158910826002    0.0449759835977987 O
   0.7609332005777473    1.0956542996984693    0.2801833431938620 O
   0.2479055807623472    0.4013667598176200    0.1745060190615524 O
   1.1331799357412515    0.3992718440497914    0.0454406242895291 O
   0.5552307555956996    0.4830973597723238    0.1462752828242961 O
   0.5178239468972680    0.4747858094166988    0.2974652029519543 O
   1.0579727530212215    0.5019345430420000    0.1424666161392462 O
   0.8630171791388774    0.3419347420369221    0.1818036518959989 O
   0.8744483687293636    0.5252558552382841    0.1230064930785788 O
   0.2535323393638569    0.8931151941582346    0.1650426058087864 O
   0.1353270398816683    0.8193086195460889    0.2338697621254556 O
   0.3728141656346735    0.7633935487647002    0.2112826765587995 O
   0.4374477428076596    0.6874352918154049    0.3795394734379287 O
   0.7418893787321353    0.9357983503406484    0.2598695295488361 O
   0.7827855052409950    0.8264037239616271    0.1262645258692497 O
   0.1461188886763093    0.2580313156314956    0.4773380864737007 O
   0.0000155268735104    0.2581868502974388    0.4222177612137218 O
   0.6030139255111834    0.1325700299355024    0.3595620041742301 O
  -0.1366858878421620   -0.0058665739981398    0.5611245925833801 O
  -0.1264676270700519    0.1275434649020476    0.4819135489988198 O
   0.1913050338951465    0.5708774698076443    0.4145539637744489 O
   0.1909391966563860    0.6013042076138886    0.5902318353434394 O
  -0.2753514917865784    0.6940996297137455    0.6348630010116398 O
  -0.1696727951183923    0.5446867222121113    0.5215426148977929 O
   0.1036411981199592    0.6970963598441996    0.3752072191077198 O
   0.0025232257284817   -0.1146283104691988    0.5567073159415203 O
   0.1590456041109065   -0.1256626707558146    0.5619442326334639 O
   0.4230038171037094    0.7825400811671926    0.4996463182759616 O
   0.0100064509297436    0.0711603566236041    0.6761085310723358 O
   0.8654682186888139    1.0321667692595233   -0.0080055381437240 O
   0.1178018273005862    0.6322305199001440    0.7238354520358864 O
   0.6872635135571353    0.4286493320980898   -0.1365050421628338 O
   0.8417335660150413    0.4186817102599683   -0.1564617066194400 O
  -0.0689640288161593    0.5874938760775122    0.7353835069593114 O
  -0.1569510324772116    0.4560212830552560    0.6531760857079458 O
   0.5781547605142148    1.0422292170713972   -0.0903759303839802 O
   0.7281246651865723    1.0625784553239022   -0.1347505034313742 O
   0.4113089169223766    0.8226959782154326    0.9290339578818624 O
  -0.2064299943963801    0.7608834916212298    0.7586425877950523 O
   0.8476667045602931    0.8167813604119150   -0.0064514190539212 O
