Li1 Co1 H90 C51 N3 Cl6 O45
1.0
  14.2376403136000000    0.0000000000000000    0.0000000000000000
   0.0000000000000000   13.8949430721000002    0.0000000000000000
   0.0000000000000000    0.0000000000000000   14.3609046991000007
Li Co H C N Cl O
1 1 90 51 3 6 45
direct
   0.6165772178845219    0.6836663516221445    0.3324409185654715 Li
   0.6772909303368791    0.7134390536658584    0.5710047188123116 Co
   0.1701830219355598    0.2684951652368418    0.0236950496316103 H
   0.0701264136337452    0.1213538643051926    0.1702269042808427 H
   0.2099831564746181    0.2439200375642681    0.2048431078150918 H
   0.2814802569476256    0.2847096973029994    0.0686678430267559 H
   0.3256526047628218    0.0604396168981984    0.0728757951903677 H
   0.2878275166064945    0.0397867794946243    0.1853889017010781 H
   0.4940899965762147    0.1035265152678739    0.1171007248384143 H
   0.6784463184235052    0.3520428267116829    0.2503485974546794 H
   0.7294639016747242    1.0655693196634524    0.1605903247686430 H
   0.8953319772816205    1.0479859442777284    0.2584511510498783 H
   0.1925413617298252    0.4330332988683939    0.2937581188645018 H
   0.3869478742581738    0.5444962960151629    0.2524348169950039 H
   0.3826936580632232    0.6243418912250989    0.1125251078158936 H
   0.6316070961007593    0.4204122324062990    0.1002584711595665 H
  -0.0036969150112412    0.4199981968848760    0.9929250732019435 H
   1.0204250377025059    0.4839993946865160    0.2284620933251939 H
   0.7581189309502068    0.6316136014779375    0.1563482521919886 H
   0.7274593560216964    0.4300853198959397    0.0239861176449132 H
   0.8634854079054518    0.4109173392415398    0.2522050264581858 H
   0.8790062382630578    0.5295050867011605    0.2347479090096095 H
   0.1153263193642813    0.6815591101712031    0.2372707305698884 H
   0.1683280797247517    0.7392815488914060    0.1128259245186373 H
   0.3115652984689262    0.8432020898038322    0.2262352141229384 H
   0.2821496094379323    0.7647886703067969    0.3257923123668673 H
   0.6260773876472596    1.0049112805749469    0.0001484829573539 H
   0.3998580191945101    0.7510361850315104    0.1233907185325902 H
   0.6667421317514466    0.9615638557690552    0.1430900345525433 H
   0.9059482027705885    0.9799504010520643    0.1201750436870567 H
   0.9456085669575263    0.8187795356242912    0.1962733134616962 H
   0.0823496469903124    0.2951170807121741    0.6521881835332400 H
   0.0562090793258456    0.2273809269822722    0.3761352409739563 H
   0.2649283568567872    0.2514558726847624    0.3985453889934031 H
   0.2144480817431177    0.1384233836813633    0.4313678336705508 H
   0.0039904543553983    0.3058418457743081    0.4584751091630479 H
   0.0659347077972807    0.0244610599940106    0.6118223422338177 H
   0.6048905903019258    0.2442971531791224    0.7296533588344674 H
   0.4884607632036422    0.2486908379666898    0.6820456339504740 H
   0.3482792474440727    0.0823036863242911    0.4741241232543457 H
   0.5784418957355728    0.1915340726687683    0.6172753413060076 H
  -0.1442475930676682   -0.0022191500706408    0.7188504182641757 H
   0.7467111417082737    0.1785430154860692    0.4981119573927889 H
   0.2431607048320370    0.3455750060424171    0.5478253991959882 H
   0.4755549729214926    0.3988137991890665    0.6942064276928728 H
   0.5715451770492465    0.2955078703664983    0.4796917390609606 H
   0.4683123401727569    0.3382557964945777    0.5312897418000525 H
   0.5584052889863841    0.4237359595896605    0.4926786645999685 H
   0.7049963640542350    0.3250222050328597    0.4577070517021073 H
   0.8125212042861985    0.3487423453954202    0.5186005551632650 H
   0.6879507023677141    0.4481807520754973    0.6009448938228000 H
   0.2209814677502881    0.9226137141821704    0.3487845964129200 H
   0.0399367199392487   -0.1398166911385830    0.5661135227858940 H
   0.2892708737603040    0.8002137884555974    0.6740844363521664 H
   0.3268213377574393    0.9125899235644411    0.6190739745078293 H
   0.4020718691939297    0.8051076552132482    0.6371870394887774 H
   0.4552202128332323    0.9821627167010376    0.6506896706992019 H
  -0.1869751790018981   -0.1173401686814961    0.6928471818508456 H
   0.6974845855822197    0.9356364375615367    0.3120842623432266 H
  -0.0553803389348744   -0.0627246156661136    0.5859465351181776 H
  -0.0646227412643042   -0.2225964473442457    0.6815129377060319 H
   0.8061303980854626    0.9116485738998812    0.3657215516463353 H
   0.2334863489018321    0.3225788700854738   -0.1229433442665105 H
   0.4001537142610570    1.1574797358035733    0.8219643954840651 H
   0.5526049598460899    1.0819637733015826    0.7486626069090060 H
  -0.1346329380416355    0.3320456235163764    0.7731213723809344 H
  -0.0058468499250176    0.0138910274837728    0.7917622592616039 H
  -0.2165868274712923   -0.0564870946089725    0.8023834564073213 H
  -0.0684232305875464   -0.0182501621333865    0.9019788530740533 H
   0.7233062801820491    0.2761986872624144   -0.0355101340120974 H
   0.2507588740242074    0.5237643650885497    0.8246557301046772 H
   0.1244984853358615    0.5223728516509147    0.7177014655800851 H
   0.0449923329772634    0.6270975700214290    0.7378359909500724 H
   0.5805336047086921    0.4099946294518363    0.7478583400301426 H
   0.5516034596195124    0.4913852471846141    0.6582066065929946 H
   0.7148491203333780    0.3454253112945361    0.6793884197429045 H
  -0.0063982053341370    0.5570778517000528    0.9695323965538591 H
  -0.0750036749544761    0.5412091288952262    0.7599982437237397 H
  -0.0971808049454895    0.4621625294021056    0.8509820659394728 H
   0.3360812991763315    1.0027673351233233    0.8549950443142691 H
   0.2507666000235709    0.9052095406821310    0.8170385219766367 H
   0.2790894113264249    1.0095813248970640    0.7447478117635774 H
   0.4905401808141377    1.0321622018658949    0.8521073432349214 H
   0.3606633220601154    0.7768779605707701    0.8368269688714768 H
   0.4462447788999888    0.8509156874374352    0.8918618024394156 H
   0.4740459447730938    0.7856444592435560    0.7874122547661411 H
   0.5253014888047073    0.9140681591997667    0.7300628037909795 H
   0.0368870572814188   -0.0736681653597662    0.8804036106717122 H
   0.0439387876095193   -0.1860622926258070    0.7372775303121084 H
  -0.0370563755354905   -0.2381337546134990    0.8712997274039546 H
  -0.1429587559011279   -0.1754692301543568    0.9043178422048778 H
  -0.1505808054549672   -0.2589355670786663    0.8087632773113442 H
   0.2406961110350943    0.2323028615051507    0.0340899379153098 C
   0.1458074939438538    0.0830392057105145    0.0607024674186879 C
   0.2174738640392787    0.1533446394881829    0.0997097592110432 C
   0.3046737070367228    0.1003634940325982    0.1326484918265201 C
   0.3813942854430054    0.1668049321305862    0.1727831499192043 C
   0.7135581760761022    0.2991358089437508    0.1034929470490215 C
   0.2274123086749981    0.6067980985852087    0.2264650046597565 C
   0.6915798149778032    0.4891463751116176    0.2554478583671614 C
   0.4416893892025790    0.6666169834620347    0.2438580592920077 C
   0.7071701793296805    0.4088244195477275    0.0935541581641579 C
   0.9341895398983371    0.4510538836740111    0.1272706969300161 C
   0.7523440976078122    0.4802974003902396    0.1613096387823797 C
   0.8533720747386868    0.4644791923659600    0.1978999519283844 C
   0.2739958706551714    0.6985616987226001    0.1839892684313677 C
   0.2641206387415167    0.7848528043268772    0.2502887126481147 C
   0.1662188818985280    0.8238051049726257    0.2590451247708050 C
   0.3817805854111783    0.6872244806294717    0.1585855764186449 C
   0.7643615384358798    0.9969522699171735    0.0363996809778119 C
   0.7371821750388174    0.9884139117976486    0.1390046373419012 C
   0.8053732501478440    0.9339825984719660    0.2050415632787075 C
   0.8030280581592455    0.8287752584767928    0.1932797694684202 C
   0.0679652409027128    0.2916892149229549    0.4206345265962645 C
   0.2343636010113737    0.2095528582586657    0.4539977450033910 C
   0.1470232852982304    0.2689161817152573    0.4918001684143632 C
   0.0994205937656593    0.1980450745153075    0.5632240808691462 C
   0.5640717476286168    0.2520013948909829    0.6651755268732240 C
   0.3122388651407039    0.2040379022345660    0.5245261706995433 C
   0.7850475505497462    1.0562429050586883    0.3433302046708100 C
   0.0972973486678657    0.3757348993090158    0.3615839293136891 C
   0.5426349088493382    0.3512835576779592    0.5227666018889806 C
   0.7393616092228908    0.3209185538193119    0.5256151689435732 C
   0.6899341771133869    0.3686459893733010    0.6088037301819798 C
   0.3450575057095113    0.8528768325719349    0.6624486791696489 C
   0.0076378284185284   -0.0945124393159190    0.6266800412765090 C
   0.7701251339610187    0.9541143830031078    0.3110717913113068 C
   0.2928543327377909    0.2088158994998665   -0.0572873135528543 C
   0.4813879619681868    1.0542572905904004    0.7803855386842270 C
  -0.0257244415600349   -0.0428641528655061    0.8403887221921577 C
  -0.1610228447764683   -0.0715314167710213    0.7468946124454267 C
   0.1009812456370776    0.4446913531086635    0.8955280060041046 C
   0.0964432745564145    0.5788210138297799    0.7679538706423669 C
   0.0457052320094369    0.5297439505801110    0.8466271870992894 C
   0.1803820434589013    0.6397266250013195    0.7844319411371060 C
   0.5462824936215419    0.4190561995026570    0.6809349796891864 C
  -0.0206632096133922    0.3948497671153693    0.7380448914380889 C
  -0.0442759707588516    0.4801297134851613    0.7995953312272615 C
   0.3044601885088600    0.9578999328774082    0.8006704724055862 C
   0.4186926009154607    0.8201152733746145    0.8217951860887717 C
   0.4621641303520336    0.9609614783460916    0.7252629669113212 C
  -0.1041285854639726   -0.2048648165832164    0.8450423287302045 C
  -0.0199903453051930   -0.1627631687416620    0.7033332900143122 C
   0.5855737657479798    0.3454771287072641    0.6181353149816754 N
   0.3799881535588563    0.8982660073765700    0.7532946270632912 N
  -0.0750001631365837   -0.1174279704086187    0.7842084176149284 N
   0.5039169058756688   -0.0200630518925809    1.0486931474828201 Cl
   0.5750001737282263    0.7502618025857410    0.4691272235809917 Cl
   0.3319127713379574    0.9674926314086917    0.4027289694334129 Cl
   0.7921477439647630    1.6078227107643392    0.5614237764634202 Cl
   0.7215925130505187    0.3071783032109195    0.8393609317911166 Cl
   0.6312896277632790    0.7398321089016416    0.7171478792868414 Cl
   0.1653205588816316    0.0266309141519984   -0.0012713440261980 O
   0.0629918044033822    0.0796099005487195    0.1092251764401934 O
   0.1656850855788710    0.1941472535800962    0.1784039657167674 O
   0.3605361942524076    0.2406620177389910    0.2170923360974175 O
   0.4708247649293952    0.1527451408103707    0.1585793094040044 O
   0.7326891552271781    0.2446800262842798    0.0299376925485025 O
   0.7070226829781963    0.2693026532518542    0.1868212627139110 O
   0.2670101625034495    0.5277231434523453    0.2384308246133398 O
   0.1381742065727585    0.6098646818579073    0.2464212682799698 O
   0.0446931260928241    0.4411548146899730    0.3346044312863621 O
   0.4379464936927735    0.5777616356140061    0.2832845447303161 O
   0.6672436193464929    0.5657601470771555    0.2893384808730334 O
   0.6709837054019844    0.4096966793286499    0.2947308988036985 O
   1.0168169959997717    0.4668274423609899    0.1589964140450773 O
   0.9186104133637157    0.4373170155911717    0.0428888264705635 O
   0.7527802653900582    0.5739436998567506    0.1143919818438007 O
   0.2255194388309512    0.7079219385828951    0.0956438593792827 O
   0.0977061242705504    0.7839611130161817    0.2183889117930398 O
   0.4943617410447348    0.7269022250534132    0.2774067813324927 O
   0.6966930218292546    1.0034531961556823   -0.0266311669364374 O
   0.8437405629867702    0.9920411306886133    0.0141058208966943 O
   0.9046937814193947    0.9729305809999871    0.1920716283127249 O
   0.8851097777601887    0.7771816681842596    0.1919671780687167 O
   0.7299913767221747    0.7856379820669650    0.1849348913071223 O
   0.0817399954041778    0.1161649261695070    0.5351802348553752 O
   0.0846913271610182    0.2222733133971182    0.6507648748748878 O
   0.3298899642318887    0.2712789117983996    0.5821540163917347 O
   0.3760275253397170    0.1378404377881726    0.5135838377969478 O
   0.7368871823358492    0.2191736245551767    0.5501851391086222 O
   0.8653199815724834    1.0991916236610890    0.3040764103025953 O
   0.7334491126191108    1.0976493359461410    0.3959703423111201 O
   0.1845014058467807    0.3697629424921061    0.3274920660043613 O
   0.1741352217917572    0.3553224371255968    0.5306147843232714 O
   0.1591411641180231    0.9011015713508559    0.3076785510509593 O
   0.2661083276686605    0.2591442812982894   -0.1334057770413354 O
   0.3497099620534692    0.1434216049507581   -0.0640027679076237 O
   0.4194090117655267    1.1301928301982307    0.7625015679051370 O
  -0.0802404977957428    0.3211869968046948    0.7273937518890892 O
   0.1847851607324931    0.4344627397734007    0.8755759203936517 O
   0.2599113738155898    0.5949966828363915    0.8206497150794814 O
   0.0648895907924786    0.3924265833840443    0.9626379841143556 O
   0.0497677029474582    0.3943215173800582    0.6899887268398202 O
   0.0252987605998121    0.5983338681533366    0.9248875769248993 O
   0.1878537872069425    0.7294643082383010    0.7778446124149866 O
   0.0696825198521357   -0.0262235665169178    0.6584663395330950 O
