Li1 Co1 H110 Cl3 O55
1.0
  12.4864290997000005    0.0000000000000000    0.0000000000000000
   0.0000000000000000   12.4888728539000002    0.0000000000000000
   0.0000000000000000    0.0000000000000000   12.4679200023999996
Li Co H Cl O
1 1 110 3 55
direct
   0.5829205044759255    0.1747060325318827    0.6065324047510990 Li
   0.5023714546259436    0.5646331345985263    0.4293400583473093 Co
   0.0879067619041197    0.1187113876843598    0.1137517325285209 H
   0.0216452075883323    0.0164268969265657    0.1421814946646084 H
   0.0117508815954055    0.2830424705617957    1.2355499151690643 H
   0.3194368476409185    0.2790092803300391    1.0761327870821502 H
   1.1811131454912385    1.0127912722844410    0.2140122410784133 H
   0.6062410229103748    0.1359635450664183    0.1359470947017407 H
   0.4851175225145462    0.1842241052507413    0.1176513404816230 H
   0.5659524827694561    0.2322428501779689    0.2644448713711134 H
   0.4763231747371950    1.0342263531865901    0.1690247852804911 H
   0.6391327325193189    0.3247523995596981    0.2575247114740823 H
  -0.0938550518120634    0.2468390432958350    1.1742245297116007 H
   0.2379667978871069    1.3378406220127721    0.3059201134243557 H
   0.1819339646075899    0.5315164550680076    0.0341893035260048 H
   0.2086261435595376    0.5833738170234347    0.2342104778293328 H
   0.1590723443860921    0.6505384050381217    0.0732379178823917 H
   0.3261633504168016    0.6064071206181759    1.0487585338037926 H
   0.1117657849779910    0.5971020374966266    0.3084297541658728 H
   0.5559400125106050    0.4129332956968619    1.0167483829588100 H
   0.4118411684268925    0.3389842683663771    1.0202052546737153 H
   0.4444942189303224    0.6186676345805856    1.0989754103862119 H
   0.8091084704227194    0.3885836203052162    0.0414358209870254 H
  -0.2264053579712331    0.4542612847025967    0.2801499769510584 H
   0.7057955064279937    0.6044453743271686    0.1075911219386859 H
   0.1393453273155416   -0.0545341906245219    1.0136684786930938 H
   0.2482067150787299    0.8353453149170424    1.3116572369851607 H
   1.3054721585926949    0.9784727228833910    0.2230730948517976 H
   0.0055083442472478   -0.2812486454134354    0.0474176527589363 H
   0.3964468552517496    0.9760865988233086    0.0902035384477533 H
   0.4987643384808575   -0.1305865302640752    1.1798870620334645 H
   0.5849867477384303   -0.1453548766278869    1.2719232637238116 H
   0.5108374459158423    0.7371370927381301    0.2698355058945193 H
  -0.1457449872633100    0.9879931977405653    0.1219704249792484 H
   0.6674082304363721    0.7242111864623216    0.1292210329381220 H
   0.9461060048131640    0.6672853126611491    0.2663633950699658 H
  -0.1076340112428373    0.9627627382998959    0.2485496779497688 H
   0.8286024344741267    0.7009416725998877    0.1219463632271725 H
   0.8877226196051773    0.8104903897663661    0.1570460430387017 H
   1.0775767389111490    0.2654540138155645    0.5847292491367165 H
   0.2437162398954490    0.0445543351757511    0.3837077475937528 H
   0.1958755005431267    0.1241482274051514    0.4751961433951718 H
   1.1100600050844813    0.3065634082345872    0.4758811012709326 H
   0.4926561069447626    0.0676993382021639    0.4763013798738585 H
   0.4032502414978654    0.1380870353373372    0.5102092008992277 H
   0.9761946712365394    0.1863564033621505    0.4709500462121766 H
   0.6723135560111172    0.2247385700802871    0.4157491787164341 H
   0.8915748018116302    0.1951178025116206    0.3677082865800791 H
   0.7586168530863306    0.1733087887450224    0.4873593590695431 H
   0.8774714902408121    0.0273039233475353    0.4089894304999090 H
   0.2272791946552745    1.4593487851394482    0.3468234878365937 H
   0.4984864367707454    0.3652124159207587    0.3831799931648878 H
   0.3673048165556149    0.3990969789994717    0.3954394558475628 H
   0.4251612296447147    0.5071619753997310    0.6072293935028978 H
   0.4123849588048928    0.6343672098980467    0.6164578774824110 H
  -0.1713800184995576    0.3853631535368769    0.3678598756181574 H
   0.9371683013986081    0.5659919441723382    0.3417745301926658 H
   0.6977491707464486    0.6131323071888576    0.5233637607591264 H
   0.7120518988181830    0.5161924140405392    0.4283759841474679 H
   0.2383800465396078    0.7073481754873773    1.3346763131377790 H
   0.2583096835890009    0.9253374233441077    0.5361974972580131 H
   0.1496220845033178    0.8375312607841650    0.6123336931766004 H
   0.2680402477903320    0.8172235834647662    0.4770152118521104 H
   0.3468730343412643    0.7941438385292583    0.6303800072335312 H
   0.6120377162181309    0.8901861326603444    0.4471032457881469 H
   0.4016324851450516    0.7198448997174796    0.3356251484204663 H
   0.5371059649120284    0.8617688363877530    0.6462904397645239 H
   0.6459737596310695    0.8023063045253924    0.6040797101561616 H
   0.6701816414511219   -0.0097197380676426    0.6336307499389864 H
   0.7743291114456653    0.6701590707992818    0.6504675599249015 H
   0.7101458294519963    0.9206052108625350    0.3836331561623174 H
   0.9896332611376369   -0.1956692650719788    0.5414726353714546 H
   0.9511274564627399   -0.2843778309257849    0.4548399011389538 H
   0.8175192017183884    0.7472589028869558    0.5610629118532562 H
   0.8949144275498648   -0.0996509923240480    0.4275362290000188 H
   0.0874372922140111    0.3080431254369470    0.9877379305392905 H
   1.0777929736711787    0.1360011785666947    0.7494327441547076 H
   1.2329534270346265    0.2324334198176667    0.7390244322650724 H
   1.0788260953024311    0.2530237487455249    0.8016250905825590 H
   0.6354110920383653    0.3165370865206227    0.7546709875816328 H
   0.3652097419917727    1.0025661701880479   -0.0895018975486846 H
   1.3446346762424968    0.2098084797365638    0.7811413210403388 H
   0.4769222251094251    0.1499087587007787   -0.1193986245030000 H
   0.3806040551669156    0.1754795210694799   -0.0584184449819854 H
   0.8012599495031272    0.2730279559243964   -0.0159208190830379 H
   0.7160482375313223    0.0306630095109355    0.7456237688010915 H
   0.9267409807482927    0.0146288163261225    0.7991034189650039 H
   0.1321839524111545    0.4276239729218050    0.8976507307670918 H
   0.1518236747082116    0.5371294515986040    0.8421081863918713 H
   0.3886183560691972    0.4544670678849596    0.8054693565058867 H
   0.4694549180630703    0.4925986115055103    0.9780490650367250 H
   0.4995267662273322    0.3345723409935403    0.7474548681340679 H
   0.3459264066140237    0.3700871552757189    0.7325293633213824 H
  -0.0803716132199967    0.6212531361208560    0.7470915356777218 H
  -0.1689341631027785    0.5304747277518441    0.7548201704445033 H
   0.7885837873485042    0.3762086044164335   -0.1641623060066162 H
  -0.0276767238528030    0.3399219030222014    0.9446593737393902 H
   0.8148162672180187    0.3548776161746235   -0.2887324026787983 H
   1.0573627931957912    0.6776297209605463    0.8617425760858121 H
   1.0397997254644995    0.7065186370557515    0.7328213125799035 H
   0.2040523779501712   -0.0926551648364844    0.9149511305096695 H
   0.0618425447126875    0.8939815111988646    0.7007790793988197 H
   1.0365481953692399   -0.0194375085517981    0.8403356373222794 H
   0.0776497061055907   -0.1922502215362233   -0.0241098353728719 H
   0.4436829381454706   -0.2999765164339944    0.9305511664388830 H
   0.3849279494980257    0.7470675325344862    0.7469824557349777 H
   0.3936141798953621    0.8742999912670446   -0.0710866366265899 H
   0.5296939178599034   -0.2523637328820896    0.8569943903428330 H
  -0.2618814733972713    0.7030155186789526   -0.1593748194019131 H
  -0.2366580890745616   -0.1127570589735204   -0.1497445041627323 H
  -0.3169188259111707    0.7422808715844283   -0.0560459562273009 H
  -0.2526001969751128   -0.0077246020540496   -0.0812896215651773 H
   0.1719999795579346    0.2999439157497883    0.1515431203389416 Cl
   0.7429726686329313    0.1064180444983047    1.0432163102423084 Cl
   0.6569961263062070    0.4605981255789362    0.1552005066544796 Cl
   0.0949064412601736    0.0424663164806247    0.1272752392535836 O
   0.5344414721467751    0.1409303663901399    0.1641266146162388 O
   0.5974546838278396    0.2885826022301546    0.3110204028060455 O
   0.3915134992451488    0.2641888876360578    1.0423661283356263 O
  -0.0632065776210560    0.2655084622840497    1.2459445920658565 O
   0.2035806658255141    0.5851105630255551    0.0921055397435135 O
   0.1913137479759841    0.5783269244225290    0.3136094473294132 O
   0.4042881683460074    0.6202578501454592    1.0338803504368561 O
   0.9785732535968646    0.6301482543032233    0.3282261596571246 O
   1.2321045053841400    0.9718268068771214    0.2547255276492518 O
   0.4302275299852596    0.9667182593927841    0.1610787926866238 O
   0.5590089443640618   -0.1797062552525824    1.2044059873988144 O
   0.4708892753045998    0.6835782161425437    0.3218923044523432 O
   0.7158271975544032    0.6830769699473719    0.0848417780268385 O
  -0.0931847240559717    0.9502956404423516    0.1694971976795814 O
   0.9033155484117548    0.7340343307472512    0.1438489740834688 O
   1.0908471462211125    0.2400626111077555    0.5102709593962225 O
   0.2546409004938323    0.0728030814098702    0.4561344234006376 O
   0.4793536648555355    0.1235164650281699    0.5199293466794919 O
   0.6860324502307716    0.1984215434082313    0.4903574533782012 O
   0.9025867571835069    0.1569254047204101    0.4362161050322012 O
   0.2460772031271793    1.3846262692713662    0.3673257047220723 O
   0.4480741055130343    0.4253067101601010    0.4051684242702549 O
   0.4180495086481863    0.5729741595427805    0.5626052701613219 O
   0.6600666598986270    0.5508648784867425    0.4752683286513995 O
  -0.1806260566645261    0.4583897597542023    0.3452378183747914 O
   0.0817419889826245    0.8278346291171860    0.6542829517457380 O
   0.2797113187455582    0.7733533314084402    1.3479022561955032 O
   0.2626584048740402    0.8497181091715654    0.5510780868001570 O
   0.6309622620681271    0.9089788614154225    0.3768397214928861 O
   0.5942800372028127    0.8647635021544335    0.5954896646650625 O
   0.8608134050237184   -0.0429751010502439    0.3799902068980250 O
   0.7464708665285210    0.7179528154376225    0.5896129827497232 O
   0.9273816763335656   -0.2220887829788301    0.4999059586603239 O
   1.0039688248581164    0.0107521654412605    0.7791891108885802 O
   0.0442322256819822    0.3215535520361985    0.9190416283625739 O
   1.0959166500395838    0.2117261868251199    0.7345922575326903 O
   1.3057284368268038    0.2532439447577808    0.7278894554627450 O
   0.5636748099638113    0.2818798356170844    0.7378566352309884 O
   0.4019392181565009    0.1251651326253879   -0.1154131963008271 O
   0.6859948093651369    0.0593049057160279    0.6735179163552186 O
   0.1762061460752508    0.4898033232190179    0.8992708887402029 O
   1.0546798804324611    0.6494085993170557    0.7874070012809052 O
   0.4042497266108911    0.4232592876025068    0.7358747489183360 O
   0.4948320693262455    0.4215801929199589    0.9694830812977018 O
   0.8263039390619605    0.3454668389671914   -0.0238119508821721 O
  -0.1607885196055161    0.6079500941295110    0.7394182429407148 O
   0.7665478635625268    0.3843430454655531   -0.2372049626666443 O
   0.1261750286907770   -0.0861653878207235    0.9409538639197004 O
   0.0622877480575040   -0.2731166065026313   -0.0090066746240258 O
   0.3502751278990631    0.9374682218374795   -0.0475840796689262 O
   0.4537907118726311   -0.2509208484672344    0.8709181242107583 O
   0.4013730034330161    0.7491886206670896    0.6674543548320899 O
  -0.3047400037046157    0.7628103463416267   -0.1319460261521833 O
  -0.2150482278527905   -0.0367877532484069   -0.1500324431292407 O
