Li1 Co1 H110 Cl3 O55
1.0
  12.2964515630999998    0.0000000000000000    0.0000000000000000
   0.0000000000000000   12.4558096300999992    0.0000000000000000
   0.0000000000000000    0.0000000000000000   12.7906983570000001
Li Co H Cl O
1 1 110 3 55
direct
   0.8029381265753462    0.4339404643708100    0.5757645105022470 Li
   0.6606588689356785    0.8699972251352562    0.5025613144087688 Co
   0.1582350624987516    0.1399716170024672    0.2249674019499669 H
   0.0669597060074480    0.1386814559870672    0.3036581795687796 H
   0.2222673563649586    0.1550978918569495    1.0378456131158063 H
   0.0714025324374679    1.0871007358910070    1.0332328860892390 H
   0.1622565478635533    0.3266748558172475    0.2943475073383751 H
   0.2146903737271714    0.0401233504558618    1.1097807001860485 H
   0.5789670089022986    0.1138336131577998    0.1933913309077655 H
   0.6104817916842594    0.2536077468112878    0.0678200012453003 H
   0.4581484140112158    0.0161746864301090    0.2703144177118210 H
   0.6325255494796721    1.0803890083933438    0.0306711609914014 H
   0.4284276447206103    0.3261658563874008    1.0755214292870372 H
   0.5149932685135973    0.1686835201721955    0.2954897436410555 H
  -0.0410241292629323    1.0312713662513542    1.0467348853686989 H
   0.7297845021021389    0.2255172404218455    0.1242379527799852 H
   0.9012624271913195    0.2223893827267623    0.2619989999737588 H
   0.8768814097521372    0.1019275223934044    0.2527735459206248 H
   0.8833792192697846    0.2930656395212339    0.0873620147478864 H
   0.0926681795762491    0.6274060094909512    0.2246218383320444 H
   0.2955876956005086    0.3679824877801381    0.2221630202814421 H
   0.1304132150133659    0.4563797925478059    0.2933944710255980 H
   0.2532340135380466    0.6572434918415075    1.1671348789434983 H
   0.4194966129155037    0.3516423215409111    0.2586661092425291 H
   0.3749268443779993    0.5082856918189085    0.1811285133803582 H
   0.4307583984224347    0.6132688313203351    0.1449444062204304 H
   0.4322433796713989    0.6099964627461154    0.2987804161927200 H
   0.6093123486196316    0.6420602154735883    0.0582127853943573 H
  -0.0173162328422428    0.5562536696335472    0.2462328553605808 H
   0.8405457239888732    0.3830605923415750    0.1651927142307794 H
  -0.1815109185724566    0.5732866852544111    0.1565755146906401 H
  -0.1911771218173571    0.5102165177318128    0.2779918718475646 H
   0.1615652915318887    0.6751066421791877    1.0815023380587725 H
   0.2454716115548247    0.8431984854376490    0.1209261711385381 H
   0.5331887616484958    0.9186813346398369    1.0043994330824948 H
   0.3367312724611858    0.9178222977471935    0.1733353501598802 H
   0.5147005011260687    0.7314080806906857    0.0323025582316138 H
   0.4086959360439300    0.8897069033730112    1.0351952496208803 H
   0.8044540110485495    0.7005293171721306    0.0161917803641001 H
   0.6987820622483528    0.9926468196110940    0.0513842293951300 H
   0.7852208201734108    0.7596936767669620    0.1195290621221863 H
   0.7959710759949101    0.8917701975917902    0.3293104145634727 H
   0.1996608345912967    0.0547646307431983    0.3774868301743347 H
   0.2501575162407676    0.0343951800583645    0.4919254604309015 H
   0.3116419205927332    1.1808320977752387    0.6051944907498845 H
   0.6113690395170196    0.0367054273128233    0.3901616658615726 H
  -0.5344062215574118    0.1371030760516119    0.6286380894988063 H
   0.6027820093922589    0.0834257945375854    0.5117820775530622 H
   0.4507633566608084    0.3059423616904947    0.4392230996070233 H
   0.9590758538007744    1.0723285126904087    0.5845928009402122 H
   0.8913408657250746    0.1449797218027571    0.4188981734189449 H
   0.7941713698043527    0.1165399807887355    0.4956406602326381 H
   0.9019292862406901    0.2666418252711636    0.5759318195842276 H
   0.1582708451794495    0.4553593851734602    0.5883236371047508 H
   0.1966355715868351    0.4400725426754932    0.4553480987465053 H
   0.2754526185232333    0.5706076141228678    0.5336847127478545 H
   0.3050074862942392    0.3759554741173742    0.5630896748150090 H
   0.4145618559501615    0.3669387980974872    0.6167528901330652 H
   0.4310332744696143    0.5636975855855010    0.6357463800285599 H
   0.5499805978087439    0.3489054460577132    0.3756456484544083 H
   0.3706215372958436    0.6309818509113568    0.4810597519198458 H
   0.5118354469420047    0.5497265949258915    0.3784961573931987 H
   0.8801994401441274    0.6122572551663810    0.6590328333313223 H
   0.9378990127695436    0.6196353383845059    0.5518502572329874 H
   0.2675820552551744    0.7033143629483738    0.6403262706932430 H
   0.1693244405441381    0.9024559742657015    0.4788479884015139 H
   0.1401282128228546    0.8010735641694208    0.5661051473813596 H
   0.0262718703800235    0.7641863594316657    0.4502256262925957 H
   1.0255503156246155    0.9624039039607385    0.5706928562274436 H
   0.3552748334901462   -0.0336770709778929    0.3385804322505922 H
   0.4682041605300780    0.9392821632989323    0.6187246354823877 H
   0.5086418426897142    0.8696439763195897    0.3452469955311917 H
   0.5418741941451759    0.7473074887485472    0.3970064836781140 H
   0.7314166802876105    0.7181227138687563    0.6238572715721186 H
  -0.0059554464167334    0.6685362142077911    0.3688399215448717 H
   0.7194904754595381    0.6689496758897644    0.5046159324809414 H
   0.8260862680159359    0.9315187177364439    0.6161782538000946 H
   0.8554849931802599    0.8097923872106435    0.4145278100158077 H
   0.2929967042208810    1.0862256422340151    0.6880461045102887 H
   1.1836121751803008    0.3274439748295396   -0.1023345078561452 H
   0.2783168594645542    0.1557698674449333    0.8991276205185549 H
   0.1935436226774364    0.0034941136941293    0.8202343520014573 H
   0.3543298454226235    0.2440523663475094    0.9627597989409766 H
  -0.4204359438062674    0.1238530341112491    0.6967016131392926 H
   0.8661384731153262    0.2599493658907185    0.8532348956949137 H
   0.9655248687538338    0.2035981514097402    0.9724777984223711 H
  -0.2692215881477772    1.1342674811646567    0.7950074260749763 H
   0.9941672781670424    0.3201333300216782    0.9506572541322889 H
  -0.3206266619413298    1.0386093075586080    0.8568703500463607 H
   0.7745193589164995    0.3045269579131764    0.7777996088114612 H
   0.8878113922198695    0.2811579430804037    0.6936345405756955 H
   0.1520348998250917    0.5193656620575747    0.9453408907796353 H
   1.1325323984840023    0.4032359167454358   -0.1884197214439868 H
   0.3172923311720340    0.5652815853884782    0.9313619824347171 H
   0.1288135665376197    0.6348595595015140    0.8970401660844983 H
   0.0384056960804180    0.4977484402152207    0.6798729776737240 H
   0.0345133536632261    0.3756102536838820    0.6767199051147164 H
   0.4249412730807913    0.5147621877188665    0.7544146464230468 H
   0.4424300582719058    0.5764490649928435    0.9439648908530662 H
   0.6017532573221933    0.4720415604933099    0.6943389587199221 H
   0.4672445340931788    0.4013347958465761    0.9766448891090834 H
   0.7113181991337764    0.5189955536393424    0.7412417925805675 H
   1.0630896006477193    0.8091966812533151    0.8395530782432320 H
   0.1842116621999643    0.7114976928985749    0.7362162655760298 H
   0.0436375306198273    0.9705767970141130    0.7496017739526152 H
   0.0181825448140613    0.9691878868979699    0.8762047126509371 H
   0.3186032784739674   -0.0017400061211297    0.8081896617351367 H
   0.3365491060867236    0.8104587429311053    0.7739616635617295 H
   0.4206440984260669    0.8588698874417620    0.8708101674842740 H
   0.5084995252096656    0.8392404930257494    0.6729663962241150 H
   0.7182470273052850    0.9792073078514191    0.6811098139713561 H
   0.9830339850135266    0.7137400200398396    0.8093045344029137 H
   0.7915958300368446    0.9695652208601591    0.1910224219432743 Cl
   0.6997254238303894    0.4637835665888884    0.4145590827414115 Cl
   0.7811985215658660    0.6677959973713264    0.7833638085145251 Cl
   0.1467122260712742    0.1554150129528319    0.2982941253095802 O
   0.1771161192661129    0.1097150531024155    1.0889374285710864 O
   0.6441695590758766    1.0077321497164875    0.0004705121121636 O
   0.6535446214187348    0.1987626568261965    0.1073185482283514 O
   0.5284914715641491    0.1056679456483820    0.2526586186540307 O
   0.4716823997424656    0.3317520047042358    1.0124208871998810 O
   0.9275708299317312    0.1492901601921056    0.2856716714377286 O
   0.8410011399250288    0.3035659605669201    0.1513732967864407 O
   0.0501199698496294    0.5798844097252001    0.2735480175392584 O
   0.1831625790613204    0.4010947472195664    0.3195455059936725 O
   0.3753245200793923    0.3715494979801522    0.1968250761790676 O
   0.3644018567963484    0.5886040356046403    0.1793717680195622 O
   0.5304082847097179    0.6523654468324404    0.0508138930619299 O
  -0.1546901729038699    0.5155923224356828    0.2041741666959709 O
   0.1831113447685029    0.6971501711149937    1.1498723344101764 O
   0.2812559187382435    0.9161925361658230    0.1137647169752578 O
   0.4184865654285302   -0.0567524878745538    0.2943709618825779 O
   0.7856607844974467    0.6889828979291411    0.0875106383763186 O
   0.2384419412831672    0.0031779158621969    0.4189247552357082 O
   0.3119664044472440    1.1022824065824917    0.6120635449287689 O
  -0.4546718368067574    0.1381925275126560    0.6270549077651116 O
   0.4876910831410747    0.2967032994843813    0.3692042487981565 O
   0.6348367853556613    0.0279247054450372    0.4625204983637470 O
   0.3652305511516027    0.3203348424142516    0.5807861284160842 O
   0.8646502388953895    0.1521193620703071    0.4956766238670826 O
   0.9116150073114260    0.3242551014299321    0.6275615259198939 O
   0.9819849018748826    1.0032683692276112    0.6204305626640773 O
   0.2092205030368466    0.4673690420679032    0.5254990768210483 O
   0.3309710741115618    0.6291602109960223    0.5452478030398759 O
   0.4755420498013835    0.6229462431931618    0.3655750489918304 O
   0.9274325786653983    0.5680272920920676    0.6132503448654347 O
   0.1083214758961083    0.8594238458117844    0.5142799865106693 O
   0.5198255568933043    0.8803056678469781    0.6101598177576348 O
   0.5724342299466965    0.8202935110945471    0.3719656304689760 O
   0.6843811597529214    0.7193398166063708    0.5557624752060283 O
   0.7475408441557447    0.9308282768694595    0.6227400534499212 O
  -0.0325193993037769    0.7054258274601986    0.4331671362938389 O
   0.7974153951067174    0.8658545799333492    0.4022079197641733 O
   0.2791000122261930    0.2193305691183775    0.9495939814617582 O
   0.2592918587316580    0.0470962412256529    0.8029718074681353 O
  -0.3230232883053482    1.0777958409510648    0.7896089718176127 O
   0.8146032804828722    0.2389254414910408    0.7956320987689132 O
   0.9299292338868222    0.2723813156875265    0.9599061627296258 O
  -0.0034293404226096    1.0734284010482793    0.9957447062716310 O
   0.1728840040308393    0.5993588563652498    0.9501647087040284 O
   1.1314182559259076    0.3867568594945944   -0.1110674164810186 O
   0.0857889592120716    0.4340769468677720    0.6870688318351684 O
   0.3903020116797064    0.5378887454099772    0.8998234386632403 O
   0.4635239485433370    0.5117916863143983    0.6850329773983582 O
   0.6834296657434537    0.4558186086338267    0.7054079399474028 O
   1.0606661372731774    0.7281260780578572    0.8262074425917915 O
   0.0622568045481736    0.9360868671935856    0.8166379885570152 O
   0.2356476392177560    0.7479714359543567    0.6926377224470731 O
   0.3875499982369382    0.8663041693351066    0.8019288620692472 O
   0.4687937615188507    0.8693790397078398    0.9912727065102813 O
