Li1 Co1 H90 C51 N3 Cl6 O45
1.0
  13.9666613341999994    0.0000000000000000    0.0000000000000000
   0.0000000000000000   13.6304865042000003    0.0000000000000000
   0.0000000000000000    0.0000000000000000   14.0875796808999993
Li Co H C N Cl O
1 1 90 51 3 6 45
direct
   0.9004224317378953    0.6331576462396069    0.3197433443096757 Li
   0.5454845635258891    0.9064002776638324    0.6848983330672166 Co
   0.0749746225489028    0.1696796920188685    1.0088098993802512 H
   0.2052140517491950    0.1494008853955812    0.9901523296661037 H
   0.1157939698759536    0.0556859618962331    0.9890783339661530 H
   0.2642288714170632    1.0269029464052517    0.2073734386298331 H
   0.4931220137009571    0.2164571859699124    0.0901943321124715 H
   0.4359714190885246    0.2914024199265455    0.2359283791598518 H
  -0.0811213797692401    0.1873657812076674    0.2759821011462500 H
   0.8634336347993612    1.1474217554363029    0.1020785594809945 H
   0.7780982800226593    0.3393742953103419    0.1213494353978898 H
   1.1573485441519713    0.4707530630049659    0.2875831003030874 H
   0.9962577905234936    0.3691700036201559    0.1354057889011446 H
   1.0454800050205688    0.4713831124164344    0.0743640755991857 H
   0.2866186174356246    0.5410898392971830    0.3428559021354497 H
   0.4220368075630460    0.4633560401643701    0.2471254764308518 H
   0.6494999015682512    0.4202168976386198    0.2367972296137446 H
   0.4976596049322140    0.5195740262035247    1.0024184537210599 H
   0.7956751363754995    0.4492727203987220   -0.0200233230966172 H
   0.9053799515304354    0.6277785278950484    0.1311218734687569 H
   0.2787742230325240    0.7931834823921091    0.0192694448974827 H
   0.1992412571060164    0.7340102460038500    0.0988807071159726 H
   0.1310975556711226    0.9174747172998268    0.1813299302124553 H
   0.1797083140874889    0.8019586644051021    0.2913183054406556 H
   0.4914377887142454    0.6806922665042875    0.9727071754546104 H
   0.3605890514054246    0.8571621231934693    0.2833999828808734 H
   0.3882885846541242    0.7728907364277761    0.1882516301927723 H
   0.6040445142850052    0.9008047327083022    0.2670465704978826 H
   0.7493913478213162    0.9245771783873433    0.0970954465836685 H
   0.7085820243644410    0.7341760507973403    0.2755916863181119 H
   0.7472333517706641    0.7427230678069020    0.1611497426685693 H
   0.8688594125272451    0.8773015364063002    0.1208539634887255 H
   0.7381216537810823    1.0025655905890978    0.2904253202519325 H
   0.1918386289813672    0.1477831881847585    0.3996790057580912 H
   0.0624533767181778    0.1172068767763888    0.5043664704188613 H
   0.2541613258071693    0.1834701022101761    0.6116451537862406 H
   0.0349163733644676    0.3609421241555863    0.4171099630667431 H
   0.4771991675261567    0.2470701798547180    0.3430156172924153 H
   0.6326032364058954    0.2012559677348806    0.3514003081105370 H
   0.4807226294919378    0.1427877685437194    0.5783319792999035 H
   0.5524712010382529    0.2449932180389180    0.6163429089364548 H
   0.6619738920110058    0.1050730472209259    0.6265888137170821 H
   0.7012287995999427    0.2594864644787372    0.7191582990040457 H
  -0.0300676609929451    0.0689679529641392    0.4286108740585487 H
  -0.1292617322780820    0.2424863375992895    0.4292752891115255 H
   0.1420915932815288    0.3157251027521252    0.3519653448436241 H
   0.1155340652421159    0.4158318010405209    0.5668026035179010 H
   0.0268786614651241    0.7170020489795864    0.5270331745109016 H
   0.4693937946176681    0.5276224549933699    0.3543135125735891 H
   0.6094201726620113   -0.5629896809285159   -0.4754322822876918 H
  -0.2358741834838583    0.5112575218758860    0.5505579394106751 H
   0.1055101950665584    0.7490067760203697    0.6283620068819710 H
  -0.0183032173604747    0.7942729519422549    0.7426484944454005 H
  -0.1615357302804700    0.6716148208854628    0.6498192058364396 H
   0.8976365118198172    0.8773411534808511    0.4337608005642610 H
   0.1752713195533510    0.2872741740284507    0.8651486001477130 H
  -0.0331449891368413    0.1193762784328072    0.8792951039840106 H
   0.0139936923451717    0.1014334119089571    0.7653621193013316 H
   0.2134214534507962    0.0167299055708492    0.8504824896674208 H
   0.1353004212375885    0.0883150246859550    0.6834367619196960 H
   0.0329688785875021    0.0108130221217405    0.8504839093577049 H
   0.0573125632995704    0.2835171547918871    0.8598531553878765 H
   0.1215326355514602    0.2593023184470291    0.7606430687968554 H
   0.2734887794870979    0.1288366891056226    0.8398795327803327 H
   0.2451183629273628    0.0228984308083080    0.6927414120419394 H
   0.5003651190916697    0.1615149064137687    0.8365815922502791 H
   0.5303336985527520    0.0315136772240406    0.8254540598032019 H
   0.5832877999161875    0.0243884730011338    0.6834701246413732 H
   0.3873470568483486    0.1929077697476013    0.6847939858313323 H
   0.5832109025121264    0.1090450257694038    0.9133002355148370 H
   0.5919800705379948    0.2742408901507799    0.7905822073539090 H
   0.4392198690161321    0.3344074880009227    0.7303120957213793 H
   0.6982474142134412    0.2526715940064780    0.8493069861121542 H
   0.7650736927109759    0.0874808651718030    0.8572011739371059 H
   0.7741861066912846    0.0804341614484689    0.7306989613238071 H
   0.1632140357136090    0.5848585631660025    0.7361243077446422 H
   0.3891083940363395    0.5027625206179103    0.9385231629479827 H
   0.3725919199499279    0.5900579373760252    0.7835142792743257 H
   0.4982863832144770    0.4405020136478541    0.9051093324205001 H
   0.6335762678036513    0.5256162903570912    0.8258302777284986 H
   0.6288149294702614    0.6139712437645803    0.9299028035426939 H
   0.6235745933406254    0.6530865020376959    0.8092703004091656 H
   0.5287615261147885    0.4668349402010921    0.6847031256531475 H
   0.4722661346164741    0.6302347865171954    0.7205339788893759 H
   0.4197821527642724    0.4908691813779610    0.6399331925428414 H
   0.9223489317562006    0.4503376126896558   -0.0348519881144433 H
  -0.1203333279145676    0.5429354080516254    0.6598826804155550 H
   0.0442586203680872    0.6443318622115070    0.7921452863567455 H
   0.1462285877011267    0.7562295556305959   -0.0805731137151222 H
   0.3774062415971029    0.6761216299403759    0.9098099269512825 H
   0.4781737741035116    0.7411618616097907    0.8590290251779342 H
   0.7025512344723895   -0.0097122907431960    0.7879550704831110 H
   0.0917574451856934    0.1419946934031755    0.3071698573082035 C
   0.5708617808521302    0.2105850551420555    0.2378903911325312 C
   0.5002717539008916    0.2862360599453151    0.2798337208871176 C
   0.8755009425092788    0.3221738821095542    0.0317172893088087 C
   0.8363405456962827    1.0249888547848272    0.1675582246111702 C
   1.0445463531127885    0.4901697932822344    0.2159299119723355 C
   0.5286354401477945    0.3915918005168278    0.3128173852585063 C
   0.4407957646058751    0.4619067522028646    0.3214405840443632 C
   0.9928446627287162    0.4497422560971014    0.1290186023128058 C
   0.8624333957539858    0.4291457792278792    0.0134792380736241 C
   0.8173897031386644    0.4946651574044996    0.1808699505603944 C
   0.8908775593585840    0.4919472059954589    0.0979153177227585 C
   0.1338319242568694    0.8420166623226200    0.0262372848120343 C
   0.3185525198427704    0.9433813494579081    0.1194676359262643 C
   0.2216689506330996    0.8037641758952764    0.0712159123941087 C
   0.2581851936919288    0.8630834085397502    0.1611156701017500 C
   0.3273183943112955    0.8026578324059701    0.2307500588484568 C
   0.2840167071343406    0.7182910712015436    0.2846904813491553 C
   0.6058058514729959    0.7903625999541892    0.1916695345518356 C
   0.7104693759203532    0.7854082646867583    0.2112073122421490 C
   0.7633524510036874    0.8723413319426394    0.2420323375365052 C
   0.8077159524285246    0.9210329175141080    0.1468179692501916 C
   0.8465577333680833    0.8421391817939159    0.3034644656666022 C
   0.0868113812447826    0.2976927309857715    0.4093925266821665 C
   0.1500125986923997    0.2803881395519059    0.4952895386181936 C
   0.0324877328190753    0.2025640648445843    0.3768006968292001 C
  -0.0001635922963497    0.1364468356670119    0.4614621523109415 C
   0.5204599644727026    0.1725966825450503    0.6362320599720924 C
  -0.0734137395949632    0.1704397529306201    0.5316162896706715 C
   0.0622557632775739    0.5559931224586026    0.6308216202992408 C
  -0.0090189656057279    0.6400965034822195    0.6571384190963153 C
   0.3611009847751049    0.4196401023791419    0.3752816282251720 C
   0.5823199952507374    0.3726607080777949    0.4082376086360199 C
  -0.1117650668866463    0.6143087225477905    0.6243116305013240 C
  -0.1282450254459898    0.5992931176435242    0.5189995872969502 C
   0.0313199519436229    0.7353946426645405    0.6024398819838870 C
  -0.0278667054986834    0.8276437344055105    0.6090960998810702 C
   0.1185526821464123    0.2485360116130960    0.8329997136633978 C
   0.2071300429341802    0.0895050042215352    0.8216641965896943 C
   0.2093116666788176    0.0878851060621264    0.7159533481876030 C
   0.0239846269472953    0.0864853027613330    0.8373794581899650 C
   0.1302426627432929    0.1305350877646042    0.9677169641058637 C
   0.5991636055002354    0.1031846333340064    0.6751691955500158 C
   0.5566489353302072    0.1047120916527968    0.8414184770483387 C
   0.6598101680345391    0.2344066553395208    0.7857573899232646 C
   0.7260794057466035    0.0678660113720052    0.7903110465096387 C
   0.4647966329579393    0.5079589602298180    0.9319684529061155 C
   0.4456665063223239    0.5729998521838088    0.7678763907945407 C
   0.6040695739604440    0.5938391670470364    0.8594762276174378 C
   0.4534815451056246    0.4775774107618371    0.7097840840578794 C
   0.4537976550115181    0.6786930715385316    0.9039494454583590 C
   0.1187832311604502    0.1391055815590850    0.8636295315436849 N
   0.6374182740437971    0.1256563183986311    0.7748626866827861 N
   0.4939927300238496    0.5819540446818089    0.8628636086353921 N
   0.4330430170158082    0.2564572255746616    1.0211001581700379 Cl
   0.6947612553645276   -0.5742658741849077    0.6320808855812716 Cl
   0.4961147117409425    0.8935599436122142    0.5357732138071430 Cl
   0.1904524709342329    0.6383159360760214   -0.1429024861047947 Cl
   0.4138931290361323    0.8943464159069998    0.7821861590135143 Cl
   0.6687070688060731    0.8030708770906382    0.7270950775375217 Cl
   0.0667042136633410    0.1119752219871025    0.2289527309487376 O
   0.3125560975056065    1.0354837112931345    0.1543238717824316 O
   0.5660401560995416    0.1864054339745758    0.1524733054970571 O
   0.8596940152331514    1.0732739985173860    0.0866415571764150 O
   0.8381355344484345    1.0683849580580109    0.2459350661276018 O
   0.8127271715255766    0.2823279089058356    0.0916026648743369 O
   1.1216091510317479    0.4385661326364266    0.2389721951290447 O
   0.3279835496965164    0.6417816964496841    0.3048720885833254 O
   1.0205606637641329    0.5652935975341574    0.2611285915484515 O
   0.5806916175407181    0.4373760063709407    0.2376476240939435 O
   0.7647579408004459    0.4203564377789820    0.1902093830945992 O
   0.9091310269482743    0.5910681727770695    0.0727122659535906 O
   0.8088264540458311    0.5678232211091763    0.2347542952948694 O
   0.1833899384048258    0.8976383013423563    0.2276948853569909 O
   0.0956767784243364    0.9114191740897906    0.0688720037349961 O
   0.3726592230782496    0.9300318626333599    0.0510037818188296 O
   0.1938283672112154    0.7314520100972113    0.3161387506782481 O
   0.5629860260551947    0.7319773031597733    0.1398806526767490 O
   0.5542391253409304    0.8532657105464493    0.2482988504506922 O
   0.9065470164151610    0.7801758762479433    0.2864182444249517 O
   0.7058576796488698    0.9360844712452813    0.2921587620888656 O
   0.1740906508448157    0.1033372324359797    0.3412708179332091 O
   0.2022548620752251    0.2054957283613404    0.5010229578306867 O
   0.1556717893972287    0.3480489673379005    0.5638091865537950 O
   0.6438421428448758    0.1758834324337059    0.2867497421062981 O
   0.6399743609385643    0.3057804833903560    0.4221938739742429 O
  -0.0553621813902377    0.2366817025280746    0.3233763317467860 O
  -0.0735340260370699    0.1407298816156661    0.6152469080371000 O
  -0.1455512373040898    0.2280664561123421    0.4995528685414614 O
   0.2786926000896659    0.4786753392910491    0.3767758522492277 O
   0.0371481164599828    0.4907727064649346    0.5745700130004793 O
   0.3616873811803750    0.3426265636711476    0.4184551196109643 O
   0.5635734964465550    0.4439123101171458    0.4708849916493394 O
  -0.0826657717670028    0.6453509014068959    0.4544620144424258 O
  -0.1913087726740563    0.5311988497159632    0.4930305984225867 O
  -0.0663927345277120    0.8720786854113586    0.5452477298718836 O
   0.8528176402927189    0.8985062087348293    0.3849553978212914 O
  -0.0414683813361882    0.8530522185335924    0.7013830668014902 O
   0.2671357937679749    0.1685447361979422    0.6805952518159929 O
   0.4528157453287495    0.1994548581418785    0.7066735426453321 O
   0.9333501292738750    0.2680210094463108   -0.0076926031337327 O
   0.1516830050580837    0.5574340101330042    0.6717512911909523 O
   0.4255415821708570    0.3945557446128475    0.7620705673775565 O
   0.1093013659650996    0.8166030426478371   -0.0599443040414484 O
  -0.0149194451854972    0.6620876481055340    0.7573359002799549 O
