Li1 Co1 H90 C51 N3 Cl6 O45
1.0
  14.8499862368999995    0.0000000000000000    0.0000000000000000
   0.0000000000000000   14.4650988235000000    0.0000000000000000
   0.0000000000000000    0.0000000000000000   14.5126958210999994
Li Co H C N Cl O
1 1 90 51 3 6 45
direct
   0.8966206706249126    0.7813255235656495    0.4082036848720347 Li
   0.2310894140745263    0.0964584430929173    0.3229135351122377 Co
   0.0892448381673826    0.1490311914217805    0.1320661533340625 H
   0.3000356059205420    0.1808705867566933    1.0380832132991062 H
   0.3393669555044677    0.0150832645087459    1.0813453341166024 H
   0.5196042942670615    0.2187880601657889    0.3428491834277876 H
   0.4905373313006292    0.0756352186078793    1.0642899225616982 H
  -0.0259741238373376    0.1862372974129581    0.1741734232398739 H
  -0.0509539449686357    0.0277233440706607    0.3381002380320054 H
   0.1499465779279291    0.3234295851542614    0.1282357140631464 H
   0.2106712133325910    0.3295228722500127    0.2395851159882200 H
   0.1887466138881159    0.6247500291541994    0.0711608597279704 H
   0.2407102984121150    0.6440323032266630    0.1763804563366078 H
   0.0534643336252505    0.6638586454797890    0.1030915227634530 H
  -0.0160481887119748    0.3446924886264673    0.2610173849363350 H
   0.4914419112635803    0.5519009589295254    0.2483732833674722 H
   0.6633315655217960    0.5916199409434335    1.0555734165755339 H
   0.2943123682929667   -0.1864404191915129    0.2632285523442087 H
   0.0276582491019022    0.7823327755849948    0.1404925684885923 H
   0.1960974624517835    0.8814796958721931    0.1862152934860564 H
   0.4124552387314947    0.6480184495159871   -0.0034138446096257 H
   0.4815953701511945   -0.0501026019347057    1.0700483289274196 H
   0.5540897807739436   -0.0489446423379978   -0.6703023482554233 H
   0.6440009078753465    0.7350126702506312    0.3165184448310052 H
   0.5221260474459934    0.7035597223273957    0.3216746198740461 H
   0.3354672885905616   -0.0359941604722490    0.9712982402005289 H
   0.3337454014728172    0.2326904885179058    0.7394426262278412 H
   0.3266208157451144   -0.0218304134768153    0.4761620443772397 H
   0.0367215571651490    0.2691188604515931    0.5269831329669747 H
   0.2248887349270133    0.2289746480210073    0.6296608172765639 H
   0.3278571805273509    0.3060802394593471    0.5233745683938884 H
   0.4479068540799208    0.0922911711830933    0.5434363131991986 H
   0.5415197354538903    0.1129311960901447    0.4724523269916025 H
  -0.2169466914046470    0.3418739804021222    0.5976950125963940 H
  -0.0898226678611690    0.3328287604837185    0.4998195373911032 H
  -0.2559029564658573    0.2383454792648137    0.4678916305630472 H
  -0.0765452144780769    0.1358843749139630    0.5949532752589277 H
  -0.1379385373711706    0.1781537024491936    0.4697968589465843 H
  -0.2502665876056614    0.1169048986345489    0.4803072011931455 H
  -0.1615520272698119    0.2953869146582260    0.6926697862008978 H
  -0.1678207199483738    0.0572502768079689    0.6069834316235477 H
  -0.3408457961343284    0.2293244555170874    0.5972767581194295 H
   0.1487041525340149    0.3206055463766186    0.6123725061941242 H
   0.2454786529998147    0.3762581215731436    0.4997676517863003 H
   0.2473156917394341    0.5486536254288591    0.5448460443926447 H
   0.5498850630722634    0.5275100436440513    0.5648968332734348 H
   0.3871441041618195    0.4464186515759686    0.5531644851212432 H
   0.7073464211299346    0.5415946345954115    0.4628385376777557 H
   0.8803815983353519    0.6065724831029531    0.2997917110117057 H
  -0.0618657395935596    0.3917996676588691    0.6031764201157567 H
   0.6954501138080446    0.5012847820935594    0.3518792080087111 H
   0.6725497558834710    0.6510720062554849    0.5561872178058366 H
   1.0018847412484768    0.8681918502552841    0.5113524050308051 H
   0.0997923226903513    0.6515787432013874    0.3589102931535981 H
   0.9638631571882167    0.8492725187429825    0.6987169052945403 H
   1.1921791937091892    0.7917215811270188    0.5775733202795584 H
   0.3784740624563211   -0.1214522700284544    0.4791705825935869 H
   0.6043618138984566    0.7408508605755256    0.4674562876000385 H
   0.6021874011087825   -0.0765192897612145    0.6025411143039587 H
   0.1001680806143643    0.2803451923267809    0.7545686925842269 H
   0.3192322567087860    0.3031829208505096    0.8422905063460139 H
   0.1971304600421707    0.1967218438270907    0.7781949026438001 H
   0.1601991126825864    0.2899303325108735    0.8497901467533984 H
   0.3700538526322006    0.3485196315084822    0.7348742124184918 H
   0.3185016163009828    0.1028241099385808    0.9040888111582773 H
   0.5945059125080353    0.1254827867992961    0.9356653015394605 H
   0.6092453201080313    0.0545320098621447    0.8414298805771033 H
   0.5030486634349535    0.1102799871030553    0.8633720478991126 H
  -0.1428476328300509    0.1249822717258534    0.7068807916917004 H
  -0.3089939147618955    0.1145440436955892    0.6423524634235331 H
  -0.2799972548909238    0.2172609361364589    0.7042527479105755 H
   0.8451532828571815    0.2581109854316648    0.9218387869846484 H
   0.2754376033249346    0.4619336510058651    0.7378330010907913 H
   0.2029015091618694    0.4473289806487715    0.8290345267284780 H
   0.1612415378911387    0.4515672510365549    0.7027575053817235 H
   0.5600468906721455    0.5121467887702605    0.8145237836800484 H
   0.6598500808136463    0.4745468382523698    0.8462305048621316 H
   0.7812003616322354    0.6398698705509746    0.8743279724192716 H
   0.9520530452324084    0.5980222477046944    0.6350485137434271 H
   0.8882758817461136    0.4210390116246964    0.8476616655683183 H
   1.1661017284629427    1.0034760971088776    0.7347226210100367 H
   1.1860175718369321    0.7256038164529032    0.6748288555294537 H
   0.1485748594848922    0.8108842569844196   -0.0974163660444474 H
   0.6512399718236266   -0.0084603008796029    1.0284881661957594 H
   0.6088230974944897   -0.1205155325636549    1.0078937843052869 H
   0.5351183827197180   -0.0751961048847376    0.8116311439859839 H
   0.4220902644963312   -0.0333298164210776    0.8546700120019370 H
   0.6714460511568449   -0.0610171488677351    0.9206081403687362 H
   0.4802767157304018   -0.1480722056886541    0.8882275264708848 H
   0.8089283334586900    0.6610560375961747    0.7539003122833116 H
   1.0276403206745115    0.7607159167017356    0.7371859813974310 H
   0.6571726372547289    0.7437322788436322    0.7691421393516082 H
   0.0456124744962322    0.1608333921590923    0.1958695990490720 C
   0.1739546809869138    0.2825422046242959    0.1886628056807485 C
   0.0824596466936272    0.2579187987045694    0.2372333820015972 C
   0.2365742676427813    0.2136004011725375    0.1473038460912196 C
   0.0371478201864757    0.0796801270259915    0.2611138521962610 C
   0.4716065393446439    0.0126726345901068    1.0276041126637239 C
   0.3712659749677266    0.0167154690507324    1.0079061872387056 C
   0.5912486704319579    0.6365017635926695    0.2173411439530140 C
   0.2254395771883801    0.6783694346946539    0.1109625621215522 C
   0.0468468190745761    0.6960181215868068    0.2501193407721315 C
   0.0690885905301805    0.7225820603948672    0.1512810534075943 C
   0.1660556837670694    0.7585424092557358    0.1275604432436649 C
   0.1561378294572768    0.8102572305042918    0.0330624935239379 C
   0.3158154185251977    0.7066533755783020    0.0685603780211100 C
   0.5915941252975828    0.6816663357792510    0.3128843853392241 C
   0.1004798654151135    0.2604600879448669    0.3473948585258687 C
   0.4162357136157407    0.1505887334942479    0.4056548820544204 C
   0.4704341476856712    0.0861508743843115    0.4714321168127001 C
  -0.0775849460814391    0.3256625460482116    0.5740798273665265 C
  -0.2130140278271627    0.1819773887353975    0.4939070590302431 C
  -0.1671533792625370    0.2909078578062436    0.6158618647960163 C
  -0.1377142947390983    0.1223289887812774    0.6332259715826836 C
   0.2846275108321141    0.3547131598827545    0.5585547999851614 C
   1.1683111581200876    0.6547159495595131    0.5474864911071887 C
   0.2200927708861155    0.3037636289467691    0.6268088316420395 C
   0.6090581145473223    0.6206235450749459    0.3979423246233423 C
   0.5273191162320355    0.5513219099992552    0.4193322857874612 C
   0.6947908539377778    0.5647776770406659    0.3940161071443570 C
   0.7739511966644925    0.6183290567755587    0.3621495259315395 C
   1.0604443914816299    0.7825733546534452    0.6028863292841222 C
   0.3251447201009627   -0.0881258471756199    0.3446427854105532 C
   1.1561071064052333    0.7392711962898674    0.6072645647810462 C
   1.0308490778571680    0.8237227451458897    0.6976061537016789 C
   0.3742222066638149   -0.0626403662606128    0.4333942493616783 C
   0.4720053949331617   -0.0096867010733700    0.4263426304714642 C
   0.5410784555836291   -0.0734636590642301    0.4792292209065847 C
   0.9891843927773546    0.7131414059156773    0.5831443045402809 C
   0.3204571736689648    0.3025178718164601    0.7642994829033266 C
   0.1688401981322916    0.2655910587668167    0.7806265666457901 C
   0.5635615740642625    0.0774471661320413    0.8912311035138643 C
  -0.2947851473843409    0.1887931043556620    0.6372610592550139 C
   0.2120025276977770    0.4286158696425583    0.7548236417711739 C
   0.6756440348455499    0.6084653149690940    0.7816987313346813 C
   0.6223274871148443    0.5362405059478991    0.8407959528690186 C
   0.6047638344730727    0.5683748180374123    0.9438374565588998 C
   0.6560130402204091    0.5925082860668780    0.6743403177631145 C
   0.7743121397599603    0.6137490673258931    0.8030565826822820 C
   0.8330953592238880    0.5310878277042557    0.7758500591757435 C
   1.0932996407873592    0.8913531161469288    0.7481363935027372 C
   0.6220029076894423   -0.0569743144071096    0.9742356682652734 C
   0.4827103206794892   -0.0749396254755563    0.8718019083129255 C
  -0.2037345579474138    0.1957263442335030    0.5927944757921569 N
   0.2329008635648401    0.3290942543694402    0.7316177533441350 N
   0.5355592585492007   -0.0080717795104388    0.9433937071632407 N
   0.6330446687647866    0.2839531870343741    0.3522251120407313 Cl
   0.8873849718295020    0.9549579356663978    0.4296003987443485 Cl
   1.2818695125251371    1.0617473892918681    0.7880455879859508 Cl
   0.7635047223361511    0.2072575478592270   -0.1083206116753605 Cl
  -0.0461445129017876    1.3308461384601891    0.9157958022021455 Cl
   0.6664460465228003    1.9192970093364670    0.7051409357537506 Cl
   0.2714699228799795    0.1458849979145460    0.1910620842454777 O
   0.2485217534632825    0.2242847388245498    0.0559204107633869 O
   0.1035411477136141    0.0320745068776336    0.2843059595861676 O
   0.4530014042561365    0.2153397601846671    0.3499850044548798 O
   0.3521864960052500    0.1033681781192430    0.9684007771434680 O
  -0.0458145462660055    0.0671126359761091    0.2811177166456156 O
   0.0223599276930586    0.3260842507371619    0.2098394363900598 O
   0.1171317327000505    0.6529613815258150    0.2945755884571393 O
   0.5369333338967789    0.5677618253362774    0.1987326095133023 O
   0.6776278750680274    0.5686004646119588    0.9934099142792651 O
   0.6465025936956126    0.6628140622256842    0.1580737266100929 O
  -0.0213343888974632    0.7190673937741728    0.2940553543053959 O
   0.2754988828430084   -0.0323578216790051    0.3001079858138914 O
   0.1937344972988054    0.8161106298507549    0.2015983761849590 O
   0.1599290787622831    0.8957906938491784    0.0353625486213147 O
   0.3504221846057622    0.6407976208666654    0.0207939252169296 O
   0.3515763944297019    0.7846466208209241    0.0707391599917228 O
   0.4932332933952283   -0.0186289144366038    0.3335986622527476 O
   0.1575055074925286    0.2014815762589318    0.3749169677827363 O
   0.3328726733912385    0.1403924671707584    0.4024225397950451 O
  -0.0038717464503188    0.2645084529587901    0.5828376764640877 O
   0.3391137566166023    0.4288039084546805    0.5961363772967336 O
   0.0483976622627519    0.3083353225664880    0.3935461737781464 O
   1.1291144887956648    0.6276362866564413    0.4757623943004037 O
   1.2369401779549738    0.6000319125092494    0.5867211727279630 O
   0.4630922553592605    0.5465066646386884    0.3616975079136009 O
   0.5227170917648218    0.5062536385719701    0.4978972205215222 O
   0.6268588044458190    0.6801447423032188    0.4763753748320474 O
   0.8356509171479554    0.5628858130213519    0.3235488409240356 O
   0.7917680481941296    0.7006630950377205    0.3678114650373350 O
   0.7074097208519009    0.6385563641427686    0.6165633195860492 O
   1.0070227931485121    0.6375532600383966    0.6362646902703504 O
   1.0630282322601927    0.8461560519597234    0.5303753352570844 O
   0.3388221738547785   -0.1770232695638382    0.3149439613386427 O
   0.5787079180683465   -0.1415910885429009    0.4385097014399933 O
   0.5542854711910011   -0.0440798293935002    0.5618594926894812 O
   0.9218732192817040    0.7168848991790643    0.5330286672413470 O
   0.5887368835922291    0.5431558406594387    0.6503744051382307 O
   0.8798947291972489    0.5233177459805551    0.7017749174341923 O
   0.8354502435612960    0.4696456619199398    0.8429568194913594 O
   0.1500193052680606    0.7641075285115558   -0.0457278300724213 O
   1.1159057223449189    0.9685658620554116    0.7050582495309569 O
   1.1241528680355781    0.8782083735965981    0.8233532941706974 O
   0.6338163866517381    0.6933779737063127    0.8064101980684212 O
   0.5270589813108058    0.5894491987740825    0.9702977369047256 O
