Li1 Co1 H90 C51 N3 Cl6 O45
1.0
  14.2510381257999992    0.0000000000000000    0.0000000000000000
   0.0000000000000000   13.9080184014999997    0.0000000000000000
   0.0000000000000000    0.0000000000000000   14.3744185046999995
Li Co H C N Cl O
1 1 90 51 3 6 45
direct
   0.6404272784013521    0.2449869278597245    0.3810692759925540 Li
   0.8968184246284546    0.7545016405549368    0.3856106770919206 Co
   0.1485059223488110    0.1560864127535142    1.0363876109165029 H
   0.0666676738152833    0.2515105027775010    1.0483122672039173 H
   0.3787073975705215    0.2939507687420858    0.2156538889824605 H
   0.6527688354477534    1.0869853824157669    0.0953178907342934 H
   0.0256839928480265    0.1369981435022047    1.0500452068697450 H
   0.7733081242235014    1.0021163546416381    0.2495425641897897 H
   1.0716393729697280    0.4839200313449485    0.3268848232617995 H
   0.3358424501465100    0.3990469771165553    0.2688887380826030 H
   0.4426620366609868    0.4754850051166724    0.1944509443276666 H
   0.6726803673302120    0.4395683500203486    0.1973484528415854 H
   0.9672448729433319    0.4274880525149987    0.2143828810461029 H
   0.9440149863148857    0.5284657014839226    0.0782820711691450 H
   0.7833270434586912    0.6003114505442079    0.2701820077890556 H
   0.9104791838153627    0.6362410837654370    0.1365564284745282 H
   0.8799494781083566    0.4295644805988791    0.3089320970408660 H
   0.2603454940298761    0.6406723404851831    0.0593247825726775 H
   0.1713140853142549    0.6702401759688957    0.2639208849498553 H
   0.1623491243849382    0.7940011568872385    0.2476607489364523 H
   0.0281490764222821    0.7953147875909504    0.1827718631916117 H
   0.5419813976440692    1.0305819482705121    0.1948648741153693 H
   0.3733997140647802    0.8271683548793154    0.1241976676702624 H
   0.4067081647060455    0.7552594767682441    0.3025909709653871 H
   0.6723688110800072    0.7773122229716084    0.0969033461732420 H
   0.6884890402150412    0.9309552466082133    0.2955840788280065 H
   0.8135936104408622    0.9154742489718586    0.0943383728501163 H
   0.2168784852034418    0.2419987235878982    0.2985852437089298 H
   0.2134197898042087    0.2385273448043619    0.4221749387925346 H
   0.3658136000535996    0.9922738309946146    0.3412534044974487 H
   0.6040825577271224    0.0543803350676060    0.7390406261600433 H
   0.6117458590975879    0.0561268096047248    0.6183324389431015 H
   0.4830466735498656    0.1865846467761449    0.4607016450950487 H
   0.7161515863762437    0.0382752370202923    0.6885891940020830 H
   0.0243409327964679    0.2289120282193927    0.6127607352965287 H
  -0.0173549769860093    0.1602681731108148    0.3850144790615657 H
  -0.0408774738764723    0.3292879379787180    0.4924042840470869 H
  -0.1945813641239090    0.2243376885713276    0.5597363294918150 H
  -0.2039771708586892    0.1576933994107644    0.4562411516163709 H
   0.1731434257293088    0.5174518391508471    0.6501493781709708 H
   0.2906660921635467    0.4170125846378289    0.4470010560983108 H
   0.1248290507397781    0.6157385224538093    0.5743529207599278 H
   0.4332697384425378    0.3051493446645337    0.4675715577783139 H
   0.0643436325975393    0.7582469620303802    0.6519644081140235 H
   0.2005842336583836    0.7639954445022885    0.6464073137540755 H
   0.0735675220320938    0.0630889804334287    0.5848263879092790 H
   0.1594756495097384   -0.0010229565987967    0.3533018918810164 H
   0.3009909540228114    0.7234936286620645    0.3593480495027375 H
   0.5088511585813276   -0.0690319261510649    0.5881851324723523 H
   0.4467335295226160   -0.3122053173823593    0.6134480674482098 H
   0.6963011026779468   -0.2015461310360131    0.6165292355654118 H
   0.6538108647981006   -0.1213751125766369    0.5320814368872882 H
  -0.0636189750316246    0.0363295967990311    0.4142699233678866 H
   0.7518170582887658   -0.0890549079994327    0.6118118273462322 H
   0.1671122861560873    0.1839537903202709    0.7326090616435537 H
   0.1904804083279804    0.3049890055036537    0.7429920903518942 H
   0.1495388295566972    0.3120561517471041    0.9018012970863160 H
   0.1114812512096072    0.0374045162856481    0.9099337999741216 H
   0.2110382089186341    0.1985798854351624    0.8857470824462909 H
   0.4847270423614994    0.2751788637543959    0.7979216167005134 H
   0.6374036390271798    0.2884014519543200    0.7822117638166446 H
   0.7039552819059514    1.1342581125071429   -0.0581046633174697 H
   0.6045534006187607   -0.1062730330469358    0.8283729354691216 H
   0.0595973117047796    0.0984973316293753    0.8015161968905298 H
  -0.0457985188825226    0.2433418336889019    0.8340531652449072 H
  -0.0830491384734514    0.2134267165248976    0.9413562884631212 H
  -0.0068266211795387    0.3201342256147576    0.9244122986996144 H
  -0.0104838986031141    0.0545600874901172    0.8968911854197519 H
   0.0395826294421856    0.3393943381819878    0.7263201115917347 H
   0.3354887917003316    0.3231339340416245    0.7199330706154351 H
   0.2942461822278370    0.4555541643600838    0.8366925763617878 H
   0.4899484865358215    0.3190276697017786    0.6842509315548326 H
   0.3645000115392226    0.4404077219325069    0.7151384418812385 H
   0.6439891241807206    0.3665276068552087    0.6776510124020002 H
   0.6103515747075948    0.5399162903027311    0.7136816873006513 H
   0.4921474140611972    0.5493660189560831    0.7573940642426856 H
   0.4720427734398729    0.4544065529938032    0.9026535054727626 H
   0.5545872161405315    0.3588737487046817    0.9270419702920785 H
   0.6081159481013955    0.4767506275433799    0.9085389609416109 H
   0.5179188067666239    0.4722825071968252    0.6586338952984027 H
   0.6975038220762600    0.4071012517634682    0.7829721424014495 H
  -0.1494667560283737    0.5220537887710099    0.7358585843970985 H
   0.7984648880210071    0.5987698937687518   -0.1088218453559382 H
  -0.0244091999213898    0.6566480167882888    0.7747498967529488 H
  -0.0282012043720807    0.6328178786311337    0.6477527594841880 H
   0.1626571721188118    0.6968025509482212    0.9303130591354030 H
   0.4754462447920539   -0.0398595459968769    0.7037007618146506 H
   0.4753879332506304   -0.2155531588077760    0.7440335237841478 H
   0.6422467949706788    0.9891037172712071    0.0137945929663287 H
   0.3898314994500188   -0.1688283141002141    0.6621818649072828 H
   0.6349841661652289   -0.2117733248672104    0.7614324884739698 H
   0.7199877981327069   -0.1136968080966484    0.7861159217470437 H
   0.0770156918823335    0.1810065696007772    1.0176752017910795 C
   0.6447287194233240    1.0706710525486502    0.2681603607923094 C
   0.7786810661330019    1.0471450554903841    0.0221434524322445 C
   0.3809760042302335    0.3363658693675191    0.2811640172490129 C
   0.3274255194681166    0.6231134048445990    0.1799070516525199 C
   0.4854982844214096    0.3695927451638698    0.2777280521709228 C
   0.8170031866114594    0.6060815033068174    0.0185586117666446 C
   0.7924969017417461    0.4125311410417176    0.1377022139541018 C
   0.9142136485982231    0.4694485592639012    0.2486145266489571 C
   0.8332532308507453    0.5068383933141578    0.1809025701839527 C
   0.8814090209021087    0.5682889159786824    0.1041745968304999 C
   0.9567445852675105    0.5539842181952409    0.2990172611848346 C
   0.1880447962909063    0.7305305764985330    0.2172949988466465 C
   0.1336817391464985    0.7266996928699744    0.1258186028052998 C
   0.2950692801591214    0.7339954841948589    0.2049271941982796 C
   0.5993706202944078    0.8808704696190721    0.1369390526480349 C
   0.3321234228355067    0.7661316222914116    0.3006152388694616 C
   0.6866442623281301    1.0204769860866221    0.0686295067920446 C
   0.6917954660055030    0.9369740767235784    0.1423027478802831 C
   0.7031370958975307    0.9835098218826585    0.2407442952400824 C
   0.2393350948325059    0.2761660640588275    0.3627193163114890 C
   0.0817992030482032    0.0666804338352025    0.4379640992323668 C
   0.3473181053623872    0.2816930915462019    0.3637078780397672 C
   0.3800420371828853    0.1728199252699270    0.3632556858347138 C
   0.6387979234171730    0.0207795742324320    0.6817569176238846 C
  -0.0187415426400739    0.0985275300363572    0.4380510592718001 C
  -0.0625215111232455    0.0824260270374938    0.6101644563592070 C
  -0.0604430660486810    0.1567716289881269    0.5233987204379800 C
  -0.1568367454335563    0.2004938892300616    0.4947893544406329 C
  -0.1578233402258716    0.2958539873916344    0.4416560746665485 C
   0.1654464426020643    0.5994881844491066    0.6387645698083584 C
   0.1920901156207052    0.3790153671519069    0.3650901948265995 C
   0.2639936493109905    0.6483592730814522    0.6290452201209731 C
   0.3053604602616072    0.8730404540944842    0.3224867323074191 C
   0.6855082047401087   -0.1245107138349223    0.6050345097129556 C
   0.1445995402657251    0.2386991881202826    0.8705151619391476 C
   0.0573104607601456    0.0875417809821626    0.8771957800085743 C
   0.1402826617718963    0.2515025936709105    0.7625747955519662 C
  -0.0269753287659821    0.2495943419535316    0.9036796339380759 C
   0.0005770499824228    0.6109585460343915    0.7172296569095313 C
  -0.0116943367373557    0.5032626143236270    0.7278756527771183 C
   0.5439197125763682    0.5039701917596000    0.7252251107751901 C
   0.6390147497264370    0.3644784292385810    0.7549598788188676 C
   0.3729871125442387    0.3776614719055526    0.7577495568838891 C
   0.4726921296424394    0.3398192729088043    0.7583276672260419 C
   0.5453774309416283    0.4299164358421561    0.8902036105471707 C
   0.1597928193860730    0.6305494030590423    0.8123507221236083 C
   0.1086091797409399    0.6442903972454886    0.7152114883143625 C
   0.5126746695086721   -0.0943561664441331    0.6609595545930077 C
   0.4640235681727770   -0.1910938871718317    0.6705133323653119 C
   0.6447862590911545   -0.1311953469232689    0.7720040465478016 C
   0.6214398897205146   -0.0835300375411284    0.6798771894114937 N
   0.0602912962350781    0.1886798410129354    0.9156940329861858 N
   0.5474555251645596    0.4119874259141058    0.7841534075771120 N
  -0.0352792852185129    0.8680045102254103    0.2941384551324667 Cl
   0.5517441250167594    1.2571124222063392    0.5275144347523124 Cl
   0.7483899395365128    0.7914386063519189    0.3970358349128302 Cl
   0.9525427861093430    0.7362840920382715    0.5334303610189781 Cl
   0.5725315229161226    0.1558038419453266    0.9089208894348021 Cl
   0.7619503551563505    0.6024059257713085    0.7645880943849268 Cl
   0.5635542120093203    1.0911031509106537    0.2285754551619389 O
   0.5541751058122765    0.3436242721885214    0.3187084925141195 O
   0.6727828160070811    1.1263238405774985    0.3322770413869819 O
   0.8565918814854570    1.0160133739308239    0.0438111115377702 O
   0.8397229349653587    0.3628966079204825    0.0844757130177450 O
   1.0432596860704415    0.5541316151817001    0.3248026520776077 O
   0.3119719084359984    0.6003876655713527    0.0911138945879282 O
   0.3748676772977271    0.5752122602841236    0.2331940767763223 O
   0.4923727309799827    0.4314569141030771    0.2070079740218405 O
   0.7647241881677460    0.6750115242720331    0.0322022941135775 O
   0.7006671004004115    0.3918619132839375    0.1523365450702593 O
   0.7585379721726884    0.5472240890894395    0.2288182475920368 O
   0.9060556464250675    0.6295420704832895    0.3154958408172943 O
   0.1590623462859307    0.6811662472188167    0.0520841418493002 O
   0.0466080825436507    0.7576818204140051    0.1256098987106598 O
   0.3080416684418608    0.8007562529252094    0.1296559754254140 O
   0.5268766734759190    0.9171696738209841    0.1587124551615115 O
   0.6049154795041339    0.7889235104561421    0.1064132960856718 O
   0.7610177915155347    0.8717965673307065    0.1192047700461579 O
   0.1075194345684893    0.0466732702000157    0.3516239109601107 O
   0.0065492464812812    0.2307188995704753    0.5473064701593083 O
   0.3357280725141150    0.1172023687158910    0.3152015680438519 O
   0.4448969615639199    0.1311166442376381    0.4161677392684798 O
  -0.2288315005484511    0.3127485580786172    0.3938419665845226 O
  -0.0878551041438405    0.3562601484813689    0.4425381973065604 O
   0.1240901572004410    0.3991152830371096    0.3164823155046261 O
   0.2262511357304364    0.4446448460359409    0.4250216626434244 O
   0.3716230013946932    0.3303326590583531    0.4471522274308616 O
   0.2624435867958950    0.7409310516650313    0.6180819940295335 O
   0.1341771416524548    0.0563087190563062    0.5063457732234647 O
   0.2259332641508356    0.9054419067666634    0.3348044479730724 O
   0.3799669549333990    0.9252139542332055    0.3194466093288296 O
   0.3370648172362775    0.6016984202363044    0.6404077667134906 O
   0.0229775233501888    0.0611411831830973    0.6393524196749277 O
   0.0458263851050738    0.2693994638658158    0.7270046610221540 O
   0.7712935341461635    1.1176008150178749   -0.0397150498584231 O
  -0.1307944321140720    0.0607572320086134    0.6538086566303256 O
   0.2102579148865896    0.5652036453987000    0.8364483925710591 O
   0.0572515176857825    0.4520263433158789    0.7286186393540367 O
   0.3333100030586966    0.3944999598367119    0.8432361454090676 O
  -0.0983483747869997    0.4674003666905489    0.7324073143520683 O
   0.8421038141476670    0.5672866164707598   -0.0623768361347507 O
   0.1422298883356763    0.7073971587310314    0.8652773848439989 O
   0.1129078139498468    0.7465544264508717    0.7020902618843453 O
   0.4907361484521614   -0.2605300909588389    0.6075507854139987 O
