Li1 Co1 H110 Cl3 O55
1.0
  12.7917197142999992    0.0000000000000000    0.0000000000000000
   0.0000000000000000   11.8368470454000008    0.0000000000000000
   0.0000000000000000    0.0000000000000000   13.0528479306000005
Li Co H Cl O
1 1 110 3 55
direct
   0.3834222424070989    0.7221303519353829    0.5314753915915049 Li
   0.7014185783847120    0.5715015575308043    0.7550503551179402 Co
   0.2324581779083111    0.1803163050526580    0.0856516885237786 H
   0.1793253689365666    0.2884734853465034    0.0750281065486207 H
   0.0605394641530713    0.4461362474690611    1.0065257432824535 H
   0.1335840602565539    0.0060126250197394    1.0935259141292919 H
   0.3512999000499059    0.2981390660168612    0.2042893228725010 H
   0.3952220631795367    0.2243356286108253    0.2971020183425778 H
   0.3976470694095687    0.4193748980332667    0.3043893169080509 H
   0.5436235324423333    0.3085007780107375    0.2059862705514879 H
   0.6275442267646092    1.0334210179267067    0.2810672034797359 H
   0.6330516957815578    1.1553791706732193    0.2159090093046426 H
   0.6529442517226903    0.3297927655673346    0.2617396206149593 H
   0.6011013396818139    0.0055624206722843    0.1274899910079245 H
   0.6791096155264201    0.3382071684584074    0.0748463071426507 H
   0.8791929551526635    0.1496738545243346    0.1297462036104601 H
   0.7970054132520449    0.0848592128332310    0.2061410260508808 H
  -0.0745404186611494    0.2081928163173898    0.2924876996651341 H
   0.7829768069342102    0.2951593874027233    0.0180102814764957 H
   0.2480143348945799   -0.0120698085184366    1.1134142941502845 H
   0.0684534117895904    0.5926516154000822    0.1825116999727808 H
   0.0496917593018715    0.6405190920876508    0.0209437409179587 H
   1.0405864226543062   -0.0728457057857388    0.2279355035099408 H
   0.1723255282583893    0.5886437913724467    0.0267728136540036 H
   0.1010051725614052    0.7578003237091655    0.2989675116149629 H
   0.3510653733352025   -0.0933883383860727    0.2508730265387744 H
   0.3369077773242811    0.6095336448149724    0.0346836083364368 H
   0.3346563208631295   -0.1847919018392691    0.1652219865554556 H
   0.4883244783824461   -0.0290001616125808    0.1010277199513335 H
   0.4720131453748328    0.6708793728804702    0.1445368455474895 H
   0.5829560077652209    0.8210553439969348    1.1239330714110021 H
   0.3801803014541839    0.6139064308957146    0.2128560357151335 H
   0.6306587415358688    0.7543002362415234    1.2194601170511241 H
   0.9524200130401853   -0.0058077524391697    0.1743747783933138 H
  -0.0286943547152359    0.8127178196864934    1.0896417043177959 H
  -0.0204180633045002    0.5907144441320871    0.2609014893459698 H
   0.8118470455141843    0.5306393246959240    0.2896959717453923 H
   0.8122199429905625    0.5990350720511811    0.1876469777570918 H
   0.6967507150064011    0.6978417893733002    0.1018557384847191 H
   0.8151679437943827    0.7113428508795486    0.0650463002261432 H
  -0.2395354347449189    0.6770043147439520    0.3095728600213806 H
   0.3002739227319125    0.4809732271494102    0.3509071345696323 H
   0.0791148398888586    0.2466000034894731    0.3424806210160538 H
   0.2027655323154441    0.2040523556176761    0.3597082790103550 H
   0.1650645811711756    0.3947002529288930    0.3652212521471448 H
   0.3288994717728796    0.0658947876667137    0.4081069122709940 H
   0.1548407799215439    0.0442579025217350    0.5637365504005959 H
   0.3183660952598394    0.1571226286498957    0.4901158352042435 H
   0.3520198970640450    0.4736562448763599    0.5937675445624945 H
   0.4479194342176488    0.1690599291369297    0.5951741341510363 H
   0.3766264399707134    0.3470110331700408    0.6362333729355154 H
   0.5777948565303174    1.1332364498122738    0.4778403531905160 H
   0.5908939553022114    1.2562168342353124    0.5158182720811418 H
   0.5752189714471596    0.4737255200808848    0.5026839736574170 H
   0.6524056220345886    0.4437470977325195    0.5798640653398068 H
   0.8180150981108807    0.3561739461978095    0.3427640840594963 H
   0.9035759159246481    1.3668628529746498    0.5561205879279961 H
  -0.0717214075504159    0.2469083626315656    0.4102949405198367 H
   0.7193129667165725    0.4046784168391802    0.4001017627009111 H
   0.9629111747445788    1.2629500461873053    0.5964857253142081 H
   0.1247189504407698    0.5166617849536751    0.3352875547596169 H
   0.0880852521995444   -0.0561385540212955    0.5845036658562602 H
   0.1621564499088549    0.8519926365542727    0.3601633521125303 H
   0.2333634510270658    0.5462330042705646    0.5006752166306434 H
   0.2390210171414247    0.5961618407025326    0.6050792522285176 H
   1.0181969389572996    0.8164730426634831    0.4529798781642752 H
   0.5085430264570161    0.9516086910219388    0.4102275222824773 H
   0.4488841207707950    0.5774119152241723    0.4094721315775198 H
   0.5442794254877868    0.6672331316276721    0.4072978934226825 H
   0.6241217002413726    0.9705157529398313    0.4507872532174308 H
  -0.0936473101080259    0.6626525199333552    0.6635592103233724 H
   0.6688998858796704    0.7519313621745989    0.6312926886999460 H
  -0.0185635823957697    0.7538634645251897    0.6225811798702577 H
  -0.2755876630848233    0.7687990296568439    0.3940555725959160 H
   0.9218064592142500    0.8843357088717255    0.5114399172344557 H
   0.2945162918859469    0.3155203837960712   -0.0242002003225269 H
   0.0679456614522578    0.2542371723785593    0.7393495669765602 H
   0.0483607498379160    0.1349562528410637    0.6904744093564044 H
   1.2194990357442843    0.3755397451407875    0.8256763215661392 H
   0.0792922202607458    0.3606126282048071    0.9169820662079690 H
   1.1440048862812973    0.4610954675486018    0.7769145491633603 H
   0.5751861377071011    0.0556454366752985   -0.1660643367811274 H
   0.5344394662945527    0.2390228167896707   -0.1469351780467605 H
   0.4025377331668478    0.3359337590025965   -0.0848912467678665 H
   0.5708653738665510    0.4180933067495561    0.7869568020645612 H
   0.6399186379880700    1.1126735415423228    0.6748341444053811 H
   0.5421053628424873    0.0192003429484477   -0.0529434295392296 H
   0.3687924659439081    0.1327048086940045    0.6688346873967372 H
   0.4909949559072009    0.4711581134156267    0.7013823737146052 H
   0.6213660113436089    0.3111475977153290   -0.0928841384766113 H
   0.4174684855805745    0.0055288813354594    0.7983880238786302 H
   0.9643730579328958    0.2625907482607809   -0.0036493595078458 H
   0.8828984772449753    0.1578770525235632   -0.0467968781945291 H
   0.7810403980264767    0.0856775895481489    0.8033593527675446 H
   0.8956958183106178    0.1091726975725511    0.7788773392101163 H
   0.7297454967422903    0.4679418853226233    0.9435892864748825 H
   0.2414780753557994    0.7885711868117300    0.8525133767331412 H
   0.1945484979879568    0.6500647083794411    0.7562631172740739 H
   0.2886765766898352    0.6625452278482983    0.8918687727916308 H
   1.1172610232479663   -0.0888398298353161    0.8552330897175220 H
   0.0805592117491445    0.6429876548635257    0.6964087464766898 H
   1.1958978306879773   -0.0516517172989574    0.9397740271334132 H
   0.3021751526324404   -0.0248289494806147    0.7787003663370481 H
   0.3270897072910859    0.5140419994752398   -0.0498238038286949 H
   0.3606739328365961    0.7488595982276171    0.7312409917014374 H
   0.5634527661704959    0.7170132798157817    0.6809431560497337 H
   0.4237608373360636    0.8484832560713895    0.6919897874643213 H
   0.6981438036917386    0.9893045401182911    0.6751988157801881 H
  -0.0522494361843180    0.8029863430898802    0.7961923344664512 H
  -0.0427057624073257    0.8070854076307923    0.9614244747217510 H
  -0.1012983532973626    0.9174864286955905    0.8278444307903076 H
   0.7457542902879364    0.6018500108496806    0.9564906855331844 H
   0.3617605732813880    0.8881458451205948    0.4247576846660731 Cl
   0.8120354486416625    0.5202784575216151    0.6333228969840612 Cl
   0.7454056272387442    0.8651583046922725    0.5435149097744749 Cl
   0.2489524417533930    0.2611376586048929    0.1006167751499753 O
   0.2007712734847505    0.0358713026426246    1.0708182260005468 O
   0.6199565057882422    0.2978644996574638    0.1983320022622068 O
   0.4126528703720004    0.2863344022019054    0.2488688662100025 O
   0.6509390483119774    1.0698749822590150    0.2145721363024611 O
   0.3783236316294495    0.4992973635658126    0.3246163203485073 O
   0.8747916704733986    0.1056478568915850    0.1988361068097342 O
   0.7512218897633857    0.3970437824087962    0.3324391342311867 O
   0.7199758955634671    0.3485967594980071    0.0083628083220136 O
   0.0587195368469738    0.6119599666124785    0.2550345704630437 O
   0.0935824802166178    0.5778250319926195    0.0415660450642407 O
   1.0130060810052000   -0.0501648348603743    0.1621552228719412 O
   0.0966281223093262    0.8387348830834288    0.3283879110589598 O
   0.3463529498810979   -0.1042898900835027    0.1761054351909803 O
   0.5552177514615479   -0.0294352436897799    0.0686678853584713 O
   0.3969458345326059    0.6522992561351526    0.1474710711052862 O
   0.5973926905666394    0.7423747632284328    1.1521721194685439 O
  -0.0453840574892372    0.7667004978514799    1.0308116310584732 O
   0.8487748402556475    0.5920053284310389    0.2571230035885147 O
   0.7571835588511431    0.6569812461775547    0.0776250110847208 O
   0.1514635952298166    0.2692065302929085    0.3441001909453441 O
   0.1203325191201028    0.0046186727335677    0.6231504043061437 O
   0.3055625001484715    0.1452233450433937    0.4162898008304787 O
   0.1786616583339564    0.4765607345490013    0.3818107352355337 O
   0.3950492951663720    0.4272587542360269    0.6378429833524687 O
   0.3737347255784219    0.1882457815120565    0.6104880335439339 O
   0.5724093414050143    1.1807997914555868    0.5423304939226854 O
   0.5743535678699045    1.0007771898432678    0.4026743813492352 O
   0.6342376192022409    0.4237231843465550    0.5091852368645874 O
  -0.0551169161494235    0.2707246710554846    0.3375269128028127 O
   0.9200318737396618    1.2889958334495315    0.5359640671902336 O
   0.2860522227523054    0.5782981309503505    0.5467808637047327 O
   0.4890648010451928    0.6352144700240919    0.4530633848446408 O
  -0.2989973379907894    0.7267270152014800    0.3334580689549124 O
   0.9819625615356421    0.8336524485660901    0.5207413356410378 O
   0.0628331354228694    0.3608905738424741    0.9903070604995409 O
   0.3261813071494686    0.3569351286280160   -0.0851999916503187 O
   0.0118449169059433    0.2089827226128870    0.7052167859644153 O
   1.1471006389153806    0.3851968776154715    0.8090132913097220 O
   0.5546048549804568    0.3143933944931905   -0.1298369937128424 O
   0.5574824977698660    0.4857591299985997    0.7445308117408889 O
   0.5179350396251670    0.0512968969161400   -0.1198131276036487 O
   0.8950391435094487    0.2265693315469696   -0.0005445198425500 O
   0.6700826822774907    1.0531053138465858    0.7183043512917888 O
   0.8523709165477646    0.0670340268533212    0.8269404135166259 O
   0.2940871079980399    0.5781654942782724   -0.0189415011968683 O
   0.2815117855556498    0.7208757948778283    0.8315984008250865 O
   0.1527527104049690    0.6100701052402566    0.7018910749601345 O
   1.1880568208597306   -0.0920002998368726    0.8785613320765059 O
   0.6375897877110666    0.7130764206318059    0.6934293200552091 O
   0.4175779313807694    0.7663828456941462    0.6759250940644680 O
   0.3689480353313279   -0.0137658682819022    0.7423014132100303 O
  -0.0466848990001247    0.8633165980353911    0.8456259908938221 O
   0.7378413589338476    0.5427895197139370    0.9076584304277118 O
  -0.0319667059654908    0.7113301785860381    0.6850526040633165 O
