Li1 Co1 H90 C51 N3 Cl6 O45
1.0
  14.2562559051999997    0.0000000000000000    0.0000000000000000
   0.0000000000000000   13.9131105900000005    0.0000000000000000
   0.0000000000000000    0.0000000000000000   14.3796814578000003
Li Co H C N Cl O
1 1 90 51 3 6 45
direct
   0.5794960123005803    0.6755519360103067    0.3585837936697163 Li
   0.6777622758494141    0.7001524735957698    0.5921376460172785 Co
   0.1619648568848840    0.2815379615982769    0.1787599215214655 H
   0.3029990816750424    0.1266789898347239    0.1827120257573471 H
   0.3453278672981940    0.0647884446234392    0.0799016815686669 H
   0.5018505907143809    0.0297287074895593    0.1280501751240956 H
   0.7461140230739129    0.2530705676651996    0.0092756386357676 H
   0.8745993709927783    1.1000220760122630    0.2675268391855294 H
   0.6709624540277084    0.3561553516696370    0.2762363506143842 H
   0.6975093961222282    1.0305142550440980    0.2095408537207604 H
   0.1009362105288200    0.4872030414156293    0.3132496879099260 H
   0.3012419583344840    0.5333712937158506    0.2553207273523085 H
   0.3653864297918495    0.3042144147148621    0.1392910360899219 H
   0.3169936396660524    0.5773740345867545    0.1110205906566894 H
   0.6250036830602894    0.4151287922020319    0.0892301218678252 H
   0.6890429375511544    0.6318377718724077    0.1708584947524901 H
   0.7338990347096481    0.4199215378334745    0.0394751949523954 H
   0.8587347567838327    0.4569046406896993    0.2579633450007953 H
   0.8425355526214156    0.5815003584327867    0.2382396813833265 H
   0.8025089142252949    0.5863540537702289    0.0630306541601699 H
   0.0783264873207490    0.7414135558164927    0.2093475253770027 H
   0.1566556087552687    0.7643185703305763    0.0897711630600680 H
   0.3306592192751375    0.8278485763836656    0.1989571700385709 H
   0.3834907624943691    0.6904853327267343    0.1017929870835918 H
   0.6054382374162997    0.9160969944536321    0.0460274958692486 H
   0.6841398269122312    0.9017414699497476    0.1975677094960245 H
   0.8903756029498634    1.0192191532777861    0.1267879774840947 H
   0.9759731124302378    0.8814153179961175    0.1630189608705450 H
   0.0508087433486512    0.2308038000724323    0.3847491855182200 H
   0.2207383529256206    0.1326366798468753    0.4210970004217613 H
   0.2478962548722866    0.2419105902470944    0.3715180162076650 H
   0.0665912883237264    0.2616056827447384    0.6538163419329592 H
   0.0643971638489693   -0.0283920121560681    0.5905604205365501 H
   0.0262896829218178    0.3369561942797725    0.4784496617042996 H
   0.5991027731400828    1.0571488453179902    0.6254137656173024 H
   0.4472210298269443    0.9757594254125742    0.6016016943273460 H
   0.3772415761306827    0.0861474353450101    0.4289121944043124 H
   0.5293062566762433    0.2217935935345713    0.6744711805586712 H
   0.5707625130685284    0.2117548607079677    0.5224173950546829 H
   0.7143546324589584    0.1188087152982229    0.5175084824193678 H
   0.6735423740463007    0.2879441494470289    0.5264446748084070 H
   0.2372995034527995    0.3190162808157482    0.5717532584451184 H
   0.4438881070514301    0.3528476801247075    0.6019466254730431 H
   0.4862751828740230    0.4809422559905061    0.6143502382042036 H
   0.5406137136321192    0.4026975677909853    0.5337329447403637 H
   0.7005235114892459    0.4112773170302242    0.6054529618371669 H
   0.2699188674072848    0.7628437024448320    0.2890426148240904 H
   0.2463741160902460    0.9436652364739092    0.3174806578502927 H
  -0.0216198106045204   -0.1833235773194555    0.6219359417067545 H
   0.4236787335724572    0.7902847263287656    0.6343993610478544 H
   0.5342037557436200    0.8946043168769207    0.6383333842156149 H
  -0.1029272736374477   -0.0005125528869961    0.6227196864672400 H
   0.8848054167433269    0.9087327174763729    0.3597006473390504 H
   0.7650916565983866    0.8823022512178565    0.3593925737552926 H
   0.2906164476108201    0.2953113014104202   -0.0640848181376186 H
   0.2288316419888392    0.0869919625213013   -0.0576785566171292 H
   0.4030597153705757    0.2562898333865684   -0.0258329276757729 H
   0.6439483486019263    0.2452455741602785    0.7132710664697295 H
  -0.0013304722310071    0.0768209803326231    0.7574611969580037 H
  -0.1239454148655878    0.2943230249275263    0.8195536711633817 H
  -0.0426940675481275    0.0590183474564044    0.8755117952957857 H
   0.0199829779497777   -0.0376063427093050    0.8089282619393742 H
   0.2202613693441516    0.5307608063079444    0.7981436002307604 H
   0.0728629209735996    0.5284219332148643    0.7080268612888773 H
  -0.0016503318091687    0.6234586247905329    0.7404489981330218 H
   0.0379196649523398    0.4583010933286918    1.0292801528556541 H
   0.4584520992651409    0.3511679694770543    0.7768941726341390 H
   0.5142333370100342    0.4651279060234941    0.7721840543885597 H
   0.5760549966281480    0.3599474583778178    0.8215286801427772 H
   0.6516754826217231    0.5010195060197534    0.6840012943099508 H
  -0.0821069403063285    0.4147706408046312    0.8897555044211294 H
  -0.1137765457765361    0.4843572363928144    0.7966852925442138 H
  -0.0371961303252546    0.5835114112321593    0.9739986779264022 H
   0.7153240314436496    0.3912416824252383    0.7268791565080422 H
   0.2716801994265032    0.9636844836579423    0.7217065801739779 H
   0.2348703944195246    0.8399249556313634    0.7036540245063286 H
  -0.0932957125239918   -0.1292925254466765    0.8591825045052286 H
   0.3149973230883162    0.9154767161956413    0.6217022786725726 H
   0.0039717614341748   -0.1568780173837460    0.7358209401196851 H
   0.2963325346775706    0.7647440682781205    0.8351089531532112 H
   0.4116454198370166    1.0040456952193320    0.7779880772554730 H
   0.3084338887180149    0.8906885857650616    0.8710436851927523 H
   0.4056740062648914    0.8070998014686233    0.8835210130477916 H
   0.3818956732822215    0.7101768314917132    0.7097236999894845 H
   0.5008130812800415    0.9145286895185961    0.8009246075929441 H
   0.4847284233218213    0.7515284757755959    0.7440276587696305 H
  -0.2002263126855645    0.1009636763765564    0.8317319659687239 H
  -0.1737684542893485    0.1258531500682911    0.7155159006195493 H
  -0.2594494358964799    0.0319402905716428    0.7469421878656325 H
  -0.2106708502268476   -0.1305179882854651    0.7981769806642148 H
  -0.1803059351412463   -0.0490868810811343    0.8993426430795605 H
  -0.1594652598632703   -0.1076172862505796    0.6565424106650826 H
   0.1851757196948945    0.1893529687669938    0.0663499210118087 C
   0.2900959743498643    0.2172202093450046    0.0636774000583522 C
   0.3437734619797599    0.1363202558285710    0.1163962312942690 C
   0.4518789849339215    0.1627564720593513    0.1373348036043447 C
   0.7276091644522481    0.3047671307987497    0.1419725975774390 C
   0.1763403002946258    0.6378206180132145    0.2117036276383377 C
   0.1064537882521062    0.3601602073515898    0.3512971232168625 C
   0.3958060577000311    0.6232818131434115    0.2310510659537456 C
   0.6692754753314836    0.5016343218040935    0.2688717924834698 C
   0.6998550330287459    0.4071734180760221    0.1041045821003207 C
   0.7300754501470199    0.4913566776299160    0.1748349388877657 C
   0.8971003700021321    0.5055918120895206    0.1208601688431207 C
   0.8335254730567560    0.5071125360040712    0.2073509582010012 C
   0.2498841540927027    0.6966478655007946    0.1597796679740578 C
   0.2668514421105735    0.7924459971535380    0.2175118230594328 C
   0.1874540177428521    0.8615426951048192    0.2151717155891281 C
   0.3415316391468560    0.6446192414689921    0.1450157804273805 C
   0.7336275749360769    0.9621607410079531    0.1778718629064345 C
   0.7366928958934581    0.9711235102746352    0.0726504778263587 C
   0.8300070176969792    0.9357805870067478    0.2195904504676767 C
   0.8531849125241530    0.8358259441535856    0.1815096347272856 C
   0.8206349917675579    0.9307184551747317    0.3255371645496924 C
   0.2390173457925310    0.2061206066356726    0.4380208801832281 C
   0.1542257982755504    0.2527025694402965    0.4931697374320678 C
   0.1018038997792274    0.1708883703338694    0.5550098416520154 C
   0.0706814225348225    0.2917391311413417    0.4287160843577668 C
   0.3259988091056086    0.2046680198924517    0.4904556995645022 C
   0.5943652038617869    0.2626198341028209    0.6592010231045996 C
   0.6306629529651298    0.2300793035671544    0.5647334228321922 C
   0.8028575331076333    1.0309605966410995    0.3660450159725095 C
   0.5051746051200646    0.4038935620219202    0.5995321074531627 C
   0.6661540386586354    0.4212580470116137    0.6720928246750331 C
  -0.0108399816633224   -0.1234857722064581    0.6679606051836362 C
   0.3298630775619503    0.2360024937457210   -0.0364193930607502 C
   0.3395037574791696    0.1589909589728921   -0.1157236532661407 C
  -0.0289274796512019    0.0209700622382532    0.8088642827752528 C
   0.1093170926338066    0.4671538728134267    0.9093484280075678 C
   0.0594758156025192    0.5840943146704335    0.7628368375955834 C
   0.0280173455117560    0.5291595109070431    0.8537477526834064 C
   0.5280568402713720    0.3862226753852030    0.7666672423344952 C
  -0.0234863595902393    0.3664089897096118    0.7676957769403141 C
  -0.0498642530919150    0.4499013182213195    0.8298077230652074 C
   0.1465891508469441    0.6491574070784412    0.7706200419960738 C
   0.2932917643457061    0.8934061664063867    0.6907351013337133 C
   0.3437559258186765    0.8276329524237614    0.8451954074620669 C
   0.4473262467934448    0.9402195655946410    0.7554409853083053 C
   0.4203861439674348    0.7765904486352538    0.7062264041594214 C
   0.4984132225634538    0.9608569347970662    0.6614354258689648 C
  -0.1926857634196952    0.0673054949820535    0.7635475626578869 C
  -0.1565703903916199   -0.0851636445592287    0.8350004667444838 C
  -0.1034400309875268   -0.0596157990432533    0.6719739068808512 C
   0.5697164459875804    0.3670457991378620    0.6752465802107930 N
   0.3748566582233380    0.8602475138523282    0.7489067654595734 N
  -0.1184208226778682   -0.0125637760060383    0.7681540624746175 N
   0.4857627762471656   -0.1114381428200809    1.0952781377752170 Cl
   0.7932505226196942    0.6132883613483877    0.5579772926435570 Cl
   0.3539381223901517    0.9664128454972628    0.3806913765763988 Cl
   0.5872258819615062    0.7774759443639268    0.4891288968772528 Cl
   0.7434730772147504    0.2921998476690035    0.8845565019105802 Cl
   0.6276958345098156    1.6773164163428103    0.7260933254704659 Cl
   0.1442820934948097    0.1349000126793357    0.0108271333657081 O
   0.1384755198368688    0.2256180438367378    0.1379342605551330 O
   0.2983590134523703    0.3043157579760171    0.1156479532443291 O
   0.5253890290134297    0.1002700859721981    0.1339918922790090 O
   0.4754855336826183    0.2467484731608103    0.1592525352957544 O
   0.7191314827380810    0.2839263563274818    0.2264696014621059 O
   0.7525056030655967    0.2387775741096873    0.0811951733650315 O
   0.8380610257593708    1.1105711188773064    0.3265357958505417 O
   0.1426070393881218    0.3340869581199815    0.2780117724187491 O
   0.1877191644984333    0.5551288293899777    0.2395095287059941 O
   0.0792734400192534    0.4488597826203292    0.3666277827065705 O
   0.0959250771376228    0.6780402365076005    0.2390881007336302 O
   0.3625967772866996    0.5511527235693453    0.2819054608960852 O
   0.6502767984137098    0.4231239848859708    0.3134298031654413 O
   0.6569721047153584    0.5805013007518975    0.3027223337091912 O
   0.7013385922564030    0.5788244650903763    0.1188789010324526 O
   0.9710615844339944    0.4640054970626091    0.1083904906707481 O
   0.8676297991317851    0.5597453383715252    0.0513468070253736 O
   0.2068609364906478    0.7144145610503626    0.0670856813992032 O
   0.1193940722387812    0.8554527557305933    0.1602156998860582 O
   0.1863331063264001    0.9381732942151508    0.2719998172684417 O
   0.4703949965540354    0.6614379103415148    0.2454248196844226 O
   0.9047784027708953    1.0027145766401904    0.1928130840058392 O
   0.8108259647039379    1.0019404866241346    0.0301627494442675 O
   0.7954474528802246    0.7695869824175674    0.1836098203321356 O
   0.9393337589089900    0.8234620662926824    0.1511890743393850 O
   0.0956543188104948    0.0896168248598677    0.5239357179788778 O
   0.0582160177902865    0.1928115770838562    0.6344786395773090 O
   0.3380728067347628    0.2539021574038965    0.5621082603686992 O
   0.3974944392891425    0.1485676967511260    0.4689386721596867 O
   0.6902150545579701    0.1418236980318576    0.5799317428117667 O
   0.7519654893042275    1.0324857767841549    0.4342335918375284 O
   0.1722964615487899    0.3288092023280612    0.5543562805820028 O
   0.0714789671408963   -0.0694805952088677    0.6452591287317411 O
   0.2768687987678646    0.0846625050078036   -0.1117951935039561 O
   0.4037008374197854    0.1649508052246424   -0.1695864597735735 O
   0.5670828653160729    1.0327862128349545    0.6827815176374651 O
  -0.0710556515915592    0.2857900660875866    0.7746966274317131 O
   0.1832334144932953    0.4448613956571735    0.8666437268080217 O
   0.2308679410138455    0.6005881101100340    0.7783656934089279 O
   0.0408278619064137    0.3733175813849404    0.7105749010425760 O
   0.0909826854978726    0.4353137823365781    0.9912375855285964 O
  -0.0068592730973868    0.5996091773320692    0.9126190150604185 O
   0.1528285169604238    0.7363801738457971    0.7717320276855292 O
   0.6666134860790210    0.9406845946015010    0.0211632454997761 O
