Li1 Co1 H90 C51 N3 Cl6 O45
1.0
  14.4744061961000003    0.0000000000000000    0.0000000000000000
   0.0000000000000000   14.1260100456999993    0.0000000000000000
   0.0000000000000000    0.0000000000000000   14.5997204158000002
Li Co H C N Cl O
1 1 90 51 3 6 45
direct
   0.7321466216179130    0.3329821023546435    0.2911912068740151 Li
   0.4082466331497704    0.9104777981391181    0.7010853575540289 Co
   0.3405568096968408    0.1468453240645567    1.0119536393252526 H
   0.2299691988260548    0.1351704066981910    1.0513167218797694 H
   1.0252329107910767    0.2535810544740763    0.1630832742059419 H
   0.5269216915064188    0.1116506726101400    0.1511303055853139 H
   0.4583763580013160    0.2009660557875756    0.1028581483159665 H
   0.6485943167001571    0.1762966693951967    0.2219398807386304 H
   0.5587591288255516    0.3229389267133246    0.3675180109677453 H
   0.8425753313241993    0.2903670965566514    0.0710684984609101 H
   0.2305315707734576    0.6005304042299108    0.1707649281558785 H
   1.0941773625689248    0.5364680117303762    0.0777275300883094 H
   1.0513921877154746    0.4082800100128489    0.1625003863315419 H
   0.3476465651320343    0.4587714083406529    0.1081650992570372 H
   0.6063293704417861    0.3638669734957911    0.1019149795697282 H
   0.5632219025742532    0.4041547120828974    0.2099581444438252 H
   0.9852789401642320    0.4819133995287103    0.2447115496837567 H
   0.8671366152334341    0.3980117885171298    0.0286807004500473 H
   0.8156899451655013    0.4862147556656116    0.1680511775584957 H
   0.7713634290164054    0.6661009366734971    0.1056047762552661 H
   0.0376373019396668    0.9486506437094880    0.1447116895206812 H
   0.0542929074777342    0.8358664962505974    0.2537726821049526 H
   0.1139982928518749    0.9138524240841500    0.3233746998874498 H
   0.2833192284948411    0.8625640561971019    0.2593255281657761 H
   0.4431060942678335    0.7658162841384224    0.2673784221015233 H
   0.5877234258281436    0.8873226397510234    0.0930333026398282 H
   0.8457775352261796    0.8071747426210314    0.0261203774482762 H
   0.6696929369725581    0.8394832287769594    0.2531192449343561 H
   0.7527554117788782    0.9227969172277367    0.2559309426128661 H
   0.7615723537847192    0.8872957390197646    0.0085679865324425 H
   0.8624317590149906    0.8033201509972221    0.2045299583044362 H
   0.1442033315993573    0.2303175852469654    0.3645912425925265 H
   0.0939014407904495    0.2533948730972054    0.5198069546377786 H
   0.3188688733665350    0.1841672570303685    0.5168631585392253 H
   0.3142780114617541    0.1922289814402748    0.3957322498893492 H
   0.2723674838876798    0.0364291488704304    0.5407210537646054 H
   0.2978649029182056    0.3397164880511168    0.6236215453856759 H
   0.6499663937118796   -0.0029641404023173    0.6203817573176242 H
   0.6362822399499539    0.1997059689022900    0.6787445187769374 H
   0.6572136685623161    0.1084034711815977    0.5567850600140806 H
   0.8478328872452501    0.2140114946201847    0.6961243036477079 H
   0.8662792398197648    0.1391701206880022    0.5993361488231300 H
   0.7771197964190593    0.2249983195975068    0.5893797937793246 H
   0.2622772599419576    0.3999153692106878    0.3425805471238495 H
   0.1312971026688514    0.3715138603131257    0.5402446747791234 H
   0.6470799195150134    0.7062991241420706    0.4155709859576474 H
   0.4786890392966094    0.6279981745871965    0.2354552080449299 H
   0.6718823186695106    0.5881468649690670    0.4517703777917574 H
   0.5977818695409660    0.6491810846256250    0.2725305755577358 H
   0.5123769152200710    0.5418094350874245    0.3789380926714718 H
   0.5599904055880346    0.5099250601972125    0.5122438015872240 H
   0.6543043955027176    0.6883995191451898    0.5311861451474960 H
  -0.1905572060250163    0.6181496752905145    0.6186721355379504 H
   0.0373982593182892    0.6860329627083863    0.3388880106598184 H
   0.1909271827085118    0.8158417334842629    0.4635525212233427 H
   0.1815644497463462    0.6972194194282089    0.4362891909222200 H
   0.5143496939035720    0.7940167454655231    0.4508933746961266 H
   0.5385886295287537    0.7519829370455196    0.5728376276883470 H
   0.4251806611630262    0.7313203437827568    0.5172370766585128 H
   0.5425186007641420    0.5797127778054189    0.6088787973144824 H
   0.4131649696283460    0.6169540085774541    0.3901040599199664 H
   0.4429050497510101    0.5477794860591546    0.5359060300519649 H
  -0.0768827673151692    0.8178571645867395    0.5222112472543694 H
  -0.0799771947751412    0.6535064390464650    0.5908558494424645 H
   0.7438811271788915    0.0198880308021244    0.5487082615109813 H
   0.1133689060655309    0.1444164711974696    0.8285028660418492 H
   0.2765092772840924    0.1201187396448518    0.7625563977137266 H
   0.2244546375432916    0.2640928691704845    0.8347790136248424 H
   0.1046673401226092    0.1274874162678510    0.9532942968440649 H
   0.3178270344271205    0.2548489284131474    0.9122613192980237 H
   0.3070756434621543    0.0238806656521306    0.8390366294030686 H
   0.2003382768946556    0.2721284007631123    0.9538100601453847 H
   0.2858022319088039    0.0339719794441233    1.0086104246190875 H
   0.3710444161672811    0.1325652832499599    0.8368167238790610 H
   0.6260158429740256    0.1028916529294437    0.7550124176330667 H
   0.5063550446977774    0.2905214218043999   -0.0138605251564272 H
   0.7474874927384034   -0.0292256253368353    0.7448594834823836 H
   0.7049095802734310    0.1956694433854929    0.7846869584914753 H
   0.8500333229362550    0.1417221505876959    0.8199499625311173 H
   0.9034006244707478    0.0218114330871362    0.8148142477458633 H
   0.7529854730300884    0.0873621439392688    0.9194189906111613 H
   0.8578775134655073    1.0187419148325321   -0.0146036900726716 H
   0.9125636946653465    0.2929354084778966   -0.1061520185292588 H
  -0.0588640661355469    0.5663466539396445    0.8422147724550263 H
  -0.0867284216424879    0.3935129951710679    0.7558658586336570 H
  -0.1571582538710926    0.5276541995075894    0.7784169754100915 H
   0.0503818662071601    0.6530767352603031    0.7165863393231788 H
   0.1148114522893357   -0.0378083744363877    0.9466010179855022 H
   0.1835099526995235   -0.0419256021469615    0.8457374426524872 H
   0.0217610029822756   -0.0870168910487341    0.8109771879663229 H
   0.8471896829663410   -0.0039814127922923    0.6846412070386408 H
  -0.2458962637485602    0.7199094783311166    0.7372853658383000 H
   0.5858705000751530    0.1854273439156542    0.0316732235090997 C
   0.5265520735803002    0.1800018911691209    0.1165221086055148 C
   0.5522792084247220    0.2529864067304583    0.1922646549355985 C
   0.4804831025312724    0.2552411127583430    0.2729244187161142 C
   0.9726380070909776    0.2864098574056701    0.0176969284713417 C
   0.9184955442235782    0.2981619373959101    0.2385895146409986 C
   0.8946168444470631    0.3382178341544035    0.0690191441480960 C
   0.5459972926923516    0.3561981413450610    0.1495686318442657 C
   0.4588306080693963    0.3825474076131606    0.0987676590258174 C
   0.9027360030783627    0.3834747749276125    0.1727670212896872 C
   0.9888770152282047    0.4495971263189967    0.1772136817839350 C
   0.9684423254735608    0.5344788442365761    0.1120912018376022 C
   0.1682968933852608    0.6958375713382776    0.2515788044766292 C
   0.1665399992055982    0.9180227453432612    0.1896337826376309 C
   0.1193829697045253    0.8617811033346715    0.2709367094193941 C
   0.1856889712770523    0.7856095590331341    0.3106991146892754 C
   0.6399079499990571    0.9660525851780790    0.1856076781420690 C
   0.6801562332175403    0.7561291892292937    0.0978977793542687 C
   0.7037965812473058    0.8890839297345015    0.2075087824710233 C
   0.7510841860531197    0.8207327111755205    0.1416451924423159 C
   0.8085511376317013    0.8658997468732064    0.0616642087834576 C
   0.8807033203085557    0.9324280869324061    0.0897825554578042 C
   0.2042071748129058    0.1054309403774885    0.4458357435979250 C
   0.2701228322204665    0.1904230928760255    0.4562297782559979 C
   0.1805537001652033    0.2720052237305057    0.6369601569791726 C
   0.2223778684107452    0.2856007117259614    0.4560374458057846 C
   0.1572145734733586    0.2932256532099006    0.5409365373430851 C
   0.6722505548463727    0.1579305490851680    0.7277646355748921 C
   0.6933353576262085    0.0522304968291164    0.5980916044426544 C
   0.8137347699675284    0.1763582579114999    0.6390108811812333 C
   0.2979436626258271    0.3629226162458073    0.4625766806185745 C
   0.6343712807281896    0.6544727416298441    0.4676645177746623 C
   0.5209524518133059    0.6627369294381728    0.2913658677529481 C
   0.4914228259199020    0.6151969660778591    0.3825546002823203 C
   0.5150261140528585    0.5656097154859465    0.5408113979604143 C
   0.0570888770982983    0.7723616568021028    0.4405200938601387 C
   0.1598613141742187    0.7668002845713140    0.4175854080946749 C
   0.5007231729031358    0.7400022008395789    0.5092742529407253 C
  -0.1830473988158413    0.7623793617631067    0.6012149519247508 C
  -0.1371215079023258    0.6726427697672750    0.6287298623859994 C
   0.1373222203018979    0.1036356705229467    0.8847881904587943 C
   0.2465681526446049    0.2393710971435487    0.9024029113353453 C
   0.3071108780681955    0.1012330104731379    0.8271418810754182 C
   0.2747309659909538    0.1109887730383748    0.9967547181349634 C
   0.7910464471755037    0.0264567646271612    0.7250707483715840 C
   0.8378089872638407    0.0615940750491576    0.8172608699401721 C
  -0.0204051482042545    0.5099592524424705    0.7147205501694002 C
  -0.0891637547071008    0.5632183820598258    0.7717415051117338 C
   0.1238363475582827   -0.0046376490522136    0.8742242895341513 C
  -0.1139288466316720    0.6663303008031783    0.7332414527825331 C
  -0.0338226243596721    0.7403122671630368    0.7610180120898694 C
   0.7447108676074305    0.1065607710903626    0.6711046464490201 N
   0.5306928997522332    0.6432912403078853    0.4728218768100116 N
   0.2420753949370368    0.1332887713380284    0.9058748956306846 N
   0.2158636115408913   -0.5141410386658196    1.1111397852758873 Cl
   0.6531243816376513    1.4111230601147584    0.3969124094752379 Cl
   0.4020598508537113    1.0258529107666299    0.6008848086163362 Cl
   0.8286569710632939    0.3425000058224332    0.8295131593611678 Cl
   0.3271137711801776    0.7820480437972509    0.6766211904448104 Cl
  -0.4900029961513041    0.9026942839235474    0.8000050600462129 Cl
   1.0426201525604706    0.2581159514331436    0.0641402835965669 O
   0.4002670311933793    0.2292309372869017    0.2505315241476543 O
   0.6435640585318037    0.2432476341007534    0.2175897974362633 O
   0.4946431998246055    0.2827513579544587    0.3594514181395329 O
   0.6441271213538345    1.0437057934407978    0.2241830743798290 O
   0.9992802053805284    0.2534146946886593    0.2310660828990366 O
   0.8527671138402757    0.2713553586964090    0.2852219144822454 O
   0.8987164944911520    1.0118638225980177    0.0431193331085104 O
   0.4364709343380344    0.3406339445698416    0.0294389341480036 O
   0.4152203216474165    0.4575619373049729    0.1264353121380545 O
   1.0356181382030658    0.5706741321024261    0.0611347465896724 O
   0.8836878987026344    0.5600002051044839    0.1031547293378410 O
   0.8131592714021886    0.4204518122021259    0.1945503151434397 O
   0.0917825283055793    0.6558609609455999    0.2513377039692393 O
   0.2379964711317958    0.6681262785717007    0.2036491195189152 O
   0.2478766691905274    0.9341072588941463    0.1738101919509225 O
   0.1066957480311775    0.9528952959365514    0.1284600084444310 O
   0.2770032526432976    0.8127127536904637    0.3056955942163118 O
   0.5842820411298600    0.9558770296224072    0.1157707243537912 O
   0.6013979073452734    0.7788433172075384    0.0713342569747376 O
   0.5063889666420248    0.7592737431306640    0.2900857062520626 O
   0.7076585704192735    0.6686487190893079    0.0855434331844063 O
   0.9303454258474761    0.9138722456756039    0.1585962019789215 O
   0.8089843160236196    0.7624777618063958    0.1953249875123543 O
   0.1309585741010045    0.1106072074028866    0.4059139517142095 O
   0.1674091194879480    0.2939208247387491    0.3746708876685200 O
   0.2573796497022297    0.3119075031552311    0.6743067625627921 O
   0.2245948850928282    0.0272758211025969    0.4930930184189781 O
   0.3062507391560131    0.4176319784436099    0.3896992576476158 O
   0.3409796249693353    0.3771651376194377    0.5355216391293875 O
   0.0269757246763743    0.8181771417059244    0.5077337508379822 O
  -0.1491371994370059    0.8184546439862793    0.5369387895549265 O
  -0.2604529921659769    0.7833286601879711    0.6319915686819956 O
   0.0029401963592446    0.7179648386266899    0.3921212218354869 O
   0.9678875531470689    0.2624731619831061   -0.0676231985258809 O
   0.1215965320134671    0.2322332004781918    0.6864364468962230 O
   0.5587695610324381    0.2452545702354639   -0.0340999538293364 O
   0.6525965534216615    0.1328640229497299    0.0191599701866395 O
   0.7914257373464179    0.0357212348899328    0.9032878597886060 O
   0.0407718001280778    0.5477348874783832    0.6700073651625468 O
  -0.0276544956785759    0.4158431506062907    0.7219131536583243 O
   0.0407262024026127   -0.0196794053098257    0.8237979814246299 O
   0.0495873603846623    0.7095484493125543    0.7551829688442601 O
  -0.2020464510929631    0.6878636282619531    0.7813656620132549 O
  -0.0476490982950189    0.8178012393822802    0.7984577701422533 O
