Li1 Co1 H90 C51 N3 Cl6 O45
1.0
  14.3481101420999995    0.0000000000000000    0.0000000000000000
   0.0000000000000000   14.0027539131999994    0.0000000000000000
   0.0000000000000000    0.0000000000000000   14.4723309358000005
Li Co H C N Cl O
1 1 90 51 3 6 45
direct
   0.8152711021974306    0.3935440478894098    0.3701017819216914 Li
   0.7808993281368909    0.6597688221808320    0.3534175310521440 Co
   0.0977807917631904    0.0349810087098832    0.2901153578179911 H
   0.1839489343098747    0.1936797913761397    1.0867658801937552 H
   0.0920462386279607    0.2666704335266473    1.0328927340185705 H
   0.1969297379248057    0.3230107794964717    1.0742855132921663 H
   0.3857260304798563    0.2813354059508518    0.2442457599664199 H
   0.4756608014859518    1.0535920682497024    0.1121785754555962 H
   0.6102775545545412    1.1173980885181698    0.2001961868307597 H
   0.6985184439442218    0.2682329833033290    0.1643470895221428 H
   0.8943205371938918    0.2642916157450536    0.0005172261422991 H
   0.7904120791994516    0.2032507658309335    0.0494250353362625 H
   0.9524668708738960    0.2004920227837115    0.2291051443342852 H
   0.3087521301499865    0.3585452181564944    0.3108590791529818 H
   0.1728317907683035    0.6218427111249649    0.3173141554233087 H
   0.3555276283412605    0.5207308863527447    0.3179705804347420 H
   0.4040301832497319    0.4836492520386173    1.0187291551929272 H
   0.6650492277726128    0.3150544874205981    0.0118250106813592 H
   0.8055980512781485    0.4809105050580073    0.1545380269302396 H
   0.7857236568683030    0.4665421028674684    0.0311632915181862 H
   0.9090960022482026    0.5976938899647762    0.1426670988287393 H
   0.0316431617476801    0.7381712569308342    0.2121576324864681 H
   0.0667181643100972    0.7942159467728952    0.1002585882216625 H
   0.2272020173886730    0.8625689297598875    0.2898175481549093 H
   0.2974356572213618    0.8277129290742009    0.1492140746006669 H
   0.2886317103078687    0.7485106516597181    0.2946978953714923 H
   0.2395688028567716    0.6941741972225122    0.0383846576176495 H
   0.2236921474823754   -0.0187919851360057    1.0880130877154786 H
   0.4468296177340089    0.9058297057297456    0.2805025317558217 H
   0.5807897686503499    0.8524430644566103    0.2431795875531129 H
   0.6718793955807376    0.9443556987839732    0.2221850427663850 H
   0.6089456718319570    0.8775052773738266   -0.0040065786470212 H
  -0.0794927289171942    0.8426128552810966    0.2393958155924717 H
   0.0555954451213356    0.2812782743319603    0.5613003533387595 H
   0.1920064414557656    0.0625055944013217    0.5024771407010407 H
   0.2200784311471584    0.1866861670785875    0.4841279196130197 H
   0.0405425916193072    0.0999853646845992    0.5893000585553954 H
  -0.0137976658974145    0.2767120296920595    0.4620863423843707 H
   0.2884463200387910    0.2412768572198606    0.5964495633904491 H
   0.6470705534074714   -0.0025751751136616    0.5158011450273238 H
   0.4889351629254524    0.1710956624283411    0.3784059038031716 H
   0.5957766901243531    0.3208590598999715    0.3564799264739046 H
   0.8210718661430452    0.0373026948725853    0.4986211619891417 H
   0.8008664176812753    0.1764960287040575    0.5984962274787287 H
   0.9096075678779131   -0.0321843507494027    0.5571149183684907 H
   0.6586219004739877    0.2198232201808770    0.5416500287807079 H
   0.0784827798816427    0.4372271693519231    0.4986048550099104 H
   0.0234936564231492    0.6471820123938048    0.6259444665883909 H
   0.1213399920099293    0.5944252472189480    0.5545140242784524 H
   0.3604927421642280    0.5372479944468872    0.5840030541999762 H
   0.5282581813865738    0.4007812671270105    0.4764283997157543 H
   0.5199260317992064    0.4784454185318876    0.3839599503735941 H
   0.6352662113496949    0.6272873544053222    0.6546744619045888 H
   0.6222024699828080    0.4354349504672977    0.7154255602522026 H
   0.7239845155300454    0.4998730606842756    0.7430126850748102 H
   0.0690578452623293    0.7866174414603294    0.5123120933863685 H
   0.2004096387274554    0.7768050859157193    0.6006651939112438 H
   0.6809635187655436   -0.1223787516386045    0.5113887113783643 H
   0.8261004029528023   -0.0859209231882483    0.4818043823646544 H
   0.7496840673419631   -0.1847043488325466    0.6343163038921033 H
   0.8445669464470956   -0.1165548972378552    0.7060884326948351 H
   0.3511674722384413    0.1997664512237898    0.9017714924979071 H
   0.1709799789452231    0.1236492812294466    0.8490412168163128 H
   0.2901238928871743    0.0227041379553422    0.9239151265414914 H
   0.3240586755991738    0.1772658772686200    1.0129747262505933 H
   0.1992039050225518    0.2834521324307808    0.8072960409576319 H
   0.0991879457228438    0.1295831139965620    0.9490057633995636 H
   0.3338425425063631    0.2954633411574765    0.9821296604501876 H
   0.0979870907092317    0.2935501460698484    0.8765440428479784 H
   0.5186708839210786    1.0164686564392604   -0.0023738078027927 H
   0.7264085281460309    0.1947381546161042    0.6928086092266900 H
   0.7060155985474869    0.0436414479885941    0.7273096168539316 H
   0.1896186705465171    0.3729945187193837    0.8943656364215462 H
   0.0654810675897481    0.5704606755296842    0.7799341735600004 H
   0.5430313464864185    0.5491191592927751    0.6470288379556307 H
   0.6047583607920372    0.6954575162118618    0.8474581960782139 H
   0.5235655076244426    0.5958921015339865    0.9711569981538065 H
   0.5466305661389407    0.4707821923790059    0.9467138036491167 H
   0.6650262282279528    0.4384804228268311    0.8338377225778197 H
   0.4650803836820374    0.4854381144406328    0.7955674534375581 H
   0.4587925172587597    0.6125695352336431    0.8151800508317948 H
   0.6709162025286123    0.5961763313379715    0.8971164027063002 H
   0.7223661839330591    0.6530008677779011    0.7941060440699986 H
   0.1752265312365399   -0.0182313811256331    0.9471200961825093 H
   0.2650773887524213    0.6939678092492667    0.8226170007244867 H
   0.1907846777651898    0.8260182624288327    0.7132296458455341 H
   0.1383268981310952    0.7113336789565656    0.8341065113456593 H
   0.6190905618947186   -0.0790672713569801    0.6108612017730446 H
   0.5245598546052438    0.6590218262638260    0.6983716384551637 H
   0.4818807844046875    0.8565701097762830   -0.0317719746832601 H
   0.8285390516426623    0.0465601595687121    0.6956595666973995 H
   0.7178652427386847   -0.1048093505390048    0.7287074566414365 H
   0.1650753685706891    0.2547127856926623    1.0415713636434158 C
   0.5427675486787271    0.9920491742345734    0.2821332296789614 C
   0.5374934046102370    1.0280449507171450    0.0714981900628298 C
   0.6198140021176608    1.0941440913388687    0.0649878358968033 C
   0.8203386685375199    0.2717215827818895    0.0233870735406377 C
   0.8671476206119357    0.2905293117209618    0.1946110464440061 C
   0.3778455501322577    0.3543317612632485    0.2826818627937804 C
   0.3828782686774075    0.4364632481928206    0.2151854792234166 C
   0.8290401629338912    0.4430658065590606    0.0939368698747110 C
   0.9281556552123646    0.4726115375320228    0.0794886098862145 C
   0.8072930480240016    0.3361146304344667    0.1084493904169585 C
   0.2219149099404654    0.7837058713325729    0.2855079452114251 C
   0.0785169307206834    0.7854305320778592    0.1805041274614549 C
   0.0488426394179764    0.8848888249703131    0.2124609699391200 C
   0.1891363770645556    0.7604054547129225    0.1885249501274744 C
   0.2085194175657554    0.6550090441819364    0.1642551900205422 C
   0.4673084122992836    0.8760191411374121    0.1068594599418972 C
   0.5611929020794020    0.9303241731842278    0.1157571282284525 C
   0.5936014907642351    0.9256900847468933    0.2165591349315529 C
   0.1846765562682096    0.1556165644349331    0.6153069265346891 C
   0.1741114017984787    0.1371587666615711    0.5133578482179252 C
   0.0804168325007801    0.1591851481799417    0.4793038176553110 C
   0.0578633396159926    0.2638402759558110    0.4871809177925114 C
   0.0634452594093876    0.1370787823951230    0.3736934631947763 C
   0.4027561478667470    0.2634867740639200    0.4270767090193228 C
   0.8377186577856023   -0.0238024281127877    0.5339218334750484 C
   0.7372921914615080    0.1507325251649485    0.6305504972475645 C
   0.0887287285497287    0.6108927222191783    0.6258643136396264 C
   0.1193167290357471    0.3281162037896607    0.4302648616538002 C
   0.4766594695933254    0.4242450087621669    0.4225245743084564 C
   0.3990204642492420    0.4815320256570230    0.4648773924356158 C
   0.4512472726984782    0.3385548647063686    0.3599126837968530 C
   0.1547506638860401    0.7817091212523161    0.6606721135880010 C
   0.0632354756838524    0.8313600687951852    0.6419847299730373 C
   0.1622276067682403    0.7510358692147212    0.3689865503759510 C
   0.6704603933708048   -0.0620134831178760    0.5603235238243770 C
   0.7725937046910314   -0.1186273467131433    0.6783990437651832 C
   0.3074502165310500    0.2289250012155245    0.9570839368823715 C
   0.1752662577227708    0.1286033067325733    0.9266755664579929 C
   0.2247278239479747    0.0376404855692812    0.9640966289255686 C
   0.1696710957672988    0.2978457296652509    0.8770760925940876 C
   0.7577980279156558    0.0528539215348438    0.6686563146481196 C
   0.7706241073210558    0.3031011244580300   -0.0646574858086794 C
   0.0666596200145990    0.5109371699987979    0.6646099726829050 C
   0.5740753652170140    0.6016616808967890    0.6873471531315645 C
   0.4965282186603908    0.5347581984955968    0.9328072670384767 C
   0.6523925086506184    0.4778319963398499    0.7689718758690631 C
   0.4984325112626499    0.5480336585338371    0.8288164167272026 C
   0.6528978016772399    0.6392092949775000    0.8345093490105706 C
   0.2483852949764428    0.6364976855158635    0.6942769283312120 C
   0.1461188650795477    0.6752986244860062    0.6945401893094816 C
   0.7574990338350756   -0.0379525018217329    0.6103505722115190 N
   0.2061434949067863    0.2292199431980517    0.9484978977328229 N
   0.5935039169384047    0.5650995872419557    0.7806818070993381 N
   0.8430134317486966    0.7170896895598812    0.2322076162304282 Cl
   0.6973217706660024    1.3403656575659146    0.4667387373785623 Cl
  -0.1445640164075584    0.5521242824464665    0.4317718752853120 Cl
   0.6534037916597600    0.7249974197596970    0.4151760690488839 Cl
   0.2107454947064850   -0.2443511872457149    0.9199047152084817 Cl
   0.5453906815949964    0.8737560148840737    0.8524249150068277 Cl
   0.2287109269095496    0.0459659907322408    1.0620207301838058 O
   0.5621947064883203    1.0755163269993044    0.2972994113378571 O
   0.6486477646064291    1.1316917054195796    0.1462795093127116 O
   0.5374807897084688    0.3047579414058827    0.3243068092293147 O
   0.9258194590396265    0.2235417744254756    0.1699847439098111 O
   0.2419377559567528    0.6374267884680861    0.0817674411364327 O
   0.9904844212409971    0.4294473425639007    0.0374587528646803 O
   0.1947796289770440    0.5895019299609754    0.2200672083873921 O
   0.3800312038308575    0.5235595442185851    0.2499075984334568 O
   0.3960632803706835    0.4164176199014172    0.1306876878569285 O
   0.9517908236520715    0.5585251661980197    0.1149189771349065 O
   0.8583631884636088    0.3200363645879344    0.2779701131590813 O
   0.7101255474826412    0.3269521470547470    0.1361760919262077 O
   0.2325170030728322    0.8236530134067258    0.1244578690115777 O
   0.1038896102160693    0.9523998307238923    0.2160913457391946 O
   0.4135136621645435    0.8621147333897003    0.1730478303052680 O
   0.6197450034836808    0.8721063393885825    0.0670939237229600 O
   0.4710778285822900    0.9501652702799996    0.3262394626577138 O
   0.4378165143552895    0.8503748998527391    0.0235273412009755 O
  -0.0382085462524727    0.8988003741703863    0.2527703024570025 O
   0.1679663416388627    0.2981135341288046    0.3659276098226714 O
   0.2506197355879580    0.2136387224358752    0.6443575336459449 O
   0.1297822188119513    0.0822160029188793    0.3362779285167706 O
   0.0122106373776664    0.1105397171295623    0.5309796674764344 O
   0.3356100226656901    0.2871863978705746    0.4772386354719720 O
   0.4381719618636715    0.1781742700089944    0.4233993470079034 O
  -0.0072281595954365    0.1639563525026157    0.3351578601551564 O
   0.6575660122873235    0.1605213139167659    0.5751695082724325 O
   0.1153705647368080    0.4230389602873679    0.4439728124241392 O
   0.2770078798278784    0.5880286483388115    0.6272877194538924 O
   0.0598872995460736    0.4415727431138556    0.6127993829910137 O
   0.1435429160776263    0.6585590601508051    0.3752350255111003 O
   0.3339115411403432    0.5194537804269496    0.4269813546492409 O
   0.4145841864250823    0.4998118584375380    0.5554594144896557 O
   0.1300519407447824    0.8116982221536854    0.4238104763571696 O
   0.0226691575948827    0.8183976186139464    0.5569535069130477 O
   0.1345988810284768    0.1109732032879014    0.6719736793637949 O
   0.8071599294473331    0.3024891019906552   -0.1414322641722298 O
   0.6526782605691216    1.1201796842129481   -0.0075754577881299 O
   0.0484404958643756    0.5041774282660826    0.7525916534258636 O
   0.4064402567477416    0.5061711075218241    0.9549771580825185 O
   0.6818946518463247    0.3256495461440214   -0.0540544944397899 O
   0.3039800731109834    0.6670509611537863    0.7627772966822208 O
   0.1061916555497669    0.6687049215206943    0.7819428340949864 O
   0.0271045849347711    0.8844917602190173    0.6997653324004912 O
