Li1 Co1 H110 Cl3 O55
1.0
  12.5229566695999992    0.0000000000000000    0.0000000000000000
   0.0000000000000000   12.5254075727000007    0.0000000000000000
   0.0000000000000000    0.0000000000000000   12.5043934261000000
Li Co H Cl O
1 1 110 3 55
direct
   0.7449438324374540    0.2412926500681135    0.6732756980860426 Li
   0.4655553387845606    0.5442496578920126    0.4595628126275530 Co
   0.1750169223391561    0.1117631325188278    0.1517717931954025 H
   0.0875210514431181    0.0287726754046307    0.1768757697981209 H
   0.2449021757254041    0.3133821205910562    0.2580864263566711 H
   0.3352849846628204    0.2376704126489586    0.3171552651904128 H
   0.3563015869672031    1.0532422765350578    0.2983442767654139 H
   0.6141544315624995    0.0901168109579275    0.1516078508169005 H
   0.4691862704566617    1.1051607467505398    0.2863700853834094 H
   0.6074491460444364    0.0230449096945257    0.2615676028133508 H
   0.9917745195948771    0.2480804531401115    0.1032464485966403 H
  -0.0702773864287523    1.0870535515408344    0.1570347434047775 H
   0.8931556364841485    0.2256923593098400    0.0220257155797041 H
   0.7555707158094183    0.2796722394914359    0.3093883950440142 H
  -0.0627528055740770    1.0337538887454232    0.2698470927871632 H
  -0.2951603812598726    0.0918428226565105    0.0032982178099032 H
   0.6688523769496955    0.1842206549373470    0.3026779535903042 H
   0.1326163923358082    0.5941250808172992    0.2494022786095806 H
   0.0362944108880733    0.6003835597965267    0.3194464598948436 H
   0.1253169979186814    0.6570396003988869    0.0690861350616857 H
   0.1772847573839696    0.5410130366671385    0.0626393609357422 H
   0.3425188993356956    0.6156357580895695    1.0927498637862136 H
   0.4856703968052832    0.4737569417967336    0.2517246623518728 H
   0.4670150579612927    0.5849285736911707    1.0828733351301159 H
   0.3956756751325780    0.4065463544275170    0.3112965243859939 H
  -0.1432689349996216    0.3620480020373876    1.1673076586532596 H
  -0.2344055595293985    0.4392007808504516    1.1822144193131514 H
  -0.1348723555995462    0.5073534533319896    0.2907421487164367 H
   1.2455963672513641    0.9714644985222660    0.2424975054584267 H
   0.1847031332876025   -0.0432158562871673    1.0355939526079689 H
   0.0909275153577906   -0.1931307384258273    0.0017411650735937 H
   1.3495414685835383    0.8954749553097550    0.2242711115635984 H
   0.6092083152711000    0.8350058651341341    0.0622786877030377 H
   0.4375683378512423    0.7565732876472977    0.1259640639435047 H
   0.5118958329115387    0.8232138336858383    0.2013199782922336 H
   0.6590399977135445    0.9362640471644217    0.0233210203136540 H
  -0.0182362417378942   -0.2327949167862051    0.0578774346294478 H
   0.8091459231427380    0.8429736697281756    0.0992120265914352 H
   0.8305027007038428    0.7753982239722379    0.2453996854173724 H
   0.9112663755039973    0.9042890397504580    0.1533344439641487 H
   0.6849372365650751   -0.1845633525441982    1.2940391158299274 H
   0.8381047393047669    0.6758286097492044    0.3264256069055130 H
   1.3235012922415073    0.0468548255211381    0.6256364420501109 H
   0.4003686563151023    0.0623850187600371    0.4507970935506712 H
   0.4811419135168546    0.1058263995567745    0.5272478231002259 H
   0.6007278898570438    0.3093127919321554    0.5737906644974928 H
   0.6808830821557377    0.2801368950298860    0.4767567693972783 H
   0.9499074099471402    0.1636512644001844    0.6121019990561188 H
   0.8428240720916853    0.1149175208906773    0.3796764905997314 H
   0.8902809160048074    0.1742425365188771    0.5028188092655841 H
   1.1704064560472653    0.4947071582648939    0.4071356394204424 H
   1.2195162642360087    0.3820561333932264    0.4100610112280543 H
   0.2878145656807679    0.4883943896351258    0.5302811569619732 H
   0.3288408195882975    0.5600455510676748    0.6257875889259006 H
   1.0212324191734581    0.4476204669475218    0.5274069671652108 H
   0.3949673759478070    0.3537105487933420    0.5927408040144887 H
   0.5890277775061256    0.5459342338131977    0.6271567077161224 H
   0.6398584253151411    0.4709753955837435    0.5360631247501181 H
   0.9220226212975318    0.3733929422459375    0.5204694055383565 H
  -0.0985630388785355    0.5242016076754822    0.4121186880079846 H
   0.2712945053261546    0.8265590342117936    1.3488198618171916 H
   0.1951471524957420    0.7275586629422224    1.3694686043192523 H
   0.0472488526879890    0.8332574190358425    0.6368493010207303 H
   0.2232275818446389    0.9155780935540397    0.6288313191336017 H
   0.1976361813107715    0.8379518770531735    0.5291959383881817 H
   0.3530323909554191    0.7255898647329132    0.4307441416436544 H
   0.5961123664207684   -0.1415388044908023    1.3680291102641127 H
   0.6046423009097466    0.8663102356884792    0.5633519334409709 H
   0.5076763820746392    0.9311304816794833    0.5099994854439732 H
   0.4749277260806790    0.7610873124143027    0.4780875016793631 H
   0.8802114089924489   -0.0070384307327571    0.4209763747606114 H
   0.7593597571078831    0.8780064618711151    0.5742089174924029 H
   0.9118572902691952   -0.1274809785096519    0.5205021940140570 H
   0.8466570327308067   -0.1861273735060947    0.4169785798819205 H
   1.2127287297708977    0.0822759483408854    0.6848164418136662 H
   0.2113973085386839    0.2858564693897770    0.9529110135185784 H
   1.1395830642409972    0.2211783345428350    0.7700640794779640 H
   1.0965021837242053    0.1044763436881850    0.7816664015623906 H
  -0.4227213113298338    0.0851020440024072   -0.0133360956599404 H
   0.6603679588683068    0.0486513339277024    0.6732533059562960 H
   0.4576450662655737    0.3285025866438167    0.8552173503097582 H
   0.4620705387368260    0.1658076812547441   -0.1348626622207907 H
   0.3381948406146867    0.2896216163302078    0.8434614821927833 H
   0.4307113309745473    0.2855498925396657    0.6904168734070795 H
   0.5686819433135891    0.1047190503611898    0.7383160380918559 H
   0.4525128916764835    0.0426117699805076   -0.1334775490521784 H
   0.7685029652991207    0.2547836282274433    0.8550494093366585 H
   0.9430320368007161    0.0178502843202734    0.8464684253301863 H
   0.1501913153996465    0.5451430419942904    0.8287466540735764 H
   0.0441197194462263    0.4911727423392605    0.8088528462315446 H
   0.1809204802568696    0.3649836350526471    0.8668852493455856 H
   0.5692321328719964    0.4170537969387573   -0.0371873125752275 H
   0.5683417680568672    0.5274525996902053    0.8111696319414001 H
   0.6246751099834214    0.6350898156590090    0.7684678405145978 H
   0.6313931720369482    0.3678178741617500   -0.1372346285360933 H
   0.4610196686949335   -0.3418636230994093    0.8063625215161527 H
   0.8043730886135655    0.3781241256151048    0.8147563712954567 H
  -0.1190869460340978    0.5554453015615760    0.7777653726729618 H
  -0.1219712489150367    0.4691343377286474    0.6923345993760934 H
   0.2144197577093244    0.7113068963774621    0.6711476460411944 H
   0.3005471818038494    0.6852821943381869    0.7569167004410206 H
   0.2464369570479856   -0.0858823321601596    0.9222897760900770 H
   1.0461865900010716   -0.0549773098881733    0.8749943991895398 H
   0.4051311099092106   -0.3255288253044106    0.9140206824622185 H
   0.3428686569940154    0.9495889628632745   -0.2217665177674188 H
   0.3947493763114570    0.8520592024215815   -0.1648785124272139 H
  -0.0266137361881206    0.8891039051433771    0.7128913742024092 H
  -0.3252467266765764    0.7721065147196093   -0.1205908783829992 H
   0.9717712562594620    0.6905810239063885    0.8721553970252364 H
   0.9374103611966714    0.7306603584179588    0.7519408493237540 H
  -0.2152671079381853    0.7203692761316670   -0.1755019785541455 H
   0.7251058655296012    0.8596517697251219    0.6909806752453426 H
   0.1612733628475063    0.2800059611668176    0.1230043042223534 Cl
   0.5929972873680157    0.4705921745211042    0.1388827233694648 Cl
   0.8259909866182102    0.1052635436210231    0.9129730506776446 Cl
   0.1663680063636719    0.0329474138070736    0.1559135374796075 O
   0.2950987879620317    0.3082070394909984    0.3191617599594938 O
   0.5887363127908591    0.0955865730876106    0.2313134363689101 O
   0.3979786456499168    1.1195954067766187    0.3227261071838038 O
  -0.3629854183025928    0.0647687336073747    0.0361695443903720 O
  -0.0401047195443216    1.0211235612226042    0.1960226401693191 O
   0.9098689419376509    0.2424590791775217    0.0993552562499216 O
   0.1679666703635721    0.6019930882596116    0.1100104712179582 O
   0.1132479631062478    0.6002350616347539    0.3220215548157048 O
   0.4093673299489063    0.6402138006173815    1.0637360613859517 O
   0.4472537502662222    0.4679503443205348    0.3199782729763259 O
  -0.1789370293470460    0.4025999758595463    1.2214806182616869 O
   1.3064526027320817    0.9324158689937525    0.2775203958199778 O
   0.0405766264554384   -0.2560213066909999    0.0084679207932619 O
   0.4606635227688818    0.8316047782032105    0.1408852195439481 O
   0.6240626348146284   -0.1304421595957541    1.2942470427490034 O
   0.8830222467944712    0.8291856952453004    0.1308655412012557 O
   0.6716640132851842    0.8564822121862096    0.0250499486401473 O
   0.8074043216523373    0.7493048614925730    0.3178390248666042 O
   0.4357540698153914    0.0451526853012487    0.5198496233757269 O
   0.4466939783062172    0.2961627208431318    0.6101762758979096 O
   0.6723443637986282    0.3220668679231185    0.5409845949808570 O
   0.7288318226842139    0.2164894651660008    0.3455492854280451 O
   0.9021311526474245    0.0673399074245200    0.3956772667415297 O
   0.8981384853150064    0.2119634647407883    0.5731484902051166 O
   1.1841332463361189    0.4355322375528944    0.4577938343775702 O
   0.3545655752110676    0.5045990519442699    0.5757307825962535 O
   0.5957729896975129    0.5330276677743928    0.5479029633536429 O
  -0.0952507220595614    0.5563434759271367    0.3361965726642341 O
   0.9407961430945619    0.4490375865020733    0.5276996642897559 O
   0.2447201100950458    0.7749966402336804    1.4031607623987186 O
   0.1842783134834333    0.8488497260219776    0.6042519581420899 O
   0.4330382574958807    0.7008034457522909    0.4456860899360054 O
   0.5507021637822437    0.8631885807823967    0.5037928669095622 O
  -0.0326061708806537    0.8299042347377489    0.6542559830230485 O
   0.7063475158684344    0.9041373480798299    0.6294367063556799 O
   0.8537320392438517   -0.1177168251844889    0.4705237601385230 O
   1.2698478286284720    0.0242366473616124    0.6789169153443516 O
   0.2181153705922107    0.2939256678899751    0.8712917005921524 O
   1.1196117422442415    0.1563053956557180    0.7259819731960665 O
   0.6333487804963666    0.1190084057343515    0.6940108102314118 O
   0.5071725074572880    0.0973990490384516   -0.1238873197692693 O
   0.4166379771612398    0.2718138125756895    0.8248040398003326 O
   0.7464746210927032    0.3221970034089731    0.8219090573116624 O
   0.1094924602133752    0.4852368077544210    0.8512107585229524 O
   0.2576507625178153    0.6518581322811184    0.6973488370014971 O
   0.5595754676618098    0.4152119407064474   -0.1137324889291777 O
   0.5680710652117291    0.5825118858649018    0.7528389336703772 O
  -0.1113459626100055    0.4754710576748304    0.7699153317589328 O
   0.1791708934318040   -0.0910254781716641    0.9721202619654995 O
   1.0099491412920445   -0.0095236193239727    0.8204535688781323 O
   0.3711638918453964    0.9257653868025336   -0.1524884672070579 O
   0.4057435850780036   -0.2988837841699880    0.8431335974357791 O
   0.9198346395993666    0.6810460048415953    0.8097693241133169 O
  -0.2897614964929768    0.7404013588039207   -0.1876824974173867 O
