Li1 Co1 H90 C51 N3 Cl6 O45
1.0
  13.5403100630999997    0.0000000000000000    0.0000000000000000
   0.0000000000000000   13.1893673191000005    0.0000000000000000
   0.0000000000000000    0.0000000000000000   13.2327665583999998
Li Co H C N Cl O
1 1 90 51 3 6 45
direct
   0.8514603046586714    0.7316950787794517    0.4495929292596354 Li
   0.2637743533830347    0.1580329904514502    0.2775505230135399 Co
   0.0902716795851688    0.0846511536594453    0.0227927605213092 H
   0.5616400581715273    0.0883791565886529    1.1617473346449478 H
   0.5919957884380097    0.1151787741478763    1.0290283002503482 H
   0.0551735172989799    0.2994923914113526    0.3208596827021616 H
   0.0292893242216643    0.1197150038662919    0.3127253292753893 H
   0.8111008152929688    0.2379215836271159    0.9246903302645055 H
  -0.1092658485370959    0.2171442412899173    0.2684768346453444 H
   0.6865940652891932    0.0760366388574000    1.1059789511596709 H
  -0.0959559613070291    0.9891759660606874    0.0456065839699186 H
   0.1255958337419825    0.3639837335220705    0.0695169279334152 H
   0.1284377184418658    0.5344173825072434    0.2016684317238246 H
   0.3196386575588595    0.5061693254938898    0.1235328434145409 H
   0.3858734775755787    0.3285081880558057    0.2348172066277052 H
   0.6076586498504642    0.4713618181364158    0.2869725890229228 H
   0.4299929990057423    0.3709992330347730    0.1209559068495749 H
   0.5052575236178677    0.6104163273958599    1.0616231471477418 H
   0.8515984108018311    0.5274270547857245    0.2721873210189464 H
   0.1961163754097991    0.7551184919368525    0.1763812025927713 H
   0.1524940360950101   -0.1535793788581984    0.3142934065106692 H
   0.2053635787172936    0.8594047678985609    0.0978254451544198 H
   0.4475524196461855   -0.0222023417283963    1.1318518476918529 H
   0.5910777887805370   -0.0816684238401741    1.2252956483168302 H
   0.4724682449432291   -0.1438116624178930    1.0861365396094329 H
   0.5681618438314180   -0.0355335346314383    0.4124058453774953 H
   0.7113933496804047   -0.0639844823472235    0.9640517138195841 H
   0.0006009117562362    0.6958669765993204    0.0360023942912814 H
   0.6267571785248360   -0.1887812190046659    1.1345746343321965 H
   0.7030552836040839   -0.0914839060288099    1.1582227504399623 H
  -0.0070237290030142    0.8414251336778512    0.2716711780060808 H
  -0.0901082370207307    0.7322811569295997    0.1225383423824308 H
   0.0467933546977388    0.1130983104428233    0.4451537970690421 H
   0.0991392756328557    0.2638250247652851    0.4438722056553981 H
  -0.0019913479362249    0.2059898017750703    0.5613430303041747 H
   0.2798847673235895    0.2731355547572863    0.6318271574051649 H
   0.3666353656869974    0.0796531883738369    0.5686075731777869 H
   0.6111918038016706    0.1040872641109883   -0.4373808526929693 H
   0.4820371543253778    0.1251966921270548    0.5170696731483270 H
  -0.0630667587758691    0.0591647150860644    0.3878335838957424 H
  -0.1178077504182940    0.2802443112072051    0.5515205945023814 H
  -0.1304411391075362    0.1499507225593711    0.5280413017461155 H
  -0.1990939244328360    0.2110484219791934    0.3739468430400781 H
   0.2091404493917228    0.3796213297016327    0.5857755628795164 H
   0.1290765516709196    0.4705110570855995    0.3836961270942207 H
   0.3452665788090287    0.3846844990246444    0.5862962400916164 H
   0.2847923358866676    0.6358345291859118    0.6764421664733354 H
   0.1029523345480058    0.5593727872690285    0.5231253985060098 H
   0.5628132957064116    0.4849153113158141    0.5638474196813880 H
   0.4507414898963327    0.6980315990038125    0.3952878074373330 H
   0.3584693783879824    0.5544217537266208    0.3242217914345762 H
   0.6469627719510594    0.4399140625341173    0.4123861216108250 H
   0.6759325664514811    0.6399734691880563    0.5033232657589719 H
  -0.0085539746106436    0.3904755273698320    0.5353168022678779 H
  -0.0442673369890890    0.4420601093698143    0.4156940466623867 H
  -0.1361514957861999    0.3283065104517444    0.3333846523877178 H
   1.1101545283268441    0.8052588803270007    0.6257165682367442 H
   0.2877095512100925   -0.0840347238487275    0.5175805262620856 H
   0.3599604816127913   -0.1753924039290350    0.4617781362825496 H
   0.5630519165345125    0.7243368789771414    0.3368540705020165 H
   0.5148143948709603   -0.1957588091932967    0.6429359455297984 H
   0.9359339979987582    0.8959713437116084    0.5129916899267651 H
   0.2242412852697150    0.2491457762982547    0.7890898122563529 H
   0.2006192265052223    0.3513106464849126    0.8672548728606612 H
   0.1309996981778053    0.3411532221931505    0.7535424459573984 H
   0.4064660636168590    0.1219584776648531    0.9753600067105375 H
   0.3796638708820707    0.2924238188449498    0.7960762575769130 H
   0.4128891070770682    0.0534260016080956    0.8511153906853008 H
   0.3660954962182826    0.4048643904144735    0.8650331152357345 H
   0.2229052745051389    0.3031946160001915    0.0023034698802762 H
   0.1767394188425334    0.5193079390306478    0.7060837382692962 H
   0.2267109480650398    0.5077754222449693    0.8307182954287036 H
   0.4326347405783729    0.4193889688392916    0.7565433301507942 H
   0.3872316444059024    0.5585925375609854    0.6829056674821783 H
   0.6268169999023544    0.3955227747767336    0.9104400977702054 H
   0.5459940353690408    0.4820514893381441    0.8408998398098726 H
   0.4234952157504113    0.6612807838757767    0.8043337900828906 H
   0.6470595201048236    0.6516199717293535    0.7972717747750878 H
   0.8586794894147420    0.4541178522586409    0.6962430145305903 H
   0.9496197998110081    0.4210683518956664    0.8256928912770838 H
   0.7907157577341904    0.5275204633602371    0.9729258974214596 H
   0.8631203035260721    0.5325446618981031    0.8657449845155579 H
   0.2966140740340252    0.6765036520499949   -0.0631340934726664 H
   0.9642176929965315    0.8579126569031003    0.8223179356468380 H
   1.1962212427941783    0.9830225245773746    0.7551407511875752 H
   1.0578765526600196    0.7282112118972657    0.7200717429078651 H
   0.5999195360848517   -0.0241971303610473    0.9083075127302247 H
   0.3537597373455822   -0.0575254917118930    0.9949092067102749 H
   0.6169760140328260   -0.1538417113807744    0.9556551325370806 H
   0.4502139539708840   -0.0983629319748543    0.9124751975266434 H
   0.9002671633583827    0.9535275540766557    0.7454292521270538 H
   0.8113519173714409    0.6902996132661555    0.7711086894918951 H
   0.1546453900790954    0.2013193730494411    0.0974914258108084 C
   0.1902095682815073    0.3077225056673113    0.0759819403420029 C
   0.3782599148492021    0.2227821159658555    0.0985682981290126 C
   0.6075375300243777    0.0685472727938017    1.0951482605880896 C
   0.2142924732135487    0.3835593502861973    0.2505463437723392 C
   0.2699374323384729    0.3694161396615402    0.1414837381841015 C
   0.3731123222405257    0.3249181750662190    0.1513811394132392 C
   0.4552324505698048    0.6353197205650186    0.2482595959583840 C
   0.7327613980228485    0.5515655894324133    0.3486649038081318 C
   0.0192001904157636    0.6262495356876318    0.1809667894186404 C
   0.1622722464449205    0.7864096062120870    0.1080659341256380 C
   0.0587679696987544    0.8127672010526348    0.1336788699017060 C
   0.0281475483001416    0.9075154910779121    0.0729425154551134 C
   0.6314889756329838   -0.0713146292497208    0.9660256018863558 C
   0.4828860270577182   -0.0629116484759953    1.0694265040303925 C
   0.6270585010190025   -0.1119556992139908    1.1542984010024642 C
  -0.0104734284399047    0.7172144751705568    0.1131971362593972 C
   0.3623393045385512    0.1421808274976425    0.4220388272212717 C
   0.4149614377599873    0.0815418308990872    0.5039150543290672 C
   0.0337567256118915    0.2943321742187175    0.4005368987511905 C
  -0.0100081510592066    0.1190553816274449    0.3871882162046922 C
  -0.0764032332848329    0.2134025910040439    0.5210682323132971 C
  -0.1288872603631094    0.2463874938788003    0.3454357982532639 C
   0.2776418349344144    0.3543456669700902    0.6266732842752331 C
   0.5559025972390992    0.5803850157781751    0.4139044737944994 C
   0.6303700943127334    0.5067507028878528    0.3576826703857680 C
   0.4739058781960339    0.5171480249642053    0.4571183397292085 C
   0.5068184627619128    0.6611306629524529    0.3493986883842556 C
   0.0146862612874666    0.3967237421633240    0.4541998268219068 C
   1.0419264009283720    0.7627041476835928    0.6459867059147741 C
   0.2752607964020797   -0.0818337084931266    0.3593300961076524 C
   1.0358578545201234    0.6812142646591400    0.5673243947944110 C
   0.3420384400296134   -0.0937501254218140    0.4548587215406734 C
   0.4850752679142317   -0.0666290367944629    0.5727896162717816 C
   0.4323244818043550   -0.0282981610391201    0.4696289511171884 C
   0.9568072275395073    0.8394053248913130    0.6560851233099767 C
   0.2037602180926973    0.3292004123133543    0.7895515448784038 C
   0.3715000991896304    0.3750282359971097    0.7919728072696506 C
   0.2423043871381522    0.5040538335733945    0.7515504210936885 C
   0.3195182762682979    0.5814673269804211    0.7237867634807017 C
   0.6045804337826073    0.5292388172017576    0.9933985626652992 C
   0.6152522721176681    0.4768918786946942    0.8920531641742560 C
   0.7083971110558136    0.4701641109516956    0.7302079452966888 C
   0.7080396598617533    0.5176612641390820    0.8371130277491557 C
   0.7994570642071164    0.4877566909736336    0.8995451727094680 C
   0.8337531769132447    0.3817192316957587    0.9019173146090070 C
   0.9673549919063817    0.9054062162865646    0.7521776519878005 C
   0.1838788417619128    0.7259798690824074    0.0138437626320637 C
   1.0519121397607842    0.9795143957277826    0.7454632586213128 C
   0.4277927539699075   -0.0468972336151608    0.9719623800841189 C
   0.8633721441400691    0.7783288546929706    0.6630806370290060 C
   0.5911952159289988   -0.0459222058000376    1.0687818920392147 N
  -0.0483728559721065    0.2216948765514801    0.4138066106610205 N
   0.2783626456067341    0.3902874971224365    0.7348139360191133 N
   0.8424324464020774    0.1038817955745199    0.0069223075005319 Cl
   0.8559616786830447    0.8682641769341092    0.3476144809854624 Cl
   0.6760507321354681    0.1576720936862880    0.5029512347117776 Cl
   1.3336922454023594    1.0624789514586233    0.7342660536116059 Cl
   0.0037707062291830    1.4722961829624037    0.7009245752402572 Cl
   0.5481564673859999    1.7238397119075348    0.7751191887148495 Cl
   0.1556305964693356    0.1518939545112847    0.1765436780653425 O
   0.1241091617303232    0.1574188594014893    0.0097418237245460 O
   0.3662129233667445    0.1490856317840556    0.1535522651467135 O
   0.3956790137399110    0.2164914427294032    0.0027092807117679 O
   0.2209267378338844    0.3090425083314867    0.3086249017676165 O
   0.2684574071465379    0.4616118432597759    0.0916914292899539 O
   0.1088495407144736    0.5982724545227425    0.1638146694142320 O
   0.1686155280684386    0.4623197619774903    0.2709048983354428 O
   0.3677217514441514    0.5826102931011818    0.2517501736691107 O
   0.5188509346359504    0.5812673173866190    0.9935542368390187 O
   0.6549197536965228    0.5239933040299612    1.0715749587676939 O
   0.4887256274532424    0.6705238352709303    0.1699335712812494 O
  -0.0373886171100055    0.5755638595800369    0.2365084629421902 O
   0.7841479613110973    0.5008033364901936    0.2802136093639622 O
   0.2941650902333982   -0.0197723540554025    0.2895767307832960 O
   0.0934023316752950    0.9668443414365505    0.0407957985820671 O
   0.0600013240253670    0.8389269092215285    0.2470844826567646 O
  -0.0657690602615429    0.9176509279617127    0.0693869475553583 O
   0.2680718916025308    0.1463743569264501    0.4303161590639067 O
   0.4052334478257714    0.1854558372984119    0.3470333477835683 O
   1.1174852319471773    0.6309919921289971    0.5537620758939784 O
   0.0998032190697567    0.4617674231257660    0.4547257939331140 O
   0.3915897425384417    0.5142839270066561    0.4202345182058720 O
   0.6033300931389216    0.6212265502481361    0.5011986155676518 O
   0.4991607208404357    0.4589445432180935    0.5375457390415926 O
   0.7716571099781643    0.6139206653130447    0.4067910708953719 O
   0.2115148411043332   -0.1575469687155390    0.3604251052227948 O
   0.4711250703840613   -0.1668810024884645    0.5916889143812344 O
   0.4992625427332560   -0.0341346805731938    0.3857984841393044 O
   0.5419546891690560   -0.0135650813319079    0.6235182373078626 O
   0.9625257081089450    0.6562562820633182    0.5173133863571838 O
   0.9594954968502076    0.9159086154273789    0.5784921275090934 O
   0.8052161642304246    0.7563058119667772    0.5967725074230309 O
   1.0407824094002744    1.0747009175393283    0.7522222382802736 O
   0.4427578470184199    0.0542637976700794    0.9270216643709337 O
   0.3560905554622225    0.6378710180750418    0.8093667512332346 O
   0.6265407876160352    0.4656478973563900    0.6869078540065361 O
   0.7863325493938038    0.4369948171246545    0.6777926021453573 O
   0.7738845331213160    0.3076148431869478    0.9313684500371168 O
   0.9248633504802418    0.3665122854376506    0.8760602877741460 O
   0.7136429288893039    0.6206154519441008    0.8245011525782711 O
   0.2804955362026964    0.6991726696583695    0.0103350481243989 O
   0.1292582314100494    0.7129845527906404   -0.0589535617784166 O
   1.1404610721273669    0.9373167689171300    0.7440893962532460 O
   0.8701999050679332    0.7357741220495631    0.7544931163969077 O
