Li1 Co1 H110 Cl3 O55
1.0
  12.9543427275000003    0.0000000000000000    0.0000000000000000
   0.0000000000000000   12.3799213124000005    0.0000000000000000
   0.0000000000000000    0.0000000000000000   12.5738926566000000
Li Co H Cl O
1 1 110 3 55
direct
   0.4677782185611084    0.4166892523810352    0.2469871036054920 Li
   0.6261745218829360    0.1523765869424816    0.6949303264262765 Co
   1.2198094257731225    1.0270493515548105    1.2291403903617446 H
   1.2743394019254768    0.2922579283743913    0.1971998167964700 H
   0.2184842120698015    0.3018088776103585    1.0398911208643664 H
   0.0481671186895036    0.1916159316637951    0.3304600605222253 H
   0.0100512520348555    0.0658614974703690    0.3000828328464736 H
   1.1527045159922029    0.3202443744314408    0.2221427687179958 H
   0.5900978169639058    0.1804405779189030    0.2021147625247176 H
   0.6041077905934229    0.2985261426902831    0.1468772939882392 H
   0.4131756798697065    0.2089593375370572    0.2801669637644710 H
   0.4115360752639929    1.0424694818757352    0.2404577015943411 H
   0.4899005296677643    1.0458216841194143    0.3253407230379648 H
   0.7046184863028977    0.2570606125753359    0.2890910100454849 H
   0.7016588610400420    1.1442068005724586    1.0964209497258288 H
   0.8483046646875895    0.2034172990806997    0.0211740576741962 H
   0.2778967207697725    0.5977404839227869    1.1229362071011970 H
   0.2746337223383455    0.4536192124723056    0.2205227453444618 H
   0.3281424193507003    0.5517450381012002    0.2826983994041169 H
   0.5006536804010924    0.3861834042039771    0.0450110672770001 H
   0.5604737744267775    0.4899998960513586    0.0920573572490633 H
   0.6459439540638787    0.6507303199197998    0.1146096413940337 H
   0.8779781115066225    0.3759935171427689    1.0059875389233963 H
  -0.0880021982033824    0.5440050858363967    0.2214476776878197 H
  -0.1094753061681338    0.5455923334047895    0.0948838486921364 H
   0.8355367455828338    0.3789668801449336    0.3267142038264249 H
   0.0405378392981073    0.6669267071940197    0.1247059579021410 H
   0.1493205332288828    0.6791779966951965    0.0614131478126365 H
   0.2636752350583508    0.9548356453897681    0.0791325610512290 H
   1.1256016357160257    0.7619523515671938    0.2197067689177333 H
   1.2423887264873972    0.9112085506473303    1.2690961951169484 H
   0.3321858510478412    0.6823242202467943    1.0326379970712243 H
   1.0131219807732232    0.8738577478165521    1.3144282188240866 H
   1.1729525521540978    0.7348625186403812    0.3317961622735935 H
   0.5462275865744035    0.6814809192486252    0.0380794827327141 H
   0.7957207540771389    0.6769300017929895    0.1867989009009972 H
   0.7957076310647579    0.9642783548424454    0.1066049603657470 H
   0.6912538561057613    0.6790802577864048    0.3128227221055024 H
  -0.0070943496118028    0.7730881250928232    0.0082921956746045 H
   0.9151548336399378    0.9013296510231863    1.2324726917535500 H
   0.8767893209732899    0.8805621523039107    0.0676532201707232 H
   0.7533612139952548    0.7893515564119168    0.1658539153509764 H
   0.0314588607289879    1.0945618969829340    0.4765484716584391 H
   0.0220866754661830    0.1614380338749139    0.6297325374528122 H
   1.1441513996874451    0.3331693354196605    0.5869462647612276 H
   0.5858019602639080    1.0448604502230341    0.5211003073786173 H
   0.3928990818573355    0.3089527033074908    0.3623706240174043 H
   0.4278742256782708    0.3300659231256326    0.5360662375912651 H
   0.7463658764543060    0.2536769077081618    0.4135958108064703 H
  -0.0500018140576866    1.0282933013030675    0.5268964440238388 H
   0.7070277169876584    1.0376067692234583    0.5263111042089537 H
   0.3151707075830876    0.3541953172035090    0.5099931662717070 H
   0.1093560972949023    1.3523745211070568    0.3921680789689015 H
   1.1783098289731428    0.4548502380673338    0.5904447835732926 H
   0.0014039588177169    1.3751694963640759    0.3336301209870788 H
   0.2566304932354971    0.6647005218003860    0.4475160940193325 H
   0.5876677438477166    0.6349378124339748    0.6650859488537492 H
   0.5989427273086635    0.5369178033096397    0.3373497328270487 H
   0.6449805705667363    0.4204671439216828    0.3464026174912303 H
   0.7814946367142888    0.5298806018766435    0.5873828837264069 H
   0.8725513599161491    0.4648317231577301    0.4134065297250265 H
   0.8335451354685490    0.6216614760298514    0.5337439654996011 H
   0.7070724896181345    0.6070701070347135    0.4142519322022315 H
   0.1268894453603223    0.6805851138779649    0.6264582928632983 H
   0.2188153751469441   -0.0383881958380451    0.6410846305474733 H
   0.0956775955192899   -0.0265795585849494    0.6124260432792853 H
   0.1192317816650880    0.7971084716278329    0.6065392425866496 H
   0.4292644930487463    0.9819925223614540    0.5273736232207560 H
   0.3552167377764014    0.8941890563643611    0.6554612444519283 H
   0.3699893900078228    0.6816489332405977    0.4118230900899227 H
   0.4980460606468079    0.7221855398422362    0.5247873119734645 H
   0.5441178693486902    0.7264456638502277    0.4166815696132018 H
   0.4859427835220519    0.8942536771305043    0.4629464786503130 H
  -0.1441331818662122    0.7375353950799801    0.6611022978581517 H
   0.8526043810971111    0.9375657456379940    0.4084565908556716 H
  -0.0562352449386360    0.7352066242200939    0.5842573599865990 H
   0.8314300146495024    0.9253362656453905    0.5288202714860768 H
   0.0007776051561934    0.2794008191906219    0.6908647596685417 H
   0.1593673571193541    0.2462592515144975    0.9368601792633183 H
   0.0647638696418764    0.1917621361471942    0.8077911594838196 H
   0.0844141911869145    0.0807678927004550    0.8669693328881729 H
   0.3607229993830654    0.3241030419297675    0.9263463309579085 H
   0.3424874157668838    0.0774221525333901   -0.0755025271511033 H
   0.3794410466897229    1.0113868933608487    0.6906834315737130 H
   0.3995547649601893    0.1754696254833362   -0.1156754484409044 H
   0.4853530199068142    1.0623726778478453   -0.1752870596157909 H
   0.7075572691343248    1.0732128113683694    0.9878547294405410 H
   0.9502550320494445    0.2047080988844104   -0.0446294307598885 H
   1.2097896198493179    0.5480753863438425    0.9453460159818300 H
   1.1802782808302845    0.4283678403422676    0.9154109743618883 H
   0.0470203989899803   -0.4942632258632480    0.8285166426032585 H
   0.2090001338279013    0.5366617435237971   -0.2328213506867644 H
   0.2569022167859732    0.6193698621104977   -0.3183024367238576 H
  -0.3337275172689768    0.5926128261293228    0.9479545955916443 H
   0.6379319690343588    0.4372006913144683    0.6687785205392270 H
   0.4778613237211035    0.3389423931149800    0.8683054346395412 H
   0.6837474930238603    0.5244678049525726    0.7490066589169230 H
  -0.0345328702281704   -0.4504519619373021    0.7555289032401202 H
   0.9104845851161306    0.4715595526728155    0.9235548326559426 H
  -0.2429193593604497    0.5171244626399730    0.9192204549506110 H
  -0.2266692103233147    0.6434758311606471    0.8319523328210627 H
   0.1221026336088961    0.9318710406216231   -0.1970535886831709 H
   0.1589265782917353    0.9497548376517578   -0.0765881098240900 H
   0.3240295128821309    0.9017496860031172   -0.0155118766341322 H
   0.4198267313211318    0.7359691492605838    0.7013905374538744 H
   0.3439270874192641    0.7797044837863116    0.7953837050653098 H
   0.5666099406277268    0.7533957543702553    0.7041804451585173 H
  -0.4163438276841746   -0.1928202759583802    0.8609966399400922 H
   0.5741718835267707    0.9703769396472113   -0.1960022038526299 H
  -0.0102086720323727    0.8611274568863388   -0.0830992199660258 H
  -0.3052135271908955   -0.2132679018852469    0.8043316103061696 H
  -0.1569451016595392    0.7462301191645496    0.8605592256762513 H
   0.5043574576601382    0.2866553079497746    0.6832998788000803 Cl
   0.7890403688333326    0.1473814017196111    0.7523508897886513 Cl
   0.4462611099077856    0.7889711016512486    0.9676302844778653 Cl
   1.2079446786969379    0.3057079330875246    0.1651007675185087 O
   0.4772406824296752    1.0842710399746271    0.2568034749847413 O
   0.6392388666791201    0.2333536767561208    0.1779997165098433 O
   0.3994096398820942    0.2885430420807333    0.2842524129887441 O
   0.7449624860714494    1.0924051789129043    1.0541905907986531 O
   0.3327431931030791    0.5063392567706705    0.2183189727533656 O
   0.2729084321812035    0.6302083801118683    1.0501584265847024 O
   0.0695168703378741    1.3336587317128283    0.3306739958621764 O
   0.5399578744239304    0.4124073188644704    0.1125704956258740 O
   0.5894401224610490    0.6193488603615012    0.0676101149832684 O
   0.5837007343991472    0.4625288006043012    0.3231091149937151 O
  -0.0870411305319543    0.5918672640399455    0.1591423899463354 O
   1.2676466656111944    0.9696822664111717    1.2200103617273947 O
   0.0970225498999559    0.7151709556773902    0.1016065082780389 O
   0.2665198409773971    0.9491167075860937    0.0030152180661491 O
   1.1386165762303049    0.7931342945100252    0.2947471741262773 O
   0.8314454534875978    0.8972666203519316    0.1294069682904374 O
   0.7281001871038386    0.7149334743618139    0.1933776114291629 O
   0.9452065319923041    0.9098838249413943    1.3056004036811175 O
   0.0569118309750231    0.1125403078939201    0.3395797502739752 O
   0.0185674695165656    1.0606683051408179    0.5465951965712441 O
   0.6497998038781625    1.0857411624043853    0.5436120312918498 O
   0.7529513128438265    0.2903920037520060    0.3454935911211030 O
   1.1914714384493268    0.3856583604790634    0.5547350783719908 O
   0.3034094007221410    0.6502674736822990    0.3904788646118145 O
   0.3878729681154331    0.3563584973501531    0.4774559074312433 O
   0.6519766800495900    0.6515186932667469    0.3791673317488912 O
   0.8874421192589990    0.4325819220543820    0.3442696264810103 O
   0.8060632317171339    0.5515834861858422    0.5123265725446323 O
   0.1469946722698363   -0.0688454168885805    0.6597383606536300 O
   0.0886891282612933    0.7272655398206697    0.5811708058812060 O
   0.4891062014477647    0.9756919976624906    0.4703928600182066 O
   0.3485927042916427    0.9705708019456408    0.6303958165365271 O
   0.5408409759629775    0.6923840580161391    0.6590567897006998 O
   0.4819665107706253    0.7538448686949507    0.4553752353925595 O
   0.8319086186304545    0.9792865277792070    0.4742429008386672 O
  -0.1317172682700277    0.7425548130901543    0.5852037653938181 O
   0.2190392382993250    0.2917797347049315    0.9609577287076392 O
   0.0560352909421664    0.2280555816919539    0.6671131651419859 O
   0.0653571069956857    0.1580131332693235    0.8817857469524534 O
   0.5376443645353600    1.0325501942727517   -0.2265074746128877 O
   0.4380437883315991    0.3172936286974263    0.9341084458944290 O
   0.3750479253097251    0.1054861435098115   -0.1386683280443617 O
   0.9047567761828000    0.2508780207745838   -0.0006124333895882 O
   1.1739406377921926    0.5050856139074921    0.8924825139500149 O
   0.2041384437117132    0.5631998766596619   -0.3074625159672210 O
   0.8641526319923436    0.4566095384255828    0.9884114385036112 O
  -0.0228272975727475   -0.5087334309218674    0.8058267717898437 O
  -0.3013885550528021    0.5534389099337292    0.8877902518469953 O
   0.6767135583876732    0.5056857792730473    0.6723502068281526 O
   0.0973335652933844    0.9492297939268441   -0.1255124975853533 O
   0.3479975370830716    0.7683053806386485    0.7155206087732555 O
  -0.3719548523346724   -0.1693443593781270    0.8043316103061696 O
  -0.0543123376538750    0.8157313686707306   -0.0360055301937355 O
  -0.1998519485518993    0.7179229925555144    0.8069401899159839 O
