Li1 Co1 H90 C51 N3 Cl6 O45
1.0
  14.1698146181000002    0.0000000000000000    0.0000000000000000
   0.0000000000000000   13.8287499280000006    0.0000000000000000
   0.0000000000000000    0.0000000000000000   14.2924917931000000
Li Co H C N Cl O
1 1 90 51 3 6 45
direct
   0.6026290416525573    0.6920313487355152    0.3325148592210039 Li
   0.6993282601624272    0.7389842550633184    0.6115599730985861 Co
   0.2144785860372469    0.1921163140437403    0.1825892877377664 H
   0.3703585364480712    0.0950612651790228    0.1519109423276482 H
   0.3785075491989157    0.0239861495599387    0.0414865304863255 H
   0.3742640215578983    0.2605628478901220    0.0949159821910774 H
   0.5220897734434843    0.0306960836091561    0.0168841025059395 H
   0.8528242697165481    1.0775499261743535    0.2555534716670832 H
   0.7037877398171070    1.0237995869267698    0.1333536463823712 H
   0.2633042071654342    0.3561390935292065    1.0225904697427131 H
   0.1539562698945540    0.5576526080919090    0.1489576434479961 H
   0.0121851843763325    0.5040103046398801    1.0508528613429664 H
   0.6132466823242865    0.3492888720346234    0.2206687218825351 H
   0.5937764205434732    0.4072060376620327    0.0385192382454809 H
   0.6317268111797133    0.6293373232802882    0.1346599266496800 H
   0.3714954602847050    0.6219787405790450    0.1772753088249594 H
   0.7893407292296495    0.4226252187962770    0.2216636498633135 H
   0.7650228387499923    0.6075949386420924    0.0676765052939872 H
   0.7726213855836586    0.5487016905726491    0.2369185125671885 H
   0.1356836243463712    0.7402403338911545    0.1399871992556198 H
   0.2420738659007199    0.8468681930741757    0.2303017517273707 H
   0.6203907419135130    0.8917016019670985    0.0144751453766710 H
   0.3739535023225669    0.7495079828592297    0.1808401175887187 H
   0.6418469153493773    0.9134179538834740    0.1498007434598371 H
   0.8874739820263225    0.9531742588902500    0.1459966482196881 H
   0.9243961305582947    0.7998878077622287    0.2148076025471061 H
   0.1986837428419017    0.1608271518090612    0.4783924311785093 H
   0.3165363785331879    0.1922320150296089    0.5019736236590752 H
  -0.0257581490045591    0.1222871534162289    0.5428093301579074 H
   0.3187375364763665    0.3298294124738474    0.3522958746025547 H
   0.2563231701747566    0.0322233366226217    0.3962714114857336 H
   0.5704086483513767    0.1946675207821431    0.6874837529200918 H
   0.5403095954353839    0.2380886545163072    0.5193803084836280 H
   0.4497899919988227    0.3289305604398807    0.5677606825996254 H
   0.6772072932727397    0.2050661468870839    0.5904852714747997 H
   0.8282043287079778    0.1939718686046081    0.5376479488489034 H
  -0.0906369088738446    0.2872861599699613    0.4506901938267869 H
   0.7364522461973648    0.2925165676623840    0.6615890380335894 H
   0.1337725195980135    0.3080125453259986    0.3275444173254700 H
   0.1074842434250717    0.4141530864191645    0.3990106119391423 H
   0.3103323453563736    0.6206546874220111    0.3795913249444146 H
   0.5525465939193662    0.3583829695238957    0.4882088440217710 H
   0.5185188375234500    0.4472556446679856    0.6771874377547373 H
   0.6226808212740821    0.4785698272408588    0.6042617355686994 H
   0.7159248075653553    0.2985510972065934    0.4525885332061454 H
   0.7545068225552808    0.3996652259080463    0.5200837617474497 H
   0.2850299677556090    0.8861139674808066    0.6405031417208489 H
   0.2572039156422420    0.7914293425640720    0.3377462773027758 H
   0.1020649770430041   -0.0053671905549263    0.7340753486781865 H
   0.1247095922795459    0.8621211986674663    0.4200636238530807 H
   0.3791398792781360    0.6944241897495103    0.6070967905462761 H
   0.3818978546683066    0.9489309252335190    0.5649223391821686 H
   0.3962988899323348    0.8017332384868330    0.5463793864321138 H
   0.4957994153802147    0.7425717087564069    0.6014063902173941 H
   0.5065254554940959    0.9604106324251696    0.5446600921092118 H
   0.7954466665571204    0.9357822313207137    0.3781947874974149 H
   0.0206164873411147   -0.0682007803243573    0.6539409664738932 H
   0.6785107683355966    0.9251746203100476    0.3453131873675562 H
   0.2337166641170964    0.2218232652966663   -0.0840703021484389 H
   0.2224793964257742    0.0322218903602984   -0.0646265267716245 H
   0.0097892461855369    0.0523777252297710    0.8975429954553513 H
  -0.0746825717076246   -0.0313984661130391    0.9197539580079593 H
   0.3560478340525031    0.2415329282393832   -0.0775193101062254 H
   0.4106215896619953    1.0839474675617258    0.6699766587323029 H
   0.4861883510388337    0.2877721041106095    0.7207830548815430 H
   0.6098987203869861    0.2865254259878753    0.7614792475692872 H
   0.0197484449332564    0.1082923960442594    0.6953725102922971 H
  -0.1345753806732366    0.0540734678039078    0.7977843235148621 H
   0.7713637826805664    0.2953722126198535   -0.0268367552035380 H
  -0.0897244057572912    0.1755703499333682    0.6869205201320984 H
   0.2194970003155232    0.5980076657005550    0.9593985496020960 H
   0.1998884163298806    0.5588276962296370    0.8359931962506603 H
   0.1434861258596073    0.4217688868746170    0.6411083545924195 H
   0.0474192374289577    0.6510551214589870    0.9948745188970223 H
   0.3971619922614490    0.7040186940026644    0.7882296564927037 H
   0.6317938551055235    0.4423337247291351    0.7198671893915016 H
  -0.0373885058187895    0.5394202297993858    0.8782174639806126 H
  -0.0911422083567929    0.3829867841688546    0.7770776472904350 H
  -0.0228484426243970    0.4226310038455703    0.9226680754762727 H
   0.7033586586919217    0.4322405492268874    0.0062078675842119 H
   0.0366710375332825   -0.0738079393520146    0.9188639802361238 H
   0.2724264154288287    0.7859443927027385    0.7199910306380543 H
   0.0889857657057389   -0.1339146015107548    0.7398727982201903 H
   0.3074748626657899    0.8986906646447239    0.7702167022978103 H
   0.4681545935841957    0.8125050002712002    0.8289363442013422 H
   0.4639922949522388    0.9611489493412436    0.7444220399438334 H
   0.5117146906380811    0.7328137768607134    0.7470716828856109 H
   0.5475432115949822    0.8972357247474262    0.6828085709457171 H
  -0.1525996108331543   -0.0156146822470764    0.6940662300249882 H
  -0.1482198781639119   -0.1357672635469759    0.8344693192168100 H
  -0.0871647392424117   -0.1812023175664154    0.7265777057513083 H
  -0.0328810368277404   -0.1944182626772568    0.8406354938262329 H
   0.2964062633772955    0.1620767224564421    0.0343758039964167 C
   0.2031389881433723    0.1128466761005124    0.0703268479038242 C
   0.3733938619734355    0.0958928660149534    0.0726224588074345 C
   0.4643021084620354    0.1464419036097852    0.0658769590446469 C
   0.6995463293526940    0.3074730894793862    0.0955428847724961 C
   0.2011678967245528    0.5905427827185450    0.2704081242408560 C
   0.5939895496549962    0.4846259784068025    0.2238801982761868 C
   0.6684231275405355    0.4089033711247251    0.0666088118350084 C
   0.6712813159566540    0.4932383259161645    0.1405882141188325 C
   0.8499625526727554    0.5116146073098617    0.1141218704276214 C
   0.7722508796778654    0.4917359486146606    0.1861477994889890 C
   0.2358056117002349    0.6869687074726021    0.2230405966046439 C
   0.2141624209976368    0.7857997664704027    0.2768863508048692 C
   0.1097136303896441    0.8017310690933479    0.2906257324916092 C
   0.3454316048318437    0.6821172205088991    0.2177699971115333 C
   0.4038932024127919    0.6908562605977873    0.3113499004175265 C
   0.7138422115120304    0.9462842651817746    0.1431168144862959 C
   0.7516634543753941    0.9118950396569785    0.0518430171048072 C
   0.7775932219766349    0.9232727853548325    0.2287981650672493 C
   0.7833660568516595    0.8090260162523635    0.2318284274334596 C
   0.2862656931671210    0.1667163319897732    0.3597865208488367 C
   0.2561502674187198    0.2058905164113977    0.4520851920040554 C
   0.0476394237958291    0.2861754305056227    0.4509714603867538 C
   0.2283856134268843    0.3173828789190322    0.4495043264325385 C
   0.2264236964400177    0.3585153025264829    0.5519199178626254 C
   0.5237611079413788    0.3145373577978262    0.5466142649997280 C
   0.6890910055539791    0.2822032710345212    0.6036852090875734 C
   0.7392095158620007    1.0686293801638842    0.3344676327754008 C
   0.1307160223066038    0.3372480150615100    0.4009395967795121 C
   0.5935717601383684    0.4315481511395799    0.6553263092319390 C
   0.7455024704562052    0.3173966184111041    0.5194641846906152 C
   0.4494348709096892    0.9741117985454975    0.5950394108748603 C
   0.4200945435162073    0.7625344676057113    0.6039881653573884 C
   0.7446365452249516    0.9617672264844790    0.3241111461569190 C
   0.3011494446969825    0.1875634802498107   -0.0728049467205120 C
   0.3079201754782765    0.1066472726514402   -0.1464673993733287 C
   0.5575554809029221    0.2699541522868443    0.7071157390049437 C
  -0.0965043109705382    0.0247324209187912    0.7368817172653186 C
  -0.0529956260218662    0.1041676558980437    0.6778325317057061 C
   0.1660989834470811    0.5827358586970609    0.9049804669291023 C
   0.1012759758950484    0.5076592967948274    0.9390864861632943 C
   0.0351932482633190    0.4437314649515440    0.7868345183818233 C
   0.0128775011260145    0.4787493083951875    0.8852890090591827 C
   0.1111624849126790    0.6699584931564322    0.8793838106359976 C
   0.1509745795098378    0.4119922981949522    0.9680779318816707 C
   0.3106668592598897    0.8520414734048258    0.7056352413907898 C
  -0.0086824139634719   -0.0212102711761468    0.8845851429912058 C
   0.4452423672248410    0.7674705609153306    0.7722457396707056 C
   0.4704796063587395    0.9149097734700173    0.6839147461479749 C
   0.0537178378274411   -0.0650609448203480    0.7242030323569612 C
  -0.0797659127351064   -0.1508351475628766    0.7980816824402001 C
   0.5927580585966933    0.3266982545437783    0.6259010693165987 N
   0.4107754378285913    0.8241047472356894    0.6911346208551842 N
  -0.0332670686953001   -0.0488635299299050    0.7835026990819172 N
   0.4926153934846587   -0.1102653199992120    1.0173240682579603 Cl
   0.6964827748059359    0.6754492280670591    0.4664355238404548 Cl
   0.2195640442413333    0.9244283489511952    0.4849859630387476 Cl
   0.7188175765326812    0.8895647493843378    0.6227819491068168 Cl
   0.7917190242820740    0.3472539809456593    0.8412253140004918 Cl
   0.6913803791890132    1.6386447496688001    0.7273242515709218 Cl
   0.1557156436529203    0.0496088560117030    0.0271216455542860 O
   0.1745013516649347    0.1357569175648195    0.1550363595499667 O
   0.3112328511388346    0.2257361280125103    0.2934432957676952 O
   0.3022800170038027    0.2532208972055974    0.0880431428414391 O
   0.5378887451332083    0.0989574958781480    0.0322537107715920 O
   0.4840714567245154    0.2361246302811876    0.0827893353817594 O
   0.7566832801047400    0.2639499942514254    0.0369344900904437 O
   0.6744669610209401    0.2750717515180451    0.1728981854439824 O
   0.2428021746526790    0.4241453128112420    0.9964816564299672 O
   0.0698817754775098    0.5444446174238461    1.0340482338870352 O
   0.1696607802214392    0.5252139565626253    0.2106060958490935 O
   0.5578060840403452    0.3984552828483254    0.2401670713679999 O
   0.5785012030594338    0.5548678299882841    0.2737406432088217 O
   0.6535887767981130    0.5798447803126691    0.0907767459503709 O
   0.8298359661445373    0.5810639794512595    0.0554735946661707 O
   0.9226586342915086    0.4630438396340346    0.1023366616313975 O
   0.1957719192851351    0.6920624433754674    0.1331059638892660 O
   0.0551963328229394    0.7901992964580564    0.2197752457704016 O
   0.4818093240951262    0.7337321534360455    0.3085120467677115 O
   0.6892907258803399    0.8942058051799920   -0.0135052799955559 O
   0.8385283875572117    0.8979407776300631    0.0413717849245480 O
   0.8722352505524344    0.9621287920653184    0.2139176247752706 O
   0.8626627893978094    0.7633848698518455    0.2248289481650302 O
   0.7047136517188223    0.7635352811334747    0.2410339600938679 O
   0.2865966784429629    0.0709976295118380    0.3472799542831455 O
   0.0517121658574142    0.2231205626007181    0.5106038892408648 O
  -0.0638383931392105    0.0725624853457108    0.5814805435475020 O
   0.1445376569065250    0.3979903095113659    0.5731349029323656 O
   0.4389543527093803    1.0748786796631122    0.6042477422075071 O
   0.8037043610403308    1.1186577633223074    0.2890647730505990 O
   0.6863676107150157    1.1086199796670442    0.3914003224546655 O
   0.8349171899954145    0.2675280472394120    0.5354990583373953 O
   0.2940067965588256    0.3485946661194118    0.6023509420978798 O
   0.2996462493077646    0.3743547674918950    0.4060450746105526 O
   0.2009152469830787    0.5800378563328373    0.3525995305404294 O
   0.3767086548105981    0.6450198687836161    0.3881846480526562 O
  -0.0356368950413065    0.3139082336871656    0.4126618354503703 O
   0.0749954627029899    0.8319565053891976    0.3704354687162392 O
   0.2523704014540950    0.0322602163118673   -0.1284159634351562 O
   0.1048991707909379    0.3370650628776053    0.9733184456482178 O
   0.3603922804450032    0.1118031978342099   -0.2141637824817734 O
   0.1085400088251985    0.4644785607840518    0.7472039201488790 O
  -0.0292176155763648    0.3937831324127188    0.7435558508860250 O
   0.1306115749274469    0.7204489571271679    0.8115586886045829 O
   0.0478694903201883    0.7003632659803780    0.9440625254033053 O
