Li1 Co1 H90 C51 N3 Cl6 O45
1.0
  14.0290110868000006    0.0000000000000000    0.0000000000000000
   0.0000000000000000   13.6913355104000001    0.0000000000000000
   0.0000000000000000    0.0000000000000000   14.1504692352999992
Li Co H C N Cl O
1 1 90 51 3 6 45
direct
   0.9033644612002917    0.5909205313867610    0.5728742618214764 Li
   0.6524864785524920    0.4507950484824312    0.6462460336500725 Co
   0.0418953294685909    0.2615202331781432    1.0738763757524141 H
   0.4753993706566582    0.1368428415019729    0.0946127365345716 H
   0.4561921722067593    0.2590741606255744    0.0959370742429814 H
   0.5216913363541587    0.0297590585586414    0.1973711663661865 H
  -0.1986455026058195    0.2306554574461478    1.0327879856551037 H
   0.6568681131252837    0.2115528651678903    0.1975372385974972 H
   0.7439847311419262    1.0420226167391022   -0.0009296781740059 H
  -0.0405381359299875    0.1018133880468520    0.2040416165421095 H
   0.1688052013750441    0.4182941284909526    0.9641104044498329 H
   0.0492736114700495    0.4202642796116750    1.0115710213970532 H
   0.9300634207835816    0.5495125913381546    0.2268281400586326 H
   0.2860543780862728    0.4810151829379568    0.2101636750095341 H
   0.5410804079228551    0.3696791486378620    0.2334943500924796 H
   0.3862595879404948    0.6097572620916727    0.1705826554202480 H
   0.9045391698022049    0.3659271406645727    0.2699737057531582 H
   0.6885602970753224    0.5087484891381864    0.1329139399072462 H
   0.7388546475205855    0.5533223000375272    0.2564193849168193 H
   0.7191975242712159    0.4605354423175468    0.3354853142083351 H
   1.0339253388464291    0.6927221415321895    0.2112385510258048 H
   0.1957279828642811    0.7988052916307854    0.1437969712356935 H
   0.1770017876695830    0.7622456733510508    0.3108917834770822 H
   0.3174756947615986    0.8285080185627995    0.1809766570292612 H
   0.6111592605174645    0.7771098186234686    0.0921675879374010 H
   0.8704555129398973    0.8418149746199064    0.0743286035332454 H
   0.7864987755253671    0.8052392877835409    0.1584254613979571 H
   0.8590220627125380    0.8522376247617867    0.2781190186811897 H
   0.1760815517441765    0.1776934947910661    0.3830187202611938 H
   0.0267645409413991    0.2683552128577307    0.4575672728539543 H
   0.3467977900578987    0.2468496409742325    0.3360937745962437 H
   0.5234670495420568    0.3119623539979421    0.3402717279218139 H
   0.3376595835794232    0.0801347139851039    0.5948399645011171 H
   0.4353507174391379    0.0154039943758444    0.4046823128179181 H
   0.5071309729232539    0.1316278644863439    0.5193611035361677 H
   0.0518746501159120    0.0228882898211034    0.3409890186230071 H
  -0.0018190846269993    0.0569952620478294    0.5901348201774286 H
  -0.0566091190238805    0.0835003462103165    0.3636617649938236 H
  -0.0766418924147600    0.1975454661194685    0.4809297490024698 H
   1.0043060023565624    0.5681732983090654    0.3208504638329575 H
   0.2080909355290766    0.6441658849496951    0.3520063211171949 H
   0.3710168884603294    0.6176366979522617    0.6256700375358470 H
  -0.0523180111455324    0.3455828871921178    0.5939375209292710 H
   0.8024086638716676    0.6388230898699575    0.3926671635551738 H
   0.1308759420204295    0.7440502241334951    0.6125701185919882 H
   0.1255484104119954    0.8695960482566657    0.6024920075676382 H
   0.3596761033532667   -0.0389267171486056    0.6406801404849524 H
   0.6071119331863581    0.0745633071678465    0.5695239135601105 H
   0.3769025492163959    0.8791531875072965    0.3886390285829562 H
   0.3834254608766555    0.7623428150797732    0.5617774566633632 H
   0.5631871692676950   -0.0282002252086159    0.4406175169121743 H
   0.5339571688447973   -0.0917703567957697    0.5434507145823964 H
  -0.0040401962796459    0.9241173912938718    0.4923912770481553 H
   0.1014697353072449    0.1629593587495700    1.0200894668277742 H
   0.1693661817571471    0.1870789926413226    0.8564341165003826 H
   0.1697496727934513    0.2664591231752976    1.0598782533787854 H
   0.2288949678442705    0.2933513134747991    0.8914195287696107 H
   0.5120625607288333    0.2240644276717731   -0.0562946266412706 H
   0.4435123761114113    0.1877063967388611    0.7588076719614421 H
   0.5569405422276424    0.1948357231603672    0.6978676433545590 H
   0.4428594434176294    0.2207937460084697    0.6373396152193957 H
   0.7041351653713200    0.9595617056656421   -0.0970586458697659 H
   0.3482540580637899    0.0556703365147270    0.7181440027620792 H
  -0.0043360118559772    0.1987118972530763    0.8675757964954671 H
   0.8835269973706527    1.1040633138905800   -0.0371447316452794 H
  -0.1445148161802791    0.3273837860298733    0.8988567379709470 H
   0.1495914450858626    0.2997254177346582    0.7914666596116281 H
   0.0735283503033635    0.4446738779117195    0.8867256914914583 H
   0.3055568218656090    0.5455180942375280    0.7891762762002320 H
   0.3265746967661025    0.7011939228213042    0.7171744236073631 H
   0.3535295546431345    0.5889221872530411    0.8993153800055032 H
   0.3498878154154799    0.4630735438762738    0.8755741178315298 H
   0.5292911949144187    0.4799198916868871    0.6895569648855630 H
   0.4553230446592393    0.3988329152442534    0.7564374325409478 H
   0.6007536803167793    0.5441413110898444    0.8139203319751838 H
   0.5272626841502654    0.4628051989805396    0.8858684761017566 H
   0.4021694762867952    0.4812261923020765    0.6689901557458354 H
   0.5420736354507106    0.5844551285096817    0.9146222928999297 H
  -0.0064330948091499    0.3243840786624800    0.8359266693497194 H
  -0.0771814885383329    0.3582376059278022    0.9967064966592246 H
   0.1206514152086314    0.6380269659277956    0.8084236944639718 H
   0.1583090944799153    0.9381262511201691    0.8679015807449745 H
   0.3006220478055086    0.8626668484041067   -0.0226625263846384 H
   0.4960126553857647    0.0157480075655308    0.7878406314462864 H
   0.5321519097396968    0.6487585705903497    0.7083358474499025 H
   0.6006595895792475    0.0174052600653154    0.7241756048652155 H
   0.4665806450006205    0.7022661337819406    0.8093635926241558 H
   0.5138883130816916   -0.0743345120734877    0.6985729203198702 H
  -0.0133886813003328    0.7236154024327575    0.8190784648106602 H
  -0.0604033992957155    0.8996749254916279    0.7704793697160288 H
   0.7724044107282614    0.7881942011429622   -0.0667048821282419 H
  -0.1015574048366501    0.7252266404294631    0.7221530570949547 H
   0.0495323609982622    0.1588874404215403    0.2909327280349174 C
   0.5102236071603758    0.2087269903676847    0.1181356313916299 C
   0.5222330495193261    0.2066490338397485    0.2250027588949066 C
   0.5970948336823008    0.2245523274821989    0.0543794417559247 C
   0.4975207445781602    0.3123998569716622    0.2675426909629077 C
   0.4550740606090887    0.1287596271277480    0.2743862802736014 C
   0.3917311068896974    0.3538267871326505    0.2632099724515628 C
   0.1984181225873518    0.6021268888588611    0.1819250354735973 C
   0.7823309835378752    0.4227150266534454    0.2030656771742793 C
   0.7727729327835947    0.4886945652684923    0.2858297170464292 C
   0.9329545725368341    0.5791013775958778    0.2995048819319346 C
   0.2772640222132182    0.6805998763321344    0.2172503657992529 C
   0.2716000449372458    0.7710220268272128    0.1454407329804966 C
   0.3135217453594065    0.7320075713276561    0.0552133363642083 C
   0.2363887248417910    0.7083203276870593    0.3165071449664226 C
   0.6409845986978367    0.9127474266997129    0.0961427211336683 C
   0.9156568458119383    0.6892768969127605    0.2821499804147912 C
   0.7301170394852382    0.8882414170598835    0.0393156303405231 C
   0.8578687383691548    0.9464285821757229    0.1772905601845092 C
   0.8102053645316961    0.8673011662142138    0.1132001060151444 C
   0.1558099874663790    0.0898525388020426    0.4875559603627331 C
   0.0467238950446590    0.1099718324816664    0.4688365104564922 C
   0.0040081258224186    0.2082493160023876    0.5009784834495424 C
   0.0178786687135773    0.2251359082434717    0.6077165692956390 C
   0.3713319498693377    0.0382629769610178    0.6491851587990993 C
   0.0186848552601573    0.0890790569169514    0.3659726424252537 C
   0.8575436976394991    0.5213102293620936    0.3491053572468523 C
   0.9140387702498369    0.4328339810750037    0.3958543370156477 C
   0.0780888998391892    0.8059601816651132    0.6102048260039158 C
   0.3059110877485888    0.7552711893843503    0.3782393734511751 C
   0.0104226905727931    0.7829500085698228    0.5314895564620867 C
   0.5279933842642346    0.0671279477814176    0.5568548637202096 C
   0.5133888409552070   -0.0252472627332395    0.5023731368473795 C
   0.1629010075949183    0.2672377177829531    0.8619123800625984 C
   0.1015545595327471    0.2417683251342142    1.0260348527086982 C
   0.4802169589800142    0.1751115698960733    0.6891845390732193 C
  -0.0941342158922785    0.2943855442106718    0.9488345859306304 C
  -0.0072264508006120    0.2694237718736782    0.8954893584722424 C
   0.7525156246781505    0.9712004533888980   -0.0341299906292303 C
   0.8460297000383435    0.9751241027625617   -0.0841672005779779 C
   0.0163717912958318    0.6197577474275259    0.7259840254606372 C
   0.0913514169794790    0.4046624415121162    0.9494642470289192 C
   0.3600004312743046    0.5352518203672229    0.8417462643490546 C
   0.4603659517866396    0.4668396629638407    0.7168140115309014 C
   0.5366270648031263    0.5351155297914362    0.8545097986882162 C
   0.4623099234487377    0.6495744150338312    0.7454992793655122 C
   0.3855196925953576    0.6772853713325651    0.6765453822349543 C
   0.1077552816978219    0.8314317654806654    0.7896370383058261 C
   0.0286827089315377    0.8134225654422393    0.7068835987888662 C
   0.5242436545310036    0.0021065333749284    0.7191022748712594 C
  -0.0209879339732678    0.7175458703599457    0.7438922655187011 C
   0.0893662449792797    0.2904545909476305    0.9354774317008263 N
   0.4508573699504249    0.5490429512511729    0.7925012542781765 N
   0.4766940449489246    0.0731047204591335    0.6552259478767335 N
   0.6054867295380801    0.6084403708368858    1.1138390081285421 Cl
   0.2438375748963985    0.9953960477301780   -0.0444116284732290 Cl
   0.5892824512326836    0.3861910513538736    0.5177426978409793 Cl
   0.7375430796640804    0.5982682441006584    0.6596731502241310 Cl
   0.4051019709398723    0.2824926211370744    0.9048897534547754 Cl
   0.6876778400066521    1.3303889340352484    0.7344784434195942 Cl
   0.1144642364072923    0.2198179463876182    0.3000278327879769 O
   0.5856561086711708    0.2158219885091160   -0.0378591955850885 O
   0.4803931652703012    0.0337747369384632    0.2553685363723127 O
   0.6176672031967533    0.1845671850843551    0.2512435848226928 O
   0.3258390782726714    0.3157925135875720    0.3139680065532335 O
   0.6822476639572742    0.2351006045213744    0.0833728265813927 O
   0.0171965108664711    0.1441533043800443    0.2087199066326498 O
   0.8831121427551711    1.0268276052778775    0.1463990050896768 O
   0.2169668284362511    0.5110976390787140    0.1924554283193891 O
   0.1155648129129683    0.6322291385398316    0.1604501292392559 O
   0.3729885170967930    0.4214772365206182    0.2076867253467934 O
   0.3687294856062399    0.6479032851442290    0.2295135633734443 O
   0.8516002993854017    0.3651821439480543    0.1914399142921827 O
   0.7227344806320736    0.4376747067989228    0.1319740417470621 O
   0.9773076631538529    0.7325458679747876    0.2310280007849289 O
   0.3314182313231416    0.6454017030323902    0.0471224385928191 O
   0.6220395712575152    0.9963492052939589    0.1250682636859201 O
   0.5817142057346172    0.8380206040882268    0.1202691295462132 O
   0.8458636156304274    0.7398731297984276    0.3068134734902984 O
   0.8767225263064150    0.9206611908403766    0.2648692813839780 O
   0.2139637657300251    0.1402661744532687    0.4335788810659837 O
   0.3866359508906223    0.1474371330442274    0.3253676285246091 O
  -0.0112117637819814    0.0424758603540357    0.5212065052373960 O
  -0.0176405847047092    0.5571108274577047    0.6697675151264388 O
  -0.0194938871106403    0.3048264540759960    0.6413267621515452 O
   0.9463432568024507    0.3656174557549611    0.3337850172358517 O
   0.9336944678819712    0.4303604458983750    0.4798769217249944 O
   0.8122432843696027    0.5743319378322843    0.4242724758994692 O
   0.1914461414979627    0.0375954014719023    0.5482557142519751 O
   0.3284429681530046    0.7244283253204878    0.4587087191008184 O
   0.3432986125537774    0.8377488994033789    0.3427656381528588 O
   0.4144454663002355    0.7617796852087578    0.6221033713595696 O
   0.4227439842271007   -0.0250471361642924    0.4601419577915472 O
  -0.0130529484414122    0.8555893795971817    0.4677724468025154 O
  -0.0180091067600424    0.6970869458242620    0.5200736523451392 O
   0.0538241816852279    0.1589458715365614    0.6565481655141053 O
   0.9039682100994546    1.0448791678746940   -0.0752120205134269 O
  -0.1372805215195890    0.2141143391726257    1.0013134110248187 O
   0.0886263496341426    0.5835516373936687    0.7806846850026592 O
   0.1045063000185012    0.9212140952662633    0.8228408842127806 O
   0.1684160078697986    0.7663248955684578    0.8099996139355586 O
   0.3245310744592547    0.7897806059157838   -0.0206958071517118 O
   0.7285581270384032    0.7951993614450488   -0.0101958019907982 O
  -0.0321120252605602    0.8893742503023542    0.7058348703153977 O
   0.8651850060208764    0.9064354054995637   -0.1366375453880140 O
