Li1 Co1 H110 Cl3 O55
1.0
  12.7676419004999993    0.0000000000000000    0.0000000000000000
   0.0000000000000000   12.7864786709999994    0.0000000000000000
   0.0000000000000000    0.0000000000000000   12.7855077913000006
Li Co H Cl O
1 1 110 3 55
direct
   0.5383708678445012    0.5175722343720477    0.6135949016462432 Li
   0.7447433538943184    0.6006850308928186    0.4355972783098764 Co
   0.1137920738709866    1.0683736067603065    1.2905371194507953 H
   1.0202750477979698    0.3131359648361158    0.2051308746207670 H
   1.0387044493925419    0.2781028637356572    1.0085459730018975 H
   0.3510786475084692    0.0914499109244242    1.0641088815383419 H
   0.3898140697465123    0.2043906225274773    1.1009787507445354 H
   0.5173004147336988    0.1270299960835871    0.0011252893459413 H
   0.6459138276722065    0.2475440202843944    0.0644011492652869 H
   0.6046399570462327    0.0601485643771736    0.0154757557486015 H
   0.4787459186226571    0.2762235347492882    0.3287911958069029 H
   0.7033519987702916    1.0799170507215248    0.2272410641114307 H
   0.7497881382407120    0.3326956893259577    0.2080842184078393 H
   0.7628038541650043    0.2436266008533821    0.2895835234811227 H
   0.9151029251409730    0.3308108858065447    0.2793680512345784 H
   0.8020507255845715    1.0657223686147423    0.2970669962975176 H
  -0.0365909032647371    0.0167335621483711    0.2895561487373335 H
   0.1943073333066184    0.4899015981395368    0.1373298913395344 H
   0.1147570132149948    0.4509800144255839    0.0431641358879409 H
   0.3146373059024065    0.5302019821044129    0.2876117597927728 H
   0.2473954450567965    0.4380303975482228    0.3177513527045392 H
   0.0923939956566140    0.6116075063916243    1.0810030091338825 H
   1.3914242417469658    0.3736874286066684    0.2167690514088060 H
   0.5372735626326866    0.5042159378971368    0.0398122940448534 H
   1.4926958790686049    0.3515014924080345    0.1473075943828822 H
   0.5707331476781655    0.5142906428502814    0.1672051224398521 H
   0.6330030645661748    0.3685562269922001    0.0852302007466221 H
   0.7707371907035262    0.4147542471976959    0.0207797296780644 H
   0.9598566865992750    0.3649086238326390    1.0532997684193433 H
   0.1139651676981180    0.7224464665514946    1.0373363821126311 H
   0.2281444352058408   -0.1327060958814624    1.0525645610147225 H
   1.2011620133001553    0.7521677064470350    0.2572821079455564 H
   0.6141961461178592    0.8987803938205936    0.0288149912943380 H
   0.5347022185853011    0.9382595978288792    0.1208831452710610 H
   0.4132835563075558    0.9510387221057292    0.2619999495037185 H
   0.5156987094102436    0.9679550292114980    0.3301192619484412 H
   0.9613213266750018    0.7401464139586958    0.1442283267743802 H
   0.7515394404916879   -0.1725333237761126    1.0811203294644072 H
   0.9054848609003717    0.8213313927718514    0.2157757392770312 H
   0.8816433400954941    0.6847230234980151    0.3039474426150163 H
   0.0434454893568308    1.1594932988959117    1.3465458452432328 H
   0.1825064070921935    0.1005810410036385    0.5723255200453776 H
   0.0999733905640018    0.0661452896658885    0.4963277563381606 H
   1.0395346731787829    0.1595886082481856    0.6444931660287353 H
   1.0635328399810646    0.2795512687638534    0.6470679562159817 H
   0.2297649380489844    0.2918251718483628    0.5662983835985611 H
   0.3652950550028626    0.2358418148649020    0.6260738741363752 H
   0.3660610539301678    0.2327017791261289    0.5002712837148603 H
   0.5045196678055124    0.2019239543531086    0.4257024816334328 H
   0.5744699379462362    0.0576486579664666    0.5047920271177411 H
   0.6310128771691580    0.0764499250068784    0.4020890276409807 H
   0.8995401452988928    0.3190109208684105    0.6242030059322764 H
   0.0624500167308714    0.4045426789184530    0.3646223890201854 H
   0.2110355593693838    0.4154761034833467    0.6136457404561372 H
   0.1386282967593793    0.4029362945081317    0.4571638836024429 H
   0.0914385333954488    0.5728744030296127    0.4136927904653993 H
   0.1004773207376502    0.6562304252327643    0.5064540651335061 H
   0.5027182388353671    0.3832068594939277    0.4568424258968055 H
   0.3711238525662627    0.5996910121072693    0.6465267184244948 H
   0.5389731717045192    0.5076633295625196    0.4397128755046790 H
   0.4228836062584554    0.6653893190152729    0.5429743197547364 H
   0.7596435211673800    0.3955925994677633    0.3947619819319518 H
   0.8117980227730308    0.4140097107037203    0.5050649924200951 H
   0.9631149233452768    0.6604763166464129    0.3973641468629872 H
   0.2841077842383680    0.8655186951979237    0.6543097491514960 H
   1.1527818970019523    0.7651314006950805    0.6497929164262993 H
   1.1749551379344783    0.7073609997108484    0.3690445833454255 H
   0.1818179479336032    0.9366719832461371    0.6265126521725370 H
   0.6655196407072821   -0.0345743872003367    0.6358536968889048 H
   0.4692954655992782   -0.2291830096386355    0.3935074365308756 H
   0.3523161508879601   -0.2635458714792862    0.3881153941399655 H
   0.8484578855454720    0.8220196197830894    0.4512665816547403 H
  -0.1097362818145089   -0.0475552089160483    0.3682882582813103 H
   0.8546532347427973    0.8875967048879772    0.5511656252319631 H
   0.0696280845929103    0.0998599667941369    0.8814176628454549 H
   0.1883281555857105    0.2309202096584016   -0.1158591139655770 H
   0.0322367006771925    0.2017112296405441    0.8163048794043091 H
   0.2880771938125835    0.2540508938451895   -0.0367773898366370 H
   0.6194390876509688    0.1631556575643859   -0.1313242799353281 H
   0.4766460790274575    0.2394127745618480    0.7785934323604857 H
   0.6150529997236588    0.0714447158600355    0.6859385281253878 H
   0.3580157155035021    0.2816667847472610    0.8081323451799662 H
   0.6726658311088493    0.2322943174524301   -0.2235818593177161 H
   0.8598617141564778    1.0449347845707599    0.9115064169473274 H
   0.2781442711172004    0.4134372309625542    0.8918513509067748 H
   0.2549277678419643    0.5154934759676495    0.7525561403393957 H
   0.1997703624660804    0.6005692836227468    0.6807959869707267 H
   0.2357683958994899    0.5218572295931529    0.9468980499889111 H
   0.3937145550818701    0.5428293836083309   -0.0859252226999971 H
   0.5208664608645993    0.5030569010441203    0.7942768141450126 H
   0.5026735947261071    0.3908407047856249    0.7627661376371820 H
   0.4872752931813010    0.6308293739850404   -0.0631447430542696 H
   0.6984380138317304    0.4047475828695261   -0.2015193800947991 H
   0.8438446609219263    0.5112757392953696   -0.0075819909449325 H
   0.7992224821014434    0.3729984195192813   -0.1375313075556156 H
  -0.1350455756150615    1.6649100102737739    0.6680862844972298 H
  -0.0706335247125535    0.6591577362589730    0.9723800257788514 H
  -0.0912450050509623    1.6545709635822223    0.7809046428718202 H
   0.8106584231419173    0.3771786165364027    0.6850038761588751 H
   0.1133025551290994   -0.0733324387915057    0.8171495857840860 H
   0.1258530324411020   -0.0747120211185781    0.9392096576618666 H
   0.2713771640293507   -0.2099877326342900    0.9731465186049454 H
   1.0464114324648153    0.6945013215906377    0.6780851052000719 H
   0.4162880265377631    0.8185863054883910   -0.1368086143195842 H
   0.4685302499019600    0.8436518460681364   -0.0292431564239017 H
   0.5079807611181522    0.8879877429625441    0.6816954428380819 H
   0.4672590676330272    0.7694234346015281    0.6881167755954610 H
   0.9336811404330788    0.9487863427962231    0.8696621657268913 H
   0.8144187103095984   -0.0592081435381452    0.7385136789111394 H
   0.7932534863703669   -0.1674099429231355    0.6935846851334436 H
  -0.1843640014377141    0.6991319944696602    0.9606792781478660 H
   0.7823031479218452   -0.1235409454897608    0.9697989785073106 H
   0.6128959843394067    0.6199639900451214    0.3212654876715190 Cl
   0.2474353897861345    0.9708408902018025    0.1729632042619989 Cl
   0.7027496949102735    0.6470809163640454    0.6031948454130071 Cl
   0.3810489429617756    0.1559128503472557    1.0390805443597633 O
   1.4304525920001543    0.3121841781626197    0.1845161282765234 O
   0.9931987871467011    0.3215213853071308    0.2782222226731216 O
   0.7867887060575067    0.3166318452227448    0.2753994955207000 O
   0.7247169463562134    1.0880819257184839    0.2979414238276942 O
   0.6835597769983055    0.3085662938967257    0.1001833807939639 O
   1.0357830015409588    0.3416833084318059    1.0535265877250242 O
   0.1626977374904798    0.5056596504684383    0.0690282631011766 O
   0.2942044020010381    0.4608505975038044    0.2594627018222401 O
   0.5633230087709727    0.4710895384482670    0.1051657405906820 O
   0.8411973435658000    0.4339010354807951    0.0030227501582923 O
   0.0576542995203502    0.6820092192605199    1.0736040069554651 O
   1.2263115281833559    0.7070747598402654    0.3108216318482202 O
   0.5554719113810879    0.9475506624805913    0.0451041448734954 O
   0.4871585919132350    0.9356161804448061    0.2664534292504319 O
   0.7265974815550474   -0.1652733108837014    1.0061682809699326 O
   0.8922012803205187    0.7589451783554303    0.1743655732795361 O
  -0.1034461617887542   -0.0213144425069991    0.2925908346202362 O
   0.0749498973857126    1.0848597719840518    1.3553917981647867 O
   0.1181624971985562    0.0608248256233297    0.5688528382618498 O
   0.3242412720032413    0.2159622212300643    0.5626223465754574 O
   0.6075739365776083    0.0121025764388889    0.6328096253795601 O
   0.5625953881130316    0.0763594387964236    0.4291282352847507 O
   0.4754532197572265    0.2734682804758890    0.4047913059207304 O
   0.1769266766646656    0.3539759813438945    0.5843899607009893 O
   0.1282364012916028    0.4328819902584735    0.3884337233034556 O
   0.0693054721612569    0.6428631796917655    0.4396636009658587 O
   0.5381421646882913    0.4478806466465657    0.4857571945578953 O
   0.4384847643698997    0.6268134129592372    0.6130403675506303 O
   0.8602533291499878    0.3853685179701342    0.6224510223297759 O
   0.7730759154447668    0.4479580721853301    0.4484117869453086 O
   0.8823090855844606    0.6654925530669585    0.3761823522545414 O
   1.1101036950092522    0.6986627487801799    0.6313266964017293 O
   0.4047573146688600   -0.2396753432554176    0.4364615380780743 O
   0.8738032079254274    0.8896457443987082    0.4780281311829354 O
   1.0148159347884431    0.2238924733822833    0.6743120833704012 O
   0.0620822902519657    0.1772111301166226    0.8864311516365388 O
   0.2570793006163073    0.2779753853233484   -0.1065196335202831 O
   0.5909678943928178    0.1351487285877474   -0.0004690939458878 O
   0.6146418039804735    0.1840910540005546   -0.2065180083106833 O
   0.4188601538151356    0.2903079441190428    0.7632573187543117 O
   0.2535218700152641    0.5420606027537321    0.6798003284323415 O
   0.2786635525985945    0.4904036910272809    0.8895205870070196 O
   0.5511195023432197    0.4440914877040114    0.7490560838120789 O
   0.4691787643312123    0.5581510374460156   -0.0681605782519641 O
   0.7512754919860622    0.3492624083930637   -0.1956596206528644 O
  -0.1357630142831715    0.6421170790454916    0.9373951032164195 O
   0.0833010087993108   -0.0426492452325305    0.8804791002012581 O
   0.2125064652850067    0.8803390382240134    0.6719203128987733 O
   0.2020996884474768   -0.1749327334016557    0.9914328474560444 O
   0.4157992910258629    0.7964903080469075   -0.0620583567936119 O
   0.4516696579713882    0.8405235414716002    0.7053769426222383 O
  -0.0826427901035256    1.6937295163693626    0.7162329838734467 O
   0.8583735771811405    0.9776293111762858    0.8723136051967469 O
   0.7940132194577759   -0.0971896717208390    0.6728103831396866 O
