Li1 Co1 H110 Cl3 O55
1.0
  12.8310331299999998    0.0000000000000000    0.0000000000000000
   0.0000000000000000   11.8732258044000005    0.0000000000000000
   0.0000000000000000    0.0000000000000000   13.0929638843999996
Li Co H Cl O
1 1 110 3 55
direct
   0.2858262875516401    0.7261991007536236    0.7315941238952678 Li
   0.6859195573599146    0.3429544733067403    0.6653952091458959 Co
   0.1754579340720633    0.2343243485834299    0.1479592748673327 H
   0.2637360944137785    0.1377911891133847    0.1647339335266822 H
   0.2715289197449060    0.2486793354090689    0.3018197771788241 H
   0.0085151027117643    0.2576726790680794    0.2077463488187608 H
   1.0201085471751097    0.4290582850965526    0.3095032933702851 H
   1.0035549308101583    0.0951427961372866    0.1108210069935966 H
   0.3279569557934732    0.2287016137765789    0.0477271187576209 H
   0.5312765149878466    0.2327409541201465    0.0137128952455083 H
   0.6251442486143749    0.2107503001646527    0.0970136672960210 H
   0.5609685901418914    1.1010854267890049    0.2380756160118932 H
   0.6595226182694769    1.1546344799674919    0.2848893096424311 H
   0.6413619606171184    0.4821373733226395    0.0734601768317698 H
  -0.0113063721003735    0.2715627543279033    0.0878358370460518 H
   0.9083560495023054    0.4701431602632681    0.2635266905693536 H
   1.1431773588601124    0.8575981009665097    1.0218530777542973 H
   1.0186043814696315   -0.0380769392621558    0.0794046673754835 H
   1.1180975389625543    0.8390959682168243    1.1344479044884090 H
   0.2498151577136486    0.7126871872565732    0.2674700299427644 H
   0.2264577244529334    0.9020577961408723    0.2434197077406856 H
   0.1175391373180875    0.8717686391817981    0.3048313183659942 H
   0.2054103156228075    0.5055379221353336    0.3129341437412634 H
   0.3204392447079591    0.6350688537739841    0.2030224375221221 H
   0.0078945759062193    0.7120807808663795    1.0422151594306739 H
   0.6284167832243763    0.5649446925968715    0.1729681271708313 H
   0.4134691658301408    0.8450176950632844    0.0540825170260866 H
   0.4592963407771982    0.5351549786786096    0.1165989195172946 H
   0.4215168420346835    0.6410588013393412    0.0446018294525190 H
   0.6075377162555889    0.8173630369771626    0.2430294217790717 H
   0.5007988444808886    0.8723809411896742    0.2610864485980099 H
   0.8265076130311575   -0.0013330916181291    0.2555682175360511 H
   0.9600899974451239    0.9081639715976831    0.3239904638593139 H
   0.6756226468413771    0.7829149428586772    1.0824428729301017 H
   0.8799873284248936    0.6371390578116174    0.1460223566703601 H
   0.7907240564501606    0.6204670932367803    0.2299613341015473 H
   0.8778518807393961   -0.0473345750395590    0.1552609065562359 H
   0.7443489910932839    0.8330352732392780    1.1789527244164832 H
   0.0469419694343818    0.4709011682510102    0.6338393289305483 H
   0.1923607039271981    0.3872069796311201    0.3672388837739732 H
   0.2451545821080738    0.2241931507117089    0.4205087168047516 H
   0.1982487722716994    0.1904154725468264    0.5645471497104591 H
   0.1325915495473434    0.1080258998969502    0.4962486339660250 H
   0.2781488075699482    0.0594566223054893    0.5717357435866052 H
   0.2731281674276216    1.3103208983387300    0.6466240583071750 H
   0.5339543975598792    0.2324781780177293    0.3486693679526026 H
   1.4284700522006992    1.3740525254858851    0.6380759556019233 H
   0.4929951081031930    0.1385525660255167   -0.4868076177460627 H
   0.4312565098177718    0.2796784931833280    0.4004704731865441 H
   0.5717245439767640    0.3400698317978331    0.4927620284576733 H
   0.4340255775646961    0.0679122856318614   -0.4035728353375920 H
   0.6217587067363453    0.4663581737111430    0.5386912775802876 H
   0.5792757675624519    0.1434383486220629    0.6537034332155894 H
   0.9805560033652567    1.0598750591887631    0.5764336867370700 H
   0.7946808695520843    0.1559151601002967    0.3593071426558498 H
   0.7319501453894227    0.0432975175128473    0.3852149510783691 H
   0.9006014128341667    0.3103129648923735    0.4035553361982052 H
   0.9203582007273643    0.1900768956456350    0.4700689237776846 H
   0.8571598602832070    0.2978951095909640    0.5721955325276846 H
   0.9729962068144080    1.0074630179918891    0.4602697674420541 H
   0.1090131675936215    0.7498278941937377    0.6640700699220208 H
   0.1350239335715907    0.5378172711777791    0.4763807108359582 H
   0.1366052559635157    0.6311036297669960    0.6172029124611247 H
   0.0235070365686134    0.6049186649459962    0.5028682199333602 H
   0.6199022700988069   -0.0174273698831972    0.4997031611761619 H
   0.3559585980899108    0.8961369115255094    0.6227165609090528 H
   0.3716104943920444    0.7889166816593992    0.5543050073518616 H
   0.6113495683102488   -0.0839059337548195    0.4038318205780569 H
   0.4153661292120754    0.6334467166802162    0.3659572793833896 H
   0.5004512497116435    0.7357306300839309    0.3565697945415162 H
   0.5456089540156928    0.6324015078882297    0.5052954778316169 H
   0.6555065737718971    0.6585729970116696    0.5691916290305657 H
   0.9021523401677944    0.6492006493587881    0.3353454176583645 H
   0.9837591748935030    0.8096642025149962    0.4015473874837568 H
   0.8086805216595992    0.7862190154541352    0.5880880379861259 H
   0.7254502790766312    0.8009066835632832    0.5112597499925630 H
   0.8584146306385541    0.6913315755485877    0.4460781755580049 H
   0.3255144400831268    0.4833063900859573    0.9888964451835680 H
   0.0508947610362845    0.4690928980846967    0.8316593201004614 H
   0.0945352219661832    0.3660105496005604    0.6918307819509500 H
   0.1337356507160698    0.4496230418039938    0.9193400018877088 H
   0.3204766540104788    0.0304036921513127    0.6872038693179610 H
   0.0719073480406484    0.0256807128259116    0.7316170369654214 H
   0.2155053717798327    1.2143907763344886    0.7143260704586138 H
   0.2973538082509807    0.3690417393204310    0.9403512872184334 H
   0.3380824070087956    0.1879249951915452   -0.0625431006325216 H
   1.3571585692725898    1.4788934525015829    0.6761063056736343 H
   0.6425099585881906    0.1500355448087110    0.7632386013152088 H
   0.6681665052329268    0.3416810198873336   -0.0156912949286284 H
   0.6672032156930453    0.1107179231538611   -0.0692543388804706 H
  -0.1760757229842801    1.0894626376436269    0.8790129984176160 H
  -0.0805838021400230    1.0533393458722318    0.9487909347249586 H
  -0.0711995227308715    0.2456734126221230   -0.0662916789096280 H
  -0.0373238405783775    0.0589656857987617    0.7748822597981930 H
   0.6929751076872172    0.4383396717909050    0.8553514346391410 H
   0.7855810567141759    0.3794289754457893   -0.0079371301041943 H
  -0.0299203837376422    0.3748303936534877   -0.0597561075328555 H
   0.8952394128063482    0.3690510038625034    0.6711517361374507 H
   0.2413910504025018   -0.0885516804885807    0.8514562127130525 H
   0.3242097906577536   -0.1789862445816924    0.8956402496589781 H
   0.3233579496649620    0.5305917705924026    0.8310864933466248 H
   0.4171726867795875    0.6059882984398099    0.7893426983720429 H
   0.6005717923822398    0.6995744912997336    0.7996108088768143 H
   0.5508914592756570    0.6312914473017365    0.7035645651765379 H
   0.6173350567133951    0.5137454641803847    0.7852763921888086 H
   0.4952981182895598    0.8146266281414140   -0.0352372894230390 H
   0.6805902904718009   -0.0159828593278901   -0.1255723740106645 H
  -0.1797893756198259    0.7990706197707526   -0.1465294317420259 H
  -0.0928228789477064   -0.2250882903961627    0.7153647963055708 H
  -0.0635882883890582   -0.0992774935151304    0.6778224946281286 H
  -0.0977928606595376    0.7064984731522083   -0.1078506417849720 H
  -0.0093821311020183    0.5946821881870887    0.9849095709768657 H
   0.3641660431906312    0.9803684435855990    0.2223855093398076 Cl
   0.2462971245558619    0.0873726247011625    0.8225628312495371 Cl
   0.6568314865694685    0.8219809900847067    0.9224103532882728 Cl
   0.2500107771914077    0.2172396907708220    0.1663836745777315 O
   0.0289478299398639    0.2306395875319061    0.1403865051816136 O
   0.5962369894527737    1.1704431576674006    0.2429224941183555 O
   0.6077793180010284    0.4902244763207495    0.1443542851631881 O
   0.6088322339948631    0.2175967967561582    0.0190431627553081 O
   0.9472695177274475    0.4015021680488373    0.2875372967831663 O
   0.9715310091323878    0.0208606242549698    0.0889168756958922 O
   0.7578155606398937    0.0917169369251316    0.3269439586020951 O
   1.0817871347044055    0.8349816693055800    1.0650213019234196 O
   0.1656418889629973    0.8466928927161943    0.2446425019178754 O
   0.2885189779725867    0.6418184937892782    0.2707740946588936 O
   0.3980635474362617    0.5681055859057557    0.0767808917122106 O
   0.5565519543631636    0.8455895699784810    0.3019404526816324 O
  -0.0423382458369508    0.6614357405120420    1.0158116649238347 O
   0.6910890553518507    0.7764786128116501    1.1623560239353257 O
   0.8660601568410105    0.6135633249306454    0.2188301646209955 O
   0.8462488137149717   -0.0732508681404590    0.2202591764295664 O
   0.1528143950010984    0.4601627217579980    0.3459724995955401 O
   0.2801883939177390    0.2829775123922009    0.3735483795252315 O
   0.2024308205492101    0.1265970955966299    0.5119624174772691 O
   0.2054329170764132    1.2675439808971547    0.6572037865660334 O
   0.3361901197896759    0.0224630531410565    0.6141547103617091 O
   1.3604786448712101    1.4037917055382976    0.6373129503658130 O
   0.5088013177782201    0.0825519465684525   -0.4310524803726389 O
   0.5004309863394453    0.2491594071346389    0.4151676801519796 O
   0.5944506952574597    0.3866005732409264    0.5484232222434680 O
   0.9737210120507265    1.0818488685223071    0.5007166826459500 O
   0.8359846363361388    0.3270809438123247    0.6391956409634225 O
   0.8686710144126952    0.2574747547601690    0.4511679322080938 O
   1.0122837680647467    0.8837561143923898    0.3782417400616656 O
   0.0861547588413093    0.5622706088623370    0.5306564276464736 O
   0.3681797496068035    0.8139755835030533    0.6251476376523351 O
   0.4747066353338923    0.6711904610831845    0.4014878135013578 O
   0.5906544304121830    0.6096747439535287    0.5653834767710604 O
   0.6654948575446473   -0.0633816041400578    0.4573262016963393 O
  -0.0892573048013009   -0.1722012308603037    0.6534620822099730 O
   0.7620482673478999    0.7394061265933823    0.5433907482687625 O
   0.9236938635353676    0.6817074007975564    0.4030879095670746 O
   0.0593088301845886    0.4662318390465193    0.9035528965519737 O
   0.0336532187724154    0.4186878935931441    0.6888024378456675 O
   0.2853836108051574    0.4487749150888203    0.9324844664657448 O
   0.3702645388618057    0.2362926426582667   -0.0140607244796075 O
   0.6144779212334557    0.1957981714908924    0.7066578296472552 O
   0.7167510575198710    0.4024395712603449   -0.0250324189918912 O
  -0.0967991760613590    1.1001421279598147    0.8865972246384118 O
  -0.0763736968856225    0.3187209579386275   -0.0256771164091091 O
   0.6775398735955099    0.4605223544366268    0.7813322890463926 O
   0.6885522370247360    0.0673141331064232   -0.1319895611916441 O
  -0.0000494453542098    0.0395406724283826    0.7125052451504187 O
   0.2671208569313389   -0.1672236450741311    0.8484775135931024 O
   0.1586455700313510    0.6889657483957350    0.6716183989995762 O
   0.3469725718804998    0.5773145407257239    0.7735044205129650 O
   0.5565737764563001    0.6356845247062503    0.7780832156986318 O
   0.4305285871395767    0.7947525009339155   -0.0008559221501674 O
  -0.1345989381760719    0.7363597767137569   -0.1688307229223904 O
