Li1 Co1 H110 Cl3 O55
1.0
  12.6711831041000007    0.0000000000000000    0.0000000000000000
   0.0000000000000000   12.5895313397000006    0.0000000000000000
   0.0000000000000000    0.0000000000000000   12.7159943309999992
Li Co H Cl O
1 1 110 3 55
direct
   0.6121019630432443    0.4229972924494025    0.4791336412164685 Li
   0.7404396239104299    0.5284412493514260    0.7160282104957476 Co
   0.1506501828927351    0.1949721243522073    0.0724993768873048 H
   0.1835200417352952    0.3031294467543649    0.2060248374846496 H
   0.0803385164381858    0.2961673130867197    0.0523049671293535 H
   0.2846574011650818    1.0298689697061401    0.1537119799381263 H
   0.4621641092223762    0.2166687223136140    0.2094465124923152 H
   0.5375935298335217    0.0990785626758465    0.1463370159707883 H
   0.5620269231052063    0.0985502666002788    0.2653737157835479 H
   0.3856992683278827    1.0395277883483038    0.2223239954273931 H
   0.3755368392206643    0.3048610441754108    0.2426094715990166 H
  -0.0137980760331234    1.1643298923825784    0.1457008093329576 H
   0.8396458298086981    1.1198564338484704    0.0334926278208326 H
  -0.1037641029332586    1.1649812271923294    0.2196384012763524 H
  -0.0513876204416390    1.0026002818783863    0.1866626080284937 H
   0.0810898274974443    0.4856787361590303    1.0043949637791012 H
   0.1960121664800464    0.5943213824255269    0.1609178655035687 H
   0.2791385794871460    0.6035417415372241    0.2530388565568794 H
   0.2212560602326747    0.4191401194784858    0.2479004459615939 H
   0.5251621728950341    0.3814016217393538    1.1582405812807375 H
   0.5296439959050437    0.4870393904628154    1.1011707225571585 H
   0.4403934507342402    0.6479159112283821    0.2212387480105743 H
   0.5529401630880817    0.6548264146976934    1.0836337534303042 H
   0.4341170044587328    0.6347343244383568    1.0416158045312989 H
   0.7222424281075068    0.4770517271728016    1.1434875077013749 H
   0.7303932060697147    0.6411174055739183    0.0927104585620942 H
   0.8249037178476172    0.4666573767820651    1.0803072341744033 H
   0.0971712776924199    0.6682947476661579    0.0328987301040344 H
   0.0115903977468749    0.9258698640467231    0.2580561598317372 H
   0.1880942002431339    0.9617568234425259    0.3286137565595617 H
   0.3912717550814797    0.9176487478504735    0.3178729527777422 H
   0.4051639069471601    0.7264978674033746    0.3151260185553161 H
   0.9915732373904809    0.8742237794979163    0.0874150802969558 H
   0.6903188108196220    0.7538555180344113    0.0520700661123942 H
   0.7609420503899227   -0.2363973884170750    0.2056033210966678 H
   0.8646000899912132   -0.1599568940068254    0.2444363047506615 H
   0.7200831980044277    0.8558672582133434    0.3304350848330054 H
   0.2248460959559594    0.2907532910583489    0.3781419321474216 H
   0.1335041912189425    0.2358084339913754    0.4266988899383460 H
   0.0511260903404026    1.0731906776620292    0.4575529458452069 H
   0.3052253306045728    0.2289590924493213    0.5585415092695672 H
   0.0192048879809226    1.1152176591058525    0.5624987302850977 H
   0.6659888017378145    1.0669791676470852    0.4066021524479084 H
   0.5024594783134273    0.2847157350962529    0.3534093008003560 H
   0.6191494501852386    1.1890726720456872    0.3939716026207153 H
   0.3737927242616713    1.0676066731345284    0.5500309675704275 H
   0.4802184612209655    0.2502688610785952    0.4802755102376429 H
   0.3837657472194968    0.2349045083651597    0.6525506735459081 H
   0.6336232367680130    0.0524930318745088   -0.3352006318616217 H
   0.7834829605522565    0.1880775070977680    0.3439275413042806 H
   0.7052006098158803    0.2215783570197994    0.6274814582173944 H
   0.8914563035905485    0.1958506320346279    0.4049852910790827 H
   1.1060140112382515    0.5726494080971718    0.3343529852899554 H
   1.0865998809254789    0.5230550281990811    0.4440738583638490 H
   0.1695095110262443    0.3960447402976013    0.4976748574094658 H
   0.2212497466943616    0.5015633624095230    0.5558519830626685 H
   0.4280331211017749   -0.4093220145415514    0.5315015475450042 H
   0.5116014817907913    0.5958408988780317    1.3783334758786154 H
   0.5993580859582585    0.6128089649827936    1.4745508827248313 H
   0.3429297814103868   -0.3369348878558874    0.5781954972703897 H
   0.7776737161119183    0.4713279239544272    0.3783652729201583 H
   0.7892614264933184    0.3456997367468096    0.3816941514095741 H
   0.9155582361007956    0.5895348658845994    0.3767043725257225 H
   0.7777905165707106    0.5962515575324724    0.5178290029154308 H
   0.2247119332668061    0.7974742982084067    0.5837821622334916 H
   0.0618928039834133   -0.2859496698457549    0.4550859739998732 H
   0.1126576769013861    0.8910790534770869    0.3891453972605581 H
   0.0243439424374027   -0.1769599097843056    0.5168271150828024 H
   0.3208197702379219    0.8752722696794669    0.5696660817031314 H
   0.6037310004323670    0.8840096878590560    0.3700088678106537 H
   0.4665583318882915    0.9864916599981987    0.5958000977580021 H
   0.4219413458219257    0.9033193820359475    0.4349805859865478 H
   0.8252036109174893    0.6727317674799020    0.3529272307521604 H
   0.6864983309479095    0.8608952452203251    0.6209621096047657 H
  -0.1301578498511597   -0.1129019255560208    0.6112727375593858 H
   0.7107083828017682    0.8669478930865495    0.4944710182963356 H
   0.7330164812388065    0.6968549847630036    0.5844254465718667 H
   1.1333437402110691    0.2743499798922860    0.7530917690136237 H
   0.2143080113191117    1.0646994958129561   -0.0222774033336426 H
   0.2672967491886439    1.1709862164139380   -0.0560993750021514 H
   0.2810081760201119    0.3220332481412775    0.7977890207742968 H
   0.5768045487192984    0.1815212662201019    0.9605446768502497 H
   0.6437564657605332    0.0889393448959540    0.9938020052975440 H
   0.5150628791709467    1.0208217703365474    0.9002741246582269 H
   0.3986759571381640    0.3139098321664905    0.8478912765174306 H
   0.8023762239541986    0.1746139399937650    0.6968279817409428 H
   0.8037320563069361    1.1659026276549045   -0.0782510048840002 H
   0.9389498955508192    0.2523396291871578    0.7592304946191943 H
   1.1365794285965312    0.3848481360558298    0.6920859223761479 H
   0.0860879401030074    0.3962719131702707    0.9143036999597103 H
   0.2010124888240190    0.6237426523684338   -0.0232590803991606 H
   0.3581485655141066    0.5933642379794901    0.8934638039121033 H
   0.4759757634745645    0.4742017402247684    0.7473431033491705 H
   0.5525834481733918    0.5936041198240570    0.7794294655619409 H
   0.3962113096191888    0.5455800922660615    0.6909267523091978 H
   0.5584937092267395    0.3509533080049734   -0.0071233386978772 H
   0.5838488790921362    0.3503758440943770   -0.1283430372819030 H
   0.8603542354756555    0.3497149775557026    0.7974327765135586 H
   0.2629017373304394    0.8639533415831812   -0.1601808935644452 H
   0.3147714005339752    0.8248494236758025   -0.2615209827825143 H
   0.1132274737341430    0.9152499294048047   -0.0473047029467097 H
   0.3275610507717310    0.7156110443516067    0.8865433856019546 H
   0.1400781629874545    0.9888348766918157   -0.1434783066906669 H
   0.6412989209721605    0.6803492075110165    0.8387138581447674 H
   0.4439637566502964    0.9325579605078267    0.8470655447872425 H
   0.5554758379130793   -0.0188855584600074   -0.2639423427798948 H
   0.5977102524585401    0.8207825526685757    0.8935031244706836 H
   0.8294100058185899    0.9654741977225691    0.9047016195543789 H
   0.8661469068779218    0.8926517887494130    0.8083292897073564 H
   0.7190209451832491    0.8435316123652510    0.8982845043940592 H
  -0.0533418183880003   -0.0271974643742504    0.6672612809220040 H
   0.9610551715695492    0.8391946757052005   -0.0255995973280998 H
   0.6276190618322579    0.3892001646200088    0.6528117620548820 Cl
   0.0543079558117456    0.1125893912690936   -0.2668748700388203 Cl
  -0.1118028155904091    0.5416760549612725    0.8151388240423084 Cl
   0.0946146103525313    0.2406799417818681    0.1078717581806383 O
   0.3079622494633003    1.0221562123857937    0.2284147499514956 O
   0.2402408699401567    1.1303016201267975    0.0036906799640189 O
   0.5048957149099934    0.0953220288761437    0.2129554791400292 O
   0.4531318034732021    0.2961156828883857    0.2287411105877128 O
  -0.0830328106899162    1.1329149024732381    0.1509328028576643 O
   0.2410253270755590    0.3396407343946365    0.2473192881057757 O
   0.1416573367580179    0.6069143849545454    0.0296332803940757 O
   0.2160442343552133    0.5638683028266849    0.2320369598079212 O
   0.5732350319955313    0.4212267738019204    1.1064554056303630 O
   0.4875918847783735    0.6154802320135170    1.0971128409116622 O
   0.4163207183386912    0.6491240578693962    0.2959548870138609 O
   0.7912596613694134    0.5132603824197619    1.1293714271710145 O
   1.0254927219775933    0.8380111526972380    0.0229554416195658 O
   0.6843233169990475    0.7036781140505189    0.1111608442647709 O
  -0.0482566578729454    0.9217632775023163    0.2053831259686176 O
   0.7994041257933083   -0.2061182628710812    0.2640525450152468 O
   0.1963175838959424    0.2762642687843596    0.4505436630726665 O
   0.0087635898864147    1.1286971124247274    0.4891281407964321 O
   0.6593264404329191    1.1297058870690981    0.3613080146079848 O
   0.3752440488813945    0.2109838403216759    0.5772313571739984 O
   0.5245521272555312    0.2846768138698166    0.4293868433229014 O
   0.7470554228702664    0.1567586287884031    0.6434298767776009 O
   0.8538197233216003    0.2229850813467132    0.3386255571853007 O
   1.0493973564155561    0.5708121673472273    0.3918569429802619 O
   0.1572320465841385    0.4575259804736510    0.5471511298599996 O
   0.3591484721444433   -0.4106278614040281    0.5713678754784907 O
   0.5417367893514915    0.5660145304558895    1.4486150422852058 O
   0.7435490415296302    0.4064613313891586    0.4009101083878110 O
   0.8441205500881054    0.6111019911947992    0.3986491762694385 O
   0.7279632830114616    0.6167598666214550    0.5758260404103352 O
   0.2984580067252222    0.8047541561734916    0.6020740860850893 O
   0.1149171344251856    0.9591435410960852    0.3520535279405041 O
   0.0809929936035672   -0.2199630991320118    0.4957214120591920 O
   0.5774864108571128   -0.0056086543807502   -0.3426149163875403 O
   0.3940789120539405    0.9935530825087938    0.5573839120249605 O
   0.4406972897655579    0.8821033420744183    0.3661727541155508 O
  -0.0701310951471029   -0.0997727632750729    0.6594498587544235 O
   0.6756350990879372    0.9011747430282303    0.3859203250457945 O
   0.7276507628649634    0.8261123777581250    0.5638136097640259 O
   0.3491383571490284    0.2844305775393009    0.7942470248573754 O
   0.5490234017570943    0.3126341691122705   -0.0750888455629652 O
   0.5685109269527567    0.1059298899947596    0.9883993605485982 O
   0.8749858605162573    0.2716183452450491    0.7979368660745592 O
   0.7947131668266775    1.1042085121995702   -0.0287776421548013 O
   1.1508006736467817    0.3512988331784390    0.7621354974871135 O
   0.3267095122917520    0.6535706094120634    0.9328079548276421 O
   0.0656667215100669    0.4080062657854587    0.9843965276851145 O
   0.4318086170130068    0.5375686741061221    0.7626144218906227 O
   0.6287554987286154    0.6131711706818748    0.7936808088138178 O
   0.1723332410367769    0.9457911774961860   -0.0880504744934052 O
   0.3302072125172077    0.8310927061204906   -0.1864454538738029 O
   0.5150707710938380    0.9579997336253027    0.8513986703428015 O
   0.6648570999951918    0.7876311994737278    0.9193445955697163 O
   0.8411926466954068    0.8894189440229652    0.8849469709235908 O
