Li1 Co1 H90 C51 N3 Cl6 O45
1.0
  12.1149128753999999    0.0000000000000000    0.0000000000000000
   0.0000000000000000   13.8171683845000004    0.0000000000000000
   0.0000000000000000    0.0000000000000000   13.8047709292000000
Li Co H C N Cl O
1 1 90 51 3 6 45
direct
   0.1724148955244578    0.4139102552021881    0.5518192589843616 Li
   1.1542676023774783    0.6226310234339172    0.7565818743509760 Co
   0.1705840940793201    0.2772802346751339    1.0997081764311294 H
   0.1942450153709671    0.2331995675622361    0.3398788352710394 H
   0.3327363126057070    1.0176410463357626    0.1041472887868714 H
   0.3730593429918311    0.9465273439723854    0.0067425577054029 H
   0.4330168521766438    1.1174871191061875    0.2080461515319354 H
   0.5640166221562194    1.1134877468424760    0.2800871875694406 H
   0.5635132425559928    1.1097822119184437    0.1534490847739666 H
   0.0029898223844061    0.2846869620994594    1.0671715988737336 H
  -0.0610486076050778    0.2305311481745589    0.2427848663182583 H
   0.1034238917428971    0.4330393555102151    1.0873211545184154 H
   0.3234576656062512    0.5954156063863953    0.9848913491089644 H
   0.5340881526963820    0.3901456175526714    0.1499560894720304 H
   0.3917544836279558    0.6005042032713312    0.1858864212786115 H
   0.6381054917363372    0.5853636191676679    0.1794190919431312 H
   0.6132359773536304    0.4327296683238882    0.2943235701221055 H
   0.4502402529675562    0.5340761208699012    0.9707455149620940 H
  -0.1938832401403008    0.4796971063648109    1.0654627693595762 H
   1.1792161928550651    0.7611138114229876    0.2648084117692670 H
   1.1431936473783946    0.8240051344363784    0.1183394837175086 H
   1.0562718501826196    0.7223880765176904    0.1176947790682504 H
   0.3456732607795771    0.9725087889407127    0.2718827776171949 H
   0.5667609836173333    0.9309409376981743    0.0682864981559407 H
   0.5593381898321134    0.6617649461706897    0.9963163847585157 H
   0.4329277058483864    0.8650439337200363    0.2832469647380522 H
   0.4472084523778398    0.8664429179013164    0.1289691421705594 H
   0.6177068308015312    0.8610539700410929    0.2437099088318569 H
   0.6488947562852730    0.9613306664989785    0.3229672906175760 H
   0.4369954197896121    0.7294097757038157    1.0264545161432217 H
   0.6878119160576196    0.9564722180722149    0.1922168414245301 H
   0.9394199987033941    0.9941311642122732    0.1066710539531812 H
   0.8936070402687528    0.6781025917517650    0.0401150781450955 H
   0.1145118790343917    0.0731602643949815    0.5688182371784604 H
   0.3707704284709263    0.1112013438240805    0.4643499336190347 H
   0.3979749163108043    0.1942538165208245    0.5514429398098788 H
  -0.3060218922274000    0.2849352039898779    0.4850653081418463 H
  -0.0877215191912729    0.1445511581403714    0.4247393524073341 H
  -0.1960120214419284    0.2421594352105798    0.5560936508089436 H
  -0.0053643441738622    0.3553164842159270    0.6186925888450765 H
   0.2986361911893275    0.5177336986227129    0.3227934376784501 H
   0.3344218385529439    0.6348867907002382    0.3321510721268970 H
   0.4858187176608707    0.6208788554551902    0.4648901816273682 H
   0.5228283936371988    0.4311651654244193    0.3985563753877403 H
  -0.2366016653838593    0.5706049512318584    0.6131234996950796 H
  -0.1971131436817002    0.4011145799176389    0.4325564324989524 H
   0.9277542111361571    0.6379091176226520    0.5278661632252303 H
  -0.0998965964301284    0.4022682171576599    0.3372739387331377 H
   1.1079106862546739    0.8758833471101206    0.4010750698433255 H
   0.1665716838787726   -0.0345231594872296    0.6385647041744033 H
   0.3803371501792880   -0.0495797900652703    0.5134123920599333 H
   0.4552902273775439    0.9710070340642738    0.3604115917690442 H
   0.6828874068503645    0.6741350639288071    0.4762204674250959 H
   0.9798379534205328    0.7236227723341746    0.6006698341557005 H
   0.6975486761328425    0.8467413413970181    0.6380112723181862 H
   0.7728550369282666    1.0009791664488343    0.4796234938310345 H
  -0.1004273472548459   -0.1851792086915781    0.3782807763621924 H
   0.2001047355959593    0.1043258395705049    0.7261749952978713 H
   0.0372525533069588    0.2823239598480989    0.8220338839956127 H
   1.1105982829658410    1.0179341599381520   -0.0877718682630989 H
   0.4311637641494417    1.0919587336813061   -0.0419282969901148 H
   0.5035703929896047    0.2445470445297952    0.9364776518859036 H
   0.5341928996320844    0.3155123807487533    0.7168506826627569 H
   0.5038363462022393    0.1929539843482538    0.7629470650847199 H
   0.6263713586507695    0.2203206624893542    0.6907951977985221 H
   0.6262686752874805    0.1336596356654178    0.9089835339504028 H
   0.6944112206355619    0.0585986701231983    0.7586782510419348 H
   0.7550216441319633    0.2009237793840827    0.9323877614929689 H
   0.8080703128768287    0.0667855863459822    0.8543480746683768 H
   0.8835987140639309    0.1358525596536635    0.7340077945927355 H
   0.1194165779464785    0.5014838785617608    0.9697183338467591 H
   0.6177203678365629    0.3183581157724437    0.9900134913279587 H
   0.5287229469645287    0.3677213413639571    0.8978859213362050 H
   0.6955139937332644    0.4181224062291154    0.7975582877156837 H
   0.5887923017741457    0.5845277025978910    0.8496192747241548 H
   0.4721265019837090    0.5795129269165200    0.7624718670511093 H
   0.3240858170488796    0.6624734849774530    0.7772703741069478 H
   0.3460735938277699    0.5285623283271785    0.8729517879293317 H
   0.7685908708932885    0.3466497301699725    0.9009095137025014 H
  -0.0336229048024871    0.3924890788972059    0.8488789509583773 H
   0.7792867794262436    0.3235574444627266    0.7652462702046587 H
   0.1115436364750070    0.7043706366868732    0.9241225030120293 H
   0.2249773866087344    0.8147825501518190    0.8472925428888544 H
   0.2787705922803421    0.7802841647565361    0.9687918425586679 H
   0.4670699241419985   -0.0347467943097933    0.7432046150724910 H
   0.5722849853735399    0.6887697556668653    0.7911510825216511 H
   0.3909521666736393    0.7700968386646065    0.7906758844880407 H
   0.5303847005575635    0.7787165497867208    0.9364182521317024 H
   0.7006258753156530    0.7346887154959820    0.7127325411672142 H
   0.9638188534900604    0.8141565173960986   -0.0952424739347844 H
   0.9418830787359869    0.9274872633510098    0.7206913838429446 H
   0.9478979796064642    0.9833894553563186   -0.0172766746093208 H
   0.4031082590462918    0.9959643907674635    0.0642618026151782 C
   0.5146172739186251    1.0853039693011348    0.2154044771804355 C
  -0.2172536104361459    0.2516027593685435    0.2986343986251794 C
   0.0688120043680030    0.4468806864311395    1.0127208583395291 C
   0.4599827910455366    0.3603384972701966    0.2680297618538190 C
  -0.0383864553614997    0.4922536588487936    1.0173047808344795 C
   1.1094492858460792    0.9961149281237522    0.0552772275986054 C
   1.0569478765052382    0.8000190331761675    0.1273189880233569 C
   0.4300246721772640    0.9457710385044920    0.2865320609002837 C
   0.4927316852456446    0.9352290811405359    0.1134650819367687 C
   0.6239130661061757    0.9360418381170376    0.2460120115007812 C
   1.0315543798153297    0.8147890637874277    0.2324196092101281 C
   0.9906939951727652    0.9570005462938056    0.0506244883152509 C
   0.8522134285145748    0.8189548956278045    0.0630093370662260 C
   0.9792774871530630    0.8455775718349391    0.0546390424345644 C
   0.1817645294149335    0.0201428892270152    0.5747056220845067 C
   0.2829893597222262    0.0807334513959726    0.6015086745869825 C
   0.2514422900956622    0.2127221446832184    0.4727298626010728 C
   0.3290573757071593    0.1458321731434060    0.5267518383241584 C
  -0.1664022335970319    0.2580729707398030    0.4023144964218434 C
  -0.2436566067506727    0.2298341891644333    0.4864667801473743 C
  -0.2857493568384989    0.1291087755868406    0.4758272700277731 C
  -0.0443188133354424    0.3809925120479377    0.4880571723467523 C
   0.4690039042078045    0.5365021606392076    0.2944880060270287 C
   0.5259046023052508    0.4401464556965426    0.3185318675081287 C
   0.5596345188306726    0.6167173660385523    0.3094632635709784 C
   0.3679400325487544    0.5603231774236036    0.3552257034723705 C
   0.3626151902933065    0.5385355005550413    0.4596314924124355 C
  -0.1243722161105720    0.3661045122584320    0.4093627843289023 C
   0.9093355892034234    0.5999186998038425    0.6666419538432221 C
   0.1890406857444597   -0.0454747521572407    0.4860167183512124 C
   0.3762397207953098    0.0214311416029483    0.6365371442718485 C
   0.9045456249175197    0.6805640222745452    0.5927030232202601 C
   0.7954775685815082    0.7312907689201361    0.5703041002981890 C
   0.8178887904196210    0.8041103200756899    0.4880160995898838 C
   0.7494376171813968    0.7829851523222564    0.6629606178572330 C
   0.2046363406157096    0.3040216037978037    0.9629424155443306 C
   0.5695800298912317    0.2475273946893977    0.7447091673831757 C
   0.5638178506070745    0.3034020846776921    0.9226483749656916 C
   0.6900801948543908    0.1748743031105093    0.8771517851837126 C
   0.7445081554003496    0.1072909912470206    0.8077084018116458 C
   0.0770043868490633    0.3497118626433280    0.9555746728616279 C
   0.0468704516111720    0.3555516988351283    0.8505718439531149 C
   0.1168577481539055    0.4126929290806602    0.7765075943365332 C
   0.3858419359491814    0.5741637846072382    0.9288599956032076 C
   0.5252018320841551    0.6258335609415038    0.8134100538277261 C
   0.7264395153489227    0.3465389983646254    0.8272690306250389 C
   0.2611534618729595    0.7549388848659869    0.8887079349248548 C
   0.3524351748636926    0.7153374278399711    0.8309018326655219 C
   0.4959262604273272    0.7126892730964097    0.9665658005506110 C
   0.8389463087545663    0.8286783061169403    0.7285321513975187 C
   0.5165857569151826    0.9791367750411595    0.2146445949590064 N
   0.6352782324442335    0.2689869290707420    0.8394611923684828 N
   0.4366718516351964    0.6598332913440800    0.8880052792958880 N
   0.0868468018318507    0.2788869314586009    0.2136130675201932 Cl
   0.6593585541931730    0.5099702410882202    0.0758983593406659 Cl
   1.3198824954134922    0.7433996175166175    0.1866941130583002 Cl
   0.1792477964995931   -0.2517340898661898   -0.3412422096360707 Cl
   0.0402876556125365    0.0375422574123006   -0.2181478092497779 Cl
   0.5653570610159140   -0.1033484045401010    0.7907360086294882 Cl
   0.2296889351429301    0.2767113771653117    1.0503585708857748 O
   0.0029460746492427    0.2792198506119320    0.9970168672257436 O
   0.4529138173863123    1.0836820740345807    0.0250536185188292 O
  -0.1499423545990646    0.2262335961474292    0.2278755280137271 O
   0.4909355518170513    0.3346697068110844    0.1762853927153885 O
   0.4319033485023918    0.5394927878683260    0.1962161834116702 O
  -0.1210267525140241    0.4437350346745352    1.0556480465586775 O
   1.1606902651568365    1.0160763263151067    0.1291661755015686 O
   1.1106420307010043    0.7916634861648486    0.2984344677451847 O
   0.6315432489189389    0.6314092330225086    0.2420546839739299 O
   0.8343726068575834    0.7222310255257930    0.0734376158647893 O
   0.7819075163912177    0.8790504214905046    0.0706711809709498 O
   0.9381372820912461    0.8428635569980014    0.2578383576848146 O
   0.2328470263643445    0.1805816953782670    0.3817281352676080 O
   0.2432111124532305    0.1433692951460463    0.6802720242706858 O
   0.2162980010381198    0.2878735773866692    0.5061428110929845 O
   0.3838699861509695    0.3247327938214430    0.3108765430886220 O
  -0.3189976355626413    0.2634365877948818    0.2939280546855943 O
  -0.3791548985570676    0.0985641670060086    0.4613579245366795 O
  -0.0683940999676931    0.3439675597737881    0.5752822343326074 O
  -0.0681258355539556    0.2073780685349655    0.4048694102397464 O
  -0.1992716404260803    0.0678682973315979    0.4937628157365600 O
   0.0330346112940400    0.4372483220930671    0.4744444872132011 O
   0.2979420054294714    0.4820150197830137    0.4955835413486624 O
   0.4436698384034010    0.5744865714385113    0.5123650729791496 O
   0.8124863578414305    0.5500147700830822    0.6689100103115676 O
   0.2793492179850497   -0.0819670337860606    0.4693032936096277 O
   0.1008716653820469   -0.0580750183735303    0.4305594417381939 O
   0.4296771665828533   -0.0300258559681013    0.5755140382514418 O
   0.5626424562690008    0.6653228386875927    0.3859600055608288 O
   0.7131781735916717    0.6628360773596679    0.5409583761222735 O
   0.9048353504843563    0.7769860939266894    0.4382495367455257 O
   0.7595912188841195    0.8763479864502044    0.4743745838439276 O
   0.8926404629503325    0.9005106796091386    0.6743291513015683 O
   1.1603378069886336    1.0017282345438292   -0.0315775276269117 O
   0.2593540267285049    0.2980840630718739    0.8901726459369897 O
   0.8099630214943675    0.1600673618974669    0.7377746082737948 O
   0.1078292061309494    0.3868214921803901    0.6871457348513726 O
   0.1782704886046233    0.4838071380601405    0.8016489024958648 O
  -0.0528958457143541    0.5744402522519609    0.9810144285664588 O
   0.9877364831899301    0.5778678720566908    0.7178880051995409 O
   1.0198712582398206    0.8016380334935621   -0.0386968054841137 O
   0.1698395571525779    0.6823140190414027    0.8837589212577399 O
   0.3950537232024443    0.0085688824877330    0.7268450535007520 O
   0.8665924010909044    0.8079671160933010    0.8118019141408124 O
