Li1 Co1 H90 C51 N3 Cl6 O45
1.0
  14.8035600674999994    0.0000000000000000    0.0000000000000000
   0.0000000000000000   14.4472412471999991    0.0000000000000000
   0.0000000000000000    0.0000000000000000   14.9317239832999995
Li Co H C N Cl O
1 1 90 51 3 6 45
direct
   0.7143804925422883    0.6430116286318976    0.4892060688953092 Li
   0.5831377380196523    0.5170956860049574    0.5744821563333110 Co
  -0.0028213124011766    0.1228853379840998    1.0285980379008872 H
   0.1910644817532504    0.2671502508721532    0.1118010213400058 H
   0.0340536013027530    0.0226371331387149    1.0859725246619707 H
   0.3275620533364652    0.2968479621970163    0.1903525671167567 H
   0.4494792132473643    0.1064469054877900    0.1102191544352588 H
   0.4722848761055295    0.0466043386470405    0.2720892775840145 H
   0.5410678577232720    0.2287927547579798    0.2944704842265807 H
   0.6648255208560832    1.0789799835744518    0.1992390158716630 H
   0.3963677997485182    0.2944973404126267    0.0955162306305100 H
  -0.0724484828453242    0.0207537285817879    1.0360265170319007 H
   1.0614841606174339    0.5115634879449652    0.2101486737371708 H
   0.3050580071150848    0.4701149518712662    0.9237414251111581 H
   0.4584538787598634    0.3085020902841091    0.3081045428408230 H
   0.5805936202649856    0.3842099698221478    1.0465390338836427 H
   0.9017333986914632    0.6090916579181134    0.0130294393278091 H
   0.6593970969071423    0.3898290356777646    0.1908883391420733 H
   0.9274305957349743    0.3844286967019673    0.2150878220955575 H
   0.9306676549140838    0.3597665488286455    0.0987723851143712 H
   0.7885842648099891    0.4129970574663445    0.0837098243376287 H
   0.9507020249337061    0.6227309400916695    0.2014504149061570 H
   0.7381862526697922    0.7017356428214182    0.1434919366374784 H
   0.0610876389379706   -0.1248193925431608    0.9871453563021474 H
   0.1458989947385506    0.7291464123395607    0.2402088329325862 H
   0.0331369299116738    0.8228148142749316    0.1904228871950795 H
   0.3166471113047348    0.8983551877847541    0.2025855818847964 H
   0.4347903141576522    0.7768053382354265    0.1555394403417521 H
   0.6034943278281800    0.9528195652071565    0.1164984025719685 H
   0.6745583148153090    0.9171165551186409    0.0311947898461660 H
   0.7840900755949191    0.9611014231724749    0.2592876747541077 H
   0.8396983209255318    0.8267498215906722    0.1772616473931791 H
   0.7480642819636399    0.8551545524993870    0.3013022472643981 H
   0.1040968878684222    0.3353383556558902    0.4432222293354612 H
   0.2149600851342646    0.2298967717621322    0.4664269175809390 H
   0.2502860471066211    0.2308408966484418    0.5782701315238019 H
   0.2882228675362519    0.1225496337539971    0.3981859026023857 H
   0.1274601868602172    0.1085559586612397    0.6465148969065325 H
   0.1308627467694774    0.3227041096516314    0.6798640266223598 H
   0.0327613445812095    0.3518190107460892    0.6152626449547879 H
   0.7530711856855848    0.2406697627669141    0.6620154513139713 H
  -0.0445849150198005    0.1326789032453861    0.5804160324282011 H
   0.2901487556246578    0.6502586869600951    0.3381834540571245 H
   0.6421532718518150    0.3050391454115235    0.6654370254106491 H
   0.1762423714635966    0.8200004361314311    0.3163433771601279 H
   0.0291203285178956    0.7052255824671463    0.6414732821483040 H
   0.1663352951028244    0.9299369958402144    0.5533371096961562 H
   0.0243262114490015    0.7348312346938574    0.5207113391860095 H
   0.6749960473587278    0.9015315727578294    0.4221509852947939 H
   0.3974364616060623    0.7104141162998271    0.3254849873420911 H
   0.3429725356096341    0.8897687734044970    0.3634658662167797 H
  -0.1794315323806147    0.9917806367618446    0.6232543544274155 H
  -0.0569738268196479    0.9326738505326397    0.5524572380875803 H
  -0.0854703504988497    0.8480466210789227    0.4710448706101485 H
   0.1963483458807535    0.0637079500405229    0.8274886413329807 H
   0.0355762080201388    0.0265091526504568    0.8151210138435803 H
   0.1571928996666666    0.0928290806980136    0.9914616696811037 H
   0.0455913664903971    0.1376791658397413    0.8637389765658968 H
   0.5939297366518421    0.1562024254310398    0.8404128020136785 H
   0.6852469599303027    0.2882103269651560    0.9694581823163856 H
   0.5697914213837131    0.2490236067939453    0.9630336060178087 H
   0.5778544818540151    0.1760048219650803    0.7222891344470490 H
   0.6673951730091159    0.1082527865936417    0.7646532982038584 H
   0.7623851614705518    0.1930786698907392    0.9007802452511866 H
   0.8278052358029520    0.1931195081372878    0.8036079427345597 H
  -0.0572683505679976    0.0727366633961112    0.8685883831100432 H
   0.8008475311575589    0.3025424749826974    0.8614210928413712 H
   0.3373887436283070    0.5049985667688630    0.7578744426535411 H
   0.3572305923904071    0.6235615484960475    0.6780022188343848 H
   0.2050509822339396    0.5565009946212536    0.7659565636554408 H
   0.4101334074179451    0.7132008074965152    0.7371079189522725 H
   0.2051881114103501    0.5744940491810907    0.8841538998755515 H
   1.0026868175437964    0.5433047035966990   -0.0017063005134903 H
   0.4374342727609566    0.5590904163219019    0.7905418024671530 H
   0.3981248095408521    0.5377471719803733    0.9532028590682822 H
   0.4851240174427049    0.4146123139433914    0.9217068308450185 H
   0.5673028983641134    0.3161928319349786    0.8036394193410471 H
   0.7498922206403241    0.3602337660561081    0.7072848388780597 H
   0.6607244803142689    0.3879823163253642    0.8280933940065567 H
   0.8770156957651701    0.5616493823810561   -0.1359399631663562 H
   0.2765270322634844    0.0105974643172566    0.8809158276975448 H
   0.1666027983238026   -0.0248812815020769    1.0115645057860114 H
   0.1824510131403904   -0.0844988918999741    0.7661280107035421 H
   0.0546378390543860   -0.1050066134040655    0.8711152179244422 H
   0.2811698343790978    0.7110211526086934    0.6962425774362860 H
   0.1746150602026461    0.6665012343077058    0.8055574831916803 H
   0.3113294715180173    0.7616744218023416    0.8727915146486512 H
   0.4136420228971385    0.6954777006681008    0.9043183497633707 H
   0.3104006408896209    0.6615307351811742    0.9522270842671745 H
  -0.1208327901831577    0.6596327949771706    0.7173794535500546 H
  -0.0523452104809045   -0.0940058972617500    0.9493412821958133 H
  -0.0831080808933935    0.7925702857505198    0.7411221908519565 H
  -0.0041682856906474    0.0467123177396096    1.0327516105271535 C
   0.3016885473518548    0.1855194412372296    0.0899207615411105 C
   0.3626894144326409    0.2503892654454766    0.1431624368419087 C
   0.3875266831925530    0.1478658857457665    0.2774577132776860 C
   0.4327651256311559    0.2025669865634166    0.2041862008104295 C
   0.4909527505046550    0.2684266191202140    0.2559464664612275 C
   1.0581971134626871    0.3893105975986986    0.1618367707843163 C
   0.5441488058054924    0.3335089406452478    0.1984226332480870 C
   0.9580198592591013    0.4043553384098293    0.1499875027294096 C
   0.9316032406743232    0.5354841101652785    0.0240931316505954 C
   0.9281189436697640    0.5039309580997692    0.1231922043132668 C
   0.8274519424075691    0.5179142505874719    0.1584198846928601 C
   0.1625726866663386    0.8590341859215022    0.1666205452553612 C
   0.1864716676132743    0.7919916285621366    0.2463474409126503 C
   0.2913640038431924    0.7709820811470668    0.2445941269598020 C
   0.3178677636287438    0.7094146175198923    0.1612715312976073 C
   0.6442608729867946    0.7993778137980674    0.1649114324946015 C
   0.6417297250852663    0.9554041416921124    0.3035310588897149 C
   0.6760174232933717    0.9492264916845515    0.0946201519181681 C
   0.7247334076046907    1.0454787779312082    0.0925072009933260 C
   0.7143865721609469    0.8753985558350884    0.1623919645455505 C
   0.7262235896892308    0.9136660693721208    0.2585442910689810 C
   0.2031021266972679    0.1998363614340241    0.5322749737799193 C
   0.2273138702485290    0.0960206934918359    0.5183058433410440 C
   0.1105987022671971    0.2208888236166534    0.5737871930449723 C
   0.0382235441893646    0.2094651893617754    0.5033154242675103 C
   0.1033747642744180    0.3214166666248456    0.6119609498487748 C
   0.1492110358811161    0.3977495789871786    0.5544409340113147 C
   0.3214641958218947    0.7187534246797818    0.3291757868814904 C
   0.1017406978816246    0.8203735177397309    0.6045853782052611 C
   0.0219267886184095    0.7567904443845992    0.5911636192560505 C
   0.3039886697443564    0.7722529120057650    0.4174857503843502 C
  -0.1952317857611179    0.8948707855283886    0.5309652790640330 C
  -0.1363662158558671    0.7046683826625427    0.5926222585949747 C
  -0.0983078030530645    0.8692264432168899    0.5383796941793821 C
  -0.0772128773341096    0.7937635931581427    0.6063969573658627 C
   0.0155708850674409    0.0690757568538154    0.8683867988855177 C
   0.1487307460070871    0.0250583566374766    0.9592657892497702 C
   0.6271460709496662    0.1656713612409483    0.7781447075163602 C
   0.7783644258448915    0.2353843246203891    0.8414555483179509 C
   0.3410952844704969    0.6781636684788425    0.7270072768449927 C
   0.2176053947639376    0.6083351120964592    0.8188104739529162 C
   0.6189743879593307    0.3065972283434024    0.9420949655534072 C
   0.6316794399294250    0.3200468549312923    0.8408554836495963 C
   0.3677604919070931    0.5408211844676090    0.8118983451113013 C
   0.3738286268415549    0.4923142766082404    0.9002880047029270 C
   0.7132794060518984    0.2948814967996515    0.7004035169279005 C
   0.8721702396942702    0.4719473819904166   -0.0348022779473554 C
   0.2049381715321635    0.0045014908027928    0.8723843279094108 C
   0.0211634587201637   -0.0849564186960523    0.9386620063011917 C
   0.3387823273274937    0.6917420393694109    0.8910158000897930 C
   0.0448854552128158    0.0129868478271838    0.9505173017913831 N
   0.6850510611068591    0.2521072404951984    0.7888521114423110 N
   0.3181453995474863    0.6306189512385787    0.8097271289787062 N
  -0.0530112664806127    0.7632062021347487    0.2473412980196124 Cl
   0.5312900070346542    0.3864816838081214    0.5900050122513035 Cl
   0.5903664046047213    0.6278204930894955    0.6745920298932452 Cl
   0.6090950076391143    0.5543261849491241    0.4312135691030229 Cl
   0.8650246612308685    0.0965432846129237    0.6656084724587502 Cl
   0.9414583025199051    0.6701060747827061    0.8371030703272857 Cl
   0.2150533059536964    0.2116337694708721    0.0805045681961725 O
   0.3230097699875463    0.1832442663829044    0.3252874214077557 O
   0.3272769867726955    0.1100517459627903    0.0559199990994921 O
   0.4870864507943809    0.1463901714806550    0.1491483497947576 O
   0.4149944002920837    0.0647212922938640    0.3008776479343347 O
   0.7079874357661838    1.1105431029408139    0.1553639750034609 O
   1.0909439660974307    0.3155594930266404    0.1375977746439649 O
   1.1046271611583747    0.4531566969485499    0.2048545764120119 O
   0.9812737251150415    0.5635037156438299    0.1811017933846353 O
   0.5119803275591364    0.3752753920857224    0.1339364425659581 O
   0.6703437880585342    0.7118759870915323    0.1520488855968150 O
   0.6300973880518218    0.3345347420246546    0.2204214326075835 O
   0.7695097990252405    0.4469211812221506    0.1402927079313070 O
   0.8088611440627710    0.5857072626401930    0.2041828522352712 O
   0.2643542846826092    0.6515828151914077    0.1272413013945965 O
   0.2158605442089210    0.9076614627821386    0.1238203970129504 O
   0.0727909048557654    0.8688824329027434    0.1575050539596322 O
   0.5941155027775213    1.0101100877254547    0.2587197564072722 O
   0.3428495922100936    0.8556314601582339    0.2477022744216694 O
   0.4004782974749125    0.7220322513560635    0.1253781541765583 O
   0.5638410283972728    0.8211736705026149    0.1759811522526726 O
   0.7968532216988622    0.8409220774903708    0.1250285629300392 O
   0.0980800919359663    0.1706058673366236    0.6540103475407109 O
   0.2632856228250651    0.0698336870228103    0.4384451520147328 O
   0.2113319038214522    0.0381722789952637    0.5767162587073777 O
   0.0491121412069077    0.2479735793360775    0.4298219012672632 O
  -0.0347156673973485    0.1587966923473802    0.5172293500963271 O
   0.1385480602671254    0.3926572572946714    0.4666299751785339 O
   0.1989625819039492    0.4494795935423688    0.5915118710725062 O
   0.1532978906460603    0.8119726059031183    0.6652039645796364 O
   0.2829376523823803    0.7356777630926526    0.4861066277288530 O
   0.1084735377894261    0.8947344273153365    0.5511120484750167 O
   0.3229976107502291    0.8667408475667889    0.4250354479360917 O
   0.6197208300279693    0.9306893886198468    0.3841600606946306 O
  -0.1728993198885468    0.6940130611817144    0.5217108218992375 O
  -0.2288926077342038    0.9486298379807401    0.5945845236376965 O
  -0.2421326661462544    0.8643071649419616    0.4674819196702904 O
   0.4281736625175484    0.4133403756068207    0.8892464129761851 O
   0.5893747512501861    0.3906021936675063    0.9799432408518302 O
   0.8546089234423273    0.4959524106367828   -0.1184945563070185 O
   0.8407413132820728    0.3986037212963472   -0.0078569633641240 O
   0.1807446668368781   -0.0833464227388997    0.8391162337124126 O
  -0.0895018131826823    0.8331718089038543    0.6866777073543227 O
  -0.1534904750775755    0.6461575579634791    0.6586588395753633 O
   0.7792932564732880    1.0640504896794287    0.0296671698589822 O
