Li1 Co1 H90 C51 N3 Cl6 O45
1.0
  13.4106138132999995    0.0000000000000000    0.0000000000000000
   0.0000000000000000   13.0630325846000002    0.0000000000000000
   0.0000000000000000    0.0000000000000000   13.1060161229999999
Li Co H C N Cl O
1 1 90 51 3 6 45
direct
   0.8706043264866045    0.7177443470020325    0.3733961575792577 Li
   0.2704804162731620    0.1665178264091888    0.2679751061298156 Co
   0.0540973304279708    0.2543006588084478    0.0478571104761031 H
   0.3241461179345018    0.3091654075073768    0.1724983427673752 H
   0.5734021211671723    0.1135431441890886    1.1360207344298565 H
   0.6880161143369430    0.0536956321403433    1.0897900572878763 H
   0.8110298721683643    0.1751000602261791    0.9493537887279768 H
   0.1763437855733813    0.4935117286548057    0.0637871992262313 H
   0.0263193327027248    0.4791927717978419    0.1992753585062868 H
   0.3178712373681444    0.4275536906249722    0.1111318685885001 H
   0.2356169859701943    0.6833212528936924    0.2596590779045236 H
   0.5367209515467227    0.5830982004346917    1.0540652423932624 H
   0.4173484140710447    0.4666252459238315    0.2943095770140920 H
   0.6113738357426062    0.4697216172861509    0.2585107503075822 H
   0.7179573240078815    0.5527247785335819    0.1490648297060698 H
   0.0373158465128344    0.8467320065740075    0.3183756240141778 H
   0.2833448535317238    0.7977694095768887    0.2225158304499669 H
   0.0736818180328205    0.7019631722506942    0.0774114766820358 H
   0.1661242682635859    0.0099531093915572    0.0081280276554105 H
   0.5023593953632920    0.1332131555999855    0.3463322506932033 H
   0.4462468675941527    0.0091914179592224    1.1619332616854892 H
   0.6269667088885479    0.0147598033650548    1.2085454430124998 H
   0.6161819676370651   -0.1809504946413927    1.1148022346668374 H
   0.4467022531630029   -0.1192488955081099    1.1267761250182005 H
   0.3947260341991314   -0.0267045347579742    1.0437035887278374 H
  -0.0144140749999297    0.9453798505301786    0.2111805781043445 H
   0.6813952391677586   -0.1203558360218346    1.0208835343960609 H
  -0.0197777370217727    0.7579562959961170    0.1463897223606369 H
   0.0462841160994750    0.1890501134638041    0.3328147944092072 H
   0.1351480574962595    0.1643475799663053    0.4995931639370836 H
   0.0660527861760882    0.1759268207758490    0.6218248157957039 H
   0.0520250912011251    0.0654034801465024    0.5562293677257671 H
   0.0764691624840438    0.3229554672682601    0.4251343054371733 H
   0.5050590003555777    0.2176108628597625    0.4836229256865229 H
   0.4280086270926305    0.1696288957368356    0.5811030590855621 H
  -0.0949473015200245    0.1994887309224143    0.3413902454803198 H
  -0.0319501850746804    0.0833518392646144    0.3699557528386538 H
  -0.1042742422358887    0.1772993963921066    0.6162380685101191 H
  -0.1237759595801484    0.0932056001862359    0.5170153918557026 H
  -0.1707603861524136    0.2255745573025553    0.5053331996042135 H
   0.2192508447140551    0.6817657182298690    0.5220421672984997 H
   0.0947889801613187    0.5713711379009432    0.6291954766504907 H
   0.2358265214947512    0.4127975458514191    0.6189436961903545 H
   0.1904423199605612    0.4820912564915596    0.5225817668178067 H
   0.0324338924940654    0.3434116667203709    0.5542186880689830 H
   0.3181076173015413    0.4861841805238423    0.5372306119129288 H
   0.5819441611956749    0.4335017734684309    0.5585685224858623 H
   0.3512716473893303    0.6512383504523345    0.5487329630915944 H
   0.6723121351655246    0.6076818488272241    0.4669470115148278 H
  -0.1461224385834280    0.3862654218782618    0.4861539694216047 H
  -0.0907043935672528    0.5582211285989293    0.5338274419807838 H
  -0.0427662448031431    0.5243309888375153    0.3734625393074530 H
   0.6961976936089659    0.4322838326957227    0.3610422890596042 H
  -0.0901652683563822    0.3581915425837757    0.3610354219842737 H
   0.2046892442743846   -0.1277492187891606    0.3805882744754502 H
   0.4381674462113265    0.6350215953743644    0.3912978599576227 H
   0.2834171842999872    0.7314226409849048    0.6313998078315960 H
   0.4475848376714212   -0.1002173269661248    0.4705572619186072 H
   0.5461238022853625    0.6846731594962081    0.3508690984615844 H
   0.3764509572032566   -0.0388915976753308    0.5506265209635741 H
   0.7159708377537193    1.0207597436463338    0.6316729648280779 H
   0.6600002453222534   -0.1072401985241543    0.5572099097821323 H
   0.9548845850739536    0.8588616555643036    0.5492831684272452 H
   0.1558808892570439    0.2691723969551492   -0.0352612063164635 H
   0.5337097545528946    0.1105392475252878    0.9724416589976447 H
   0.4191186536984401    0.1209824580980629    0.8483925212015399 H
   0.6401592444773767    0.0246212194769511    0.9354952677025636 H
   0.3617320187006626    0.2895298444527161   -0.1370930663931398 H
   0.5431297558860709   -0.0133048897011017    0.7927188524716878 H
   0.9062305854074429    1.0098847803420643    0.7832781499089263 H
   0.1432252418450156    0.5356207869027717    0.7521596165443691 H
   0.3268954328065350    0.4986925317770289    0.7679958552649798 H
   0.2495432687339840    0.6690856610588203    0.8128988978430544 H
   0.5775623334271561    0.4454035274442486    0.8374761604510809 H
   0.4065226605282787    0.5659570811310490    0.6843968431992749 H
   0.4426025153907114    0.6409130298097903    0.8744278928047523 H
   0.6389885299807421    0.5533821297224724    0.6879570402539784 H
   0.6605520470595208    0.3531873447011902    0.9011728621921213 H
   0.3554854738991919    0.6940400503163574   -0.0017941331888593 H
   0.9968043665117329    0.2772715882658046    0.7940419089853732 H
   0.8721210355860662    0.4523863623571414    0.9343209978210402 H
   0.7061226680995443    0.6221049928238270    0.8193051161180842 H
   0.9025745260590353    0.4362170694588746    0.8046935058314212 H
   0.1423020924521279    0.6652419900218826    0.7255733528979728 H
   0.9887637203861200    0.7338003430842334    0.7312432680958941 H
   1.1765187355594642    0.8752253902955484    0.7648797290816517 H
   0.3573071653101974    0.7328954995937614    0.7686566205134524 H
   0.5673683928735611   -0.1802477481741732    0.9859400400723892 H
   0.3610862615324552    0.0050805807816970    0.8099056160073060 H
   0.4818907245163420   -0.0914888790148873    0.8733039814756529 H
   0.8630506081102288    0.7172436975580657    0.7595432485414469 H
   0.9318960772925832    0.8940265376102643    0.8514994912844270 H
   0.1756741667084272    0.1419477277034427    0.0591381892274512 C
   0.1371531857010052    0.2514246038222349    0.0407092480653741 C
   0.1822204740752782    0.3411135785998994    0.1007473246719735 C
   0.6171349441508863    0.0422457640464424    1.1313694354059660 C
   0.3481196663846967    0.2866790515944098    0.0064722994923787 C
   0.1467605013536431    0.3418546010184925    0.2125150797435807 C
   0.3019428091117023    0.3415300209508443    0.0969063405370877 C
   0.4824650457299139    0.5881524632616739    0.2384237919573632 C
   0.6345539827759734    0.4889219827736937    0.9859018896538861 C
   0.6495674640977844    0.4957626608031848    0.3278460839033717 C
   0.0193427691164100    0.6258598636535778    0.2184077933855599 C
   0.7167672218826401    0.5852524475299011    0.3012727913992663 C
   0.2625247774422093    0.6890465697001565    0.1111669669735229 C
   0.2253050045855055    0.7441846086918931    0.2053717953830721 C
   0.1234960927036391    0.7926144044458912    0.2108212011620459 C
   0.1140170336710146    0.8927075483259298    0.1387108061243456 C
   0.0540384218641274    0.7177007124174666    0.1561348652630526 C
   0.4526901222581790   -0.0419238185431480    1.0988507816823474 C
   0.0091396567231280    0.3145646132081378    0.4777157454058474 C
   0.0686365605269413    0.1493258000902193    0.5449364623446832 C
   0.3624389214667835    0.1706278980676868    0.4250106217803865 C
   0.4500025495264778    0.1611484759504992    0.5016793051216666 C
  -0.0232309719478334    0.1661626255804418    0.3713184857875823 C
  -0.1113537093894237    0.1737137052674270    0.5327549574158265 C
   0.2509272471452923    0.4835892241245172    0.5807902256538373 C
   0.1495344236004464    0.5912541167052827    0.6892968829518050 C
   0.5036394023964508    0.6143074160099956    0.3460156022196281 C
   0.2811607626013779    0.6681012035894911    0.5798700375595440 C
   0.4999467063954007    0.4417170174636510    0.4345405200216081 C
   0.5645248988671807    0.5311382902374086    0.4023271459468507 C
  -0.0761681461803757    0.3814771003614236    0.4393553317392024 C
   0.3257269553439703   -0.0513626681518796    0.3973477533238344 C
   0.4041991278075692   -0.0312922902896148    0.4741163907615925 C
   0.5790852316542116    0.0170992295130097    0.5393409404628428 C
   0.4902072715105883    0.0553874291910568    0.4752189378563303 C
   0.8042069182548564    0.9022260119135185    0.6493678919381565 C
   0.9121341183181800    0.6882779885965745    0.5989948423551165 C
   0.5623359610296832    0.0299729629980089    0.9553235662153320 C
   0.3313158121288602    0.6580545318729466    0.8003153638040126 C
   0.3335118339075795    0.5656194872399338    0.7237657860692988 C
   0.6491118548255272    0.4382502879958406    0.8857440699411232 C
   0.8549249546899560    0.3004545664937712    0.8720167863553604 C
   0.7342421863594775    0.4424166253028578    0.7102231505090908 C
   0.7471043865839692    0.4719607604415070    0.8292173578535433 C
   0.8484256250385750    0.4158611529993627    0.8626088931525114 C
   1.0592504268978329    0.9564186349063269    0.7646866879640263 C
   0.6062182178892735   -0.1370495094539198    1.0429726267093193 C
   0.5025128342758315   -0.0093295493914388    0.8662301308768198 C
   0.9153464992427037    0.7462874894603592    0.6994532873656835 C
   0.9067786587545936    0.8714965471127315    0.6856191826081123 C
   0.9449409686327919    0.9366559956931059    0.7772168114171638 C
   0.5582030405853534   -0.0287484705613248    1.0598297706290711 N
  -0.0151239604781439    0.2029657183451929    0.4837066048144675 N
   0.2531143207877316    0.5754678895283631    0.6444724302358468 N
   0.8071053687315565    0.0509389981224161   -0.0368696279605515 Cl
   0.8829341126024356    0.8996684128427340    0.3032489830777236 Cl
   0.4514665391896898    0.2259060270414508    0.7665209600856524 Cl
   0.1022987035343175    1.3216906319788284    0.7550590483505999 Cl
   1.3191013217572454    0.9058055788859783    0.7144776851805494 Cl
   0.5746383061942557    1.6729643481149739    0.7779561665277527 Cl
   0.2074534727068845    0.1090862924111457    0.1440205813715982 O
   0.1974755550766495    0.2944636145847741    0.2819847028125009 O
   0.3912526659664407    0.2021259439720559    0.3367709928079722 O
   0.3994804772759104    0.2117178973862819    0.0182050791988027 O
   0.0623437836880239    0.3778316987526011    0.2272312221769422 O
   0.1411097532928165    0.4277519600530875    0.0484331817954990 O
   0.2380896542955706    0.6027756373801550    0.0922062089775136 O
   0.4294123659715572    0.5057847593589474    0.2293577265043015 O
   0.5466124450940534    0.5418326676030972    0.9922478302676814 O
   0.0116481175936242    0.5453721213785174    0.1584414395657462 O
  -0.0210304761009742    0.6350552782115733    0.3037281523341218 O
   0.6974757857409608    0.4827659084104708    1.0552753736681786 O
   0.7443781877306593    0.6006689290165518    0.2051848583324072 O
   0.1015679390714500    0.8110863785787943    0.3120670708105155 O
   0.1679578905229647    0.9002548004177777    0.0624732988129867 O
   0.0484443453330742    0.9662662716757288    0.1626639278856623 O
   0.3439990496277517    0.7333104109066513    0.0662547682950077 O
   0.5238085671912606    0.6272002874706816    0.1639442559306243 O
   0.2712402621789395    0.1535813203639370    0.4427955838781322 O
   0.6354786235249078    0.0759048701653654    0.5815044014882141 O
   0.6070891698205279    0.5759151822961150    0.4901503631013044 O
   0.4214556086235695    0.4078063617923007    0.3935868850678050 O
   0.5385907391902333    0.3914510477703582    0.5133135804475158 O
   0.9043969631480642    0.5862567319420419    0.6037056560318715 O
  -0.0489583551089104    0.4876012327955960    0.4410734739869051 O
   0.2707861442627290   -0.1345110483588221    0.4192177859340483 O
   0.3103331782302588   -0.0007656880311078    0.3190707246393031 O
   0.5937213998962154   -0.0834279636556056    0.5303791782539683 O
   0.5269794884176869    0.0625174734129324    0.3672287609240567 O
   0.7550518229566652    0.6431950420306847    0.3649412618306146 O
   0.9773816910379467    0.9002731728744370    0.6082798912103856 O
   0.7471237742125758    0.8404509229535985    0.6073009514715977 O
   0.9135404670701883    0.7343055856423650    0.5151870711993630 O
   0.1580657258654131    0.0812175722160221   -0.0186611962174221 O
   1.0993283836179768    1.0348238592190520    0.7522954320342400 O
   0.4087925044313080    0.0421814604481347    0.8603526774022419 O
   0.7913961698139746    0.2566240090568257    0.9349886301448432 O
   0.9159847996306778    0.2424588449724811    0.8258624100503863 O
   0.3327512423237786    0.3377353431316649   -0.0793005234196292 O
   0.3732848083161796    0.6361139910265673    0.8989952363039680 O
   0.6590920094898323    0.4850003053478566    0.6631707133525552 O
   0.7850720744980771    0.3799667313202210    0.6576785791048579 O
   0.7693524360881687    0.5810851150481482    0.8370404826717761 O
   1.1046398481781863    0.8662014519997067    0.7814591379547016 O
   0.7868542449738459    1.0015406229426178    0.6585842700401201 O
