Li1 Co1 H90 C51 N3 Cl6 O45
1.0
  12.9816692977999999    0.0000000000000000    0.0000000000000000
   0.0000000000000000   13.2247545569000007    0.0000000000000000
   0.0000000000000000    0.0000000000000000   13.1925412383000005
Li Co H C N Cl O
1 1 90 51 3 6 45
direct
   0.3387062594211327    0.3176069363274883    0.7691683835439415 Li
   0.5537799095004150    0.1083554157723364    0.7886976004966262 Co
   0.0770788891586981    1.1778315969102777    0.1310775223563244 H
   0.2717156451903897    1.1959733324689783    0.2438442723802723 H
   0.1732105939011298    1.0817927634835105    0.3436195905864876 H
   0.1797120690245411    0.2835821082625147    0.3313459886264709 H
   0.4166954591746325    0.3472173157349223    0.3171697964416739 H
   0.5925203047811074    0.3557581169659795    0.3217049348141282 H
   0.6817684571890835    0.2387033925595955    1.1618887780770895 H
   0.9360770460359339    0.2637473356116196    0.2570358172734399 H
   0.7361944315219636    0.1788330942797008    0.9860030288430013 H
   0.2008318490551774    0.5183029861921867    0.1307333885069020 H
   0.3067434978932051    0.4647556029909974    0.0609174233063500 H
   0.3062928624729213    0.5502263763907390    0.2829375744730280 H
   0.9758747013411383    0.4083413234828200    0.1690535264445678 H
   0.9912494575008738    0.6203210610226247    0.2991202034406908 H
   0.3841957867271530    0.6124834864533546    0.0062031732644821 H
   0.4251450658841940    0.4696696450414862    0.1514306897370314 H
   0.5248913288874768    0.5472629943611230    0.1038818522030710 H
   0.5193508241688587    0.5406162169391452    0.2360353144138634 H
   0.3972418747236098    0.6474792210062147    0.3261203085429509 H
   0.8716577498101609    0.4718414055740863    0.1126792474814772 H
   0.8187531514688374    0.6349232223836645    0.1631047104748166 H
   0.8173750544314223    0.4678289303503164    0.9773890705504106 H
  -0.0144016417928381    0.9904587432714080    0.1328467038641480 H
   0.2979341531643742    0.6999361491870139    0.0643799859146353 H
   0.1031102101119493    0.9164203181507591    0.1149146014945756 H
   0.2717996097387844    0.6762124574806672    0.2595251026512002 H
   0.4602599644032352    0.7625694477058004    0.0957317924035342 H
   0.5314080562866516    0.7104777436945099    0.2085114284967336 H
   0.4134639795368705    0.7725174584181322    0.2196086081344958 H
   0.3910908938159748   -0.0401131241579996    1.0493926355074230 H
   0.6151452841471874    0.9000086714115946    0.2981582962712701 H
   0.6383079447497770   -0.1207331459068132    1.0201867385509356 H
   0.8346524934768008    0.9432586234268912    0.2851827825390835 H
   0.8096040969616387    0.8143465901135388    0.3248824878907333 H
   0.8886170479519885    0.9085449356964467    0.4041644079626223 H
   0.0380546320790748    1.0463788737220825    0.3296654935952605 H
   0.1290583368337636    0.0868011405097172    0.5694897960438843 H
   0.3066240987647538    0.2381468604917727    0.4704677064856228 H
   0.4706063225578650    0.1959971179312073    0.3035287551328510 H
   0.4428474117634674    0.1283792278484430    0.4275383731775104 H
   0.5830216804384817    0.1558171661813460    0.3735759115758564 H
   0.4207935453898634    0.2276914679621732    0.5670042248860847 H
   0.6595794772210900    0.2887557392517039    0.4298740869299557 H
   0.5623392863764559    0.2277194457971045    0.5687719661861684 H
   0.6744743259161472    1.0431137847698289    0.3422013649647490 H
   0.8264262786849867    1.2284344264086022    0.4735943974888882 H
   0.8575902215277275    1.0798751475541646    0.3755982664442682 H
   0.8405407963018430    1.0592123822208432    0.5139215028122713 H
   0.2448531522397260    0.3602670853361249    0.4569824350139283 H
   0.2582682220589451    0.6252156698202017    0.6140898461306574 H
   1.0904955537034895    0.5301001049461678    0.4032601091027965 H
   0.0732473326108488    0.3629680806435474    0.6427302720482261 H
   0.4929063822311660    0.3518336584985880    0.5734581747704947 H
   0.4233779587831151    0.4315827378075670    0.4239490722881161 H
   0.6054285060421268    0.4141153436864810    0.4443302100191397 H
   0.6619944208836368    0.6026609979193632    0.5356845577699072 H
   0.9243335640150326    0.5026637772291676    0.4353996334249988 H
   0.8636287361595310    0.3999116774337872    0.3827037966303599 H
   0.0777167115997152    0.7848481220458301    0.3685063803315016 H
   0.0990568022802680    0.8682848312302958    0.6615583352328145 H
   0.3377318084695787    0.8230968470277303    0.4998933715631741 H
   0.5689364348660199    0.8685010923327375    0.4144497652375400 H
   0.4408738597177115    0.8505725932456757    0.6594912581240591 H
   0.6420370491422456    0.7798317718584168    0.3585045165801170 H
   0.6415047601244402    1.0257002290770429    0.4743777188985647 H
   0.8149423934788473    0.9048163220735743    0.5457557788940279 H
   0.6772382231605548    0.8999171763297922    0.5693832964715411 H
   0.7396785751218676    0.7912149698869547    0.5146156829428904 H
   0.0512085644496166    0.1242611930096349    0.7033410357787655 H
   0.1580083887399303    0.1346553367654660    0.8011675255117099 H
   0.0150722256445986    0.2069500622279636    0.9050042295443684 H
   0.5988184162276727    0.1494881262252638    0.9885309724285162 H
  -0.1086761123501342    0.2289663498457998    0.7671930249280940 H
   0.1644721183324119    0.6204216299968373   -0.0293805699674240 H
   0.1415944750041898    0.4631981449745646    0.9000825090943692 H
   0.5955260815502484    0.4128570972722730    0.8616964248022986 H
   0.4441860685726456    0.5233749139706123    0.8295055078039050 H
   0.7625238651378642    0.6610484709478986    0.7572472534781570 H
  -0.0194811118122427    0.3952023272729174    0.7354788924920058 H
   0.7038965821174147    0.3915092530619849    0.7743743555215474 H
   0.8528003906844369    0.5680017535433796    0.7304139092720928 H
   0.9039763977725690    0.4817305872172923    0.8690801424834079 H
   0.0886659968371760    0.9068186276654149   -0.0519266431331069 H
   0.2779621454007857    0.8101990651243978    0.8435308571780521 H
   0.2017269573600831    0.6507904355782200    0.7412351754270581 H
   0.4831576359723588    0.7376154874201770    0.7100622578995330 H
   0.6300871221766673   -0.1178279880201623    0.8868007617164411 H
   0.8157103994857242   -0.0943931485555388    0.8435892234917206 H
   0.9838482521708102    0.7126048153069902    0.9188180957819762 H
   0.7087850135312973   -0.0024436159749475    0.7880570870544193 H
   0.1367561141925610    1.0627489317877004    0.1872759443743356 C
   0.2477942223844161    1.0705849940415690    0.1489088101841056 C
   0.1194902299015488    1.0284624731582341    0.3069026312645231 C
   0.0771466770509801    1.0419440088066199    0.0041588362779353 C
   0.0723514539889853    0.9954660195664111    0.1125155186015758 C
   0.6682655712366808    0.0949835229905733    1.1180791746382848 C
   0.6765310721933402    0.1210157641576033    1.0045119723125966 C
   0.2577744488890272    0.5361931480838158    0.0653631171981174 C
   0.3320229894956923    0.6249978964023581    0.0725520278323070 C
   0.3415156053660475    0.6254168077686268    0.2656179393949388 C
   0.4713241809307924    0.5404770083064194    0.1655993018810922 C
   0.8293396174191979    0.3396731303535804    0.1814021708078726 C
   0.8945623542319042    0.4283864592060904    0.1833676753707632 C
   0.8966753336470130    0.5067880654921616    0.2707488689692565 C
   0.7948740960955402    0.5621640648613072    0.2885619646992709 C
   0.1405029358750578    0.9164528329318955    0.3127006044236244 C
   0.4583952581436094    0.7220272964172337    0.1707074913332015 C
   0.8194187053203335    0.8909718307287824    0.3521312183291400 C
   0.1984569618744336    0.1855772648135475    0.6495121344948830 C
   0.5011111822115546    0.1842313041060414    0.3799060035946373 C
   0.4940561573223039    0.2725066664182212    0.5498696186023655 C
   0.5970174151804528    0.3401827806439507    0.4082242777809184 C
   0.8005105052753980    1.0899396065524267    0.4422608588981635 C
  -0.0713257540197020    0.2763585337463315    0.6364138241027704 C
   0.3018889604254636    0.3094018691156069    0.4218205968493978 C
   1.0262827024223935    0.3984439753364449    0.3712389850168932 C
   0.4101593197881224    0.3535834074183459    0.3993146978996167 C
   0.9267492779945371    0.4535243926603297    0.3674656407384246 C
   0.2456203879296451    0.8285948696705827    0.6523031054939431 C
   0.4260717571843675    0.7648371646506379    0.6571308334388138 C
   0.4544600169332469    0.7353704552063648    0.5445706395249268 C
   0.6355979696924119    0.8619633528512219    0.3681531504331959 C
   0.7058447137035648    1.0221016745787164    0.4154124304110344 C
   0.7402023906531378    0.8740369228606323    0.5254352056884863 C
   0.1210069839913589    0.1682967928761107    0.7344207188052356 C
   0.0687656285506583    0.2675500526891748    0.7762754297381804 C
   0.6979982651719217    0.0290314483227731    0.9370480937524802 C
   0.3430801191072381    0.5598971796899406    0.7350339441007924 C
   0.1393397572688550    0.3333025017239517    0.8388532140397578 C
   0.2755371876177882    0.6452825828852566    0.6957860091770186 C
   0.6453625074488530    0.5508960296506082    0.8969375501929296 C
   0.7070972490768667    0.5407901332103399    0.6592449068001334 C
   0.8777948650125564    0.6144933536222035    0.9567440716013608 C
   0.7710605176636515    0.5735988328450428    0.7476168117228450 C
   0.8408558559375628    0.5133306443829627    0.9130489267776722 C
   0.7483107469504159    0.5167189870404543    0.8435854334713525 C
   0.0166066970244370    0.3335066643031802    0.6941722185042866 C
   0.3191949011982788    0.7561292525676938    0.7055149914619008 C
   0.6229162416169710   -0.0660304293545010    0.9573247027217519 C
   0.5159537494946893   -0.0268743151315854    0.9669513544566958 C
   0.8236084592535367    0.0028978820238297    0.9540789292785211 C
   0.3971579101752151    0.6268277980384058    0.1676603149572586 N
   0.5004613428259966    0.2847412980179118    0.4325181567395487 N
   0.7240542362678209    0.9064692828076240    0.4135060501658860 N
   1.0210984692967349   -0.0218912358830093    0.5939216317439131 Cl
   0.5231425553299924    0.0362950991971011    0.6348068554667009 Cl
   1.0698487482849117    0.6646704663349517    0.4433050853099791 Cl
   0.5097652009993416    0.2712703485773378   -0.1781002112071298 Cl
   0.1322720991814973    0.7580476246547405   -0.0242496403931063 Cl
  -0.2651143910809107   -0.1399062805694679    0.7447030440638588 Cl
   0.0948639670792338    1.1608029254872227    0.2034418972523789 O
   0.3054555279398468    1.1485214121100797    0.1844038669393984 O
   0.2862291869913605    1.0217296449899000    0.0787153589548920 O
   0.2542987787756585    0.2825461722123555    0.3209507207608787 O
   0.0802240932971920    1.1321052284247100   -0.0088219834827666 O
   0.6494890953915208    0.0055482147652954    1.1437270004732110 O
   0.6553304088821402    0.1690589998385636    1.1888585630164048 O
   0.8643697810728866    0.2554250639561070    0.2241824047147045 O
   0.8674186955916617    0.0497032875485048    1.0197971244570962 O
   0.9661717889413173    0.5883582750078585    0.2378219300153802 O
   0.7390453745825970    0.3397094259232210    0.1499207456223851 O
   0.7614069055491264    0.6229494651907660    0.2147535920429748 O
   0.8624855857942296    0.6487714945169608    1.0425372466656251 O
   0.0587022078146102    0.8541182167049433    0.3364837402374511 O
   0.2226364408612535    0.8770229896212736    0.2913718858001714 O
   0.4579782855743793   -0.0803565931547319    1.0253684543981858 O
   0.1783139437462246    0.1433307340672737    0.5611450049978352 O
   0.7659648709881341    1.1931747928181466    0.4431866092732727 O
  -0.0758567583651884    0.2694102006332563    0.5390132568587918 O
   1.0355796577854803    0.3115682609285311    0.3391034023158738 O
   1.1057724796095907    0.4515047710571397    0.4018176273507021 O
   0.5276517597055744    0.6766079279582096    0.5249281767636436 O
   0.7233262867427471    0.6024591038132373    0.5793580994774975 O
   0.7409773295126343    0.5544425604991169    0.3669145717769046 O
   0.6416241592528915    0.4703626635743117    0.6569799906281638 O
   0.1509268649473330    0.8182960017850582    0.6882355305997133 O
   0.2633176497169974    0.8758169180884240    0.5737482629294681 O
   0.3945272777644983    0.7752184537255545    0.4745967820758402 O
   0.0949040235610369    0.9826967844722223   -0.0744113179688267 O
   0.2790244124855232    0.2306011627950291    0.6613559481451585 O
   0.2295307776331175    0.3183570447667277    0.8597877705449295 O
  -0.1394025151608727    0.2212127087813234    0.6918087618027469 O
   0.6869318917568830    0.0564262856667278    0.8351723462582705 O
  -0.0147837190038822    0.2358436041349954    0.8404882288265508 O
   0.1941840137097934    0.5502960941307570   -0.0202716350147609 O
   0.0938325126728064    0.4234567646911940    0.8586924546585520 O
   0.3362743687855154    0.4742314688349208    0.6977409016828785 O
   0.4001783229665535    0.5830689518904397    0.8146493859650731 O
   0.5762945024464494    0.4766700774201497    0.8998611719048728 O
   0.6358722025293710    0.6352680302952505    0.9343147310630151 O
   0.9288938404049135    0.6616382739545587    0.8842553840372330 O
   0.7517394277293620    0.4058051705541820    0.8270351725279852 O
   0.3352190345533976    0.7846311047856873    0.8065129702388614 O
   0.4833626173148162    0.0369680795508541    0.9054597899926127 O
   0.8700485576854208   -0.0585195149119963    0.8927192575232475 O
