Li1 Co1 H90 C51 N3 Cl6 O45
1.0
  14.4739820086000002    0.0000000000000000    0.0000000000000000
   0.0000000000000000   14.0988400113000001    0.0000000000000000
   0.0000000000000000    0.0000000000000000   14.1452318444999996
Li Co H C N Cl O
1 1 90 51 3 6 45
direct
   1.0165006765628211    0.5522392268555213    0.4828834620166272 Li
   0.1842570000926759    0.0841992324509356    0.2185587311742842 Co
   0.4774299498364792    0.2850859719082229    0.1570411816872218 H
   0.6597273990410064    0.0878931533662917    0.9795784244771981 H
   0.5388596240941717    0.0567842110952630   -0.7226623210049854 H
   0.5674132729624954    0.0531136963608223    1.0637191450453642 H
   0.4648900696644466    0.2362464929547690    0.3178239829167616 H
   0.5251665712851907    0.1108326292196799    0.9006642000748580 H
  -0.0701132207499654    0.0200336699454437    0.2008594808012799 H
  -0.1203896408510560    0.1099162417729364    0.1278136649844290 H
  -0.1185518604818255    0.2841036215879909    0.2653038115850446 H
   0.0791787984549837    0.3992570667436751    0.2567758495603780 H
   0.2073750335268190    0.5057931362923856    0.1206423438555044 H
   0.1960678479919221    0.6309016557582618    0.0974295748030360 H
   0.1301488770112274    0.6550575437410348    0.2361710264507924 H
   0.6388685918502407    0.3198760680868356    1.0755931109051255 H
   0.3721071714128067    0.5028235302846259    0.2523312423110139 H
   0.4462700382287388    0.5508294654862121    1.0294008669615200 H
   0.7651469027472700    0.6924343775498901    0.2911846175007387 H
   0.3441432013208506   -0.1711494343269384    0.2587828862998316 H
   0.3833266132984960    0.0626932078590555    0.9982256974876126 H
   0.4472111752283500   -0.0234457935784123    1.0615806152331604 H
   0.6174943770822395    0.8032697369658109    0.2499862825136319 H
   0.4454931269410698    0.6980461867438796    0.3187288814819256 H
   0.6657250574565289   -0.0715554252542354    1.0716525604346379 H
   0.7771422195783149    0.8926146759104618    0.3993885703822265 H
   0.2765246289460556    0.0709775773466437    0.3917944919548894 H
   0.2016944958592202    0.2136581098151099    0.5734670179516407 H
   0.3105436017282131    0.1770316923519624    0.6206581850769467 H
   0.3445971192541530    0.2204302981599293    0.3439854487780574 H
   0.4786552518984454    0.1486853887071458    0.5611547418493782 H
   0.3544029902242614   -0.0033554882928016    0.4347940699530752 H
  -0.0315460870014004    0.1841358228988531    0.3967452768391420 H
  -0.1053322779311279    0.0899408395572734    0.3647556986565870 H
  -0.2951888079701478    0.1041959130128852    0.4454858706716902 H
  -0.1205727279931034    0.2022791594992386    0.5767515169623842 H
  -0.2633385542026574    0.0433072158355318    0.6084519517752893 H
  -0.2920245094396683    0.1698296814121534    0.5980279444758027 H
  -0.1035221333569235    0.0840261685678045    0.5987087392556877 H
   0.1875373689622647    0.6619652042238789    0.3437726562248430 H
   0.1847730985647869    0.4055441087931597    0.4451024199047020 H
   0.2283533655310723    0.4746056769235594    0.5939954902447906 H
   0.3262690599928953    0.4691765777963510    0.5221789225725547 H
   0.3478671247006071    0.4131695588240724    0.6807759695960210 H
   0.1164152686730458    0.3393145466978663    0.6576897449522747 H
   0.3747899162149578    0.3177418499542882    0.5983658675337310 H
   0.7521193889720033    0.6077777675703896    0.3889582005147035 H
   0.8162226882194883    0.4780499319091526    0.6638769888915836 H
   1.0018481780400241    0.5087557842809096    0.6671890590304845 H
   0.0500700155540747   -0.0704751945410850    0.4508677548880030 H
   1.1713923987349182    0.7628203099531686    0.6008013171876294 H
   1.0101686250274839    0.7985743152185649    0.6209049113263546 H
   0.6158141207446575    0.6411429238260088    0.5334952446915336 H
   0.6579656171080975    0.8983541551821709    0.4216445505924348 H
   0.9713430965954255    0.7826566936397590    0.3958898649142605 H
   0.7118733806756075    0.6948842244856889    0.5434423421690987 H
   0.1999258049775548    0.1633596455846039    0.6873195173453632 H
   0.0433199726189689    0.0851546301992045    0.9587374793982650 H
   0.1343474451705558    0.3087829568894145    0.7793625474146254 H
   0.3787307805856685    0.0498084599043017    0.8307091784196454 H
   0.2593068377499683    0.2350534870062995    0.8165687244349501 H
   0.3691556685040275    0.2611336467715918    0.7696108514709753 H
   0.5834111510766467    0.0115145293704933    0.8504366740922243 H
   0.4530091650248094   -0.0310471281502001    0.7698505082003431 H
  -0.2955688001517556    0.2369749216759807    0.7358821713584959 H
  -0.2155424467051524    0.3037832547902700    0.6629727972784236 H
  -0.0154599816116287    0.1441254390979246    0.7434960444419459 H
  -0.1960523022630503    0.3122733149586286    0.7755563178249044 H
  -0.2651003361355664    0.0705470454734445    0.7466066332596972 H
  -0.2141744748513643    0.1163820219312286    0.8515642625386592 H
  -0.0363201705921457    0.2633253164391130    0.7286811582454018 H
  -0.0829693925960709    0.2137375489745799    0.8344977342092655 H
  -0.1499405964723813    0.0322701376166654    0.7860722288849156 H
   0.1799271619069739    0.4222972601028199    0.7341890213088336 H
   0.3119917173875766    0.3614390618884773    0.8114468571657211 H
   0.5475286275463970    0.5034438650067016    0.7158054413959238 H
   0.3845087344307340    0.5645914487305422   -0.1135687342250688 H
   0.6231224067392890    0.4641767338415645    0.8120732166412955 H
   0.7673522391903466    0.5679921540340688    0.8719852781271960 H
   1.1978557451569609    0.8232011639324815    0.7189238066857194 H
   1.1313605678499736    0.6806866025650510    0.8504585896043495 H
   1.1243846022905302    0.9437238451344878    0.8659337689726617 H
   0.3322508278262777   -0.0538085751729903    1.0017562157957602 H
   0.6761679335019869    0.6367404339793085    0.9128647777604831 H
   0.3931007031043243    0.6906611820260057    0.7239261990662667 H
   0.3519516952054532   -0.0786645207485929    0.8281203201808717 H
   0.5142411742585783   -0.1507654878625724    0.9865991648292634 H
   0.4269849513857299   -0.1871337280574423    0.9011385648695651 H
   0.5372146033952477   -0.1462183052611231    0.8607433273590415 H
   0.6352344848043188    0.7411135596279848    0.7479986217556408 H
   1.0103676027516713    0.6822370847311355    0.8366504030615503 H
   0.8938046555960398    0.7660709319875536    0.8748222765193858 H
   0.0380076819200918    0.2407355147430348    0.2419305644276604 C
   0.0184422299365439    0.0817068288225636    0.0921302625807944 C
   0.3749481311414817    0.1997512919603890    0.1946079042296040 C
   0.6064296956486960    0.0331673745517510    0.9981733830393141 C
   0.4026060348035246    0.1955615855765548    0.2992657858588555 C
  -0.0588302165357163    0.0913416640211421    0.1680321644939441 C
  -0.0459823354281187    0.1646654267683924    0.2519919053490774 C
   0.1312446362840092    0.5204275671983772    0.3107141666121880 C
   0.2710327055795094    0.5866526253770400    0.2301739526005689 C
   0.1783457035366098    0.6149975104654375    0.2818931473117150 C
   0.2452125822866970    0.5781603664462317    0.1248062911592668 C
   0.3251062839171754    0.5740474039646712    0.0570732196527343 C
   0.3397912544991278    0.6680082545692771    0.2471273686093170 C
   0.3164445348611444   -0.0440361400017584    0.2977755310343511 C
   0.3993166843005523   -0.0127562616822274    1.0021386768299427 C
   0.6973756426049562    0.9022459647179926    0.2781392321702925 C
   0.7107617308206857    0.8607695028579164    0.3795776543731715 C
   0.0313654185855874    0.0515085997726021    0.3689012652082446 C
   0.2422320617931406    0.2046353817113763    0.6403376080132512 C
   0.3385711341487289    0.0349696504822271    0.3696018546442426 C
   0.4224416266834519    0.0964768382583115    0.3412891338346702 C
   0.4862247652455604    0.1115809177307591    0.4274706127528825 C
  -0.0388716453679232    0.1272332692591918    0.3497598327470101 C
  -0.2457690975148640    0.1104113179632049    0.5725041493221459 C
  -0.1515054733657298    0.1428331342001176    0.6151856696137167 C
   0.3183534774025669    0.3619093133414115    0.6293529877745654 C
   0.2740705703477449    0.4254797914290877    0.5532898301092954 C
   1.0619090513700780    0.6381320378264530    0.6622722078424256 C
   0.7700018210384664    0.6818320868734803    0.3682961142927911 C
   0.8715039507997914    0.6945097255910444    0.4003351791156285 C
   0.6125185521878044    0.7088172856341631    0.4016783879232939 C
   0.7081073127084363    0.7558339195890640    0.4202466943948577 C
   0.3007038769091980    0.2916219706092609    0.7839033001365382 C
   0.5451564399908507    0.0376535592271786    0.9123437541335098 C
   0.4038012829384000   -0.0205519384834329    0.8268159937334283 C
  -0.2227139355144051    0.2601768304669038    0.7250940837769314 C
  -0.0674035310476640    0.1989313663501448    0.7590405051066536 C
  -0.2000318567467975    0.0903032807223554    0.7789885698044914 C
   0.1641257052059702    0.3462512875873023    0.7147464272938804 C
   0.5078125010748813    0.5493100497057061    0.8555323841373041 C
   0.5820977599180350    0.5224047156714189    0.7858368138675722 C
   0.6499685089224424    0.6039526301862661    0.7634130032516061 C
   0.7080886585467937    0.5618315762893474    0.6832375764740687 C
   1.1807989324669002    0.7598569455936529    0.6810007803333040 C
   1.2562985426882411    0.6870467002701196    0.7100331782829833 C
   1.0784559836419085    0.7278025354692892    0.7200287726680251 C
   1.0735810293993182    0.7192245248029457    0.8232508347770829 C
   1.0602826848327964    0.8184475813720521    0.8672564761722100 C
   0.4843236989057204   -0.1398043024121284    0.9191029222440824 C
   0.7166985904871508    0.6261665144312808    0.8496979092480086 C
   0.7696467010723821    0.7155405337825234    0.8328067050156155 C
   0.2537264798393388    0.3009972099831427    0.6881989656383819 N
  -0.1604497984259018    0.1719241799649657    0.7178640856316720 N
   0.4559051199855862   -0.0328373463511138    0.9164787164051068 N
  -0.4156048758472822    1.3428261823118828    1.2074156232893976 Cl
   0.6819120334981456    0.3032463311856378   -0.0108019492066092 Cl
   0.9203619637211714    0.4296808462642747   -0.4176478788643584 Cl
   1.0884836318671005    0.8140536028638665    0.4451415850457254 Cl
   1.1270625108285517    1.0838843121244093    0.8336995853967109 Cl
   0.5289569587519848    2.1816044073659868    0.6907121800127241 Cl
   0.1033649553668825    0.0628520861779956    0.1064333155264177 O
   0.1215617446017667    0.2156987032239961    0.2281372238769458 O
   0.2991148186952017    0.1646994721224510    0.1684591635043808 O
   0.4212809232923589    0.2443379387693584    0.1334410029365426 O
   0.4739783081272166    0.0401339051259882    0.2672988301404295 O
   0.6490019469914073   -0.0589380751844832    1.0055299255932957 O
  -0.0084204537236252    0.0936383068636772    0.0055922677669477 O
  -0.1310777845773700    0.2145376147949565    0.2502874440673506 O
   0.0087945738929596    0.3242821043245837    0.2537522158391230 O
   0.1173500494398010    0.4580936092773266    0.2403321459465387 O
   0.3083838643469295    0.4998937147844221    0.2675201061176923 O
   0.3938800325240581    0.6541900964907504    0.3213467247528649 O
   0.4086451469115860    0.5411639185411600    0.0871681664644772 O
   0.3177841800250308    0.6097793506777504   -0.0233765045023685 O
   0.2667394848222169   -0.0404266231933393    0.2265267872117556 O
   0.3297891693843348    0.7365458079584585    0.1951395321366378 O
   0.5657051044719370    0.7239135630463057    0.3282190051840829 O
   0.6459177922665033    0.8540412897620893    0.2158284825347035 O
   0.7273107357771432    0.9785309639901297    0.2555648407774672 O
   0.9038260857673510    0.7795940303309059    0.3714710357429095 O
   0.1083504527895769    0.0394615093833312    0.3252490998151346 O
   0.2291672396945887    0.3661820052757634    0.4831255930780090 O
   0.4362414227507208    0.1461844737402592    0.5013410173872390 O
   0.5688004516938266    0.0977549575919274    0.4258868281782442 O
  -0.2358271202542526    0.1004175879905922    0.4746899872631494 O
   0.1088561878385531    0.5058443461791154    0.3939973543994605 O
   1.0700574655335005    0.6397711797687319    0.5742015410838324 O
   0.6982620607304159    0.5776014552171033    0.5972891796315867 O
   0.9171721020802928    0.6317598823918218    0.4418215970443792 O
   1.0101506617607168    0.7940065635490385    0.6898405081917497 O
   0.0132432459972735    0.0004221274512818    0.4442496943974357 O
   0.3547125111285528   -0.1248484620854774    0.3177087497401040 O
   0.5781244234881686    0.6548362489396540    0.4677013425320673 O
   0.7251330351290928    0.7592434199423889    0.5198331144327679 O
   1.2387636307442302    0.6062166462311617    0.7242082729158763 O
   0.5295318523780136    0.5821341685430776    0.9354497734333690 O
   0.4225335157019134    0.5314790792288080    0.8338565287416064 O
   0.7696363376492473    0.4996487300908423    0.7121526203910783 O
   1.0262954932149189    0.5632741063119380    0.7054351624487438 O
   1.1295511141706449    0.8756203700095533    0.8470178542007143 O
   1.3380452243752141    0.7317950625108672    0.7202189427571105 O
   0.5964504100647995    0.6852089604291658    0.7321713802893195 O
   0.9912712683886900    0.8401408554112544    0.9061140930739590 O
   0.8559111443512342    0.7069738715675329    0.8706095495273450 O
   0.7429063058052031    0.7907417559504625    0.7949663920476719 O
