Li1 Co1 H90 C51 N3 Cl6 O45
1.0
  14.1834514714999997    0.0000000000000000    0.0000000000000000
   0.0000000000000000   13.8420585450000004    0.0000000000000000
   0.0000000000000000    0.0000000000000000   14.3062467094999999
Li Co H C N Cl O
1 1 90 51 3 6 45
direct
   0.8869893382142701    0.5740557119208456    0.5574626606574669 Li
   0.6681497979065441    0.4835127485367820    0.6678134068774148 Co
   0.1512297791979652    0.2262432832745976    0.9975330108926079 H
   0.0389129708949207    0.1580041556239495    0.9813736362715562 H
   0.1026471051299074    0.3649639796043790    1.0212618062149044 H
   0.4802805754289072    0.1197995780113932    0.0994281297941991 H
   0.4410294805089819    0.2340911044383970    0.1112453452688726 H
   0.5532810014592363    0.0104834676163407    0.1989021587898683 H
   0.3802255216324762    0.2414801788067426    0.3248834896446744 H
   0.7463324604431070    1.0234527419779815   -0.0075090726087272 H
  -0.2048429306179828    0.1876695409179835    1.0051995919482226 H
   0.6697298082478231    0.1892227780994405    0.1656852005163584 H
  -0.0921136698162108    0.0801833606534569    0.1863943359042770 H
   1.0232058299393039    0.5315570475720741    0.2459228773374733 H
   1.0798323853030571    0.6808281255178001    0.1970085803726856 H
   0.3453496664152915    0.4885859823893701    0.2214811067528935 H
  -0.0297952699700186    0.3532005558715111    1.0289367752147809 H
   0.5751759542233084    0.3403498661116232    0.2196064012103006 H
   0.4371348008457844    0.6261375607048482    0.2087426154000927 H
   0.9108072361835204    0.3532301757433435    0.2952572705107243 H
   0.7644345423317015    0.5348041079608077    0.1079293113038986 H
   0.7632289119508058    0.5574461881818316    0.2669612395376817 H
   0.7648836572747603    0.4344266969360662    0.3264806940312607 H
   0.2877416856186689    0.8384614712305424    0.0104082753306024 H
   0.2394064830498475    0.7935375173274127    0.1593627875287551 H
   0.1969471422321283    0.7497109435538801    0.3018515926914926 H
   0.3523719345987541    0.8268447019850399    0.2065428770173412 H
   0.6056375101335997    0.7725037961468902    0.1406024511910784 H
   0.6781403139868317    0.7307144916067106    0.0158562451288755 H
   0.8633914149110078    0.8249743154442062    0.0252388597814569 H
   0.7951915129376625    0.7667300884472599    0.1248771526855934 H
   0.8881456153047198    0.8229861718519410    0.2386742955042565 H
   0.3099478461313534    0.1440474165036845    0.6229994166661131 H
   0.1297053991404422    0.1751909056457469    0.3466054693022488 H
   0.0215885558543542    0.2508335563827078    0.4335870533101406 H
  -0.0192477667546973    0.0416442952199636    0.5639413690064885 H
   0.0344570738146513    0.0066234926114452    0.3193614263387523 H
   0.4155441463696625    0.2113654383839337    0.6396417970775943 H
   0.5439965194511295    0.1529745568996219    0.7321936750709158 H
   0.5640670220768133    0.2849238615541486    0.3355187039737385 H
   0.5087298566783128    0.0710026452571979    0.5864063108270837 H
   0.4064271835302694    0.0255737086611202    0.4162379885945725 H
  -0.0858034991091837    0.0482235189462566    0.3523763749546151 H
  -0.0812277440378310    0.1941324524646417    0.4618796592059428 H
   1.0384968894134945    0.5800649337233387    0.3561754147100185 H
   0.2484078181801956    0.6510276447107745    0.3668483747882623 H
   0.4995868070996840    0.6474949331678325    0.6016248377000633 H
   0.4476106712852583    0.5349180361019777    0.5651040079807594 H
  -0.0277062156901391    0.3526269417682195    0.5585649763325857 H
   0.8391765754771701    0.6442360248303660    0.3749336540616297 H
   0.1296553408029898    0.7549204288168975    0.6262420561187934 H
   0.0957489252195662    0.8817238225674618    0.6177359816416076 H
  -0.0050051121789817    0.9024461738757946    0.4862418841191032 H
   0.5046734392318536   -0.0483387080992873    0.6547177288981171 H
   0.3441898640898099    0.6738667332012791    0.5654503601792511 H
   0.3302003213893818    0.0190472227554070    0.5411732030008161 H
   0.3818323237599974   -0.1004862985500398    0.5628758204870520 H
   0.3969922444910027    0.8932459527102802    0.3977928991620819 H
   0.1245381096307437    0.1643832646063989    0.8932890375931903 H
   0.1869876482201210    0.3498340045851901    0.8669194378190239 H
   0.0905745852398040    0.4164396324260742    0.8162800203176519 H
   0.1182765871671562    0.2956845442601038    0.7765645022270333 H
   0.3312557767579203    0.0622185471691342    0.8229023023126274 H
   0.4666226868402762    0.1439311043240498    0.8310099494373605 H
   0.4741762079430399    0.2584119089564217   -0.0462858399373390 H
   0.5301553891455425    0.0366703240598091    0.7917613602440022 H
   0.3302151273765156    0.1927005845141077    0.7326382361168102 H
   0.2815302214925339   -0.0000836022688560    0.7172994820427399 H
  -0.0162372160374899    0.2038340441436126    0.8205236211189498 H
   0.8716235437574043    1.0659233035703071   -0.0728308875456556 H
  -0.1870531845532109    0.2487023704825690    0.8590983787899146 H
   0.6703544798954685    0.9680050643435564   -0.0931625654417770 H
  -0.0561767188544366    0.3262616436578581    0.8071266761415694 H
   0.0191815253746011    0.4379818039918570    0.9543099341096961 H
   0.1309765988929305    0.6632360889570273    0.7637008907056553 H
   0.3380615955104267    0.5105481781864548    0.8491516748857030 H
   0.3159118387582520    0.5956485984866927    0.7565739340642398 H
   0.3358139056541136    0.6344470184076945    0.8868820461676101 H
   0.4651981393639021    0.4459855268225207    0.8746566174055116 H
   0.5104739314579746    0.5497674170182467    0.9424109361784665 H
   0.5453767899755034    0.5132425028693591    0.7014336854708636 H
   0.5794001023525834    0.5000295115064477    0.8483156764409077 H
   0.4300370926326400    0.4676047172794269    0.7045302348943111 H
  -0.1506910902465945    0.3318843622547328    0.9377577240990331 H
   0.1386552658393252    0.9225219450551023    0.8712567039979160 H
   0.3750476564176821   -0.0523200523351059    0.7864273266886235 H
   0.5824408290816634    0.6816271396213777    0.7863350593017396 H
   0.4955920812662823    0.6948534960484087    0.8814221934482991 H
   0.4548164632044795    0.7281679050650194    0.7642866488132962 H
  -0.1012856263221008    0.7055441024722238    0.6984294034342998 H
  -0.0476336642782301    0.7094951044003115    0.8166833406375907 H
  -0.0880786857987453    0.8790674257692210    0.7589665951650211 H
  -0.0018006735350221    0.1477361742006705    0.2745278642575055 C
   0.5075290911217611    0.1933363281046576    0.1122602865245940 C
   0.5433616951265924    0.1955397575946317    0.2157171910540790 C
   0.4958604221569075    0.1147410818511315    0.2779955802145536 C
   0.5799247983347252    0.2270603582756339    0.0378291641189595 C
   0.5345632725246781    0.2954916538752437    0.2657359006800512 C
   0.4336582140573653    0.3467809904787539    0.2637759177041263 C
   0.2488928905205794    0.5974503536171830    0.1946585579885704 C
   0.3125797866061391    0.6826110973149333    0.2356406556627752 C
   0.9813464841240070    0.5723218657648005    0.3000551746286800 C
   0.8391229919046859    0.4402908536101701    0.1909629695457336 C
   0.8079662596461121    0.4897559673267514    0.2814584032041154 C
   0.3125374837857568    0.7672943108838729    0.1678793469362685 C
   0.3643831153993031    0.7374172518716218    0.0744159789997923 C
   0.6428160488735946    0.9060366802906048    0.0983286101005009 C
   0.9565133184655815    0.6714826947367171    0.2617649080672734 C
   0.7149071052751055    0.8751937244822569    0.0291238759655475 C
   0.8525555474700804    0.9163292245344278    0.1419221544216583 C
   0.8107504902742741    0.8363779660996947    0.0841229274971773 C
   0.1404312792483756    0.0899868157940955    0.4527631520850784 C
   0.0270089572393402    0.0903234709227276    0.4484987212221961 C
  -0.0031092407788480    0.2200960762155193    0.5854088444552419 C
  -0.0093538421142826    0.0650028151213834    0.3500522153986415 C
   0.3657191794763776    0.1606699440888689    0.6727818658620344 C
   0.4617730210069482    0.0180856605747003    0.6235117802614600 C
  -0.0068502201946565    0.1930271255401629    0.4815242246679222 C
   0.4458948688905521    0.5945309901519420    0.6191220894309296 C
   0.8926050376200211    0.5243264033962370    0.3466292351443249 C
   0.9227338113433048    0.4414343973936717    0.4069804941105682 C
   0.2639195573673804    0.7184135755654687    0.3286091348877839 C
   0.0726360742566877    0.8060609436253471    0.6220320070945440 C
   0.0074072403681929    0.7745107230725125    0.5434541646438396 C
   0.3193284965511295    0.7820413948769352    0.3896544962417210 C
   0.3947812170790209   -0.0227782035796902    0.5479967257585480 C
   0.0915870327409538    0.2077279736357306    0.9497930261245228 C
   0.1145595793495644    0.3423437891910751    0.8396432410691890 C
   0.0333804670359216    0.3704465456369734    0.9871249700539775 C
   0.4956856410040279    0.1025969343998321    0.7715401236139993 C
   0.3449047817542709    0.0162297227518337    0.7601499943013408 C
  -0.0394960117306874    0.2703978429459821    0.8543570932957286 C
  -0.1319763225094629    0.2605156422924232    0.9100956819131388 C
   0.3521879173300910    0.5840296619334954    0.8238760028423933 C
   0.0083343771815718    0.6125608228671163    0.7147222861681911 C
   0.4689532902245387    0.5372424736049257    0.7061148573645042 C
   0.5041186377425396    0.5153257190258473    0.8746978581314672 C
   0.0868907146315116    0.8271856917290621    0.7872766060451671 C
   0.0168929427919184    0.8030700590061692    0.7154296694676332 C
   0.5042432900532662    0.6816517024419216    0.8047465969571815 C
   0.7346484214535144    0.9558565822768668   -0.0426419771507856 C
  -0.0355625544821395    0.7075322460644887    0.7403041181770695 C
   0.8183924947763375    0.9437001534152952   -0.1115622201761807 C
   0.4181591657162952    0.0734025773115237    0.7063804755994726 N
   0.0512632793055346    0.2993790814442766    0.9087438248962206 N
   0.4566332988351988    0.5807375215447046    0.8018974918894677 N
   0.6677669573820841    0.6312213421215521    1.1188876914914776 Cl
   0.2026883400050134    0.9533937982993843   -0.0005743396899862 Cl
   0.6080776778226522    1.4143606392686296    0.5431907831940077 Cl
   0.7457733581670541    0.6185223639003182    0.6468743020176420 Cl
   0.3487832453363219    0.2982311308017950    0.8913807802735488 Cl
   0.7118260498572609    0.4080983153001106    0.7985625850499039 Cl
   0.0595715532286192    0.2107672614600981    0.2727328441854032 O
   0.5120904350323034    0.0236303560945530    0.2567440244310153 O
   0.6380710825207127    0.1723517325652230    0.2256065773391660 O
   0.3555347754693377    0.3046210763227197    0.2949224517355930 O
  -0.0595496637329190    0.1437230427853244    0.2021510892007451 O
   0.6652633354624581    0.2296459563558362    0.0509716747870543 O
   0.8484860161493026    1.0022969291306374    0.1157224105188007 O
   0.1686768724176404    0.6155712132555498    0.1670580273939320 O
   0.2746771645906005    0.5070507215153525    0.2112820655254617 O
   0.4342857058930362    0.4312947205859401    0.2350779644018553 O
   0.4024323871921671    0.6464054998331175    0.2647314443546575 O
   0.4269941097531396    0.6797632550036291    0.0653101665078622 O
   0.8852365913564298    0.3658598001183356    0.1970407341590239 O
   0.8114950199130028    0.4761966907646827    0.1061014384501028 O
   1.0219078384005735    0.7167931518454649    0.2141556354306068 O
   0.5898479824259044    0.8459343481630968    0.1468172188939840 O
   0.6222829649070302    0.9959835618149381    0.1086541694872203 O
   0.8774902398974236    0.7112152242742881    0.2697886757493849 O
   0.8949507290102199    0.8946409764299982    0.2225743354883950 O
   0.1791806627185667    0.1404236780375502    0.3879056098630605 O
   0.1904973722178396    0.0411920503475952    0.5042148720887051 O
   0.0125131907883371    0.1588053370352220    0.6436225756253446 O
  -0.0167575407281923    0.0192227746787066    0.5017606294971325 O
   0.4435225267235124    0.1371207011102842    0.3417977792493206 O
  -0.0124602792243565    0.3080569814552825    0.6119979287709348 O
   0.3561615622580022    0.6361165677687862    0.6250306971682663 O
  -0.0342539872383135    0.5427738763042488    0.6829837030708870 O
   0.9327743857610449    0.3547653520273418    0.3674662866822414 O
   0.9396866666115133    0.4490571797751343    0.4920499064248295 O
   0.8520796407407795    0.5877632106561791    0.4135936891659264 O
   0.4420926913945905   -0.0183323330612311    0.4598722843449368 O
   0.3178887905641184    0.7797584974381424    0.4770312922234315 O
   0.3714963346465877    0.8524637238124034    0.3458379724022612 O
  -0.0261374861009620    0.6917874780958022    0.5414532205401013 O
  -0.0217238918410749    0.8329716808389643    0.4769575482134600 O
   0.5459459744237473    0.2553531153627988   -0.0447976788261607 O
  -0.1390803761456646    0.1914991736151481    0.9822907181775524 O
   0.8860826477640760    1.0104792381153738   -0.1166851571342951 O
   0.1038139579254526    0.6021375177256918    0.7299289301201325 O
   0.1302616812284695    0.7577812749743720    0.8267635526546420 O
   0.0975207083465784    0.9165430655603400    0.8104476030740299 O
   0.3352357671088888    0.7827602185957956   -0.0009378172746798 O
  -0.0510108394387508    0.8798397097445595    0.7037068183659091 O
   0.8200980034847507    0.8745276385839762   -0.1638463737482913 O
   0.6785266797463234    0.7931062230960966   -0.0212331474123318 O
