Li1 Co1 H90 C51 N3 Cl6 O45
1.0
  14.2471894870000000    0.0000000000000000    0.0000000000000000
   0.0000000000000000   13.9042623987000002    0.0000000000000000
   0.0000000000000000    0.0000000000000000   14.3705365458000003
Li Co H C N Cl O
1 1 90 51 3 6 45
direct
   0.6677744580347631    0.7506945999793490    0.3515218973766426 Li
   0.7327311290220084    0.6402263165166024    0.6003476798102894 Co
   0.1250863715841025    0.2117217451013610    0.1968554384788641 H
   0.3059283546538824    0.1761794066565540    0.1889141901033222 H
   0.2782092034233642    0.3500332890621399    0.1060870808853387 H
   0.3595557736404240    0.1157058643794307    0.0807553892787095 H
   0.4923393659219884    0.1345324653521277    0.1257349206928594 H
   0.6777581815003482    0.2961196057250010    0.2444048113100203 H
   0.7561575037680272    1.0935578071959879    0.1696616034571499 H
   0.9387626416005708    1.1081562083322449    0.2399108942044078 H
   0.1222500227002140    0.3963658438951264    1.0349786332262527 H
   0.2015393450631096    0.5585837261044612    0.1233105157383914 H
   0.0321859436640761    0.3854972342798382    0.2441146342531853 H
   0.6219668269510676    0.3834525375397466    0.0770700710700808 H
   0.3539757257248305    0.6747063907738908    0.3427268186683992 H
   0.6616876435034390    0.5747852327748950    0.2037264414985014 H
   0.7285710102804082    0.4191509432348526    0.0225717579762045 H
   0.8048597408396355    0.5942684669251170    0.1094126352129513 H
   0.8330975908638170    0.3873650068559965    0.2431118881167363 H
   0.8081109083798907    0.5055862366390080    0.2682661333217038 H
   0.2085287937604026    0.7209670252150344    0.0820775389381495 H
   0.2894752850703066    0.8559148524493243    0.2032845651649517 H
   0.2636077270978182    0.7904910296016592    0.3060315986730038 H
   0.1111355499022991    0.8445075590991334    0.3416238675051295 H
   0.4438173047371641    0.6435547922510885    0.1647654745077709 H
   0.6347251327324190    0.9833757668927757    0.0498365715585834 H
   0.4318156394153109    0.7711897540427995    0.1436604866018990 H
   0.6892608010274862    0.9891495359499179    0.1990168052379276 H
   0.9213213069270383    0.9795611093094322    0.1251691798122674 H
   0.9550676117992170    0.8316906260688232    0.2182993142184978 H
   0.1461220993866606    0.1263860425680906    0.4653314266720537 H
   0.2563880575557056    0.1254812840387078    0.5258420413751731 H
   0.0490678697604101    0.3005182568901083    0.4733317542613253 H
   0.2030147237698489   -0.0056511664083200    0.3836584845199371 H
   0.4671246384609835    0.2391644090168288    0.6104795214110509 H
   0.3133094595444963    0.2890160286226848    0.4016905182699737 H
   0.5460482044756003    0.1271591867804010    0.5244371529817817 H
   0.5835565846714003    0.2339408309572842    0.4569300702150266 H
   0.5518270986269784    0.4271468366387627    0.5003641478509394 H
  -0.1431623243069175    0.0165930915847482    0.6267454415633723 H
   0.7157011035407449    0.1676848891759976    0.4844722568785912 H
   0.6944941138902113    0.3514321406834829    0.5566190411476181 H
   0.1302600235571640    0.3979969983821217    0.4753886016104689 H
   0.4489033604863432    0.3720035303622869    0.7297520339256197 H
   0.5437690181118878    0.4608360023469556    0.7244968369634665 H
   0.4320591962237022    0.3853713735941133    0.5420129059256632 H
   0.4902687119149705    0.4844695465492517    0.5926075373566306 H
   0.6824194517151227    0.4460887259995838    0.6442277394023787 H
   0.0550023735498872   -0.0799413351623689    0.5440630729396854 H
   0.2167739287119092    1.0100726163448335    0.7162257470413064 H
  -0.1067418077921715   -0.1385622081456209    0.5466354194823623 H
   0.3090917855916911    0.8819658567826334    0.6147347557097224 H
  -0.2188509365054113   -0.0737950184754808    0.6561904103473437 H
   0.8858981801089033    0.9860130876616523    0.3738077736888670 H
   0.7648960693716925    1.0073734440389721    0.3628367149884820 H
   0.2956772100240405    0.3123887175637670   -0.0470769984783709 H
   0.0214631270594822    0.0003196645224716    0.7475982708550930 H
  -0.0433419350787357   -0.1848393842768884    0.6451379350626668 H
   0.1214582875997373    0.2985325348713278    0.6922864877865401 H
   0.1921192415316403    0.2501962779216001   -0.0746737412120934 H
   0.2502352650993417    0.0713252289810585   -0.0433638455400698 H
   0.3709636376369197    1.1036460805597814    0.7511395443376667 H
   0.5663464534926347    0.2079538357727153    0.6694411334079000 H
  -0.0541967075334091    0.0971000590096912    0.7582888946540284 H
  -0.1186634573325935    0.2989029248893184    0.8294288967508037 H
  -0.2015633163593650    0.1008018015778415    0.7612463346817231 H
  -0.0318463344797935    0.0235916649149738    0.8622530017170070 H
   0.7520886310929712    0.2419484473850647   -0.0403249889280832 H
   0.6877896336776642    0.3123570725913561    0.6829695078969388 H
   0.1988756618128357    0.6376127294770340    0.9233036101757714 H
   0.1482579592366167    0.5377026472183820    0.7776806549485628 H
   0.0373960940637555    0.5899992724653268    0.7348764076583125 H
   0.5679202375726780    0.3422320841589484    0.7763049234345032 H
  -0.0883192269568780    0.4548452494676236    0.9022730801717732 H
  -0.0690466539170835    0.5067802589843826    0.7890093899252383 H
  -0.0578626937300311    0.5911269842094223    0.9721368599130681 H
   0.2956273756338508    0.9890567586444408    0.8091860895965350 H
   0.3566288805828108    0.7563158978057843    0.8271172224515091 H
   0.3917179064188296    0.8802850772252665    0.8549436017050291 H
   0.2526055571510348    0.8427980113850294    0.7201267844048963 H
   0.4780981711807284    0.7819411334193839    0.8347355879628510 H
   0.3354998010352496    0.6926196027701840    0.6977852386333271 H
   0.4584756343810956    0.6994218334306787    0.6710284088674698 H
   0.5462450152222083    0.8411323351099496    0.7098112335882969 H
   0.4990690440867581    0.9622167876126159    0.6980447974875224 H
   0.5000359716349998    0.8793918259585786    0.5984994537600405 H
   0.3804700739851962    0.7449021316203276    0.5898379817542247 H
  -0.2750865892094806   -0.0067163074115123    0.7504951703457502 H
  -0.2229289337871217    0.0364661342587584    0.8638479317272368 H
  -0.1268622673580084   -0.1093675634848619    0.8942107507221563 H
  -0.0620677336120840   -0.1568580366265178    0.7937684328309806 H
  -0.1839352781958265   -0.1699209373969307    0.7960919368903860 H
   0.1729477410578641    0.1470027420937556    0.0739421433231424 C
   0.2444425436594181    0.2225356952188486    0.0609955146842573 C
   0.3306728841150563    0.1825112779543965    0.1136435141231594 C
   0.4143406138864390    0.2533816320763190    0.1216745295018948 C
   0.7276620590790630    0.2829099873552288    0.0993134994195548 C
   0.2698777356550504    0.6080786205667769    0.2305034514433711 C
   0.6388017262284904    0.4299441802794894    0.2525840466242614 C
   0.6974659280882771    0.3862250686452877    0.0842451685113894 C
   0.7065982555637220    0.4532496236541986    0.1704479345703958 C
   0.8889598365878743    0.4860694156657954    0.1417927762408795 C
   0.8093518548848931    0.4535661452986989    0.2118680999276847 C
   0.2987550100378615    0.7038557255877890    0.1811573468118600 C
   0.2522581202053469    0.7885880160334979    0.2323809039597759 C
   0.1424399696551885    0.8003412464684528    0.2103378856639433 C
   0.4568460498218963    0.7335142567759343    0.2825300405423363 C
   0.4063249978869324    0.7117755991375212    0.1904235283198092 C
   0.7548512812308047    1.0150869060641154    0.1722050018809674 C
   0.7678973630681802    0.9845308083857717    0.0683313576894240 C
   0.8384488217202302    0.9713427661335523    0.2361024073169787 C
   0.8202122424821232    0.8577581720922559    0.2494714279786429 C
   0.2601607314609025    0.1282782680774754    0.3786851141957172 C
   0.2130012548067123    0.1600908150013134    0.4725135523826045 C
   0.2057324527672298    0.2746801369166540    0.4847076691047957 C
   0.2051526892982637    0.2896244751376751    0.5917105631929369 C
   0.5429478737022710    0.2494159416701054    0.6076473376668821 C
   0.5846911242249556    0.1965451040146875    0.5244249057007259 C
   0.8515833420528718    1.1270367495988243    0.3387248804097467 C
   0.0957318100839828    0.3184178040119512    0.3440280922805848 C
   0.1151924903994224    0.3267742343401694    0.4450250171604835 C
   0.5041913876947091    0.4146324007765433    0.5588193069413988 C
   0.6660871076965132    0.3684988496677859    0.6266716795297403 C
   0.8334667864869115    1.0199882807682041    0.3298998793671054 C
  -0.0715706604962627   -0.1189351332117132    0.6079326436460243 C
   0.3228580094619471    0.1775998343954498   -0.0983026432310122 C
   0.2613041148639845    0.2446361124282311   -0.0433193099725940 C
  -0.0412460831194952    0.0224560419277755    0.7874186351244594 C
  -0.2185631604493870    0.0314762974727030    0.7867554726900140 C
   0.0351128367216893    0.5438839172157056    0.8834073962680475 C
   0.1043959750487735    0.4999620619968989    0.9581540834621269 C
   0.0866745851402320    0.5859048445577146    0.7965839157373461 C
   0.0015455145185015    0.3740093900907834    0.8098520355039478 C
   0.1270495658004440    0.6847026060361254    0.8115791804801216 C
   0.5261277141740593    0.3824485288696208    0.7225449265451880 C
  -0.0353838742904339    0.4673537447054767    0.8472466030823627 C
   0.2898016652314073    0.9921888917091959    0.7313219126791444 C
   0.4074185468998248    0.8140133129577746    0.8167501773850157 C
   0.4919952278725525    0.8819406846454884    0.6753344415477935 C
   0.3928416368229637    0.7320305390922167    0.6652067751564829 C
   0.3073693406124626    0.8907660359285219    0.6890374789655266 C
  -0.1271507453068522   -0.1250181599537796    0.8166165706825880 C
  -0.1433616618676758   -0.0589880482028795    0.6601700808222580 C
   0.5577900992649302    0.3531344963584026    0.6248951279083981 N
   0.4011323948077424    0.8357167296041846    0.7121917988435307 N
  -0.1288114237179584   -0.0314705870798951    0.7626464215842459 N
   0.4976380250062157    0.0078504487523341    1.0872696522571061 Cl
   0.8547523881332371    0.5808553138464296    0.5519073172823189 Cl
   0.1482677857360907    0.8851440188981680    0.4557596198323013 Cl
   0.6388747230817258    0.6990255520716246    0.4904737029432620 Cl
   0.7461281572691699    0.2717033518982793    0.8440859695280591 Cl
   0.6784404213209718    1.6817263677062253    0.7364929095840385 Cl
   0.1744954147250193    0.0719113801745776    0.0240922300845606 O
   0.1085539881119151    0.1606942270888747    0.1453980696016999 O
   0.1263146840183526    0.2551314552098550    0.2910036281228633 O
   0.2168960580625146    0.3141133685601580    0.0986023220764245 O
   0.2400543097514570    0.0403577466613738    0.3450050912920869 O
   0.3185203118369953    0.1801076984590092    0.3422160513789102 O
   0.4941648487671300    0.2104473157579061    0.1480034002990386 O
   0.4041028052201689    0.3407627505535994    0.1073932255752171 O
   0.7368526436585324    0.2490110298640303    0.1794434233322807 O
   0.7598810451758541    0.2251974689209516    0.0325762556887147 O
   0.9181726157384404    1.1624855915342356    0.2877177382850339 O
   0.2206610111466962    0.5403511156479941    0.1902516488640821 O
   0.2941913029250076    0.5974358409818752    0.3116145495770498 O
   0.0370346192616761    0.3850599582974338    0.3129130397162683 O
   0.6317610393553685    0.3420911201909364    0.2835418329659289 O
   0.5983523449294038    0.5008557447859379    0.2849502702873534 O
   0.6878134980335298    0.5464694553024553    0.1423766096957585 O
   0.9619966977140267    0.4415757214114463    0.1288155293993546 O
   0.8703428314415596    0.5665855889008942    0.0927284982473017 O
   0.1105192880067153    0.7853990658591870    0.1352307387206060 O
   0.2746190216512560    0.7065987693326744    0.0876897163083515 O
   0.0820329679244056    0.8332182151915648    0.2771948187323749 O
   0.5393914529747842    0.7566007025574820    0.2845745014367757 O
   0.6933303755953618    0.9713485197648997    0.0160347717126363 O
   0.8495654001966036    0.9763275684921787    0.0321963116286862 O
   0.9268185314899223    0.9904865360342763    0.1949870322496028 O
   0.8927395294212668    0.7955024425052675    0.2334448865015043 O
   0.7460867455928151    0.8302730751456010    0.2840456415729997 O
   0.1242988478405432    0.2734495790122232    0.6289944877209039 O
   0.6825191204955018    0.1793892137444994    0.5461078121814215 O
   0.8142868632993004    1.1719344926145463    0.4070514872048822 O
   0.2782730756699453    0.3125656417277003    0.6315747671615375 O
   0.2838404895147865    0.3290591451890161    0.4527259822321282 O
   0.4064534442729140    0.7245882169443210    0.3638199768141604 O
   0.0070581807234161   -0.0578092729805755    0.5946575651970045 O
   0.3041251920004031    0.0825627902065004   -0.0932068000962336 O
   0.3795948136391905    0.2040291399898521   -0.1629321020574082 O
   0.3536774212765125    1.0626629644720644    0.6968207652501776 O
  -0.0515772435307682    0.2957528117266025    0.8092368879781872 O
   0.0831861778269616    0.3661060582311750    0.7833290174673390 O
   0.0849163436272054    0.4084128691307592    0.9781992640357215 O
   0.1657547434428953    0.5428289169877631    1.0037870351553371 O
  -0.0142730439561816    0.6212580323719750    0.9311119477171275 O
   0.1942894941297554    0.6946420041888043    0.8817895026058381 O
   0.1126432156787387    0.7542215759953212    0.7600257817855874 O
