Li1 Co1 H90 C51 N3 Cl6 O45
1.0
  14.3658809069999993    0.0000000000000000    0.0000000000000000
   0.0000000000000000   14.0200969393000001    0.0000000000000000
   0.0000000000000000    0.0000000000000000   14.4902555536000008
Li Co H C N Cl O
1 1 90 51 3 6 45
direct
   0.6471914261567949    0.2260385205124143    0.3503511555073117 Li
   0.9304751333199954    0.7354700908448090    0.3957147446840872 Co
   0.0925773338098577    0.1503507414197127    1.0769359946121193 H
   0.2126910957970675    0.2579049192922723    0.2313318605321081 H
   0.6334992619746351    1.0249260067040198    0.1024514558289605 H
   0.3938251325363017    0.2969417392493336    0.1716414018786640 H
  -0.0316559110258535    0.1527465879067540    1.0829490010548077 H
   0.7844625070439477    0.9828164547832271    0.2256183657152806 H
   0.0325176684412284    0.2639769172512429    1.0792679065563227 H
   0.2740517603958166    0.6010701642139109    0.1030698024113832 H
   0.1723837868510600    0.6578258345523592    0.2796408774028346 H
   1.0535702648645102    0.4938331738771617    0.2724118813639085 H
   0.3605810869332721    0.4140495600517463    0.2132162380001933 H
   0.4635640511926458    0.5048006444064830    0.2474785736894114 H
   0.6396736135910945    0.4814125750215382    0.1695179058584468 H
   0.9450234928221378    0.4592869790757311    0.1503325989484570 H
   0.8965370822421507    0.5875481464403686    0.0574094620845611 H
   0.7808094070120222    0.5820467579454149    0.2736782496437586 H
   0.8402182247187134    0.6739098888193377    0.1245994434067412 H
   0.8792488977160641    0.4158297189271132    0.2480589637293862 H
   0.1679517579060772    0.7832229703647295    0.2614169061952050 H
   0.0435890396317344    0.7870581792247536    0.1646042589088378 H
   0.3436701852229826    1.0060759230602190    0.2954383903696179 H
   0.5513706401631386    0.9162548608056471    0.2470210248231767 H
   0.3753758636250680    0.8356127650416181    0.1622792481541704 H
   0.6824778108401731    0.7218696142699644    0.0363076948404331 H
   0.8255028027151110    0.8455142657659727    0.1696718023850988 H
   0.7343611589498471    0.8926744247051456    0.2884778506036410 H
   0.2065250973056810    0.2535946780534540    0.3586077386681432 H
   0.0422873443078585    0.0070614326012601    0.6262979795787886 H
   0.0514764779819151    0.2481467841957520    0.6128171959392296 H
   0.1643251094368828   -0.0149819242555456    0.4023488581850128 H
   0.4144462139665154    0.0584084384826576    0.4496546491328956 H
   0.4801594136033026    0.2231334050787379    0.4025586543469062 H
   0.4991808715820368    0.1021199764736779    0.5655218257875460 H
   0.4067300146803313    0.3321840062706820    0.4265782445268412 H
  -0.0286578352184025    0.1036427904807732    0.4057042165374002 H
  -0.0148981499419025    0.2969160618234528    0.4511619379394463 H
  -0.1395539236875563    0.2618314256665391    0.5827252490865966 H
  -0.1926693577454979    0.1599013173236968    0.5322888025176175 H
  -0.0709169910564678    0.0194550701597088    0.4827682128119565 H
   0.2519215477024141    0.4161313573550292    0.4049533671158869 H
   0.1960419253390655    0.6840731566353101    0.6327450708432895 H
   0.6198787954493518    0.4982067527664858    0.6865771096996507 H
   0.5187232025965730    0.4599316251177042    0.6286388630693888 H
   0.3232140780129607    0.7373851988584159    0.3881655334506923 H
   0.4216640101233439    0.7819569306164419    0.3111889752475566 H
   0.5400469349860524   -0.2003030394553186    0.5701291289336532 H
   0.6373249932580692   -0.1542070671665373    0.5130008762994657 H
   0.5142537655731383   -0.1121766873088770    0.4889352538050879 H
   0.6423695847084054    0.0293786820007940    0.5332375090431269 H
   0.1636095250556291    0.2031927440968347    0.9290738680902929 H
   0.0902217525392716    0.0679240645569707    0.9219559812028960 H
   0.1882950979276137    0.2497295121965691    0.7899810831118206 H
   0.1177780160613439    0.1611994538543355    0.7743747330951835 H
  -0.0208720265566100    0.0691144985512761    0.8605795619458150 H
   0.6229193329759239    0.2905009849242420    0.8222600169284016 H
   0.4553178461205797    0.3063104333866623    0.8300114330152003 H
   0.3838445402615783    0.0771365543535247    0.6202870434929607 H
   0.6997896625539666    1.0617495752025252   -0.0829828168835340 H
  -0.0802021856688638    0.2305299302560579    0.8545810480011519 H
  -0.1336538330109937    0.1870894317604456    0.9566903582563742 H
  -0.0135609538364663    0.0443543273839195    0.9893260835719648 H
   0.0863723540681305    0.3619962109800788    0.7411358438141493 H
   0.2783104619955347    0.4754553765541095    0.8546831856062843 H
   0.0942361252306044    0.3106064093888801    0.9345396102027792 H
   0.2336978131681515    0.5713171602364058    0.6762432684884929 H
  -0.0215493257812791    0.6666674281973023    0.7480729195357040 H
   0.0293128527882206    0.6458237777385922    0.6408939954473599 H
   0.5618516542391104    0.4256980529763718    0.9219960081022045 H
   0.3164153302972944    0.3565454640750566    0.7420944190406952 H
   0.4637986347884459    0.3237004700644096    0.7043614751338391 H
   0.4876992923410708    0.5157406543553484    0.8743212105498335 H
   0.3590642986387664    0.4671257979138472    0.7182390771717163 H
   0.5089169330811856    0.5451433041219471    0.7151701181850715 H
   0.6221891306257924    0.3076363871286717    0.7045657503441037 H
   0.6173930446463781    0.5156768887477445    0.8559102171057793 H
  -0.0820224708410219    0.3013340055986042    0.9564971249493672 H
   0.6847025264846156    0.3961293558557442    0.7743705923814619 H
  -0.1021541983607090    0.5307799226937119    0.7601361988445752 H
   0.7884949781729387    0.5877592719420549   -0.1424738311593887 H
   0.1117700308525884    0.6637794310475463    0.9798038222502368 H
   0.0809943337086304    0.7886294950362904    0.8084997351126358 H
   0.2379683483617230    0.7966094683905678    0.7608435707720119 H
   0.4785352180422333   -0.0048899826225754    0.7190810222951043 H
   0.6338375635400917    0.9375642712393609    0.0210070675202395 H
   0.5505401307027556   -0.1829315475851518    0.7178671030557277 H
   0.6713208201176689   -0.1696071033385255    0.6679873754466149 H
   0.6234908259496684   -0.0897403231837296    0.7593329003825886 H
   0.4269181257942612   -0.0907082194870684    0.6454618928012169 H
   0.7110253118709082   -0.0434981322197940    0.6011176093189038 H
   0.6574511520277078    0.0538364301522216    0.6614553995508217 H
   0.0288436855966204    0.1902670132131901    1.0546313500318720 C
   0.2323244201873990    0.2935095233232715    0.2966502392521337 C
   0.6496514214907936    1.0113661860534864    0.2918663346658010 C
   0.1830743947569884    0.3884860420852368    0.2975770690068142 C
   0.3942434848837078    0.3438215862893081    0.2349977724136141 C
   0.4995003786160790    0.3679569400935662    0.2577371919346271 C
   0.3494046055855975    0.6269316116468202    0.2163210831724251 C
   0.7483094856342457    0.4383952547696776    0.1013355334809945 C
   0.8968148236508280    0.4819442403896361    0.2033654800565532 C
   0.8023549009503147    0.5250707610276730    0.1535209485140740 C
   0.8300204511920921    0.6063119254027368    0.0857560981035478 C
   0.9311496481696402    0.5481218855241157    0.2812895715829772 C
   0.1959221972130192    0.7171599464063343    0.2325623426263711 C
   0.1534945866859816    0.7147348561842621    0.1337310974007334 C
   0.3047188669138255    0.7289437451001148    0.2334001470360376 C
   0.6138213875839142    0.8252790276482708    0.1517542439928663 C
   0.6776921662670999    0.9682923041385050    0.0743291084698927 C
   0.6947555125099717    0.8946416008323441    0.1503505420412505 C
   0.7185695759993399    0.9462082913573882    0.2387872155878139 C
   0.0717355906589655    0.0337723748737247    0.4817105365036741 C
   0.3404117703507564    0.2942884052416546    0.3128148955022306 C
   0.3679575924664875    0.1895922675219901    0.3249395953979720 C
  -0.0249170273732104    0.0796265514021288    0.4754069899815214 C
  -0.0501232783747453    0.1213509419347100    0.6511250089344318 C
  -0.0410754517331737    0.1556081943687991    0.5484139839635684 C
  -0.1315077759609886    0.2072226734364545    0.5236113158069873 C
  -0.1443527940419951    0.2625618057804808    0.4298928858609665 C
   0.3073466208430403    0.8743557211247106    0.3296820928470889 C
   0.3434599649086456    0.7752558357233926    0.3234565297666925 C
   0.4446726931369236    0.0492201995883242    0.5813428718106469 C
   0.5672437356924833   -0.1366380017694547    0.5389599754063512 C
   0.0996524307466891    0.2379022045311572    0.9032530674414703 C
   0.0130186901458211    0.0813797489803209    0.9261512143218106 C
   0.1122872285133583    0.2337688522261843    0.7992555917292073 C
  -0.0782865356521224    0.2283544816744932    0.9299240946411240 C
   0.7578181263423446    1.0217848016046065    0.0380212602022139 C
   0.0351635208081013    0.6284258951807147    0.7159078553464664 C
   0.0267484433908095    0.5166008481223541    0.7235805978725551 C
   0.2160810723891935    0.6453437525269879    0.6954106323056892 C
   0.1450279983307396    0.6307960642418752    0.8557853055751783 C
   0.5526343287679324    0.4737752811808763    0.8599370612000163 C
   0.6237887540772721    0.3514663265834755    0.7713064642274924 C
   0.3627327127333258    0.4098428844306472    0.7690166495394583 C
   0.4549133460389197    0.3570882563277028    0.7713616737437801 C
   0.5449356014350260    0.4832898088319711    0.6935514518446996 C
   0.7784733163666064    0.6161841823920605   -0.0002354839904223 C
   0.1295071958513487    0.6663792704179737    0.7589837001920686 C
   0.3076904911585455    0.6891494410795711    0.7249953417274284 C
   0.6083925523802201   -0.1328997965183135    0.7005816936249897 C
   0.4780799727257548   -0.0296522935754221    0.6478027762918170 C
   0.6491829503929495    0.0033296467065891    0.6038518606130541 C
   0.0127499979559729    0.1846622017528834    0.9515151562233521 N
   0.5416713393752486    0.4147148193606071    0.7731525324283637 N
   0.5733770177773340   -0.0707404545556244    0.6231047991804964 N
  -0.0479493775744970    0.8270650352706438    0.2556295686503426 Cl
   0.5404721090522682    1.2930639529875563    0.5023777358427223 Cl
   1.0437100968095894    0.7150936268847629    0.4946655185124878 Cl
   0.8114618955611533    0.7961722388887649    0.4680060162993591 Cl
   0.5941922397561192    0.0748320053807262    0.8300880362190495 Cl
   0.7816454156130783    0.6030145159625487    0.7417314164711033 Cl
   0.5482272895887930    0.3031863465711693    0.2839644726471182 O
   0.6775202311093474    1.0876773559856265    0.3253433149858261 O
   0.5656777335694226    0.9799013536839304    0.3039972456321248 O
   0.3248241428707815    0.1244643298227526    0.2838920101569906 O
   0.8301353066618459    1.0306948683852315    0.0896173136489216 O
   0.1784565087791313    0.6552545256551328    0.0760764896603997 O
   1.0194748965977907    0.5454378812577458    0.2990573741622792 O
   0.1189056879461990    0.3977983885379939    0.2419700442018021 O
   0.3179731881234090    0.5738121501178199    0.1491428338724561 O
   0.4201200741723510    0.6024845624228429    0.2576833626562466 O
   0.5212733142282342    0.4575722263101770    0.2536558284430560 O
   0.7811470124837226    0.3833762343349648    0.0453882800318592 O
   0.6576864317172639    0.4282830565007347    0.1257961096722779 O
   0.7385432902363961    0.5593464869431597    0.2257011799897122 O
   0.8778267781723859    0.5938876175855973    0.3377992719792939 O
   0.0831389985711233    0.7693357625342164    0.1092380856186310 O
   0.3242672678659148    0.7908491658513165    0.1563414646774239 O
   0.5404834553804923    0.8436726237208578    0.2015076798334707 O
   0.6137998086774757    0.7488387573248967    0.1084996583382825 O
   0.3583006837883430    0.9376234719712527    0.2828644230350850 O
   0.7758963772815858    0.8350129118425702    0.1264524127971484 O
   0.0960877346217861   -0.0107351633195993    0.5504730228735198 O
   0.3449851063282242    0.3454064540756153    0.4012281050043717 O
   0.1143149496248292    0.0341789341168368    0.4042273619767031 O
   0.4491214979414280    0.1688113841043219    0.3676841831458478 O
  -0.0022055763934783    0.0417102657800308    0.6761984107565091 O
   0.0417910294597711    0.2188467014803104    0.5492804283098093 O
  -0.2195246548551943    0.2666987243946038    0.3905167687255964 O
  -0.0652897691322898    0.3039381245400117    0.4017456942195692 O
   0.2011317628835471    0.4482466845135646    0.3711810158837225 O
   0.2379871428931372    0.8931722814625004    0.3805459300840305 O
   0.4149717647523584    0.0075771209043654    0.4985535796851566 O
  -0.0980110483245008    0.1650746053768407    0.7093296414807821 O
   0.0583685022608966    0.2934824193737306    0.7448645565204326 O
   0.7559943607014061    1.0598458793781986   -0.0449993597965222 O
   0.1927159893724991    0.5601103903631124    0.8796240845892710 O
   0.0934335291298402    0.4661672596057183    0.6998170418244045 O
   0.3341963492026880    0.4388997448620516    0.8577983825628200 O
   0.3816142558670872    0.6450356234164187    0.7191120776480161 O
  -0.0516539885443727    0.4811272702895298    0.7534289327345683 O
   0.8072247728678740    0.5668956501521042   -0.0682004688974915 O
   0.0950366330501002    0.6848170887240221    0.9158946664334556 O
   0.1222629481317891    0.7724762543717999    0.7590879081540617 O
   0.3021941348605112    0.7812037261239395    0.7470777680046173 O
   0.7136377517374892    0.6769383985496078   -0.0143767114685734 O
