Li1 Co1 H90 C51 N3 Cl6 O45
1.0
  14.3379469645000004    0.0000000000000000    0.0000000000000000
   0.0000000000000000   13.9928353612999992    0.0000000000000000
   0.0000000000000000    0.0000000000000000   14.4620797690000007
Li Co H C N Cl O
1 1 90 51 3 6 45
direct
   0.5869869653192356    0.6638683969934863    0.3337396807094046 Li
   0.6875362283043407    0.7071469738053653    0.5788126616783841 Co
   0.1458150168065507    0.2632433731684944    0.1348125522498630 H
   0.3080139707961325    0.1250440768808876    0.1429794274079695 H
   0.3479918003570322    0.1021352101842513    0.0305080521990862 H
   0.4700218932519263    0.0592168177002704    0.1381094501208182 H
   0.7344976239397918    0.2536406017122085   -0.0056340524185640 H
   0.8332697845222247    1.0432075275517163    0.3203515648164864 H
   0.6846494830748822    1.0183569528810734    0.1913708075675599 H
   0.0607275211545856    0.4358371283040246    1.0082228916863609 H
   0.0999723308468791    0.4535178194300163    0.2664969317042079 H
   0.2979462811640393    0.5196677437377090    0.2552848513817377 H
   0.3382512147386176    0.6057322166558065    0.1147034113347795 H
   0.3317656279087710    0.3254201927719211    0.1430015542393182 H
   0.6448076562488808    0.4219671730741670    0.0933835178668347 H
   0.7201099294873877    0.3346163275564331    0.2644259985826662 H
   0.7057110758362228    0.6173138579611996    0.1823548152564473 H
   0.7548422381807451    0.4132116923701749    0.0368266454760972 H
   0.8758790926409274    0.4040447153645880    0.2218650384834563 H
   0.8674176301804802    0.5269176682441155    0.2433149270855747 H
   0.8413002229305324    0.6084107302688271    0.0992754781769037 H
   0.0684155116509184    0.6798222758347549    0.2118491899807747 H
   0.1418346700985246    0.7461826649927770    0.1049911152996628 H
   0.2578338437680863    0.7451864408795029    0.3295300510453159 H
   0.2734302189362796    0.8258977456893578    0.2326442626676677 H
   0.1973105343885372    0.8955605391712244    0.3657703434770758 H
   0.5657687950502810    0.9175925285457751    0.0467104244541662 H
   0.3761136786844055    0.7191331078281998    0.1612990608377275 H
   0.6087181100062298    0.9114072202958566    0.2013057548431228 H
   0.8395747318221293    0.9530092248195429    0.1639549720630503 H
   0.8842868514573379    0.8142503564510942    0.2177646600491517 H
   0.0373085476550062    0.2030575724887272    0.3783266288039792 H
   0.2049510982901362    0.1384995342730846    0.4123701417609018 H
   0.2565351920122874    0.2491954697290204    0.3901451225980995 H
   0.0751842631493227    0.2869698011173441    0.6628970409255941 H
   0.0872438697602354    0.0028979959852992    0.5914723207954946 H
   0.0005787423834490    0.3084193495648372    0.4380296600271089 H
   0.2219702713003434    0.3424882132147637    0.5471199171132161 H
   0.3193426498882068    0.0561802637136842    0.4939055791830904 H
   0.6183338520885070    1.1297789742043594    0.6381924337247790 H
   0.4979373961472153    0.2757812181062841    0.6238687677438989 H
   0.5485092807967612    0.2481170606996585    0.4532528508486613 H
   0.4941593099167305    0.3734619214596762    0.5472304821236116 H
   0.6552331376912452    0.1523366155365071    0.4911368902642373 H
   0.6562528094780219    0.3212716411380936    0.4684563349610438 H
  -0.0877316693606466    0.0679084085651472    0.6862470711697815 H
   0.6203669186127572    0.5075069489019016    0.5600074825932182 H
   0.7204419156505243    0.4177209285879115    0.5620751658364055 H
   0.0160983980601611   -0.1808789108103147    0.6166450487720304 H
   0.2951920514198663    1.0125211091873894    0.7457226109081074 H
   0.3321492253661767    0.9789503575940999    0.6244150238928197 H
   0.4948511802399058    1.0370179313931325    0.5989020958842977 H
  -0.1800663671578892   -0.0125363312560052    0.7135681761775794 H
   0.6795880889868945    0.8658045969873009    0.3767680701208557 H
   0.7993820876850825    0.8833635829723383    0.4020382944480217 H
  -0.0487002793446551   -0.0706975243942335    0.5971091310815739 H
   0.2533687693638839    0.1371874342214555   -0.1032410372054835 H
   0.0648787430936378    0.0557693391332448    0.7676731190694900 H
   0.0605413020252632   -0.0032008394398660    0.8881772255214284 H
   0.6120449461368211    0.2691313864176080    0.7299593179626029 H
   0.4701839806139283    1.0367806671136439    0.7781916615218746 H
   0.6917606824852613    0.3629015170681054    0.7605337586421385 H
  -0.1117853222897517    0.3023662518321036    0.8077005569792746 H
  -0.0074516960248587    0.0959484726314444    0.8559633249316507 H
   0.7089012117819931    0.2879903233797223    0.6601353357878855 H
  -0.1486720537938840    0.0819155768722994    0.7932054080554422 H
  -0.0996155185910752   -0.0214208780108275    0.9367380142335322 H
   0.2788598665833766    0.3393880552496399   -0.0730531246110706 H
   0.2617395633343989    0.5495391735950218    0.7894853345349432 H
   0.1265884147914544    0.5252533879607636    0.7116839381955424 H
   0.0422450982068563    0.6220377040076424    0.7296052886610239 H
   0.4811856254373161    0.3812287533557032    0.7227515026507665 H
   0.3843247566226552    0.3292192798495140   -0.0150400301321972 H
   0.5631426868568816    0.4749274474478341    0.7634697125767181 H
   0.4922715222113486    0.4908812262379006    0.6670036425312155 H
  -0.0782861050594731    0.5069822518115388    0.7910293724849942 H
  -0.0568067397945214    0.4325997572616062    0.8895311110145765 H
   0.0002837210662079    0.5755096070787928    0.9596510395585828 H
   0.6949431464818835    0.4984984815866477    0.6522173874824517 H
   0.2561662410032553    0.9032523326656059    0.7000348529539354 H
   0.3231479366656713    0.8312454824466241    0.8315657275157987 H
   0.3622302405260093    0.9475035500930989    0.8716242812821675 H
   0.4438402508641111    0.8575353651259715    0.8637388317602771 H
   0.0332026599609201   -0.1576670319013196    0.7800434007203684 H
   0.3654092172730187    0.7851583254588722    0.6762505836445301 H
   0.5421586505269291    0.9275883582963944    0.7757639332448353 H
   0.4620525514568345    0.8392710181654669    0.6199993381117963 H
   0.4717547075845163    0.7820874682029623    0.7308243387756409 H
   0.5818081206642896    0.9571956529799152    0.6196909453998739 H
  -0.0634164727105830   -0.1354127859276094    0.9027145537175192 H
  -0.1757261362898243   -0.1013246266886884    0.8627196145912780 H
  -0.0850827545547796   -0.1697317775830208    0.7281511409633270 H
   0.1850598264988442    0.2017633387232041    0.0229282295351997 C
   0.2822473808572302    0.2443594234058317    0.0407887312144724 C
   0.3420048902218131    0.1579151847102638    0.0836954230535056 C
   0.4315191005322399    0.1944731793404868    0.1305406908726061 C
   0.7346538527224443    0.2956027905637930    0.1250276525493835 C
   0.0989505667103348    0.3222235568618246    0.3227101467455611 C
   0.1686920717163042    0.5928742078709961    0.2087804750581029 C
   0.3905020705867321    0.6144681159102262    0.2488341885801142 C
   0.6935349950882432    0.4711460772941954    0.2621662959311810 C
   0.3344250044634763    0.6560022285467095    0.1711171507852302 C
   0.7207766916133511    0.4029648770323377    0.1012662015348064 C
   0.9201880862208988    0.5008360349956203    0.1127285916369087 C
   0.7522470270189149    0.4803519806492987    0.1694403518470871 C
   0.8556865224830914    0.4715846989060078    0.1907353526297646 C
   0.2344350963162611    0.6826608713712859    0.1876237669713547 C
   0.2272269513666466    0.7655032667878718    0.2591383773538084 C
   0.1334610863283194    0.8170074817229817    0.2717817870791471 C
   0.7061142018914601    0.9253279157782555    0.0850679780606042 C
   0.6821484276525970    0.9390256400100507    0.1860859521926206 C
   0.7574004844966798    0.8972192451733110    0.2518558839861699 C
   0.7548199197832234    0.7879904891324051    0.2370786179626417 C
   0.2250892673540130    0.2040359303158951    0.4466201257128469 C
   0.1380126445229187    0.2559896610094334    0.4817340241362625 C
   0.1019509962771700    0.1866448874202549    0.5563575234695554 C
   0.0618162404836952    0.2699911121050317    0.4079828059825438 C
   0.2984679737061110    0.1939293295914183    0.5209960119740783 C
   0.5404188616951137    0.3246476545606951    0.5795976110204789 C
   0.5985890447809517    0.2744040847732289    0.5019865054306768 C
   0.6617807975641993    0.4571961304135322    0.6004620374943804 C
   0.0033511058256084   -0.1065165694311098    0.6405468668729758 C
   0.7389975708401220    0.9091589268522698    0.3605366563996305 C
   0.7194034127158387    1.0093673523639475    0.3892752615407040 C
   0.3676271080267463    0.2214148241369833   -0.1213207328078042 C
   0.3271952385662628    0.2856541278084937   -0.0437454450262478 C
   0.6595377986132597    0.3212973685900864    0.7049739765890514 C
  -0.1253088762881091    0.0316948759310491    0.7422583788750777 C
   0.0210377384117015    0.0294737392423435    0.8262919355565338 C
   0.1402409970254846    0.4628658891115742    0.8898353549456210 C
   0.0992992916716127    0.5829555604763550    0.7577706705774704 C
   0.0628184760224079    0.5294045123397904    0.8467903704106584 C
   0.1781376360174777    0.6539626133248415    0.7767755443155584 C
   0.5299515332573959    0.4372462065566374    0.7059413339970770 C
   0.0000744860894411    0.3773024583210352    0.7655717615548439 C
  -0.0256697854519393    0.4652934099908626    0.8250998525176230 C
   0.3818020802527707    0.8822430095077660    0.8297257431964590 C
   0.3162940962767153    0.9535545038715000    0.6950666878526743 C
   0.4920555917153253    0.9751255430645143    0.7381566175138139 C
   0.4260580676386279    0.8212153494266813    0.6854173149942054 C
   0.5396533406601164    1.0126061527092542    0.6553393450930562 C
  -0.1062489648045036   -0.0720282053834130    0.8781883440944530 C
  -0.0236785659230425   -0.1200299135902905    0.7412661287817848 C
   0.5965608604061594    0.3876949196232090    0.6451755234057304 N
   0.4025888777446245    0.9092418264198020    0.7357786746073092 N
  -0.0571101305108332   -0.0337357516980135    0.7928271775320754 N
   0.4424990546630362   -0.0613020018567779    1.0751779918840245 Cl
   0.2974022702244457    0.9419164051020115    0.4216599536099543 Cl
   0.8316489109022048    0.6719046524839927    0.5273701989148528 Cl
   0.5627426993262959    0.6815231462720520    0.4869409515770456 Cl
   0.7917840682287594    0.3242931874443508    0.8817383175989588 Cl
   0.6732350176423335    1.7442391445698029    0.7165608301174902 Cl
   0.1213784638699624    0.2252553609983422    0.0819425631326014 O
   0.1531919446374236    0.2854483081925518    0.2698339344569826 O
   0.4481516770503744    0.2803771415442074    0.1423716310093601 O
   0.4915255297741829    0.1257322862216931    0.1605896193076101 O
   0.7408423258852821    0.2314521036713686    0.0618479429505904 O
   0.7463744986709948    0.2655023863837448    0.2041089477896103 O
   0.2698285875362013    0.3138771426445169    0.1125197696660554 O
   0.2017365515970765    0.5106837175018482    0.2208720969266837 O
   0.0801752147951321    0.6098557554890853    0.2225281519604374 O
   0.3642967846465422    0.5366542939159080    0.2876259812517702 O
   0.6522961760673627    0.5434360502611912    0.2878195910260713 O
   0.6959656080683504    0.3924201949725402    0.3095405333122112 O
   0.7312377430017659    0.5752173146380977    0.1307550445512966 O
   0.9819207737661596    0.4481612924599858    0.0869439184808855 O
   0.9069191014442743    0.5840482625346017    0.0739091404260667 O
   0.2017979271902614    0.7109553513517335    0.0981808914886231 O
   0.0647532021075778    0.7945231179842254    0.2209695932773139 O
   0.1259711716099925    0.8788226876956217    0.3379797347665978 O
   0.4619563731125140    0.6617301598723128    0.2748318324878685 O
   0.6375492949048424    0.9099193159889438    0.0269864286972458 O
   0.7876802728844409    0.9339108796236073    0.0614040233966573 O
   0.8424454357033690    0.9401462134746229    0.2306929527281049 O
   0.6870577776574675    0.7377040402582845    0.2523025693940217 O
   0.8418114537237659    0.7561884998636156    0.2199455358639572 O
   0.1000441681889024    0.1010603744121107    0.5341353393070196 O
   0.0766928473318109    0.2144083813776302    0.6370307750789725 O
   0.3000037584355789    0.2494899061240483    0.5849117153006071 O
   0.3487589952718436    0.1145229783187501    0.5248964191700690 O
   0.6386826510289956    0.1907048222749963    0.5385499187464757 O
   0.7852698859520879    1.0805151915469497    0.3587416172064677 O
   0.6507771301360360    1.0334939851215730    0.4312166703621506 O
   0.0617130178951570    0.4144839863363597    0.3143538105940314 O
   0.1593650739019652    0.3467689753657761    0.5209126214784329 O
   0.3170459472932304    0.1426059214717018   -0.1382685026939433 O
   0.1706505110988409    0.1401067853711860   -0.0400481898005772 O
   0.4364612306834705    0.2473723938947579   -0.1661953297099118 O
   0.6003780038323073    1.0878468007134332    0.6894692909849348 O
  -0.0513784870472695    0.2998413882795951    0.7731903061735905 O
   0.0700789297162140    0.3762719309384375    0.7150914702232410 O
   0.2178239315107490    0.4480936149682160    0.8568725994073860 O
   0.2664208472145936    0.6174975233823700    0.7895102272202105 O
   0.1186437627236210    0.4149740942968212    0.9688682477422725 O
   0.0449156339603226    0.6024090874400790    0.9146865524041211 O
   0.1715251133017260    0.7420920001259331    0.7738388989174991 O
   0.0904402827553087   -0.0516084696670732    0.6385374740011227 O
