Li1 Co1 H110 Cl3 O55
1.0
  12.8238478333000003    0.0000000000000000    0.0000000000000000
   0.0000000000000000   12.8427675273999995    0.0000000000000000
   0.0000000000000000    0.0000000000000000   12.8417923737000006
Li Co H Cl O
1 1 110 3 55
direct
   0.5714680579467041    0.5701995888406864    0.6289125732433114 Li
   0.6665923931585084    0.4953169751090109    0.4015650258729583 Co
   0.1035305809893058    0.2814884530135126    1.0134188677160763 H
   0.4488387176393087    0.1691466235034919    1.0192124514958898 H
   0.4633546415975313    0.0529167690881331    1.0433523839117791 H
   0.5988147642207254    0.1113631279744534    0.1581457344661040 H
   0.3645699385608601    0.2938806418202051    0.0597821288850823 H
   0.3918012348565941    0.3125004602892241    0.2907728592814914 H
   0.6335609656566901    0.1470711635689309    0.3298312699304002 H
   0.7202954633253024    0.0885504437632868    0.1864276120600615 H
   0.9219081176244511    0.2536027189428825    0.1272185875038635 H
   0.8939835816618431    0.0619388120202968    0.1647024515932584 H
   0.9074896683100523    0.1190258065824748    0.2720885515915931 H
   1.2658454488634328    0.4109644399028149    0.1897036345011469 H
   0.0758657174778440    0.3569978786829441    0.1928947778250279 H
   0.1141950088410521    0.4345356833559217    0.2815467328536380 H
   0.0945126168413142    0.5223851283912636    1.1307545134072439 H
   0.4336459297543745    0.6420696120292836    0.0889239331682935 H
   1.3646613437861275    0.4638105261184235    0.1508196543316303 H
   0.3849374603371059    0.6123229083546324    0.2831633296180053 H
   0.5131891381002510    0.5751253184285682    0.1657583789595793 H
   0.7571447776764068    0.4128215162649865    1.0381350436799579 H
   0.9155683667901590    0.3376881777582086    0.0490995079543037 H
   0.8006948889425263    0.6236156456630497    0.1695351103214200 H
  -0.0037818277267814    0.5986389419023036    1.1177656723525009 H
   1.1255989313299206    0.9426457917167390    0.2756199900917886 H
   0.2723636042865615    0.9585457914297557    0.2175034921542839 H
   1.0445702094121712    0.8448241970083019    0.2819111679623682 H
   0.0106317868452838    0.9311763012283581    1.1380120672819565 H
   0.3051415977144383    0.9043596513695779    0.3148084448927442 H
   0.3427816263762403    0.7793445409913369    0.0279888255736097 H
   0.6147483593987195   -0.0795972701459428    0.2522151575533380 H
   0.4770533381419361    0.8233179290321256    0.3138218224936819 H
  -0.0215792160743995    0.9752010800615591    1.0210424141145138 H
   0.9648749406219297    0.6901628285951247    0.3040910936075867 H
   0.6755397856643717   -0.1475942963427405    0.3294956469990696 H
   0.8443027051977894    0.7227562707100691    0.1312709813197437 H
   0.8085341896974020    0.8762348722493936    0.0758981813781791 H
   0.7045505790577509    0.8330821795904619    0.1459130183912265 H
   0.2502158056155200    1.0900283551682473    0.3626849392409283 H
   0.0370779833698044    0.1510438275520754    0.4214454282786891 H
   0.2369553550697464    0.0626696513802692    0.5314300751954696 H
   0.2975159613788241    1.1823838383201037    0.4307385235513091 H
   0.2887097121572175    0.0824750398572725    0.6391370026826865 H
   0.4783259670916981    0.2616905395608602    0.3649276168331140 H
   0.3573724108609195    0.3153713368289837    0.6052172828083729 H
   0.6020064739580879    0.1295025203992544    0.4512551299823231 H
   0.6271408957158870    1.0571693939591726    0.6069428986223604 H
  -0.0807199677316839    0.1684419467287476    0.4569241205625707 H
   0.6801218737212353    0.2853816948629290    0.4267281799402824 H
   0.8974770728964837    0.3195503426301473    0.6230886198711039 H
   0.7859403470562233    0.3073824045539812    0.6619157543933185 H
   0.0692143597021763    0.4407742140954266    0.6414108285747638 H
   0.1919914715696083    0.5518779926973327    0.6423507285239889 H
   0.2161378903376105    0.4446098359654717    0.5837335216657288 H
   0.1352542106898707    0.5339628510030581    0.4687153094864867 H
   0.0951782516890573    0.6147483980268189    0.3792098910408503 H
   0.2986739601474494    0.6196733489663306    0.3720512330182932 H
   0.3712676162872729    0.3414763020776907    0.4872656794868516 H
   0.4618761462000137    0.4555716477166885    0.5268045526615863 H
   0.4615291364680014    0.5620089866378842    0.4613596384671160 H
   0.7624162064143915    0.3366673697452916    0.4962029054332117 H
   0.4018247474302709    0.7478996052219703    0.3709485832021352 H
   0.3663884255160347    0.7110212611275583    0.6425539711807808 H
   0.3842629358018460   -0.0443314289607220    0.5691818146639313 H
   0.4476775996820810    0.7895643008460550    0.5916008035108168 H
   0.4321580767910499   -0.0936028183750335    0.4668510837379822 H
   0.5557442282022184    0.9887651346649259    0.5428249020032666 H
   0.9741545267139441    0.8698343826489530    0.5482361404019123 H
   0.9819291043053209    0.7679692669557119    0.3974332038923549 H
   0.8050188641425446    0.8505861949454382    0.4719196908378216 H
   0.9516495809479327    0.9461730688323103    0.4544750854836039 H
   0.7094586223235609    0.9239270849047448    0.4828924581820892 H
   0.1387913705649444    0.3179728010327638    0.7316972906401787 H
   0.1344447812475588    1.0030299728011878    0.6696997145361968 H
   0.2882348156925085    0.2412774938960000   -0.0216047966768413 H
   1.1076012130943163    1.1063721844520973    0.9467303576484392 H
   0.1481138455002413    0.2678153876383620    0.8921818974635023 H
   0.3172768009719112    0.2191475285755471    0.7500389670312707 H
   0.6243866521800051    0.0568589100551782    0.7864957159317446 H
   0.6019807406521185    0.2054931507612738   -0.1793118317280928 H
   0.5459569941651702    0.1401536514508878   -0.0893921408938999 H
   0.4340459656926269    0.2038743408002864    0.7554564350898947 H
   0.8828870682089552    0.1419982694391413    0.6851142294449881 H
   0.9410911275289515    0.0452582173164721    0.7204831239717522 H
   0.7396125983397043    0.0287508796614301    0.7423686981829963 H
   0.2333199407536984    0.6510100526122834    0.7667251112831313 H
   0.1711334573856418    0.5960086677088379   -0.0692119361017138 H
   0.2461694382011113    0.3536979668913788    0.7878195186771321 H
   0.3069491675095046    0.4977666028806637    0.8582068893568814 H
   0.0049264009929961    0.4395525148030797    0.7478585860388680 H
   0.2729195996549317    0.6571271142060865   -0.0669069619097450 H
   0.3544668866778232    0.3847784952236400    0.9013317105566216 H
   0.4735060409039047    0.4771261918917977    0.7729321887440039 H
   0.5304023804023625    0.5775905191676186    0.8027426691551354 H
   0.6359861347950231    0.4107876867228514   -0.2149813073488097 H
  -0.0053974114633727    0.5446139820546916    0.9696866546684526 H
  -0.0600935533014424    0.6035607782483359    0.8763196257437713 H
   0.8466342986780517    0.4597763489140583    0.9566822394637637 H
   0.7399658464489213    0.3608934564774703   -0.1629620891150602 H
   0.8153098471388737   -0.3637587635478887    0.7167188519298681 H
   1.0605248591132315    0.8526340401582313    0.6954219805865728 H
   0.1629315509557419    0.7055995325280608    0.6878560585429347 H
   0.0873263182203421    0.9869508839630979    0.7849523176721223 H
   1.1599333998703740    0.9986773284135402    0.9567523231385197 H
   0.5726354142811364    0.7356039688131434    0.8440577741311812 H
   0.4761284987213370    0.7206079798575611    0.7635931497290440 H
   0.4051942509179680    0.7172800367246801   -0.0622097982861113 H
   0.9729380431590245    0.7546247911926522    0.7088990712421145 H
   0.7914542927080412   -0.2638013363608617    0.7826707047050721 H
   0.6744332535076852   -0.1068086947282540    0.7960418911409829 H
   0.6953489726807954   -0.1657126652615546    0.9157923087812366 H
   0.6442862956658972    0.4874798792661357    0.2269235167489616 Cl
   0.3222285128781543    0.9451063205655702    0.0471545302383306 Cl
   0.7286392928366096    0.5841615327610636    0.5522207866655285 Cl
   0.5047805854254450    0.1163675010476932    1.0310955279044856 O
   0.6473688338021772    0.0749818729993747    0.2088427073694606 O
   0.8698176679650761    0.1234968055223446    0.2084712638932548 O
   0.9656781316870369    0.3127940107246700    0.1030038991682347 O
   0.1245670907410423    0.4121799100082027    0.2103588508666779 O
   0.0682607457667204    0.5832326052557929    1.0896776929253678 O
   1.3375244029456148    0.3957878045254198    0.1750577038921777 O
   0.4424599769474871    0.6015230554643513    0.1551188984241504 O
   0.8643512899394440    0.6630720945101455    0.1775386659785333 O
   0.2768638136426131    0.9684813446294664    0.2930988585758870 O
   1.0587625175528992    0.9193797784246264    0.2637493730031493 O
   0.6367799682943232   -0.1527497271997377    0.2616530924204534 O
   0.7517579389601349    0.8266816899900213    0.0848294891475598 O
  -0.0495623927827319    0.9554311979502226    1.0926445684900303 O
   0.2352756720073768    1.1333367775011556    0.4281275173129067 O
   0.2528632169417712    0.0262247730468874    0.6035936776765300 O
   0.4035527779159772    0.2856659015179364    0.3596635541514556 O
   0.6126132748004056    0.1805125537586783    0.3942950126782893 O
   0.6177864490974161    1.0351959369610664    0.5346297843018210 O
  -0.0355984872274116    0.1180571680103399    0.4219072018245801 O
   0.8328708789701480    0.2803781004380590    0.6082822755176935 O
   0.1373074165873727    0.5556941483581307    0.3873847623473666 O
   0.1601133640535117    0.4937215245991201    0.6014755932839101 O
   0.3520424973366406    0.3742161300861733    0.5554080364519233 O
   0.3716692118198264    0.6196032706130412    0.3570564414505396 O
   0.5082771958486882    0.5086778024878382    0.4970384585778003 O
   0.7146941803926183    0.3499838141670356    0.4398532948070505 O
   1.0127544856681219    0.7158660112849720    0.3509778507267192 O
   0.4099627104938224    0.8221733159283970    0.3500955751322933 O
   0.4398453171015606    0.7241920983041339    0.6365805059690941 O
   0.4511905858454865   -0.0838074218819018    0.5441494834561514 O
   0.9352504468710366    0.8789445685765874    0.4821604731346397 O
   0.7313631242836185    0.8586763515085255    0.4551696925711837 O
   0.1383351892318496    0.2325060200092647    0.9630520667915694 O
   1.0992885754690327    1.0348611181620164    0.9243736654013366 O
   0.1992506032444455    0.2978821157930353    0.7755455311048983 O
   0.3603613733391288    0.2666263915775503   -0.0118310052661461 O
   0.3773071452185881    0.2087595806729342    0.7063160984736143 O
   0.5499620323305977    0.1506451595866952   -0.1690500243288480 O
   0.8713460703802314    0.0776723367118324    0.7180590075326986 O
   0.6687360555254788    0.0027187881136605    0.7466975331604134 O
   0.2299621342232603    0.6060306508776057   -0.1156688466823440 O
   0.2242462211094396    0.6588977605992011    0.6899975041604732 O
   0.0155243901275121    0.3985590140738344    0.6832118470291165 O
   0.3462501641020622    0.4313650271937569    0.8350714896124921 O
   0.5421445658959385    0.5089908191325313    0.7620692191568539 O
  -0.0410110592496530    0.5326321409389276    0.9014251554562960 O
   0.6877810413343248    0.3529317768954136   -0.2176647333844598 O
   0.8095292108615540    0.3957488721069256    0.9841161045931760 O
   0.0757227806601410    0.9742511290503015    0.7087892734849971 O
   1.0363745413594760    0.7794044969158178    0.6743774104723983 O
   0.5079707355685065    0.6983767902490235    0.8400785788200459 O
   0.3555289703969260    0.7092981122850065   -0.0028644999178881 O
   0.8466265007065459   -0.3144656498440574    0.7690697995574617 O
   0.6813601915963713   -0.1746795798891305    0.8403277652191776 O
