Li1 Co1 H110 Cl3 O55
1.0
  12.7989796175000006    0.0000000000000000    0.0000000000000000
   0.0000000000000000   11.8435650133999992    0.0000000000000000
   0.0000000000000000    0.0000000000000000   13.0602560363000002
Li Co H Cl O
1 1 110 3 55
direct
   0.3626046722079640    0.7299419977784374    0.6197881186786607 Li
   0.6445271463297569    0.3108198842607791    0.6400319790796474 Co
   0.1223191110218986    0.2214194377903089    0.1390264871648257 H
   0.2625506024093799    0.2415071394013378    0.2659665712942697 H
   0.1976704303318655    0.1213542970443319    0.1389920314850329 H
   0.2874635259024390    0.3054101955456405    0.0661122198370481 H
   1.0373186148876214    0.3731693541344630    0.3101303302892584 H
   0.3755119511424599    0.4751234531438251    0.0577006695814742 H
   0.6133207523877049    0.4097647542111816    0.2834386636763610 H
   0.4847448776554784    0.0552978352344931    0.0812754754003061 H
   0.4357565974379910    0.1422963022361282    0.0093865325349877 H
   0.5371303036845390    0.2233783074358718    0.3030615561593024 H
   0.4746909511827730    1.0490933678028660    0.2826507771317635 H
   0.5877124609617341    1.0701343296853778    0.2515265787339532 H
   0.4501389939650007    0.3164364363652120    0.3115016663450157 H
  -0.0264268872447870    0.2547413302739899    0.2001386122090538 H
  -0.0416705243026378    0.2843996299162495    0.0841970873422118 H
   0.9360449166134474    0.0761818342432505    0.1035307818194247 H
   0.9189419907129560    0.4056165100005564    0.2640301620899089 H
   0.7789972409337653    0.4867044255828512    0.2683662179714016 H
   0.1821840395473229    0.5058608197718731    0.3265113261445747 H
   0.0567246632541955    0.7876872796446840    0.0071960701182873 H
   1.1804315859791232    0.8797980586850924    1.0363373796486801 H
   1.1109963632848951    0.8433782814041830    1.1400106917366406 H
   0.2242811454184269    0.6899109767587035    0.2590815607898757 H
   0.1999346733313914    0.8541410880300409    0.3034604763631268 H
   0.0838851877951277    0.8122271879975461    0.3155061820187235 H
   0.3152493346643928    0.5781346662894995    0.1205375693879573 H
   0.6227582234681999    0.5063657353098243    0.1898555059953071 H
   0.5312782746761022    0.5761057163936859    0.0632053089851874 H
   0.6422754043267778    0.6272398132061577    0.0721353023693784 H
   0.9795015058590079   -0.0404342351950769    0.0760731271606426 H
  -0.0237390948560123    0.6811213935646044    0.0055117999218332 H
   0.6867344172329291    0.7838717055376586    1.0425470588291332 H
   0.8228054207072026   -0.0685397084730457    0.1861557316673231 H
   0.7419771022852009   -0.0755587099228580    0.2869975525580807 H
   0.7426896590883644    0.7958081452701253    1.1482111435273501 H
   0.9189107382215893    0.5285879293622252    0.0410923428077021 H
   0.8644688982605921    0.5663459861208145    0.2102509713873824 H
   0.8249266835587254    0.6216806762465086    0.0511808892828849 H
   0.9168324475456958    0.8769847165906892    0.3272203474665352 H
   0.2049905451222584    0.3790991565141131    0.3682624218722875 H
   0.2894543096025053    0.2379389570211012    0.3864779912561322 H
   0.1754819427737088    0.1808792795308016    0.5126631131572251 H
   0.2494933115163233    0.2597617780811092    0.5845039712071881 H
   0.1056264522018253    0.4932683275762159    0.4790481519512750 H
   1.0193484323517010    1.0212892396009754    0.4674335251339762 H
   0.5515798930679874    0.3560359994587033    0.4547255047445826 H
   0.5911807061911668    0.4646924722812026    0.4998509600466798 H
   1.3992380911610589    1.3896749406178255    0.5876111078427342 H
  -0.1667726846194425    1.1162184267779740    0.6441322049750020 H
   0.9400061698941915    0.1630349902681609    0.4623195365709371 H
  -0.0003115241463896    0.4260427920977364    0.6152039819026591 H
   0.7591136246139115    0.1010620961970292    0.3649592707028084 H
   0.8486942032431907    0.3241376648295134    0.6261111187615439 H
   0.8226616592469153    0.2584150551997847    0.5203168681618873 H
   0.9106600805007492    0.2635478002753782    0.3665327467466841 H
   0.9958153063524869    1.0609056895017561    0.5800247328341115 H
   0.6917723188412601    0.0151768075319071    0.4346523913790142 H
   0.3020521888724697    0.6334744224573803    0.3405347878202837 H
   0.3045914537960236    0.9639331986427480    0.6593118461282060 H
   0.1236137454767691   -0.1458871962407528    0.6286194922504668 H
   0.1498900589057056    0.6377780252950674    0.5893216409240082 H
   0.3515819185028872    0.9374800150240041    0.5449641644404061 H
   0.6297642507203562    0.5581271770130950    0.3559265228246573 H
   0.3786036038509223    0.7865803494268681    0.4365099353607379 H
   0.4542127562146654    0.6662694465536340    0.4368468353409351 H
   0.6457209914999693    0.6391095500498315    0.4508067454294705 H
   0.6522949530589797   -0.0463124483784581    0.5989646371753803 H
  -0.0000417370181854    0.5659516791706086    0.5016725169850642 H
   0.7662884153194488   -0.0447369936923996    0.5735723325315617 H
   0.9474286365938108    0.7823746900714591    0.3942695689799660 H
   0.6895072945294499    0.6836738344863875    0.5781511095351511 H
   0.8785168931299768    0.6042830430366708    0.3756910664356360 H
   0.7143467746677971    0.7964338014801952    0.5222004453238990 H
   0.8420374225820584    0.6608268285642812    0.4752779349001590 H
   0.0952353894785004    0.4876602188754276    0.8214028491005901 H
   0.1224620911699018    0.3581189871378428    0.8230031240065269 H
   0.2301167668688960    0.0856597237024629    0.7764343585619938 H
   0.3063017463860728    0.3368289448478134   -0.0469361764498504 H
   0.5928761538478167    0.1489986760492654   -0.0360640312479997 H
   0.6025511438626994    0.1853314862726348    0.7917012874373399 H
   0.5749161283715905    0.0997485558920282    0.7119785012143084 H
   1.3530625351665850    1.3609420380150217    0.7043882977968200 H
  -0.0199476988658467    0.3963760490518320   -0.0604611792912221 H
  -0.1450061056947378    1.0378129805335901    0.9530312027271874 H
  -0.1347209107859179    0.3832921507640550   -0.0121330302682865 H
   0.7126224184566328    0.4049477924318987    0.8123754609948511 H
  -0.1296228481317057    1.0438077971213040    0.7432443507401562 H
  -0.0210845082393147    0.3962080253193032    0.7313992537091315 H
   0.6797799565915279    0.4459514935514983   -0.0193348798904205 H
   0.7043022239425017    0.1280058415675282   -0.0773513535257001 H
   0.6932294662512379    0.3137514340062077   -0.0316719274607105 H
   0.2229615089704630    0.6371844540188473    0.8349018187616738 H
   0.1730840953735897    0.6767181585639103    0.7023638351885440 H
   0.1094282396453703    0.6718209844500030    0.8859651362147468 H
   0.2671955039387732   -0.0484511625216524    0.8805364524429327 H
   0.0253159875617717   -0.1347326156857824    0.7008363000510588 H
   0.1526988765672983   -0.0227605026860586    0.7408707372433122 H
   0.3392582798446667    0.7749664477136277    0.9018760034613335 H
   0.3626468630713092    0.6647006621564547    0.9703509244364169 H
   0.4154893567866094    0.6275944361592337    0.7792474733966406 H
   0.5708564297430407    0.6392547765925197    0.6988118374427830 H
   0.6025823963540662   -0.0781364810555750   -0.2389331781189225 H
   0.4244916369248214    0.5369384555668015    0.6857439466199968 H
   0.3657142950989624   -0.0532765677045800    0.9540419026677791 H
   0.5052222913113018   -0.0511420752632080   -0.3196636015554528 H
  -0.2347116942894842    0.9914080341024966    0.8736682869375485 H
   0.6667281348844605    0.7132696529416765    0.7439227447911897 H
   0.6806854975288814    0.5099482714762569    0.7452473742587833 H
  -0.1369351497992570    0.8120709850301197    0.8000809087629723 H
  -0.0344897956237409    0.7685570600069604    0.8635689443493639 H
   0.3527031016306718    0.9331823225688682    0.3754452825864467 Cl
   0.2776424304904164    0.2563920156865224    0.7901645641185767 Cl
   0.6820441995910538    0.8386254894925995    0.8613867512958139 Cl
   0.1980946829021700    0.2024133361861620    0.1456672451835767 O
   0.3111974491586848    0.2715361044635983    0.3210864707816264 O
   0.3377245638308400    0.3327558469296257    0.0176010728703236 O
   0.5129596268614418    1.0903393946070674    0.2318745903436313 O
   0.6571344013471314    0.4724325404022695    0.2559208264302073 O
   0.4740362114886382    0.0694702571201407    0.0094120297380345 O
   0.5235182810697213    0.3041580387851363    0.3266682909080756 O
  -0.0221191219660132    0.2202407386415133    0.1323849634643016 O
  -0.0622518524922559    0.3990534523475562    0.0031469151972034 O
   0.9114570190306032    0.0023462113534701    0.0889919397421913 O
   0.9656410259378241    0.3374622001211635    0.2830734334705564 O
   1.1083945933786077    0.8742304783217987    1.0666124369600387 O
   0.1403205460491858    0.8213553516777964    0.2656342654047115 O
   0.2648914140127546    0.6204783355675079    0.2778920649114778 O
   0.3762862316160728    0.5582783139383346    0.0695496715895421 O
   0.6037363945977859    0.5549912968994655    0.0594634221596788 O
   0.8495458336329363    0.5226775468109578    0.2750353062157601 O
   0.7879784256403046   -0.1211581556462502    0.2338178906839506 O
   0.7232529533950560    0.7402716577973237    1.0932658194842773 O
   0.8801576489267348    0.5844258463451414    0.0860038666223740 O
   0.1509565501735982    0.4339829688851818    0.3576730429492705 O
   0.2439491195478497    0.2160165037980861    0.5195703284330412 O
   1.0265130659975441    1.0912006217788235    0.5137113315047024 O
   0.5652364504830026    0.3881656833477573    0.5236835709185399 O
   1.3726969128677886    1.4202653920224566    0.6529896117270960 O
   0.7073469979139139    0.0319326576307136    0.3633153519358007 O
  -0.0537488309036289    0.3903955862503140    0.6622398132288291 O
   0.8765167336825005    0.2065244294207507    0.4206434776569954 O
   0.7898606069328714    0.2765700617165492    0.5945650297067139 O
   0.0803793614448265   -0.0873786306850282    0.6619725902899909 O
   0.1859780919992546    0.6992029424696602    0.6276853604871926 O
   0.0599301531624617    0.5168499096154082    0.5350225522974956 O
   0.3510928170129965    0.9114321147802044    0.6179489510594932 O
   0.3860815437227177    0.7029813656006491    0.4637827544394754 O
   0.5971053972420313    0.5811590934750195    0.4220844907541118 O
   0.9726259577583080    0.8602988623080969    0.3785003528614169 O
   0.6968805385551665   -0.0648566958032417    0.5440836304012543 O
   0.7187947855015794    0.7158930184540748    0.5145826773625761 O
   0.9085427242106474    0.6406487825342544    0.4365826751291896 O
   0.2232177793996709    0.0011019069583554    0.7651658199061704 O
   0.0674318449276958    0.4139408616538342    0.8335771892940802 O
   0.6493392486879628    0.1911760102754738   -0.0690850531024976 O
   0.5720948097134509    0.1860128689467595    0.7220755467571737 O
  -0.1858820204656834    1.0595547449186093    0.8887292474159103 O
   0.6779501232220007    0.4254652632884411    0.7471791893725049 O
   0.7307097978351789    0.3895605336298564   -0.0410343013422137 O
  -0.1406502897104875    1.0418995878976092    0.6680444467512724 O
   0.1470757720581236    0.6315738122969656    0.8280642805272168 O
   0.2961876588674863   -0.0869471727587857    0.9428399783262217 O
   0.0201743276821028    0.7302687574994861   -0.0401566768938000 O
   0.5700157377252734   -0.0228560820153162   -0.2924214097476422 O
   0.3563268280046544    0.6920243606909637    0.8953600515716100 O
   0.4342478834172578    0.6172217147817596    0.7105573958432948 O
   0.6487102922992056    0.6500032294321817    0.6948310579040435 O
  -0.0599141661380179    0.7902152346958975    0.7920504383259079 O
