Li1 Co1 H90 C51 N3 Cl6 O45
1.0
  14.2602153675000007    0.0000000000000000    0.0000000000000000
   0.0000000000000000   13.9169747487999995    0.0000000000000000
   0.0000000000000000    0.0000000000000000   14.3836751998000008
Li Co H C N Cl O
1 1 90 51 3 6 45
direct
   1.0180724349849126    0.4871686553131530    0.4048601987328643 Li
   0.3897256836152759    0.5124330541028624    0.7218918291511740 Co
   0.2348156809911517    0.1289878660270463    0.9957376957524143 H
   0.0291736254943346    0.1730024605101481    1.0241358620295338 H
   0.0930562511436067    0.1367388321635122    1.1229916815783352 H
   0.1893542357539713    0.2876063905156635    1.0730656376413876 H
   1.0969457178220978    0.3289831990817386    0.1672324747664941 H
   0.5325024894018312    0.0920337140448172   -0.0090778190056611 H
   0.4428672372643953    0.1979820272820125    0.0722317200206555 H
   0.6033087131494194    0.2385246028190307    0.2466190004032713 H
   0.5432084988179263    0.2637283562446985    0.0520046225675619 H
   0.7396614925353090    1.0725700911174740    0.2138582495204544 H
   0.7980582262829558    0.2820232805795978    0.0953558517449748 H
   0.3267729176952067    0.5019278255859675    0.1633412578679939 H
   1.0027928621043667    0.4899215524543440    0.0762188790188507 H
   0.4801672349356963    0.4133881089994840    0.1332084862376927 H
   0.4359627132118066    0.4071368222385088    0.2413039471266885 H
   0.9734882556008493    0.3666551794843191    0.0952168052236777 H
   0.8787575684978517    0.5497574733373508    0.2257425556957201 H
   0.7493170269330435    0.5884397307759812    0.2023674450004595 H
   0.7828109109797424    0.6673907973570814    0.3491783240468219 H
   0.2089703490307402    0.6794271776066356    0.2601120748299449 H
   0.2175866284370126    0.7791579039356229    0.1274185890908802 H
   0.2529865145530734    0.8998881653844969    0.1497501556438058 H
   0.3340799602127748    0.8927206593854937    0.3344101930198536 H
   0.5135030217908804    0.6993345213361979    0.2040283556973538 H
   0.4476123970152233    0.8552922664048344    0.1411438712081199 H
   0.7607369105605479    0.9493421604102007    0.9637403102715187 H
   0.7154136119045538    0.9079660703910928    0.2254220534641302 H
   0.7741721915196733    0.8115219778906209    1.0433319295272092 H
   0.9734931643626172    0.7774491992473394    0.3044929434975630 H
   0.3206299529683452    0.2031469428830987    0.3525112691623141 H
   0.1841460395180809    0.2490484417023792    0.5139174026957160 H
   0.0752220183886364    0.0312065576203943    0.5900395748659568 H
   0.1059003769355239    0.2714908191326416    0.6038309040808129 H
   0.0242024523266724    0.1661094394526606    0.3781027814070510 H
   0.0398515848431838    0.0386068728368088    0.4097789694237503 H
   0.4835514054237511    0.3140216141282304    0.5839799274678280 H
   0.5859941078901800    0.3471135761611220    0.3642898999813940 H
   0.5601747923671391    0.2026935397467206    0.4583976979674624 H
   0.6709696828567199    0.2321618694234244    0.4151684125892271 H
   0.6622559294667678    0.1826518277342698    0.5845889512311094 H
  -0.0552689981945323    0.2806106172418494    0.4583776057451350 H
   0.7376201488914854    0.2720771534579736    0.5426765754560792 H
  -0.1326282786521176    0.0852067993083230    0.6370491180186973 H
   0.1036241139785156    0.6578614274765020    0.6502265568420263 H
   0.7083702400190977    0.4445568800743472    0.5917693135908932 H
   0.5890704990153789    0.4441772717115128    0.5446207934401164 H
  -0.0338282280434149    0.5142072184198688    0.6922471108106257 H
   0.1638812684362496   -0.0217805328436151    0.3422343407732432 H
   0.1376327167591776    0.8168564705759942    0.4947434853088832 H
   0.3531294621311756    0.7751326038247041    0.3626269035866804 H
  -0.0507655598981962    0.8498744222712519    0.6930806947058020 H
  -0.1565374547208780    0.6350554652807765    0.6761733329486774 H
   0.6929083417014529    0.9199262846621111    0.3370562483201380 H
   0.6978248172379854    0.7366285460339687    0.3965959687395694 H
   0.8703285232904459    0.8881399224688374    0.3957665562400320 H
  -0.1285736414317166    0.7155341627143962    0.5950174403283941 H
   0.1896459564533291    0.0990345171474024    0.7504352990430490 H
   0.0126093595339243    0.0714344095857271    0.8745683856984557 H
   0.0355963896419743    0.1350531209781827    0.7771683832276353 H
   0.1409201846404021    0.0395596661154732    0.9815570362779265 H
   0.0037742896031335    0.2069990731748938    0.8769460812126367 H
   0.1903836732218974    0.0126378668909466    0.8372406518236347 H
   0.1197879652289901    0.3005301762698561    0.9036798606298295 H
   0.1697423299872893    0.2739611836062830    0.7986489850702225 H
   0.2446002456982177    0.2551589651124567    0.8842063953221665 H
   0.2804517378969382    0.1102862441086446    0.8447123166455359 H
   0.4964440578320037    0.3395810483027210    0.7030482445849869 H
   0.6422309864598893    0.3625120376707600    0.7677299053619862 H
   0.5160565246000307    0.2146214194042097    0.6557425323418835 H
   0.6644760922892843    0.2397820600118383    0.7423469628991949 H
   0.6026369140388790    0.4682837176924490    0.6618772648615130 H
   0.7477798832479658    0.3243363558440892    0.7105053095221520 H
   0.8764378279366123    0.4853436897255571   -0.1379468301764482 H
   0.8314357025505841    0.5304058538323128    0.0027786778653453 H
   0.7403921967870658    0.4615905389175122    0.0259340950569564 H
   0.1118820537757211    0.7334022701507080    0.7498867605165318 H
   0.1890737350815119    0.8453727255210008   -0.0247031718364261 H
  -0.0240359495678563    0.7634346591967570    0.8808950024174753 H
   0.5583293083178604    0.6828057854469677    0.8125313897565281 H
   0.6620707990229446    0.7107306762378711    0.8848939803699808 H
   0.5410017299025199    0.9282844229859613    0.7324100032546954 H
   0.4913130694062078    0.8097895611524156    0.7160908082826577 H
   0.4677043796828196    0.8780429004840764    0.8193731738369534 H
   0.5417087318474539    0.7565064293378709    0.9163859317459613 H
   0.5870691267173809    0.9156049432006569    0.9363947261606185 H
   0.6540772311095321    0.7630775413539996    0.6855193448776641 H
   0.6522168103994450    0.9659664630460842    0.8429429496620300 H
   0.7036893850474308    0.8818476066760284    0.6966020478576519 H
   0.7902329587730189    0.8626437204274711    0.8796908595430422 H
   0.7473927923199718    0.7888187679112217    0.7674545932498177 H
   0.0971838185388472    0.1696367865152277    1.0567846804627066 C
   0.5117699203360225    0.2152738600505350    0.1024326244463923 C
   0.4812465313981520    0.2650418601009570    0.1931959364557008 C
   0.4060865865881530    0.2000191079343608    0.2469867784521023 C
   0.5806277794001906    0.1329700533199260    0.1137676968625344 C
   1.0198234604327407    0.4383171619195458    0.2083749499531020 C
   0.3390665609174223    0.3659955533683206    0.1369557899866504 C
   0.4408637612113539    0.3671732518477558    0.1762614606269232 C
   0.9623839352298617    0.4370752253412323    0.1216558060157206 C
   0.8589521172671728    0.4548492031248256    0.1264848917003699 C
   0.8107606992352809    0.3778386444836660    0.1955416512699834 C
   0.2789068804433679    0.8301150992169573    0.1302940711513048 C
   0.2094156438482695    0.8025257698597916    0.3328855479138306 C
   0.3112521142363455    0.8197328140861706    0.3123275197400498 C
   0.3466484940940005    0.7977316244938418    0.2101832499625712 C
   0.3214216661163620    0.8402494856440190    0.0373498144554509 C
   0.3649434492034855    0.6868239000882135    0.2066410398325268 C
   0.8148041164287835    0.9950302507801876    0.2945455553639663 C
   0.6654248858138782    0.6858423649308563    0.2605945662588459 C
   0.8601526601452990    0.7813976148327552    0.2250375898327437 C
   0.7524186631187637    0.9061977263045216    0.2897338504944791 C
   0.7978646808189588    0.8110700118481773    0.3090564503265348 C
   0.7319799816200075    0.7220046781551003    0.3287989706529079 C
   0.0671877778777172    0.1138466443317084    0.4125473856627762 C
   0.1683321128564996    0.1163514990597811    0.3743019447473939 C
   0.0644080162136443    0.1483994123491587    0.5177923233419202 C
   0.1094115441030347    0.2507125964786891    0.5325632352993144 C
   0.6626626554418340    0.2564573794824015    0.5564703379850577 C
   0.6145511801015932    0.2608390788891104    0.4605119698470459 C
  -0.0402418759191997    0.1437403538130648    0.5439865327332195 C
   0.0710902434833090    0.3358402927908602    0.4788237709925322 C
   0.6318706941226003    0.4306890673144914    0.6040658927018050 C
  -0.0646804970072273    0.5825893213680730    0.5765401042993037 C
   0.0728447751895427    0.7218329454299111    0.6853309368413065 C
   0.0867863598624574    0.7991133903119956    0.6165918985728570 C
  -0.0295043101774529    0.7044534499313757    0.7091329203569493 C
  -0.0951190274791619    0.6589881091212576    0.6381552330956159 C
   0.2067803400305132    0.0872539396182137    0.8227992801217147 C
   0.0439125333287152    0.1412261579744169    0.8535313422588066 C
   0.1542797304179634    0.1184209143256587    0.9840216358679181 C
   0.1702416211842671    0.2541343171370604    0.8686269278434294 C
   0.5206432856211208    0.2927418456910896    0.6479955554078140 C
   0.6735530940500712    0.3141617307868576    0.7186388357854276 C
   0.8428787274835664    0.3850751309915318   -0.0450310780174601 C
   0.8149317442347526    0.4598707686059318    0.0288937002627659 C
   0.5193189227336541    0.8628420393904510    0.7633548065693718 C
   0.5901532316110722    0.7374383484661368    0.8602723176112913 C
   0.6418537130554314    0.9013769947007810    0.8831802319949936 C
  -0.0363541365989121    0.6496613694854619    0.8016051141129995 C
   0.6838411574642018    0.8179766852980439    0.7348593077273443 C
   0.7395682260617161    0.8815256976346697    0.9318923998010175 C
   0.1444572981201155    0.1497121976584498    0.8780932150133381 N
   0.6239156950516511    0.3208981086054696    0.6282794539204873 N
   0.6076719011095257    0.8275980291904402    0.8098178968934144 N
   0.2751867402748747    0.4010392326738429    0.7157438872120213 Cl
   0.3976561388773850    0.6439244904983901    0.6468039267202975 Cl
   0.4826912501116543    0.1049596554399117    0.8836168380718666 Cl
   0.7746827027435494    1.0744102899007770    0.6989714005805550 Cl
   0.4598774992940161    0.4816837707475198    0.8601562137660081 Cl
   0.0560610174529329    0.8556623180930033   -0.0246461627626943 Cl
   0.1219716629640867    0.2706594602914539    1.0755552656052128 O
   0.3055782868841724    0.2967376853763484    0.0965113283369540 O
   0.3861563125582296    0.2238051681935089    0.3353640521559519 O
   0.3726628277095689    0.1294872561693327    0.2090646206987358 O
   0.5767157066465671    0.0675061133153962    0.0515589784668046 O
   0.6390430963173880    0.1266683964165418    0.1824073168682564 O
   0.5590968282828775    0.2882042215924726    0.2568917573967033 O
   0.8030553457628204    1.0713643693063133    0.2424218811579174 O
   0.7972377618160120    0.2905028533409248    0.1635456562543006 O
   1.0862411109093650    0.3749508042220125    0.2198101358645781 O
   0.2871732352607471    0.4467013834983096    0.1439637346600258 O
   0.2947832185045714    0.6311329173861840    0.2086871093934141 O
   0.4502263126567046    0.6561182325337870    0.2108013117497370 O
   0.9994184390146797    0.4961181577911064    0.2737059579845589 O
   0.6802177900277072    0.6093422620552797    0.2091320582615649 O
   0.8441297604827355    0.5470636407568733    0.1657106105908970 O
   0.7976080227036584    0.3962219500955455    0.2765856114406224 O
   0.1678973368141874    0.7255593300024255    0.2986300469270695 O
   0.4084841660860000    0.8551162223978411    0.0251297109312525 O
   0.5927864316737851    0.7334906514276883    0.2566094929584702 O
   0.4312271606090103    0.8458512778012350    0.2075802990838889 O
   0.9528735599301249    0.7646216987867673    0.2385167596072875 O
   0.8285311180872666    0.7686843633399868    0.1480558737818003 O
   0.8777849324160986    0.9995570966742947    0.3521101199483719 O
   0.1952742024462275    0.0404578498246215    0.3191658276574427 O
   0.2219736589542780    0.1857911594344848    0.3733286190983141 O
   0.1134367287528275    0.0867739502440449    0.5804705323168097 O
   0.5798893613799413    0.3496500469557567    0.4297300595320691 O
  -0.0597156351046954    0.0813352682484103    0.6057198510726344 O
  -0.0987374861538885    0.2044317048606644    0.5146676421060268 O
  -0.0201769615664958    0.3390457308120685    0.4410380178765583 O
   0.1158069594351097    0.4106688398563634    0.4646743274620755 O
  -0.0299096336491567    0.5067458267112323    0.6237917274456224 O
  -0.0632702798764375    0.5845847262963167    0.4917067092837540 O
   0.1620902716425962    0.8563068547226882    0.3855167419226140 O
   0.0566739114222568    0.8814171970426045    0.6254269145360767 O
   0.1456115583872860    0.7714249014733401    0.5485841059599090 O
   0.8531324295653208    0.8186003840656765    0.3910000414899664 O
   0.8452706969679642    0.2978241283909342   -0.0255596984076164 O
  -0.0575452611515406    0.5610422534590896    0.8006589025355726 O
   0.8567894570825105    0.4142079710891945   -0.1333791519518374 O
   0.2629456909287453    0.8398708113922422   -0.0363955938123018 O
  -0.0326466189606796    0.6935538109841196    0.8788009618067405 O
  -0.0692435416964610    0.7962406395366557    0.7311154801414192 O
   0.7240074512570295    0.8086441972865097    0.9991033168004114 O
