Li1 Co1 H110 Cl3 O55
1.0
  12.3038890579999993    0.0000000000000000    0.0000000000000000
   0.0000000000000000   12.4633435124999998    0.0000000000000000
   0.0000000000000000    0.0000000000000000   12.7984347965000005
Li Co H Cl O
1 1 110 3 55
direct
   0.7947144584047013    0.4884649733190927    0.5860715405880139 Li
   0.6245658175862269    0.8619907447407764    0.5299318632427429 Co
   0.1104332559075323    0.1432349798037391    0.2198322250365656 H
   0.1740732965734451    0.1320397495783939    1.0681336128726044 H
   0.1405042357624288    0.3031752075605001    0.3053153342913935 H
   0.0111027926500343    0.1757382963972124    0.2863262935325608 H
   0.1794699642195035    0.0198343049802062    1.1371967455176777 H
   0.0170133628491955    1.0725762908558845    1.0340356933270562 H
   0.5405647350725649    0.0653924651505107    0.2143760891019515 H
   0.5293894067392363    0.1552975535303814    0.3058771217376183 H
   0.6139212157548374    1.0835123610896300    0.0564401358279796 H
   0.6144438147452613    0.3303228184452242    0.3267390477657148 H
   0.8332282972215337    0.1843820443523220    0.2361889126572463 H
   0.7193309763505510    0.2472881176073578    0.0851804471120274 H
   0.8527424523694044    0.0615390048048313    0.2477731416944208 H
   0.1261193531317681    0.4266059706183517    0.2685194285819871 H
   0.0869016718177239    0.5956288333748195    0.1903137717251252 H
   0.3246768977002913    0.3614557162595898    0.2415348788701390 H
   0.2725746723812828    0.6265731782541206    1.1488856748577647 H
   0.2060973174454317    0.6097855482100514    1.0454355248158176 H
   0.4482166982328458    0.3371043052842278    0.2548818234548561 H
   0.4156359428220716    0.3431845356753742    1.0769237502439934 H
   0.4339748598048518    0.5315481154519771    0.1847248070480100 H
   0.4681469819702921    0.6346111497582780    0.1147834420113421 H
   0.4593578910178109    0.6232883454194209    0.3118567591867951 H
   0.7751206536439822    0.3454447638374037    0.1351921876238470 H
  -0.0148090144621003    0.5345079953560334    0.2126266564286590 H
  -0.1996053003585202    0.5179955723618670    0.1306392871382396 H
  -0.2011909778551256    0.4891814744723381    0.2508618006303409 H
   0.2102610415946421    0.8335232633106003    0.1308744721470207 H
   0.2957145104160610    0.9033038963427993    0.2065970128646582 H
   0.4826245182322254    0.9162939900393763    1.0268395008656792 H
   0.4100450276508012   -0.0088774929126387    0.3031752288460393 H
   0.5021898767026415    0.7517025224333838    0.0078936526150548 H
   0.6112001248995657    0.6784597365722330    0.0246468652859226 H
   0.3711044944794235    0.8625283211939393    1.0491234757840804 H
   0.6261328018063474    0.9695702236065604    0.1281467948524857 H
  -0.2015664688871254    0.9113033549070285    1.0443182006877212 H
   0.7642923700523504    0.7139365730693206    0.0966709146839071 H
   0.1658214341321152    0.1371338882367983    0.3784203674362174 H
   0.2417738419923259    0.1378463776254679    0.4727561217059641 H
   0.2276319719559682    1.2611773670953772    0.6217329325673531 H
   0.2984095932344841    1.1535176529380762    0.6615354559305465 H
   0.0460475973352197    0.3269633667894140    0.6231120074527310 H
   0.4116266413916490    0.2562632373164319    0.5570828395554892 H
  -0.4151875432978241    0.2285756429197995    0.5994872435806139 H
   0.5724148271981274    1.0579734677998189    0.5924598217567674 H
   0.5220583913525726    0.3115413414069614    0.4236055802528775 H
   0.6205036873309558    0.0147839988615575    0.3565669139126282 H
   0.8467443488712250    0.3142212001436240    0.6479837988132692 H
   0.9549621646954223    1.0795166435720913    0.5870005604399767 H
   0.8459559802542558    0.1543122641505545    0.4137910988731426 H
   0.7713112889968322    0.1659166943626356    0.5203713191648481 H
   0.8939245532166599    0.2791319001045627    0.5401753033262016 H
   0.1382480385658237    0.4100895358596094    0.5944217804180615 H
   0.1641487922622977    0.5418270586481999    0.4670476111605981 H
   0.1732044655924758    0.4266083776770973    0.4255933233171275 H
   0.3316218562899854    0.5168770923981222    0.5594417217531980 H
   0.0277400525468880    0.6543193444135603    0.3769334668657504 H
   0.4445528160418171    0.3779448710192164    0.5478606180982000 H
   0.4254986780457038    0.5443994020942300    0.4816220495951331 H
   0.5505063071578941    0.5869666313026610    0.4001089570499965 H
   0.9432179105560333    0.6589778054390282    0.5438155922162727 H
   0.2942409925783647   -0.0031472488630887    0.3562371860930080 H
   0.1591731297127240    0.9484041537044171    0.4631150990370246 H
   0.1844935790870165    0.8646465328899841    0.5574070979563005 H
   0.0609948224876135    0.7448873367719431    0.4557798270687936 H
   1.0207624979220615    0.9669304825156563    0.5994302053558929 H
   0.4829252361582859    0.9775456115833348    0.6394554121991616 H
   0.3587604299902166    0.7986353538532464    0.5915995603126875 H
   0.4439546311943022    0.8695328621433597    0.4363149468735897 H
   0.4692710168128371    0.7400234734001920    0.4422227005327073 H
   0.8729311909730323    0.6726338520551950    0.6508224271750698 H
   0.6924841803137136    0.6801198047537166    0.4460669206097947 H
   0.7141691937872803   -0.0760328272064065    0.3585163710452162 H
   0.8448750212227409    0.9634643179221286    0.6141484113705467 H
   0.7824524817817974    0.7152829212609733    0.5333104013755328 H
   1.1703899849159385    0.3235140516071048   -0.1097877688984482 H
   0.0436551830456207    1.0000516108538093    0.7648434010834632 H
   0.2076285406148856    0.0321931876384202    0.7918279507953112 H
   0.2342664596057836    0.1678985060631017    0.9015507428654813 H
   0.2944124830713343    0.2525306915550684    0.9715046094308551 H
   0.5590816445575268    0.2559904373252747   -0.0318685533180620 H
   0.6639167900891195    0.2161110903826578   -0.0912620660472808 H
  -0.3340335280679186    0.1901076347549640    0.6828716587039261 H
   0.3414862170159207    0.0509720971473545    0.7976231906960750 H
   0.9308803480760384    0.1870498677952571    0.9315075310271750 H
   0.9851721249972279    0.2998269888455022    0.9093251310295097 H
   0.8106419427209370    0.2705290721481267    0.8062562776130950 H
  -0.0918694459671712    1.0200622925581102    0.9868814897392051 H
   0.1889125070978026    0.5226235439765586    0.8800090462139973 H
   1.1183657837074754    0.3626456056327846   -0.2149154678236282 H
   0.1767813834102925    0.6480890740272774    0.8536698879215953 H
   0.3564294596876720    0.5380576046527387    0.8800090462139973 H
   0.4898571907295557    0.5718535117925483    0.7890338591295256 H
   0.4682591416292011    0.5633228955984776    0.9426260781200519 H
   0.4205693423117665    0.3841534778767897    0.9491190595917181 H
   0.6608193954506966    0.5299658755032649    0.7186963519019870 H
   0.4773863370607125    0.5719658412006720    0.6690902859966764 H
   0.7274381690869112    0.3562315964289282    0.7752892096628498 H
   0.7730822737559832    0.5716449000346046    0.7612257712141715 H
   1.1142776454153558    0.8163850050426025    0.7547226322504318 H
   1.0256390048311503    0.7246423680164131    0.7588770465085363 H
   0.2829518790838239    0.7364979346909419    0.6738275840306970 H
   0.0595087070070687    0.9940500110483496    0.8848690154984453 H
   0.5821654027628506    0.7095196202713184    0.7054994256617417 H
   0.3866345434825685    0.8743389561052187    0.7545515175762688 H
   0.4237642670883712    0.8981126729816595    0.8674371964090507 H
   0.5423227158132914    0.8367406985004257    0.7255495336694940 H
  -0.1753714992738030    0.8849781557603521    0.9176464610744247 H
   0.7506283976930833    0.9267085308782625    0.6912086156597235 H
   0.7954483726945191    0.6685113627770596   -0.0112666590870497 H
   0.7869795056957348    0.8954889789490587    0.2141096502714054 Cl
   0.6914121615448656    0.4967380342273944    0.4102937962176459 Cl
   0.8523279492821317    0.7017327852296088    0.8312140169834868 Cl
   0.0909849336029343    0.1886345148027147    0.2818546529835423 O
   0.1431424260002459    0.0843399490069218    1.1164598347766408 O
   0.5450039818621388    0.0814919973345315    0.2935701480721296 O
   0.5815891621964265    1.0144859397976895    0.0826604514631204 O
   0.8744347806033347    0.1287854061544707    0.2790238380771830 O
   0.7509039203334469    0.2727499850173130    0.1499057055652360 O
   0.0462482655945287    0.5652966837697919    0.2491490911976222 O
   0.1749632590843538    0.3780925039556073    0.3070342944884651 O
   0.1979925629625260    0.6278521288008990    1.1167879999051726 O
   0.3954407022092315    0.3662698337506005    0.2075197819522680 O
   0.4240674232678862    0.6076785694548190    0.1759065412370326 O
  -0.1686996250710179    0.4673839528259572    0.1831933697815280 O
   0.7561071532054446    0.6430190059563280    0.0549834733300702 O
   0.2615822130570449    0.8953525789534801    0.1328575271380061 O
   0.4339456007633973    0.8613809565252484    1.0013207553946066 O
   0.5306564857844478    0.6772120777891460    0.0104829536137255 O
   0.3467634102427063   -0.0559054031529487    0.3220705081395770 O
   0.2089183766923396    0.0874650333762114    0.4243595787029566 O
   0.2885175989693973    1.2095299099459849    0.6043378367185324 O
   0.5434199298678365    0.2940404196213074    0.3424948806629645 O
  -0.3638988818814819    0.1711496400753642    0.6153891880946147 O
   0.4752853753340467    0.3028277887482322    0.5352098523932969 O
   0.8451513566142561    0.1674989343113478    0.4948103810343931 O
   0.9707051545002642    1.0216750219175987    0.6354072609350578 O
   0.1236103903270419    0.3455915944208796    0.6321068573566804 O
   0.1901950284148929    0.4734473338058851    0.4909739744127469 O
   0.4088892955133471    0.5036647469440436    0.5467425126245593 O
   0.4793117445386511    0.6238459806954630    0.3916063548388450 O
   0.8955094179621137    0.3367352229432503    0.5913643753039064 O
   0.8721753324021235    0.6389518790293393    0.5795887166084216 O
   0.0376720341686293    0.6672957981105794    0.4538624051035146 O
   0.3053813726121782    0.8073168123953689    0.6450842254990270 O
   0.1273140973244949    0.8951198966080812    0.5105709020049075 O
   0.5262960758565708    0.9941302463398664    0.5704602566164271 O
   0.6559851516014864   -0.0453408223189259    0.4025084692159998 O
   0.4550876964677521    0.8094422452676500    0.4862499592529764 O
   0.7702262662095600    0.9326940836254191    0.6183176711939894 O
   0.7217806083212165    0.7465762896583726    0.4787256016630674 O
   0.2733606027447976    0.0872024232670767    0.7880868683300479 O
   0.2232398647331821    0.2214708078559830    0.9560808483898580 O
   0.4257148698520067    0.3205180658218659    0.9999143334151845 O
   0.6292228816844067    0.2028209166958079   -0.0218249032902357 O
  -0.0296972338808941    1.0734027143585079    0.9730985543408671 O
   0.7434249842372076    0.2794472248002239    0.7683125752993714 O
   0.9243458288178593    0.2520155809835302    0.8870567830219910 O
   0.2190883318512445    0.5979364003588439    0.8985269356097235 O
   1.1297361723171677    0.3861577554588805   -0.1440052343122472 O
   0.4340358161412154    0.5182731864705152    0.8842595659740289 O
   0.5352867290946277    0.5875098242262301    0.7227437218205466 O
   0.7379958065450886    0.5108016761244668    0.7257159602703922 O
   1.1036387328420270    0.7400828475159145    0.7462809749917219 O
   0.0930639510485092    0.9601746709699381    0.8202126717222284 O
   0.4394658065844859    0.9221993074950160    0.7923998957336096 O
   0.5934276954693913    0.7927196058097093    0.6892021203024145 O
  -0.1946832793849465    0.9401720127947889    0.9704107256690824 O
