Li1 Co1 H90 C51 N3 Cl6 O45
1.0
  12.9417681818000005    0.0000000000000000    0.0000000000000000
   0.0000000000000000   13.1841062817000001    0.0000000000000000
   0.0000000000000000    0.0000000000000000   13.1519919754999997
Li Co H C N Cl O
1 1 90 51 3 6 45
direct
   0.3051277101728127    0.3611302532814593    0.8068960966193528 Li
   0.5327001684820117    0.2892163912613978    1.0172307748303189 Co
   0.0836201109228557    1.1216800991150038    0.2469778717817771 H
   0.2498315566683488    0.1818810914872876    0.9960484322225248 H
   0.3091317998205375    0.1340120902432667    0.2971178050503214 H
   0.3416976744428862    0.0118422619981996    1.0973950573180231 H
   0.2730764483843863    0.2890351123829563    0.3283769482102206 H
   0.5959666393767269    0.1401073080974752    1.1005831675357078 H
   0.4899740129650543    0.2030626561707900    0.3139555586326323 H
   0.4634553027564569    0.0342184469057412    0.2726888059604108 H
   0.8858845197847924    0.2243390319831845    0.1533122124432671 H
   0.7201791872618505    0.1158394515462805    1.0684732026888091 H
  -0.0254523110345333    0.9980243908579413    0.1596785484443820 H
   0.9903068816302539    0.3383209711371391    0.0783296545283085 H
   0.2132585016305040    0.4353901218748243    0.1458852006125146 H
   0.2674002533723857    0.5877963568570950    0.1696527029484576 H
   1.0241198810483239    0.5559813827482913    0.2413817613114313 H
   0.3770630119740938    0.3414633911931353    0.2668242950829954 H
   0.3000766229425585    0.5574998777886255    0.0423290242905456 H
   0.4122220407565669    0.5621713358824888    0.2421451437723317 H
   0.4726281606173284    0.4895493636727393    0.1512676552347400 H
   0.6077996437891658    0.5940372046052815    0.2055172321299445 H
   0.5565836128196008    0.6193525345084749    0.0084162907038112 H
   0.5428120015918055    0.3679369338468733    0.3521505332749357 H
   0.8290244377880485    0.5536872568247175    0.0554798838958583 H
   0.9392852599535039    0.4505547447721316    0.0191545880098838 H
   0.8396628604568782    0.3336934295581787    0.2649204009773234 H
   0.9149879618113373    0.4238523659776998    0.3512107516796439 H
   0.1654675049667099    0.8080388168280401    0.1061604196840243 H
   0.3315769553757500    0.7334315602584149    0.1226484163619387 H
   0.5612629579561613    0.7028197014507992    0.2749135640088120 H
   0.6323990644809774    0.7161038783421141    0.1555103585532902 H
   0.5250108791513665    0.7489707250392971    0.0175920870565467 H
   0.3921080967928607    0.7348370404331098    0.2529412270017394 H
   0.4388194882741381    0.8121126614142714    0.1592276661741490 H
   0.0299697912566113    0.7947167154851684    0.1298701360966323 H
   0.7908070942958698    0.8880290700516373    0.2943410393658509 H
   0.7083855901384957   -0.0801480461869994    1.0094311958622744 H
   0.8819499724119221    0.8591215360969839    0.3784659386252984 H
   0.1557114964965876    0.0812144272749245    0.6041146468611607 H
   0.2949104046128233    0.2241668549731166    0.5048099634008175 H
   0.3146140491548887    0.0857099917624673    0.4237898713885206 H
   0.4159124174755043    0.2631274025464458    0.5628469057455137 H
   0.4947174142636751    0.1599235925249330    0.4432138491765156 H
   0.6937994843337675    1.1616312333629966    0.4736546372142364 H
   0.7655107054716290    1.0625445018024895    0.3394247043425745 H
   0.8777473009348907    1.0374893336369757    0.4128561664206438 H
   0.7889240440312026    1.1300242369465303    0.5645602583723992 H
   0.8456110430327535    1.2698175578300412    0.4978000899024347 H
   1.0834958480109096    0.3735960205081786    0.3694885912987532 H
   0.2545496136712450    0.6362258814951252    0.6076380675024082 H
   0.0895845200295303    0.6485452603388353    0.4212731423590581 H
   0.3189457601863718    0.4081178902713002    0.3679701901290139 H
   0.3298716242579328    0.3621625568528353    0.5334781986538781 H
   0.5575754401974123    0.3185274413806154    0.4809949701599862 H
   0.4793922286156337    0.4254138673460994    0.4624460689399696 H
   0.7570226844796843    0.5179680362770448    0.4184484751855071 H
   0.7236918448339379    0.4778255352464965    0.6618450652962080 H
   0.9028922421383377    0.4546236591796604    0.6562763271053367 H
   0.1991506921383851    0.8620037944153006    0.3245828461386138 H
   0.0782444930766145    0.9120640704702732    0.3663955237181327 H
   0.1598113999452229    0.9067516132961970    0.6145700972793299 H
   0.6099886800631921    0.9913815439232527    0.5086807154583639 H
   0.6104391594658598    0.9908809411627030    0.3746178523358392 H
   0.5061694120060258    0.8206835874661076    0.6172290100938406 H
   0.4077265190332046    0.7947280928206354    0.4576989553379918 H
   0.6104770213710582    0.8737618913759700    0.4461048180936826 H
   0.8920297388060885    0.7206548125289298    0.6628152605353603 H
   0.7664472081063343    0.9641510292164410    0.6087215535649413 H
   0.7576725184036011    0.7954236272621872    0.3896840111632716 H
   0.7901371703814395    0.8340572660630966    0.5680264253290793 H
   0.8890463752148369    0.9315883366207436    0.5465819931453166 H
  -0.0093185032683244    0.1031696507701857    0.9225888375238844 H
   0.0477726136193246    0.1315204537759851    0.7064177810560740 H
   0.1258894509632144    0.0794858307729657    0.8084312252932153 H
   0.5031959156908842    0.0811545066414648    0.8378457809529707 H
   0.6049059124632821    0.2162611238015867    0.8430039349517242 H
   0.6531612969847146    0.1069848505967995    0.7452484008550634 H
  -0.1023544766443005    0.1930286047778925    0.8149625553122739 H
  -0.0087235304723483    0.3700751144256456    0.8427651878474187 H
   0.2279929642882548    0.6895688980768542    0.7263189489162414 H
   0.0660181884652772    0.3621936549031120    0.7363280791107566 H
   0.4366129891622040    0.4955660703273349    0.7885817606276110 H
   0.4263808479169123    0.6539798342469244   -0.0065669909441012 H
   0.6698993498502135    0.6023115614459436    0.6986577398250482 H
   0.7394292616334769    0.4304353681278318    0.9146919348954861 H
   0.1673721906057762    0.8124714267259987   -0.0614643784535360 H
   0.3210830261002288    0.7899306496987005    0.8100089330684828 H
   0.9408978680381820    0.6813969372553954    0.7812710809846253 H
   0.5177210715551622    0.7088891306779490    0.6740797138802208 H
   0.5241979299583192   -0.0382081536993683    0.9030518730489474 H
   0.8369785286475003    0.9020831133095553    0.8391938657170906 H
   0.1721180645186141    1.0094495111339421    0.1950488559131345 C
   0.9987431322620293    0.2880687973572891    0.2839464162354028 C
   0.6413584275580460    0.0861552248237441    1.0559108470921985 C
   0.8281945666414533    0.3362457451479511    0.0648564102980736 C
   0.3195816856553177    0.5405704784625742    0.1195477453703530 C
   0.4282824427882073    0.5578114650826163    0.1646869152471222 C
   0.4979069320652726    0.6717777793625295    0.0324879294783600 C
   0.3374076887763157    0.3362738092421032    0.3394026544507756 C
   0.9274352563183229    0.4439912357900997    0.1883403664185881 C
   0.9286159296069613    0.3930922225644971    0.0808600696975083 C
   0.8296881801669361    0.5191012947384650    0.1955400362614828 C
   0.9145351643328413    0.3733184135227829    0.2807917610259646 C
   0.0934363893645184    0.9221527330734124    0.2092930860152349 C
   0.0934402528242325    0.8498406643120046    0.1177145629866568 C
   0.0666966119910785    0.7570296709951165    0.3295554769098179 C
   0.1152046667778152    0.8635632478633161    0.3130218597661127 C
   0.0816829722221906    0.9139405723333035    0.0222453745672147 C
   0.5783361273172639    0.6694719727078762    0.1998390048211751 C
   0.6391323020707640   -0.0139334707468934    1.1106409595603999 C
   0.4026460695091231    0.7415549777818810    0.1703286461832589 C
   0.3566678081431990    0.2856818323763043    0.5102658973866100 C
   0.3608666161605160    0.1073914007174883    0.3600755685239051 C
   0.4444269137032272    0.1857683477718592    0.3785571795568801 C
   0.7703207128157216    1.1389296566610976    0.4810690273827867 C
   0.7981468950607747    1.0513620980164524    0.4135351510198312 C
   0.5029085747381054    0.3517363666308406    0.4268936597786020 C
   0.7384232167239174    0.5864978236357902    0.5528584568288235 C
   0.7374728056342413    0.5604291624268726    0.6634790383126173 C
   0.2924231092488661    0.8379672770186025    0.6048438139727179 C
   0.4695814362867651    0.6807211235286534    0.5225587880986159 C
   0.4673845185549219    0.7429377032856417    0.6203220776744611 C
   0.6375359205168853    0.9532219607668032    0.4383745061995305 C
   0.7963310689951336    0.8663984798617023    0.3722980516503738 C
   0.8023526573055773    0.9159346399961600    0.5485651908273551 C
   0.2024006344499117    0.1797011940118028    0.7067006279439774 C
   0.0126877632633628    0.3164863473978285    0.7808361658774190 C
   0.1077930056622273    0.1479773902845418    0.7659927869912652 C
   0.0644913491862528    0.2233378264620851    0.8356970570142210 C
   0.1521594316354161    0.2543296882742999    0.9080784880380040 C
   0.5144156190544630    0.0490362886180130    0.9121273043769431 C
   0.4354361020640856    0.0778141209483420    0.9880351974063598 C
   0.6169915871410250    0.0948042752457873    0.9433948112889039 C
   0.6976776251948116    0.0333932108398653    0.8708651137513006 C
  -0.0804540689087805    0.2875499908599922    0.7127719515996447 C
   0.3343431925310674    0.5603367026139771    0.7180601239259022 C
   0.2941361672861115    0.6623019758965479    0.6792013715063417 C
   0.8161730253949648    0.5336425155010817    0.8365957801903010 C
   0.8351372037477458    0.5745379685928386    0.7243124087625399 C
   0.3589712028247636    0.7554626326567896    0.6644150182024265 C
   0.8038578612102026    0.7619939817039014    0.7910665553310199 C
   0.8733035495716980    0.6856983285509675    0.7369622035852497 C
   0.4759280188283615    0.6572238918330927    0.1392770761427082 N
   0.4110637755342705    0.2909146482021112    0.4130181190742014 N
   0.7558937815512153    0.9479952128532453    0.4457680630220364 N
   0.5473810063189305    0.3293040535349950    0.1687585418189567 Cl
   1.1143100299988715    0.5018855885578309    0.4219726561678513 Cl
   1.0629028350426513   -0.0170705813796716    0.5298903771217558 Cl
  -0.4028875989629110    0.1992808298615462    0.6806368954965608 Cl
   0.4832878323145858    0.3723771286351432    0.8704119504577781 Cl
   0.2147660236109577    0.6965993329064533   -0.0712879854205018 Cl
   0.1559355771600072    1.0993691442641398    0.2343949869755606 O
   0.0298021171050180    0.9953264453741907    0.0233813241654072 O
   1.0738750606307819    0.3005277381827282    0.3477063395658092 O
   0.4121455442542271    0.0074233049028015    1.0505207890590080 O
   0.4211883580611209    0.1734997876932353    0.9924086793935104 O
   0.9838448589123994    0.2103737319419094    0.2314920046690687 O
   0.8247784955622192    0.2440696071501239    0.1054145250683437 O
   1.0264673191706297    0.4983060891976426    0.1924469686808623 O
   0.2871008071466799    0.4359065012072217    0.1265778591487250 O
   0.7803819346032601    0.5273940828625837    0.2747158753237182 O
   0.8037798193239771    0.5764698401551418    0.1214303499253226 O
   0.2497604690096088    0.9937472712113657    0.1449119640089762 O
   0.0151410601818357    0.7076687218268513    0.2694718027810585 O
   0.5999684109486233   -0.0228108263673085    1.1969206654873694 O
  -0.0096298981212833    0.9651939516342530    0.2235350350940457 O
   0.6728286250054673   -0.0996313539297885    1.0700775224024544 O
   0.2089406990539918    0.1410933438379519    0.6144864597587133 O
   0.4154101677126674    0.0165570298157406    0.3296824538729358 O
   0.8374877326378227    1.2179611797493388    0.4455843646131185 O
  -0.1039439039706938    0.3235380199202995    0.6269454089661980 O
   0.4795523303861873    0.5863870842372443    0.5146967851265475 O
   0.7619277329327444    0.5045106204910184    0.4956904779096898 O
   0.9199347356293101    0.5258766497068931    0.6787345220730819 O
   0.2056127148562398    0.8589068837011725    0.6521126992608239 O
   0.0986729226610508    0.7249569623135330    0.4193274294930777 O
   0.3223664674172629    0.8790569033023301    0.5276356616341521 O
   0.4417603538085343    0.7332897228095925    0.4381302846393301 O
   0.7134691304303485    0.6697207571100887    0.5159435924566118 O
   0.1860968344562810    0.3388883209324288    0.9213882589324882 O
   0.2704222515607786    0.2368685122885192    0.7356703840622717 O
   0.1821831497658669    0.1750357279812856    0.9636784307206180 O
   0.6194240213770416    0.1981650924967452    0.9187354288467495 O
   0.7498072871175743    0.3674021990799225    0.0230102777103082 O
  -0.1431162947042056    0.2174223705082558    0.7496135190901524 O
   0.6849753423466934    0.0369937582706676    0.7714383499245011 O
  -0.0186526219376636    0.1732024599930300    0.8914201749544705 O
   0.2816216485801000    0.4827131627142335    0.7132121890945264 O
   0.4256521994148273    0.5619015413341136    0.7653358522838768 O
   0.8620670633391209    0.5669960846095445    0.9125257231115167 O
   0.7435739812147961    0.4610419175122296    0.8443679868788709 O
   0.1382664305034028    0.8941804160941498   -0.0567320154688305 O
   0.3831309618011072    0.7951725673928811    0.7652651405619010 O
   0.7647001516236044   -0.0218452698306724    0.9090638900990866 O
   0.8641139242956671    0.8485466820248866    0.7910475468036071 O
   0.7187527979353934    0.7620212873090222    0.8284114686274202 O
