Li1 Co1 H90 C51 N3 Cl6 O45
1.0
  14.0603640484000003    0.0000000000000000    0.0000000000000000
   0.0000000000000000   13.7219338121999996    0.0000000000000000
   0.0000000000000000    0.0000000000000000   14.1820936394999997
Li Co H C N Cl O
1 1 90 51 3 6 45
direct
   0.8603380736131466    0.6219728591397177    0.3648584582313073 Li
   0.5133068955295856    0.8290209355175540    0.7389210003953592 Co
   0.1453530301679895    0.2342716741019320    1.0551056282778539 H
   0.2134209689998371    0.1312191437987499    1.0718570336795443 H
   0.0167646099979057    0.1144212198942441    0.3151979484432172 H
   0.4079479379022705    0.2094041878809580    0.1624130314148177 H
   0.5987573643698090    0.1959148355394222    0.2379787431666535 H
   0.4368454827027721    0.2919355581309091    0.0796819460176573 H
   0.8542144768340293    1.1571940677911035    0.0887024759374210 H
   0.7905134235101702    0.3211945536555079    0.1912726631732800 H
   0.7444754974812450    1.0231495500741723    0.2872740036388335 H
   1.1365891000182562    0.4350537969212724    0.2519470615994307 H
   1.0200579778965320    0.4762337871277260    0.1230189888847405 H
   0.6281008435699047    0.3780451412386095    0.2184710451474100 H
   0.5778544205350479    0.4809752398187566    1.0404498231983346 H
   0.3996857051748598    0.4372721431410258    0.1572092863348634 H
   0.4275505597868272    0.4595518016923729    0.2791383924284658 H
   0.8840600767456300    0.4881541113501451    0.0049694228222910 H
   0.9839152437361155    0.3761365181277244    0.2016836789057361 H
   0.7758047005149408    0.4763497547472888    0.0434714954978774 H
   0.8795836634903728    0.6201954128749416    0.1906620340080713 H
   0.1935480838427990    0.9856555636549568    0.1916097079088109 H
   0.1523421806381854    0.6747606082947231    0.1007176271789416 H
   0.1903518650361377    0.7630309655619401    0.3212816764310013 H
   0.2223040960348169    0.7261331050322642    0.0126079283034761 H
   0.0851618432906976    0.8451075894120469    0.1900295462930687 H
   0.3326817501736231    0.8154740111157814    0.2287840499630485 H
   0.6576100368291798    0.7643988485627539    0.2790763423516317 H
   0.5303586375168269    0.6690493141671910    1.0809170500118388 H
   0.3484729486970543    0.7147323795848851    0.1447506180668806 H
   0.6166096759554797    0.9644690454878508    0.2355686617732546 H
   0.7132174163613600    0.7513963080723335    0.1699965379642634 H
   0.7808408432318896    0.9081679431378944    0.0912549904617346 H
   0.8817486145467761    0.8894548372801981    0.1506016582665365 H
   0.0717930571516652    0.0052383583162376    0.4863717582986701 H
   0.2765174860563037    0.1130846735844453    0.4286339502701463 H
   0.1597943347672901    0.2904875115019177    0.3821097898202184 H
   0.1370367447860825    0.0730822943635245    0.5600409235543604 H
   0.0782174996262026    0.2867970695647195    0.4784691169222343 H
   0.4194391055166956    0.2462750842811561    0.6308939319706429 H
   0.5049278592831233    0.1046944567552664    0.6658662014117778 H
   0.6277999978744846    0.0042457868473466    0.6238999011511216 H
   0.5068525605146735    0.1330454170006888    0.5463737595285817 H
   0.6284429399753351    0.0443079244092726    0.5097412204122826 H
   0.6361667798151973    0.2505514494643075    0.4912362022766632 H
   0.5180775899276181    0.3129107358237284    0.5834317576887553 H
   0.3741806756631376    0.2971680567701434    0.3535639340184742 H
   0.7100382668140134    0.2893273251741097    0.5910655389027267 H
   0.7401221251368805    0.0428576914995127    0.5683206601704656 H
  -0.0725908288566785    0.1119113695720265    0.4465101543373575 H
   0.7436504832810386    0.1985471175846749    0.5127945721317630 H
   0.1787639716189299    0.3761612959764339    0.5712695900720083 H
   0.0504977337184094    0.6082022053393038    0.4869978294716364 H
   0.1582815716605326    0.6458528752135938    0.5384542659153693 H
   0.1039572314535008    0.7730062359482687    0.6504770772424007 H
   0.9306705341807330    0.8367618269584937    0.4006260968391345 H
   0.0182688384750059    0.1896074155223508    0.9658353109197860 H
   0.2828011071414955    0.0813544520312054    0.8897520451179928 H
   0.2321374118383101    0.2334642077381059    0.8419614990090406 H
   0.2594261789484094    0.2284663699013553    0.9998725985213518 H
   0.1297019418147657    0.2970084582740443    0.8822418704775329 H
   0.1164746882842169    0.2092161677348686    0.7952850338250653 H
   0.0092840071032766    0.1065586254905256    0.8728144894857998 H
   0.0761983484931116    0.0662392355581748    0.7196072088662224 H
   0.1971781463237067    0.0101064768273916    0.9573196429888092 H
   0.0308446152750470    0.0724584755842509    0.9948105814578027 H
   0.4922552855583856    0.1940820034951779   -0.0257792107070652 H
   0.6587394528204967    0.1084585034783367    0.7491077897138010 H
   0.4811565686643691    0.2904518022493657    0.7786549081190053 H
   0.7645717054476492    0.1335468040569274    0.6830018942211343 H
   0.6942378224417868    0.2333949755137706    0.7352029315868769 H
   0.1429370187558337    0.4954923627495560    0.7739024363251173 H
   0.1005348449609209    0.6335914839036889    0.7747267151866982 H
   0.3531691286659872    0.5329121613746943    0.8039339683983335 H
   0.4390609303179812    0.4834590005238038    0.9407889384285857 H
   0.5515177624851348    0.4467730634766193    0.8829300622387842 H
   0.4455459686630855    0.4522802318564007    0.7518062629415768 H
   0.6283803526911815    0.5323501414651430    0.7665424510751766 H
   0.5605814680592804    0.6233604186674478    0.7102376472642667 H
   0.6307920967885087    0.5852870678445846    0.9867179822325134 H
   0.6208136922808413    0.6524073449575037    0.8124263675504976 H
   0.4141974204688332    0.5714639433057270    0.7061627905139880 H
   0.8404687445517991    0.3595171404859781   -0.0971078893714422 H
  -0.0697623103444196    0.5426091910952207    0.7185981900031582 H
  -0.0778787431485180    0.6656350723670780    0.6949091629427047 H
  -0.1974930002339441    0.5067487936662153    0.6787775531948462 H
   0.0900813460689967    0.7084366197319123   -0.0845392232399806 H
   0.1077579865275546   -0.0356232292466967    0.8331828233660282 H
   0.2250622038524031   -0.0436432358657460    0.7914886973060309 H
   0.3814415118440910    0.6699296565566334    0.8896667262623458 H
   0.5064760411029586    0.7143286464029721    0.9056284034134198 H
   0.4468145702397303    0.7239635857496736    0.7961868752826888 H
   0.1929478148902351    0.1849980069021339    1.0195692672291357 C
   0.5509626559478409    0.1895396408185278    0.1044448624760471 C
   0.4658297251162090    0.2518872670138502    0.1385315080932766 C
   0.4912553114502045    0.3293778025719371    0.2172328640687650 C
   0.5144569226515250    0.2748832968970032    0.3164657443312603 C
   0.8335386252700664    1.0417795772626661    0.1593302707793759 C
   0.3133586374103431    0.3481776309001166    0.2464788985784217 C
   1.0215280678550032    0.5121528424697498    0.2672529822566893 C
   0.4072082699986373    0.4042877251869332    0.2269281885741000 C
   0.8544370884242574    0.3393465141159603    0.0370746966678847 C
   0.9757931211789121    0.4531320068438014    0.1856987329758492 C
   0.8435497458580868    0.4453713659999197    0.0579122406520055 C
   0.8023452650917494    0.4612433271229476    0.2353366790996360 C
   0.8728235255826480    0.4855079099839997    0.1561643066318157 C
   0.0799991035671654    0.7885718262596065    0.0269746364341088 C
   0.1699612123465564    0.7436146060570488    0.0680602486724259 C
   0.2171513133792181    0.8057035223614341    0.1442217821847713 C
   0.2604908739981583    0.8990577111756286    0.0989548409052443 C
   0.3006640870142379    0.7555786631824402    0.1922302086771523 C
   0.2615818841560174    0.6694238969388578    0.2574081734753448 C
   0.5811093149206030    0.8458429085105130    0.1721302144699466 C
   0.6811208078776448    0.8083474645707853    0.2130783293789153 C
   0.8313622947074533    0.8286164735753847    0.3087863422085255 C
   0.7581024561674109    0.8837194940642129    0.2490060289803941 C
   0.8145426733103166    0.9288188225167222    0.1585482987883638 C
   0.1703459819002733    0.0794093909075123    0.3530132395865712 C
   0.2211889044262622    0.2508954243052153    0.5206765663451324 C
   0.1384157986948756    0.2473361592141261    0.4486630804691494 C
   0.1059102392067477    0.1427663500576173    0.4207394882220203 C
   0.0768356008408571    0.0794327112357094    0.5146555653441115 C
   0.5344487165362634    0.1601013702709135    0.6170687517832899 C
   0.6602017193684486    0.0523760292052285    0.5758567830248742 C
   0.4961217572808006    0.2607242138800556    0.6394829318106056 C
   0.6822281760756803    0.2248189248192707    0.5489709783127963 C
  -0.0162843209117373    0.0971066049681204    0.5650884152590142 C
   0.0985348967445588    0.5063692553248067    0.6409051477762245 C
   0.0521854567331418    0.6083355684661812    0.6451457064362307 C
   0.0767808369672227    0.6493013687457466    0.5452376085194582 C
  -0.1255816331797562    0.5801974062155577    0.5825116537653362 C
  -0.0513950761027580    0.5974989034570706    0.6641718112455001 C
   0.0521555855293412    0.7538391124509843    0.5328435992519946 C
   0.2096059895430211    0.0577316883277540    0.9017467480387384 C
   0.1553940219598105    0.2290573944691017    0.8553339956813082 C
   0.0428016314249333    0.1236480534974957    0.9429522297436669 C
   0.1690714772047822    0.0079478889486434    0.8148329233713490 C
   0.6907763188966108    0.1598105949287054    0.7044987202716179 C
   0.5108768019784953    0.5068075317428619    0.9163835150265016 C
   0.4231068626119230    0.5243127903519972    0.7673716657383237 C
   0.5802762639441361    0.5937523469801480    0.7807434572960817 C
   0.5604833198182214    0.5488709178442309    0.9991590226377592 C
   0.4544886958618389    0.6743714503179333    0.8615495800823648 C
   0.6430328893745004    0.1501465051717574    0.6096960744721784 N
   0.1482107086649110    0.1471913823330255    0.9298681249057763 N
   0.4915149775575280    0.5759122959093325    0.8342087649773201 N
   0.5097738575634988    0.8132221419242447    0.5801981025482850 Cl
   0.3937007961276737    0.2520570681535356    0.8880216941117315 Cl
   0.1228080947090764    0.5581939478012956   -0.1147167140166590 Cl
   0.7938732227185965    0.4543147118635247    0.8160739249080320 Cl
   0.3995420389089618    0.9398748443629372    0.7408516039223125 Cl
   0.6421893834767033    0.8621977461792730    0.8328232149661940 Cl
   0.1310831293809731    0.0488794374961692    0.2804661230498146 O
   0.3099803465043260    0.2860479040213862    0.3222046713239092 O
   0.5539564617877963    0.1700074084329068    0.0147225667174033 O
   0.6196209777862326    0.1642261533207835    0.1567093601476428 O
   0.5810354903740673    0.2070561223356081    0.3117005804762019 O
   0.8494742012785337    0.2755770766608683    0.1014777406201599 O
   0.8288538248073433    1.0868395526613426    0.2352816801678966 O
   0.8575977462740132    1.0861661781846501    0.0823233049701653 O
   0.2436243121379065    0.3554419131335270    0.1962923733662603 O
   1.1091047476451770    0.4858092523499222    0.2928831895617383 O
   0.2856075778604731    0.5831794931837676    0.2497076179173257 O
   0.5633904991671553    0.3950704383430373    0.1920017515760812 O
   0.4983934623298342    0.6120588046149066    1.0497263096850391 O
   0.7635375928208389    0.3698735524862788    0.2376395830875941 O
   0.8696799369922068    0.5824456316058138    0.1307519797101958 O
   0.7748374424871126    0.5242578418286826    0.2951296843889381 O
   0.9791749681806198    0.5756725337850556    0.3109764278749670 O
   0.2457359217589517    0.9836019172530956    0.1432021866040649 O
   0.2959394582797807    0.8954977173242833    0.0236048941933091 O
   0.2071686415567220    0.6931763799679057    0.3285760860315606 O
   0.1482427135261258    0.8311671344719475    0.2154157839778378 O
   0.0381751509315351    0.8602147895222596    0.0629115025242109 O
   0.5668709211414048    0.9394988040707583    0.1895014155254690 O
   0.5222933982662895    0.7976259436821480    0.1309712703226437 O
   0.7089821063939218    0.9591935499935029    0.3038103491151329 O
   0.8409978915905522    0.7424456746061668    0.2918466712328042 O
   0.2582789824786398    0.0661109737530906    0.3761275983217993 O
   0.2845670642614199    0.1867987734951072    0.5185263972110724 O
   0.2284710771813589    0.3236410018354396    0.5803136708163886 O
   0.0168897845662128    0.1650467373692205    0.3711903865264279 O
   0.4707733382232900    0.2952521460566968    0.3914715951625699 O
  -0.0204328621443264    0.1037682024696860    0.6505525244949150 O
  -0.0928548845396765    0.1093315582652173    0.5134025190413777 O
   0.0997404131836533    0.4693225163623997    0.5643242826650919 O
  -0.2030476217025744    0.5326922215293850    0.6140290031329264 O
  -0.1242395626661447    0.6150015385292837    0.5045527833683291 O
   0.0147589720284387    0.7863461924372916    0.4603705902501844 O
   0.0629540257032482    0.8117952293426819    0.6051149455040939 O
   0.8741279014819396    0.8746916120108934    0.3769857226798351 O
   0.1427990422430405    0.0662326767158694    0.7324156139309068 O
   0.5292277990872338    0.3007506421894298    0.7255245298297694 O
   0.8588836304757141    0.3101297866862189   -0.0487659437160777 O
   0.1563555902345337    0.4682315549713245    0.7056106858530661 O
   0.0978251000447261    0.6682709982136114    0.7105556539080417 O
   0.0534841428793286    0.7649374023920568   -0.0579423039424362 O
