Li1 Co1 H90 C51 N3 Cl6 O45
1.0
  14.7370076437000002    0.0000000000000000    0.0000000000000000
   0.0000000000000000   14.3822907273999991    0.0000000000000000
   0.0000000000000000    0.0000000000000000   14.8645953725000002
Li Co H C N Cl O
1 1 90 51 3 6 45
direct
   0.8830577166704031    0.3930450976721369    0.5218138463795577 Li
   0.4446281415346321    0.9225282060543198    0.6811458658963238 Co
   0.1011873208220449    0.2713502972280349    0.0670585146262447 H
   0.2866700230155625    0.2995808487928481    0.3320337730370332 H
   0.2005236335521139    0.3189379877407915    0.1965487531268487 H
   0.3054540263012187    0.0019425878832204    0.2318729571728879 H
   0.4602865442157659    0.1837328221064063    0.2144241135615883 H
   0.4130491391176151    0.1699665866886501    0.1097498885989270 H
   0.9348334922177671    0.2778395277525017    0.1558574335959443 H
   0.7874446835454347    0.3686227016395753    0.0384408503481449 H
   0.3011668601730930    0.3649633402069953    0.1509975636708170 H
   0.3273723158081177    0.5641708276861432    0.1604367711624368 H
   0.2154533944180558    0.6339823771138824    0.3533226135382314 H
   0.3915977015094421    0.3063064811579148    0.0277315107387731 H
   0.4193631753351222    0.6778001535686020    0.9702442161918323 H
   0.4561968401552699    0.5023436808947119    1.0108844075230814 H
   0.5316691495202905    0.5990832077455590    1.0524065602983839 H
   0.6924023225815544    0.4014429254096821    0.2095884622573503 H
   0.8046639186937914    0.5948738643838187    0.2884994565095081 H
   0.9555249383628980    0.4225418592131748    0.2386386980141124 H
   0.8274528055641576    0.4775145763543843    0.0564440312820227 H
   0.8983518663003215    0.5261606796254784    0.2044837151654529 H
   0.7647602955012369    0.6359549418838291    0.1731091645427834 H
   0.2105236283653757    0.8767851451977735    0.0798903472607794 H
   0.1815781320805613    0.7553691598656732    0.2157440284000573 H
   0.2634801049356804    0.7352131217564085    0.1322792606812345 H
   0.5291870988296513    0.7146225214401587    0.2546801706559537 H
   0.7140410438002628    0.8958822421210572    0.2833967276360183 H
   1.0274594874674572    0.8420438088230271    0.0316710730701055 H
   0.8111618457028024    0.8913134289016987    0.1329930372580009 H
   0.8142805249565007    0.7872959237382187    0.0673229012376200 H
   0.2514132047684662    0.0763055680420385    0.6744648902282119 H
   0.1123259457022575    0.1870855564457375    0.4055776518043259 H
   0.1421936101998169    0.1042009852328248    0.5631167533618648 H
   0.2817992920140294    0.3944030176565238    0.5776673680661266 H
   0.1427004973631138    0.3347783016600460    0.6116222781966613 H
   0.5168378957621074    0.2258811843867720    0.6191690695615670 H
   0.4292939566401427    0.2022368285295966    0.5362448480062049 H
   0.4468721520420256    0.1648707364246602    0.3987029271690994 H
   0.5637655568396019    0.0710532753835340    0.4842451816425991 H
   0.4752460940328039    0.2890672245819338    0.3940946618054335 H
   0.5448613120474716    0.2082365681841154    0.3330307729303110 H
  -0.0015947389163530    0.2216836611170617    0.4121644439467570 H
   0.6670206434073629    0.1290871460526808    0.4529093808133525 H
   0.6363047741519440    0.1359511430244515    0.5649617413560040 H
  -0.0679263866723945    0.0097744418023883    0.3995869068315603 H
   0.6705736034970854    0.2725392594263461    0.4147006717454461 H
   0.3173397499321540    0.5808406339460910    0.3220590649279714 H
   0.0723062880988278    0.3720310599414007    0.5085237839830072 H
   0.0056462154605430    0.6412211405329571    0.5521284286946372 H
   0.6412623613206818    0.2928211467507537    0.6175262397779069 H
   0.4758780405055996    0.3216983268795607    0.5454292890608583 H
   0.5874393587697477    0.3561455515526197    0.4604362590899714 H
   0.7352699124799734    0.2413502083563785    0.5589561961149171 H
   0.7568523129027601    0.3926355662482741    0.6270771220214053 H
   0.0383774192206365    0.9181220929252567    0.5250238227565989 H
   0.0961632344002908    0.6826818515769896    0.6117097343276506 H
   0.3099162618913666    0.8237581264526260    0.3406320561922177 H
   0.9736833058191569    0.8425826659596886    0.3884772872380451 H
   0.7987773776742456    0.7345101739303894    0.3557673487691163 H
   0.9060969935852894    0.7370966881863645    0.3079994827622409 H
   0.1678833573420629    0.1734639433304660    0.7963693184746997 H
   0.1919153731055481    0.1577612987183843    0.9118544667065743 H
   0.0620233321783440    0.0606383837060468    0.8861961833532580 H
   0.0200561964508686    0.1141834006019204    0.6698162604963972 H
   0.1394501767309957   -0.0271682128880618    0.8784845708184109 H
   0.3036232611518545    0.2206532272118586    0.7373956311302210 H
   0.3769889013238742    0.0846595919091197    0.9344786950540317 H
   0.3189051966332597    0.2379189051700243    0.8571594023858788 H
   0.4083602632161671    0.1848313953656645    0.7962011336074126 H
   0.0160933838221485    0.5709367874240181    0.7429094038193604 H
   0.4550140355845298    0.4592943494818482    0.6864995265918060 H
   0.4694343307447110    0.6037145979227232    0.7271235721757955 H
   0.5933985061165663    0.5872088823521331    0.7275500889992356 H
   0.5984999488122372    0.4971536175442478    0.8427896873248710 H
   0.4741734882242049    0.4691591271232642    0.8409255262558610 H
   0.3732140508694958    0.5903704093203910    0.9016362269096807 H
   0.9073435152974398    0.4474830182259468   -0.0603953415012474 H
  -0.1642193407312632    0.5131334085494562    0.7911286780100344 H
   0.5808631254974911    0.5032663433725827    0.9902696519699699 H
  -0.0766153962119085    0.6086936378654755    0.7973528635785946 H
   0.2780122274111377   -0.0271619551922812    0.7417596920665860 H
   0.0677884102765643   -0.0410804612073649    0.7592697549695780 H
   0.2854350368881189    0.0095999216200631    0.9251491440958831 H
   0.1139911412828875    0.7655719851861519    0.8437402681947775 H
   0.3658611334645622    0.0477440539003855    0.7064671067755969 H
   0.4252001811968090    0.6896737836624969    0.8489055618388982 H
   0.6591940884656406    0.6349717883467461    0.9216771356956087 H
   0.5968666457305027    0.6840286467688778    0.8373741345982272 H
   0.3683555340164758   -0.0160788806653337    0.8595752098195903 H
   0.5809977525566586    0.7294713382279560    0.9454611668878778 H
  -0.1306141467886711    0.7898539307134157    0.7015466902982461 H
   0.2765499224085877    0.1382790058548292    0.2418981207421359 C
   0.2402745798882536    0.2609729517252312    0.0646366525373108 C
   0.2598708240500361    0.3012280133822043    0.1557511407598189 C
   0.3217639859491498    0.2351363164462574    0.2134620961207062 C
   0.4146844778907686    0.2196832843658680    0.1660958555769124 C
   0.4634595085739671    0.3116192648756316    0.1393753166018108 C
   0.8233468159723106    0.2938348934672086    0.2175705160587949 C
   0.2166347740048027    0.5582580004730214    0.2257443006089468 C
   0.2597948249037318    0.6185780160006753    0.2983678717824446 C
   0.9305470046534478    0.3783673245690087    0.0413269026707911 C
   0.8419971421881282    0.4016487340709102    0.0762104623645382 C
   0.8883905496240182    0.4593994092410089    0.2362551820749199 C
   0.8257034680715478    0.3943015039249721    0.1806694106970721 C
   0.2518413785302338    0.7630689068739177    0.1996312453744862 C
   0.2604611745615064    0.8678248201395068    0.2016555184371535 C
   0.3080658183916199    0.7088869956074868    0.2698383363748033 C
   0.4059744328732596    0.6890848649595905    0.2315830064616849 C
   0.7008701203202186    0.7728920986503740    0.2177931928230830 C
   0.8012412428548762    0.7610539288325694    0.2125175699060220 C
   0.9406671052604224    0.8213065003056991    0.1254159726169835 C
   0.8378694385544799    0.8204909139556295    0.1310723660735825 C
   0.0499537177559047    0.1873880117417991    0.4480686839630958 C
   0.0823700679098807    0.2251260890959147    0.5418174181249480 C
   0.1263498238868054    0.3226780039189879    0.5347142311659987 C
   0.2090029668754850    0.3335545744851761    0.4813944481420831 C
   0.4864485039108075    0.2439923465748478    0.5551924878808200 C
   0.5025345375026637    0.2176954230062354    0.3957045273551054 C
   0.6102852449998420    0.1271020658911729    0.4995811524031445 C
   0.0196388797100017    0.0899292670559036    0.4542045388393569 C
  -0.0049149516205187    0.2301391987156946    0.6030744505016630 C
   0.8588960952199169    0.4829263290073687    0.3281063200161454 C
   0.6266691681026585    0.2942819710657548    0.4745270563670703 C
   0.6886451147861394    0.3014755400153030    0.5544454107003309 C
   0.0268682985021909    0.7874398507411722    0.5356510881507346 C
   0.0237265480790788    0.6996228246540960    0.5948037914679537 C
   0.8498793393619659    0.8769096038138541    0.3451259558461284 C
   0.8394002785014650    0.7744481790011463    0.3069210813931962 C
   0.1898525391344335    0.1229031520224003    0.8449168895263179 C
   0.1236443899911363    0.0401110556471340    0.8491437116109768 C
   0.2948792879440311    0.0448828963295957    0.7270401524816211 C
   0.3366767827199346    0.1928050903891924    0.7991302412560843 C
   0.5282961445519956    0.5203741883371713    0.8342075499169461 C
   0.5251854044948309    0.5568298552359857    0.7385217970015752 C
   0.4283059677381878    0.6412267029292065    0.9063898039986826 C
   0.5206219543273372    0.5452385167517484    1.0003156704627614 C
  -0.0491871685979534    0.6036902624391319    0.7295689801461496 C
  -0.0996438161058942    0.5306413288642837    0.6774168710188347 C
   0.3384261202125443    0.0423554825337705    0.8903597679278168 C
   0.5952889848808839    0.6648557621966960    0.9073417303475274 C
   0.0153822489531590    0.7643364379192519    0.7522746099693740 C
  -0.0390962462346490    0.7025472544822228    0.6839680079694009 C
   0.5567369250776932    0.2159717754684498    0.4795672877438763 N
   0.2896706321669667    0.0984598970039035    0.8158040889989251 N
   0.5177731534706755    0.5950184866863033    0.9152518010257732 N
   0.4130477819900026    0.9628402822728495    0.5448919047729026 Cl
   0.5521397910028554    0.9928202074581018    0.7583333016285236 Cl
   0.3141491429149892    0.4198953406076592    0.7031579013268563 Cl
   0.8250866535716322    0.5549344687139995    0.9155390607790995 Cl
   0.1565791628931162    0.8290639571750311   -0.0339546621453116 Cl
   0.4020231558292463    0.7887136394822869    0.7219441510028227 Cl
   0.1531802367874210    0.2355006534005937    0.0459836052762357 O
   0.1952817281485414    0.1244522793778607    0.2633632189842509 O
   0.9877825045862026    0.3440042311392221    0.0898341093542605 O
   0.3315868756089705    0.0692913863715337    0.2196721541604142 O
   0.3394276803906249    0.2831078123002232    0.2941497953108848 O
   0.8880668746884188    0.2378695389033108    0.1901913651433972 O
   0.7581069773805861    0.2742698599594435    0.2653343456288554 O
   0.2702630287433322    0.5272355431707236    0.1625067905090062 O
   0.1362473555653178    0.5401713823583961    0.2241902724352142 O
   0.4407046856066766    0.3465351214327033    0.0570259509228360 O
   0.5195899402056303    0.3500693289496715    0.1844031147508452 O
   0.4234759505650320    0.6367733094320234    0.1659310344069710 O
   0.7386851241170195    0.4442870044009427    0.1840203259928998 O
   0.8231568181065501    0.6657040276247309    0.1940313620332957 O
   0.2301266581652210    0.9143792955489356    0.1343546619435571 O
   0.2963083433200730    0.9127717630328565    0.2639713754643609 O
   0.6501481543640193    0.7116007496776672    0.1900911269624941 O
   0.4740035758471104    0.7207738363924738    0.2856537685550108 O
   0.6700049670274162    0.8546621047148115    0.2487445903196582 O
   0.9613510872036842    0.8391680499620826    0.0380022242142602 O
   0.9950533157705754    0.8250771096632672    0.1865067710708719 O
   0.1503316259286253    0.1685231448619284    0.5813900391926057 O
   0.0723680374052000    0.0317876249594245    0.4903328010989221 O
   0.2051622957318966    0.3194733683797971    0.4022893012791290 O
   0.2801334178695931    0.3741225209311785    0.5141857813593842 O
  -0.0620513812375556    0.0774834054478509    0.4256387427743284 O
  -0.0607132534115563    0.2909702593987629    0.5829810680371414 O
   0.8065869685208107    0.5541133199676805    0.3443953607826334 O
   0.7388758005465863    0.3881307205857839    0.5616978112735372 O
   0.8874330960933462    0.4367019818153423    0.3937522374156371 O
  -0.0891681480644247    0.5149770647863229    0.5979246298653327 O
   0.0286854923754293    0.8701638077623833    0.5721653683176972 O
   0.3106518250573824    0.7553086688064610    0.3540040986204786 O
   0.9310369277215875    0.8974494472643281    0.3805557799888239 O
   0.0384473112926842    0.7761454051567471    0.4512557199242391 O
  -0.1242057902020901    0.7367615538123378    0.6623797984044318 O
   0.7927252670859657    0.9382176399753092    0.3481183010049000 O
   0.0966199078419224    0.0203527288697019    0.7592899371536526 O
   0.2978893969887234    0.2490353540744682    0.0075022349014835 O
  -0.0265231374679442    0.1638124905382101    0.6602236684058115 O
   0.5206464640520202    0.4758194917213394    0.6814163071629215 O
  -0.1630983533232759    0.4888816390218454    0.7288814404086800 O
   0.9500075360539727    0.3926585111328029   -0.0441507015397233 O
   0.0812701159798883    0.7188207400094001    0.7956447780664270 O
  -0.0134601056330997    0.8442326117471696    0.7724467029517860 O
