Li1 Co1 H90 C51 N3 Cl6 O45
1.0
  14.7166806375999997    0.0000000000000000    0.0000000000000000
   0.0000000000000000   14.3624529883999994    0.0000000000000000
   0.0000000000000000    0.0000000000000000   14.8440923824999995
Li Co H C N Cl O
1 1 90 51 3 6 45
direct
   0.7173774492548685    0.4960867060769220    0.3536939851836037 Li
   0.7484442374293627    0.5764725566647342    0.5353664600315283 Co
   0.2921314203364486    0.1043087831451899    0.1234542432085945 H
  -0.0517980379863917    0.1018085138646566    1.0700193573252981 H
   0.3975444572978181    0.0510414199295956    0.1500062202405254 H
   0.5047934381561401    0.1546483735051332    0.0711506075268796 H
   0.5262617982965911    0.2894192236909157    0.1791801157432604 H
  -0.0387679257809214    0.0798046124241962    1.1904713158504221 H
   0.8186462092898110    0.2844736896615011    0.1113544801936630 H
   0.6712501997264921    0.3232630246344306    0.0777303294447480 H
  -0.1297986434399868    0.0218778779957563    1.1212734172162850 H
   0.8373046287229571    0.2951438725420838    0.2226964172694848 H
   1.0555637646719602    0.3109810000984776    0.1115545597891997 H
   0.0552954050807417    0.5460863823564542    0.2299929226541918 H
   0.1886284608369886    0.5690984681239022    0.3427354168987705 H
   0.2308947853783248    0.5451464314991108    0.2353789036855585 H
   0.3386921915370762    0.3370364378640350    0.1059812988670613 H
   0.7197414334206399    0.5217761896420203    0.0791450336556136 H
   0.8337739412480080    0.5187104877013030    0.0707787424200235 H
   0.8775555531390625    0.4983784455191039    0.2172134279493730 H
   0.7098642061042696    0.6615715297292343    0.0338691095585412 H
   0.1025920759225105    0.0729568963634764    1.0821393304003846 H
   0.1233685001399938    0.0077577273387763    1.1831788524777460 H
   0.1472828602233960   -0.0416530523221330    1.0725227101098582 H
   0.2837511338413472    0.7002494631190712    0.1838365136030236 H
   0.0389527252385553   -0.1729070937816627    1.1645027358883051 H
   0.2415269383653394    0.7772634662906299    0.3363308488355805 H
   0.4533838833366245    0.6469765298243224    0.2473196808939356 H
   0.5284678664174860    0.8509291556303633    0.1926083533790618 H
   0.6814447540349334    0.8784467391740104    0.2236887312231062 H
   0.0090947694385673   -0.0867672121751416    1.2455100463398103 H
   0.7257638512594530    0.9648372743424897    0.1512936010724130 H
  -0.0745885033269984   -0.1300146992514559    1.1622877132952929 H
   0.8017830316405017    0.7619081505811114    0.0557195529296956 H
   0.1151743969336022    0.2647458618156002    0.5207172652948827 H
   0.1359351926268507    0.1356314270113416    0.4395759621445485 H
   0.1960404583305884    0.1169187460913716    0.6463949390743425 H
   0.3462414482435204    0.2524701036186962    0.3752783294293810 H
   0.3778749402967883    0.2667970434642916    0.6157140467526998 H
   0.3274892576649658    0.2791236286334817    0.7239200561611030 H
   0.8669981452679532    0.3245413578004175    0.5858819769575765 H
  -0.1560314611185634    0.9759259094195637    0.4541555669073929 H
   0.9478146030880205    0.2401233269125706    0.6300793575110318 H
   0.1904325361345232    0.3692697896719683    0.5351451598728287 H
   0.2462712147221706    0.6415227260720481    0.6612877324027259 H
   0.2939789837014191    0.5749923081293921    0.4608058893020703 H
   0.4237602874500526    0.5001413755715434    0.6486099616673550 H
   0.0913157559366021    0.9104433626178720    0.5468075771860011 H
   0.2193283184424927    0.8094731452621561    0.6568644239034195 H
   0.3522740585981390    0.7740105400643277    0.3776853475938680 H
  -0.0470707491559027    0.6732686959539514    0.6270754689032939 H
   0.0551662998805415    0.8656397346777338    0.4435445442903623 H
  -0.0838684492171792    0.7810072557424338    0.5144853315655388 H
  -0.1451709957775105    0.8485131337970439    0.5855983624467315 H
   0.0052854865316073    0.9689737543746947    0.6753559552767759 H
   0.2207342061225677    0.1668726084698570   -0.0094060185831641 H
  -0.0166562819929464    0.0477495031492110    0.9455900589616262 H
   0.3379399838706465    0.2780583509951592   -0.0006483258492345 H
   0.4114144328056435    0.9738162419397487    0.9142038355405662 H
   0.8249540175711721    0.2174113291595782    0.6241146950905538 H
   0.8045948070006517    0.0814631034924864    0.9096565720056412 H
   0.7490693783987532    0.1620482236620555    0.7988960109936180 H
   0.8410065504634349    0.1040288866676699    0.7367190872574052 H
   0.9568784676431293    0.2178638980908917    0.7854226375568032 H
   0.7159470995368609    0.2919111378527171    0.7084984329253248 H
   0.8797510210435199    0.2693467471973223    0.8636463490562624 H
   0.1939346845652175    0.3918411429263064    0.7177559878137603 H
   0.1145091654020442    0.6705330908291350    0.7282416406909613 H
   0.1492540927801372    0.6233580016889144    0.8349527793165499 H
   0.3100933511895672    0.5996343383094628    0.7621574899747834 H
   0.3029130635552740    0.6648397736732118    0.8958510799136090 H
   0.5055949096489619    0.6268114507647833    0.6599080589627959 H
   0.4204490788154439    0.7391898864890700    0.7173309028818287 H
   1.0006940545868681    0.3730045277451458    0.7390957903316593 H
   0.9129650325476599    0.4421178610177918    0.6800628782869271 H
   0.7496619033175669    0.4042288597142184    0.6830512725152128 H
   0.7567402657938072    0.3639169436043715    0.7989101580357267 H
   0.9077981065354365    0.4343390366003867    0.7993615160458599 H
   0.8083069212569347    0.5174450353433612   -0.0848299630824532 H
   0.3045010575177367    0.8576661663678851    0.7378535453007850 H
   0.1147972738488068    0.0199067662349126    0.8554855267655838 H
   0.1828771639185958    0.8602026411629233    0.7587979043083135 H
   0.0324505796558402   -0.1450427728106401    1.0067625427081244 H
   0.2554105038942385    0.7764822626891935    0.9115825907384338 H
   0.1089243462418043    0.7376978015355242    0.8276697473052796 H
  -0.0310250112741768   -0.0467357495507303    0.8753600999222292 H
   0.3803170670837334    0.7234822632730213    0.6084269727293986 H
   0.3704928408495506    0.7682559520377035    0.8616509424502702 H
   0.5793930049358292    0.8466617787380246    0.0007198952232740 H
   0.5675921101364758    0.9803415896693946   -0.1078007174548787 H
  -0.0792811376037494   -0.1020730934321629    1.0109648878830670 H
   0.6807407909433154    0.8004217666358868   -0.0419893512340851 H
   0.2170268483736605    0.2649853752192491    0.0787913576028972 C
   0.3618108558866129    0.0974151139314444    0.1033068342398535 C
   0.3921349494094290    0.2014788139976614    0.1089036735655064 C
   0.4131553145051854    0.2210026376945241    0.2124728215056297 C
   0.3222020599662401    0.2713624195914029    0.0721638052093280 C
   0.3602371314462776    0.0694533165752158    0.0039858409443579 C
  -0.0574841028036307    0.0457526297722771    1.1210881583315289 C
   0.2130130356495411    0.5999274637249751    0.2793256794930891 C
   0.1416871690462972    0.6486677451076461    0.2266407473431123 C
   0.3022145364720855    0.6562186836616376    0.2998240698398591 C
   0.3759390417948387    0.5904005395908796    0.3309145527139810 C
   0.8456020160895089    0.3332849895533936    0.1618035060218004 C
   0.9433203831189455    0.3519315257834025    0.1421761692677205 C
   0.6913274173597332    0.3859048310672624    0.2003164703222636 C
   0.7851406918336401    0.4210767477592087    0.1650458733393699 C
   0.7769540631388390    0.4722949324658275    0.0762058172403725 C
   0.7705008416319892    0.4103027525283816   -0.0082971599493143 C
   0.1041501718386110    0.0031282953013868    1.1133416422740323 C
  -0.0076916245916756   -0.0806937371169150    1.0101221283745943 C
   0.5854033956059923    0.9639551130563756    0.1577028848163058 C
   0.6424278035323207    0.7415000768184516    0.1253216527669370 C
   0.6751559717830755    0.9132130844775104    0.1605686713463163 C
   0.6889233426317944    0.8362937726515804    0.0916065567473236 C
  -0.0042363617336856   -0.1090718978899520    1.1759012098158506 C
   0.2335387239782145    0.2566010135717466    0.4456313677351234 C
   0.1875025275910320    0.2823319942265469    0.5307357289481622 C
   0.2251142699146235    0.2436081076836843    0.6241820619577380 C
   0.0852328625040109    1.0059354071250122    0.4300738655282348 C
   0.3164385320288809    0.2905945103925420    0.6541165293909812 C
  -0.0782815915537782    1.0104673627771956    0.5808658400270503 C
   0.3289175688798124    0.3992416893431229    0.6528749580287786 C
   0.2542166205429134    0.7120810075033938    0.4578415450453696 C
   0.2909348189809087    0.7316681908506403    0.3679211938642083 C
   0.0492131911492041    0.9248684751085678    0.4868421729657071 C
  -0.0186064500170234    0.8086160493322379    0.6401352097755985 C
  -0.0497948688801273    0.9280956397187798    0.5142662275667093 C
  -0.0751531687026109    0.8389646256062241    0.5635171875554716 C
   0.1508278172204725    0.2573139837035389    0.6976584303267355 C
   0.8796823914370977    0.2700847826853103    0.6328050209572994 C
   0.8240006775928517    0.1497292973517031    0.8011635797430339 C
   0.8849492041042128    0.2385901626252595    0.7961952732882085 C
   0.2963042363071303    0.6580971928565356    0.7176515691696249 C
   0.1521222667277431    0.6884248813336921    0.7918797517763966 C
   0.3855988287740296    0.6888614362874360    0.6733106971890674 C
   0.7646088879954835    0.3452000851250355    0.7283696377386111 C
   0.9243065846347220    0.3959609127210475    0.7364065049936711 C
   0.2400721266093991    0.8185126874702217    0.7264840391261288 C
   0.0119024677923952   -0.0221431538231569    0.9336775758374664 C
   0.2986471559402374    0.7366666406320238    0.8660338308292660 C
   0.6527752455778411    0.8577984557478073    0.0000428582111305 C
   0.6819876753768280    0.9580953897857077   -0.0341613212672957 C
   0.0123951060563171   -0.0330855743224220    1.1061549448828352 N
   0.8623408450459938    0.3128177336997159    0.7272008225929674 N
   0.2452825406890584    0.7261273546115748    0.7741306032794087 N
   0.7388007584754601    1.4298504587472811    0.5003317818175133 Cl
  -0.0999454441473746    0.5847782409441777    0.5361246067548179 Cl
   0.7435660993649555    0.6396978288890133    0.4054519492411277 Cl
   0.6778420394482937    0.6069415859004395    0.6636004369531551 Cl
   0.8085209640888457    0.6448703436439789    0.9510211757940062 Cl
   0.4722318835637488   -0.0811107967936177    0.8207882218224265 Cl
   0.1744683383792396    0.2006878627577044    0.0311804978892249 O
   0.0990145028748572    0.9953891585056199    0.3482352479356783 O
   0.3577827736403661    0.1978046505352904    0.2708563169507073 O
   0.5791131864019216    1.0484260596961914    0.1415597624329862 O
   0.4766556392735566    0.2153079280188121    0.0591108010237419 O
   0.4856459138645513    0.2740151697887941    0.2302724951530057 O
   0.6447224785906159    0.3323819404704497    0.1446350599199392 O
   0.7381728995018549    0.3292035140528405   -0.0064095403308165 O
   0.9918163733204690    0.2833471411524777    0.1150879519730044 O
   0.1718998243963089    0.3193709318251348    0.1254294397544315 O
   0.0595388891610067    0.6125959125022803    0.2241454785826142 O
   0.9744564804009157    0.4331230186949421    0.1541176201447694 O
   0.4533064202165044    0.5964781922084722    0.2915379451762180 O
   0.6619002652277817    0.4022996627990132    0.2753160035582930 O
   0.8140201661163211    0.4857696662147426    0.2325084014748451 O
   0.1580964399917447    0.7183396876935118    0.1797561024576843 O
   0.3345254910758776    0.6985965421299357    0.2224444651862163 O
   0.6595451145757082    0.6619614352700582    0.0835144486611726 O
   0.5114070830667544    0.9150177901236095    0.1812583835958891 O
   0.5830413819932766    0.7459707615999343    0.1826582670959741 O
   0.7867055827602774    0.8213450727203496    0.0889179450780072 O
   0.1912819124516299    0.2122527396024991    0.3885772226801890 O
   0.2470866159865930    0.1502111091985783    0.6152020585621009 O
   0.3191137276772402    0.2808489606516274    0.4335836793085251 O
   0.1032661409677664    1.0830928398348025    0.4760151048056171 O
  -0.1466434745608466    1.0599533385066924    0.5656040783670999 O
  -0.0350429010046183    1.0224896823725642    0.6590376790387777 O
   0.2679989404148134    0.6269938708570972    0.4994948158596183 O
   0.3593680495986141    0.5241868502741536    0.3837126612008271 O
   0.4105834030169863    0.4289058421409844    0.6313660646742476 O
   0.2154157513753725    0.7687342825851070    0.5045793975272035 O
  -0.1018038795292040    0.9394140405609824    0.4359408459912958 O
  -0.0176918415987629    0.7223501446848433    0.6707655769468531 O
   0.1037078166526619    0.1875577936704594    0.7178927425541438 O
   0.1430482096568290    0.3393716935496124    0.7400483578336421 O
   0.3023443211733394    0.1070750237053566   -0.0463183461193337 O
   0.4110855542956597   -0.0014252444075210   -0.0181003864619407 O
   0.8547644082974021    0.1175801929909835    0.8873507286123224 O
   0.2644037003397641    0.4465772663889864    0.6797058338908516 O
   0.4432449801644801    0.6056047669033288    0.6680392398319137 O
   0.8002976423371455    0.4479335806631381   -0.0820079650161124 O
   0.1059902606919910   -0.0239158315141170    0.9078673080132322 O
   0.6223709709306900    1.0160987128025238   -0.0749970951482658 O
   0.0313518264520310    0.8659015283980013    0.6846808770323954 O
   0.7607928100779866    0.9819826742403265   -0.0260321614041936 O
