Li1 Co1 H90 C51 N3 Cl6 O45
1.0
  14.6809320762999995    0.0000000000000000    0.0000000000000000
   0.0000000000000000   14.3004262708999992    0.0000000000000000
   0.0000000000000000    0.0000000000000000   14.3474814179999992
Li Co H C N Cl O
1 1 90 51 3 6 45
direct
   0.9785616787432667    0.6482900901468400    0.3964611309385422 Li
   0.2503340740900857    0.1107431769025394    0.2506696892869257 Co
   0.1861957758467421    0.2994913966316654    0.1371347800898055 H
   0.0774540425764697    0.3063205636893446    0.0835588264011230 H
   0.5781770185969866    0.2143282010087315    0.2385644287927664 H
   0.5859476423834805    0.0202955234202074   -0.5936582904518803 H
   0.4599145001835390    0.1170835473420209    1.0289540218939630 H
   0.5383422181251496    0.2060221548986442    0.3587688012365823 H
  -0.0370046301608472    0.1756873948165100    0.1792487917686739 H
   0.7169093544878361    0.3091253751851823    1.1474591413964639 H
  -0.0399036286562293    0.2153848128686694    0.3005404630592706 H
   0.1669626645883755    0.6110443472640665    0.0520877976647818 H
   0.1132521783670723    0.4497421625387137    0.2004692409283453 H
   0.3290797554944887    0.6009915000777881    0.2512865222865417 H
   0.4211120592322852    0.6737781415584054   -0.0449557153697232 H
   0.0154477615536490    0.3737933775566807    0.2916030059360206 H
   0.6743814007615252    0.6097345960968504    0.3289907525635939 H
   0.1263358163133360    0.7225738897956420    0.2278573230977367 H
   0.1995239486754876    0.7337253056331200    0.0314430593047519 H
   0.2421343222368411    0.9013119184096055    0.1799848094495717 H
   0.2040590830698141    0.6836939298932294    0.3113967238525124 H
   0.3832990649949392   -0.1637584306466004    0.2877793383248416 H
   0.4187791010916170   -0.0536959772494721    1.0523678873810827 H
   0.5892028852898318    0.0149292498178492    1.0727658925412662 H
   0.5002861603015508    0.6688768890591966    0.2936737526499859 H
   0.5931025014519705   -0.1475092646708385    1.1181355278825147 H
   0.6597699306664969   -0.0585643635955260    1.0060433806166997 H
  -0.0277667970794629   -0.0187571586062321    0.3338473540792147 H
   0.2004428276628631    0.2171854584936462    0.6367360544296472 H
   0.2084729717563921    0.3009011448180551    0.4811829343398701 H
   0.3188753625294232    0.0635809464050876    0.4417745194740632 H
   0.3022517586102975    0.2204056422229738    0.7038858190420832 H
   0.4217925337381325    0.2252306732180573    0.3857338126367456 H
   0.5037226655409862    0.1890562270721633    0.6264617773140092 H
   0.3887796434474401   -0.0207333234746533    0.4833538101258407 H
   0.3272515336989987    0.3834798020992747    0.6741189221521388 H
  -0.1906951443784332    0.2432657999418545    0.5787168121844086 H
  -0.3073226167419946    0.0550707105775272    0.6901844595997649 H
  -0.2965262995070779    0.1892925836629370    0.6059822247403170 H
  -0.2149306628149215    0.1273944287945582    0.5419256859496844 H
   0.9842173142007756    0.5074638125345394    0.6522216991589903 H
   0.1506142475564994    0.3997814140641135    0.5750241780239955 H
   0.2530198708634155    0.4487079975621009    0.5342453135700587 H
   0.2453766231856236    0.4568392936365837    0.7110264451223839 H
   0.5430909629349254    0.6322248347727748    0.5810851721083582 H
   0.6961824688637804    0.5672679598934403    0.4393066995850909 H
   1.1835765908998903    0.8103803632680565    0.5847025317332250 H
   1.1270638302871392    0.7211298768963887    0.5101922418185912 H
   0.9948535598552377    0.7907005303268047    0.5338453130520026 H
   0.3489953847256872    0.6432028292063714    0.5666164305953311 H
   0.5436957610467792    0.8292518286976682    0.4013302782100875 H
   0.6627649721101517    0.8331845785985884    0.3882819950622779 H
   0.6609667211637681    0.6773283853789909    0.5783223178592306 H
  -0.1743971328655088   -0.0158642378487451    0.5661822080430591 H
   0.8593376409980332    0.7751121838134130    0.3704447180835512 H
  -0.2684286284698340   -0.0780777679314401    0.6139320520777412 H
   0.2251653723973303    0.2830058740651299    0.8852138113359848 H
   0.1238884240215344    0.1022497237914835    0.9700328791950488 H
   0.2023139622650282    0.1756957861747623    0.7667205406029681 H
   0.0735060643623639    0.2831862882675548    0.7942055038875534 H
   0.3244158826801370    0.3408244302631727    0.8345665946692080 H
   0.5797545751090412    0.0451619150412468    0.8946788871944995 H
   0.4595760339353352    0.0456066570286197    0.7835904004026359 H
   0.4432410356699908    0.1525789927493315    0.9112274362452149 H
   0.3498236700100821    0.1008120044109195    0.9765092771977968 H
  -0.0532420188198974    0.0731470948127316    0.7227379082778053 H
  -0.1830525778563029    0.1710211003483661    0.8274322414668696 H
  -0.2201891845217705    0.0100895339458241    0.7676795939447439 H
  -0.0564162042025291    0.1940357989150604    0.6787085778611460 H
  -0.1672681577121561    0.2693006881995295    0.7531760031097048 H
  -0.0763604419715110    0.0822321386805759    0.6093430933551741 H
  -0.2786391518358530    0.2211888356598569    0.7672641900263585 H
   0.1014102871917393    0.4064567395538335    0.7576659897577571 H
   1.0994954171988878    0.6676972039448914    0.7735280071648322 H
   0.0721110575675936    0.3243591868124136    0.6782541427021069 H
   0.2248670262175893    0.4035078764079977    0.8522930508039359 H
   0.3756149479774567    0.5173894467297128    0.8926172013042575 H
   0.5662690553224872    0.4543825137242609    0.7537872602177988 H
   0.6302152676692853    0.4637565000279267    0.8612751150593614 H
   0.7532687625435220    0.6116904818494951    0.8612618723169967 H
   0.8123569727124385    0.4459860507290048    0.6965186723687032 H
   1.1166659891142052    0.9439176413760478    0.8066007107408543 H
   0.9948058789589321    0.7476640509700766    0.7722880682876379 H
   0.3202615143005939   -0.0583419926018396    0.9735916919589350 H
   0.3344881314468697    0.0222437170944542    0.8200630038341689 H
   0.4077416547525261   -0.0728828178934001    0.8038894334883048 H
   0.5562667612421913   -0.0762113900001535    0.8785178626045599 H
   0.4061191419668118   -0.1359466722789969    0.9489100081370114 H
   0.5911952655997454    0.6976606464243604    0.7113812112204682 H
   0.6460282963512154    0.6710796206004304    0.8834413748184441 H
   0.8238875757504619    0.8081181929392022    0.7378590290989008 H
  -0.0952822650925679   -0.1179996548168491    0.6379913270085268 H
   0.1428129717652374    0.1671449921156490    0.0837442247942279 C
   0.1204165736148233    0.2636225357821267    0.1312487296019441 C
   0.0722064193602048    0.2664755975879153    0.2294687557475811 C
   0.0334772707581293    0.0904556697678488    0.2744132293602807 C
   0.1422625979907382    0.2646336944515312    0.3117661266658418 C
   0.4528139973368375    0.1679596531459783    0.2519570232420565 C
   0.4708692542253228    0.1776299942519219    0.3560254626077816 C
   0.0032639302362386    0.1846402747918803    0.2451105254395388 C
   0.3025977856863440    0.6349527254846329    0.0025320617634272 C
   0.1247793756267881    0.5746036153496323    0.2541378938135803 C
   0.2216431164716675    0.6614260622109914    0.0635351029593506 C
   0.2515226907194189    0.6695551905179258    0.1658980165057984 C
   0.1766807124111236    0.6662301148104443    0.2435757612981214 C
   0.2825254906529984    0.7679368732278257    0.1819029161331234 C
   0.5916169009542195   -0.0388705450571871    1.0220601290135087 C
   0.5937925121370791    0.7727332337488804    0.2793367415741650 C
   0.4688764652220122    0.0841642489181724    0.4106475929432704 C
   0.3807733398020640    0.0303560626848838    0.4249712915780826 C
   0.5178745803458643    0.1096516010498835    0.5040299059058171 C
  -0.2250049550486387    0.1779572572237623    0.5993977938393312 C
   1.0262241838460322    0.6329381002242219    0.6126342633260067 C
   0.2552193224944279    0.3915529880178601    0.6737969144167459 C
   0.2220824618733408    0.3939165539255967    0.5750625122782089 C
   0.5295525173534721    0.6388351272360393    0.4454932209273414 C
   0.6896413310463101    0.6332094208077136    0.4007594463155276 C
   0.3570016883710633   -0.0383691614016110    0.3390357211403918 C
   1.2278592016102481    0.6704789392055353    0.6070590687904943 C
   1.0642217712676469    0.7270695599793220    0.6375243460935632 C
   1.1514423914125445    0.7394566033194541    0.5777640317205950 C
   0.6048279150091854    0.7890166644375060    0.3833647557263559 C
   0.6187997799380569    0.6989137559233735    0.4402546011438229 C
  -0.2016958083118027   -0.0465898953694664    0.6315267777752629 C
   0.7893597952685735    0.6605827307066334    0.3854320175081198 C
   0.2493995285224954    0.3325827178996865    0.8346558089335593 C
   0.2298524045041733    0.2208741597253949    0.7070375917248670 C
   0.4221263000122719    0.1011147925878574    0.9639084593446239 C
  -0.2057282498279356    0.2053914044700115    0.7620779139245022 C
  -0.0851752773870982    0.1208659520742539    0.6711936700624344 C
  -0.2312239062382154    0.0353223482105481    0.6982757751845585 C
   0.1085515231469990    0.3328302629681299    0.7462270483004713 C
   0.5848182862966987    0.5020827002136717    0.8104794402808125 C
   0.5074374228681480    0.5412638399493572    0.8636908700612475 C
   0.6433506734458238    0.5770194873904750    0.7623378898667134 C
   0.7107564753974258    0.5343995690429891    0.6962921517756240 C
   1.1183933998717919    0.8151802201883831    0.7866452919702258 C
   1.0660554423084292    0.7361650930449817    0.7468006681407922 C
   0.4098164548974823   -0.0014269059756298    0.8226181561241036 C
   0.5463655506620635   -0.0156187906198647    0.9289441345697793 C
   0.3938726443285425   -0.0680801638536561    0.9805950117105076 C
   0.6931295291888974    0.6458684840111916    0.8306474399157155 C
   0.7244143275663416    0.7350455459981515    0.7816235046682672 C
   0.2112929561950391    0.3194901011865053    0.7411369563273686 N
  -0.1858725622949499    0.1324823890148812    0.6834062664683913 N
   0.4430477236932546    0.0057931585206366    0.9252821678127369 N
   0.7358325399202161    0.3304848783366067    0.0586074088268249 Cl
  -0.3190657403464088    1.2692408109005049    1.2679018832028432 Cl
   0.9274947576442797    0.3914152298865513   -0.3650397681874175 Cl
   0.9907053218766483    0.8234820706193443    0.3792023527052182 Cl
   1.1755239686695316    1.0551926460406365    0.8647893206910721 Cl
   0.5356423214296266    2.2178209261383062    0.7529501795030656 Cl
   0.2109850738360370    0.1214351658757028    0.1153734694525046 O
   0.1133768298531284    0.0649774082742444    0.2759765699457482 O
   0.2196268957136010    0.2257516367095555    0.3074782660854603 O
   0.3783450198687846    0.1427569079149917    0.2176813210701730 O
   0.5217550560339146    0.1950721316592219    0.2007703390705308 O
   0.5316874635433395    0.0120782858516237    0.3695023924163412 O
  -0.0384071296678941    0.0379887022952226    0.2971085018275087 O
   0.1455893622415479    0.5102255413985500    0.1916509684863772 O
   0.3189203188030828    0.6028760592852882    0.1853390592835267 O
   0.0751898811576140    0.5616883360075168    0.3207356451653430 O
   0.3649821081013022    0.6978872130971732   -0.0069413779323704 O
   0.0272555949459066    0.3526240785256424    0.2284351248566991 O
   0.3046943828124685   -0.0148167166269139    0.2726024585885266 O
   0.2173170968654242    0.8349208904769642    0.1656826476957630 O
   0.3611008831420242    0.7838580769518927    0.2049905919662087 O
   0.5520825582446742   -0.1267525407538724    1.0613541335551495 O
   0.5336878133744929    0.7114238725178728    0.2431164472340005 O
   0.6343171870628922    0.8285567445224344    0.2274237975319049 O
   0.2516813999885504    0.3100302433167241    0.5305671767276026 O
   0.1228053865197352    0.3128756130441147    0.3833884532653242 O
   0.4690469584840879    0.1658310452693067    0.5616106739814981 O
   0.5962923534148169    0.0853019772412161    0.5250650263710277 O
   1.2337920674219911    0.6130261063713226    0.6689207972807983 O
   1.0136193983298092    0.6245984886811252    0.5266957655452668 O
   0.4845420237032256    0.6069927197879051    0.3802596811350685 O
   0.4941478851885233    0.6185699970566882    0.5302823183694748 O
   0.7106747367180448    0.5476939279941532    0.6109161917508050 O
   0.8527365614823501    0.6074290704170258    0.3767726579745273 O
   0.9983574245780398    0.7952996939289301    0.6031036707421090 O
   1.2984746090388803    0.6828296199932404    0.5416623644725601 O
   0.3869391608500430   -0.1227044096769827    0.3489057461206883 O
   0.6457095155016291    0.7315834114392155    0.5323932115023980 O
   0.7962517282517210    0.7525904775440423    0.3783819996650509 O
   0.0903830581875710    0.1437799543419203    0.0151091820776317 O
   0.3021134840110111    0.5598492299905502   -0.0396906798001193 O
   1.0080931824479871    0.5727078676644625    0.6800077605857612 O
   0.4310439899327471    0.4909305151683540    0.8547046238871804 O
   0.5103277161941759    0.6196231125173544    0.9054452367369499 O
   0.5777015719452533    0.6312339552191468    0.7076544247244830 O
   0.7630052015691309    0.4686115301287624    0.7370414640044944 O
   1.0715503250298217    0.8996958826661797    0.7802964424860425 O
   1.1990190709019595    0.8056993839229711    0.8147394214035845 O
   0.6629250436906063    0.7884376607180960    0.7589860820755795 O
   0.8122513935849045    0.7412299770301108    0.7565549933720082 O
  -0.1414809666787505   -0.1042385265628998    0.6838119125766133 O
