Li1 Co1 H110 Cl3 O55
1.0
  12.5713614085999996    0.0000000000000000    0.0000000000000000
   0.0000000000000000   11.6329379839999998    0.0000000000000000
   0.0000000000000000    0.0000000000000000   12.8279912639999996
Li Co H Cl O
1 1 110 3 55
direct
   0.2864964729942558    0.7748328070172236    0.6796145205107929 Li
   0.5702493525797339    0.5607690852450434    0.5581387595806208 Co
   0.2557209676670977    1.0758840122086222    1.0557225097280827 H
   1.1073908586206453    0.3271324920010852    0.2308840933117742 H
   1.0484632710728701    0.3237163300603391    0.1251091538005587 H
   0.2819925852958824    0.3628122145759735    0.2182726098245650 H
   0.0232981691306429    1.0704339702598729    0.2329413132971089 H
   0.3259790702935786    0.3210127997876551    0.0362897138312239 H
   0.2558124454285447    0.2995934472266160    0.3257882739387560 H
   0.4272592704737270    0.3513911960694933    0.1074984464535725 H
   0.6242824821606967    0.3201961531234103    0.1298901049828467 H
   0.5323051725903112    0.1252239111051381    0.1338618881678715 H
   0.5583564481328279    0.2834100892254873    0.2362177420952755 H
   0.5177729358609604    0.0423543899810753    0.2278399690060781 H
   0.3597423188554754    1.0261115470930720    1.1112105425269176 H
   0.6845408722728271    0.4392812889597195    0.0388815459673515 H
  -0.0339949096847732    1.1844636334304730    0.2024213361671962 H
   0.9329944723628937    0.4079022856071645    0.2073114236882287 H
   0.8170078299772476    0.4200453916904506    0.1497957936245754 H
  -0.1113283796568426    0.0244507185021713    0.1127315338963736 H
   0.2772341507830478    0.8656404775689726    1.0296311293153684 H
   0.1953806452990626   -0.0224382703972988    0.1770518146807494 H
   0.1559847530084157   -0.0356053654347411    0.2983428233803325 H
   0.0552263737979129    0.8374042744316585    1.1552002824937377 H
   0.2807095102592388    0.6271151795044247    1.3287192656448008 H
   0.3442245086788825    0.6823591772704151    0.0514815701389926 H
   0.6072453456852883    0.9601522854641223    0.0899129184190252 H
   0.3479750968982098    0.5402299918252534    0.0897121855102629 H
   0.3590828835142618    0.6191086036825554    1.2246109939352698 H
   0.5175637301978251    0.5980984340817063    0.0624142249181999 H
   0.6274317035308592    0.6251818759803337    0.1150070265591974 H
   0.5862611426681406    0.7587603410368186    0.2762497306920523 H
   0.4675413038622169    0.7373590406651995    0.3002846706647087 H
   0.6764876474303099    0.8014331379418450    0.1530862542377235 H
  -0.2012701101703334   -0.0393846342712524    0.0502029599760725 H
  -0.0437636209650001    0.8679494385586162    1.0779629364736680 H
   0.8866430883670936    0.5919744437279379    0.2256338558728847 H
   0.9348876642954491    0.7011102443095428    0.1789063528941300 H
   0.7660769896975309    0.7193231841783367    0.2201154548587943 H
   0.0541851182350074    0.0514814909890953    0.6048233875691544 H
   0.0221634471593024    0.4468279637654089    0.5915687792286292 H
   0.1381815897132381    0.3987567025956906    0.6256123010094373 H
   0.1121353255611311    0.0070492073552517    0.4963013305026835 H
   0.3146079868163182    0.1601927212680996    0.4207392272823425 H
   0.2953690203958202    0.2684878055995661    0.4936594515597886 H
   0.1866902579615971    0.4908271667787824    0.3625009587471449 H
   0.3062087373978927    0.3846312941884588    0.6129049334531882 H
   0.5931633386340158    0.1750427961363402   -0.3454064457024252 H
   0.4911171116340982    0.2601949736311773    0.4089143049793708 H
  -0.4829126375721687    0.4311371726470299    0.3906667091412824 H
   0.6301792182094502    0.3385904745144733    0.6061805758959706 H
   0.6027637308331802    0.0267082135594062    0.4346205900253722 H
   0.4277293866216851    0.0015958128570386    0.3973442939818952 H
   0.6426981487281717    0.1380478426179840   -0.4504774558287382 H
   0.6190125676425540    0.2717681463056272    0.3941949310638383 H
   0.7146887606105793    0.4420338180322582    0.6411112202017165 H
   0.8040513971211708    0.3437224540782010    0.3400952684028893 H
   0.8994738387335302    1.0911853918123664    0.3390257322831928 H
   0.7997272831105107    0.2398527350388736    0.4157439011489492 H
   0.9255410234519508    1.0852969395491279    0.4600898933072426 H
   0.8354234965447226    0.4186631097577078    0.4904843636475991 H
   0.7336111344305912    0.0646415370763830    0.4465351600351698 H
   0.1746183752857731    0.5940556032796608    0.6310005179623109 H
   0.1001621593217904    0.5790826015977496    0.4084442391774925 H
   0.2233640902550991    0.6308098609390816    0.5271307871074646 H
   0.3289516998112086    0.9224833835407473    0.5573935142960509 H
   1.0026925719975597    0.6898095737325304    0.4813200293741641 H
   1.0150937746145929   -0.1140570000308531    0.5613200838550244 H
   0.3607724379952482    0.5901305415228800    0.6275299823902344 H
   0.4019477716107382    0.9490286982690408    0.6600175317986560 H
   0.5068489002265976   -0.0868678238799077    0.3395488071638899 H
  -0.5468794565874812    0.5596825153675642    0.3770168713454465 H
   0.4738055418743488    0.7901866239330929    0.5648420694153662 H
   0.5369530383306143    0.7606119798944851    0.4644288423176151 H
   0.9599684801078324    0.6634602542036556    0.3668874600193990 H
   0.9115489032445349    0.5172418180407967    0.4762693555261218 H
   0.7775228463015393    0.5845455379675134    0.5599496432585035 H
   0.7253447266309626    0.7168165087331390    0.5784763163056672 H
   0.9073568353938765   -0.1754894602556836    0.5889097502896460 H
  -0.2712736659823531   -0.0765995666121141    0.5858235305390055 H
   1.0522417003500291    0.3816973835936509   -0.0461096251024076 H
   1.0371518470052492    0.4654268766365668    0.7718760426496032 H
   1.1443081013054761    0.1316178246721409    0.7309000247226860 H
   0.2780813143999266    0.2704322842885363    0.6821293335735780 H
   0.2836964580351823    0.1953979291496583   -0.0764890502189229 H
   1.0288313480075477    0.0995268773539780    0.7833766741174482 H
   0.1710944928230754    0.2470993996489615   -0.0291404055636563 H
   0.5064066251364712    1.1455224819670113    0.8014714790812941 H
   0.5889760435361285    1.0404157581383700    0.7992879727611265 H
   0.4229637929796937    0.4414105876832293    0.8816734357888318 H
   0.3928381774882068    0.3413954408991372    0.8042692670795383 H
   0.6852583761060896    0.2068584905472492    0.8465003529020176 H
   0.7566746667383691    0.3166940283759017    0.8221551539092162 H
   0.8645611522125818    0.1896891391525534   -0.1068772841970654 H
   0.9230591920109537    0.0901826342960757   -0.0558225253870893 H
   0.8886078715912163    0.4693407632284683   -0.1844747801349922 H
   0.7297929322136727    0.3229770499221807   -0.0102025223830087 H
   0.9995346005806501    0.2594453779562073   -0.0231920073749124 H
   0.1173127282213930    0.9305037134116988    0.7454369850434598 H
   0.0642471947189009    0.7694730260155749    0.8608439859941582 H
   0.2170417837509183    0.7592640830844475    0.9741976646859056 H
   0.0530436348639078    0.7453020040100645    0.9889544567747220 H
   1.0331347800895330    0.5639067276918787    0.8619041675705339 H
   0.0623072298091882    0.8329041214976360    0.6798148636469168 H
   0.4190461584133763    0.5028619597255476    0.7041959217224487 H
   0.3588362912877525    0.7585523110444530    0.8741508238682256 H
   0.4626046865792594    0.7572559919184729    0.8037454126535645 H
   0.6395552910283706    0.8877509710963830   -0.0081156796771576 H
   0.6607065403925086    0.6838136679608384    0.8469213073514609 H
   0.6235188417173130    0.6033086397995879    0.9316890607449044 H
   0.7704615585766257    0.5165962373620095   -0.1955240548876009 H
  -0.2714653715519942   -0.1566979906973774    0.6831138992581092 H
   0.2555093756275768    0.9951649366585329    0.4290491799324631 Cl
   0.3297845451697740    0.1462753428532333    0.7825394424902221 Cl
   0.6136734482092296    0.8699515123281174    0.8064519938544292 Cl
   0.2276420676556382    0.3558586831369461    0.2723208224972486 O
   1.0329359153907349    0.3169691093575420    0.2006658002039625 O
   0.2854743084424350    1.0060048465912979    1.0975373183727792 O
   0.3574219655499023    0.3820438137049043    0.0809809665925884 O
   0.5605137323853868    0.2799071048499110    0.1564156921147090 O
   0.5058967360487535    0.0472898585685437    0.1525896838964358 O
   0.7333168146763703    0.3730177189948303    0.0539649675271247 O
  -0.0478674724352718    1.1031600107943980    0.2133887586657465 O
   0.8587304392438292    0.4440247166368803    0.2116495931533244 O
   0.2874351143725817    0.7829451170914109    1.0025653173067206 O
   0.1270499393333303   -0.0295636414870447    0.2291745505198685 O
   0.0062864873366807    0.8031541133332325    1.1004138404439749 O
   0.3810630009429892    0.6177340584024212    0.0913141510539775 O
   0.5978581364432353    0.5749030899329516    0.0625015339891956 O
   0.3568723035224250    0.6365917193219346    1.2987691361121900 O
   0.6650338362383497    0.9079384766365139    0.0646866773544444 O
   0.5251205887521430    0.7864833462177598    0.3215171453674604 O
  -0.1264420967654782   -0.0189554013185050    0.0541964145197909 O
   0.6849942837860862    0.7377665043692543    0.2024150998049822 O
   0.8880828687863900    0.6751254070813415    0.2374837236247123 O
   0.0873617159354507    0.4655326108888848    0.6306832430346750 O
   0.0464153153612168    0.0040120554295220    0.5375805915422550 O
   0.2521931079104240    0.3226074098531015    0.6265111167135262 O
   0.3216995019754491    0.2467727409832635    0.4225423155074578 O
   0.5486208279384810    0.2878939092262250    0.3655965330411064 O
   0.6453223672935079    0.4247664690378531    0.6120981040917554 O
   0.6207204176758299    0.2116431803716560   -0.4102459036411142 O
   0.6682419215593564    0.0325979810535883    0.4804118591267541 O
   0.7589743381152674    0.3147933907183804    0.3966754441344465 O
   0.8716884630174963    1.1106645638247736    0.4115125293867677 O
   0.8800646441308612    0.4729107985933196    0.5307354044671417 O
   0.1784405547966676    0.5634330726266167    0.3970480667767315 O
   0.2220181739736354    0.6554278895397574    0.6031497038599791 O
   0.4253263056014120    0.5427418250388569    0.6363029849347424 O
  -0.4897957425269595    0.5177739278146573    0.4094701207616912 O
   0.4995839750501149   -0.0068564801178949    0.3714867771522050 O
   0.3705255582830894    0.8846141882776155    0.6146674853239127 O
   0.5261276395868552    0.7388676879238834    0.5358414260298330 O
   0.9945868468745600    0.6264059863486332    0.4267175600097135 O
   0.9826947378864493   -0.1945869574060647    0.5829820880052635 O
   0.7119142003329519    0.6328875819785339    0.5639315605321261 O
  -0.2420978282923247   -0.1497358629776737    0.6126157221555152 O
   1.0838770966347890    0.0776600883837395    0.7315166450365927 O
   0.2399056559011033    0.2096161773881937   -0.0102970812250781 O
   1.0069960040795449    0.4829925165704382    0.8430937400426343 O
   1.0609201558055668    0.3118268142570028   -0.0024235959754080 O
   0.5824850997673672    1.1279860693874393    0.7957683258366148 O
   0.4023757284425511    0.4257318313577971    0.8096434522174305 O
   0.7480582570688565    0.2531563390134549    0.8725605515036622 O
   0.9383797284063392    0.1603302617589198   -0.0980910293828526 O
   0.8173482863415895    0.4612972233996911   -0.2238324620673830 O
   0.1162420406830654    0.8490444980953833    0.7350191419650158 O
   0.0807262373036030    0.7200203425411814    0.9198009952745163 O
   0.3878283779960917    0.7401450952323757    0.8057090872056896 O
   0.6611949520927561    0.6021894040555388    0.8634710535767949 O
