Li1 Co1 H110 Cl3 O55
1.0
  12.4997243952999995    0.0000000000000000    0.0000000000000000
   0.0000000000000000   12.5021707515999996    0.0000000000000000
   0.0000000000000000    0.0000000000000000   12.4811955899000004
Li Co H Cl O
1 1 110 3 55
direct
   0.5557037081883027    0.1602026092743675    0.6136387527888555 Li
   0.5371368988203087    0.5295616663332408    0.3797853547728899 Co
   0.1330959903744399    0.1425832690512459    1.1619940726540765 H
   0.0587033101366543    0.0380899753700017    1.1803096257077430 H
   0.1050817727064354    0.3044175648867164    1.0656090756131289 H
   0.1635230612419389    0.0016401452521656    0.0148201343186772 H
   0.4814900718981455    0.1777611600541916    0.1828987678830446 H
   0.5767433720787232    0.1382600198272595    0.1047331792603110 H
   0.4484981444797249    0.2666961155984281    0.0260937017414859 H
   0.4682049789834217    1.0287069846933639    0.1037941666540600 H
   0.4770915749184303    1.2734644800753867    0.2975127878057515 H
  -0.0167089925821510    0.2889602492061359    1.0072572939465270 H
  -0.0090750642664292    0.2298025225445202    1.2699725103199826 H
  -0.1264881330339167    0.2320789272237922    1.2156027189716976 H
  -0.1078637223959081    1.0464958954688415    0.1763745531623095 H
  -0.0840615975977110    1.0224920639772910    0.2893148552228506 H
   0.2949171582683944    0.4015494969429626    1.1941784893717395 H
   0.1614790161740647    0.4889311222387289    0.3085461859292003 H
   0.3158928207476875    0.6491512983824316    1.0753597440585847 H
   0.2439288340586506    0.6321750464805098    1.2617922042535814 H
   0.3739549009222626    0.3762034985322908    1.1043072913826864 H
   0.4696370105573923    0.4092225644370794    0.2369993542520633 H
   0.5985782535023987    0.4120676703556214    0.2342936839693760 H
   0.4110597190232435    0.6414334386669377    0.2737274062001437 H
   0.8532054676189553    0.4022029834584107    0.0201228282411695 H
  -0.1740779823128074    0.4583068404554232    0.2295361269250772 H
   0.7367436998261094    0.6385299428883863    0.1209672009564347 H
   0.9263590805373189    0.5960709163283734    0.3265116122687611 H
  -0.1023204001746555    0.4059551318598390    0.3112534586224784 H
   1.2323738276655249    0.9597029679397457    0.2404886033136869 H
   0.0411270826093812   -0.2719143492393061    0.0554629794969463 H
   0.2829672947933113    0.7472198677821168    1.2436048440471847 H
   1.3526564797026632    0.9377547794649657    0.2387379697431593 H
   0.4409411778608834    0.9189260492646623    0.0459411352838670 H
   0.5496011736373264   -0.1326337367283026    1.1953482491030760 H
   0.6054464049339839   -0.1657895788805105    1.2964843935459591 H
   0.5212005474496416    0.7079210924124778    0.2604017597264526 H
   0.9691680244050094    0.6928173153363382    0.2642491475551362 H
   0.6945883703695551    0.7632866776178642    0.1313123637311040 H
   0.9581517815147440    0.8509058616591484    0.1850011305782686 H
   0.8825821153263297    0.7531420393370466    0.1510989297071908 H
   1.1673243934311404    0.2167207943191183    0.5898028952496354 H
   0.2575283339055366    0.0783214687637094    0.4794336609821482 H
   1.2371739335000633    0.3203995894462857    0.5457878811395647 H
   0.4626576566739737    1.1741377291716626    0.3769635097223644 H
   0.4374203002312495    0.0458339905433355    0.4813757826182850 H
   1.3644407395264548    0.2494567093959159    0.6119906734961438 H
   0.5528516453049479    0.0329583065362683    0.4625178135796085 H
   0.6493217723145810    0.3188766539194642    0.5859651218844970 H
   0.9269270930610725    0.1978912642577189    0.5309864145116805 H
   0.8826701172666295    0.2095180451494610    0.4162890692382483 H
   0.7408933913200678    0.2342009587115325    0.5518570112524922 H
   0.8337650389890753    0.0718919453155743    0.4502113002417119 H
   0.9964486258979686    0.1142625872244770    0.6589797616628726 H
   0.0959114105148417    0.5928178812508613    0.3410550907915149 H
   0.2140929762264388    0.4996780559248494    0.4747642365203473 H
   0.2212803346960208    0.4809269122508599    0.6027263366650176 H
   0.3757205398517335    0.4952236294811158    0.5206933300812145 H
   0.4394003438879966    0.6039015564584062    0.5393590098489864 H
   0.7783206165296018    0.6293131434789514    0.6623872877843620 H
   0.7161128449492639    0.6012644144248291    0.4907290532372046 H
   0.7551249051018347    0.5317460869864704    0.3889791855380177 H
   0.2950851619726032   -0.0085192904589284    0.3938392968601322 H
   0.1334991992645411    0.8424993215399815    0.6299609070674772 H
   0.2826320874025327    0.9323557170668327    0.5750486997341819 H
   0.3470031066789692    0.7617389463970662    0.6122855170448641 H
   0.5240742108092519    0.7894389360133239    0.5891114550796741 H
   0.5927741255308028    0.8787250305787129    0.4618119517143294 H
   0.6534194626619985    0.7636578131664173    0.5881724424734230 H
   0.9630798901715366   -0.2113720630204803    0.5588154792433536 H
   0.8026515529872373    0.7098975491807424    0.5616982158963322 H
   0.6948787767725448    0.9243811019395164    0.3884039201358946 H
   0.9172068787461325   -0.2624847867783300    0.4485415884060234 H
   0.8579335718659755   -0.0528823063719065    0.4500726917256015 H
   0.0902681660904668    0.2773774606746749    0.8922763219985104 H
   1.0386335560071691    0.2247362023623315    0.6988853938126522 H
   0.1770433593425551    0.2428034647992241    0.8083612841757283 H
   0.3100230913296863    1.0415607525063999   -0.1658979454320521 H
   0.3547536775664704    0.2189164130276924   -0.1005892981851796 H
   1.4348342915899588    0.3109516301801012    0.6970882903349893 H
   0.3725156691895402    0.1955524704129574   -0.2259923486162273 H
   0.6549698968465544    0.0355446573902479    0.7817035815859825 H
   0.8303329633173805    0.2800385985411324   -0.0074895633376377 H
  -0.2087899476552710    0.0159754637789153   -0.0817056905770492 H
   0.3066574171220359    0.5361845162082838    0.7897845381957497 H
   1.0735143250714807    0.6579561693274162    0.8524884670271600 H
   0.1088306553632098    0.5279251505307845    0.7358986748459080 H
   0.1385921115549862    0.3996098337851148    0.7485625257455689 H
   0.3370276867371596    0.6147412740316648    0.8781110123752024 H
   0.4507301936927851    0.4771243726003824    0.8139064260254406 H
   0.5518156224623267    0.4059767281094315    0.8053207100795488 H
   0.4197879114657123    0.3574075626369244   -0.0585989298566757 H
  -0.1910263559969229    0.5088924557509961    0.8067124036777210 H
  -0.0930193951025985    0.5857591070784877    0.7698168998228945 H
   0.7472527315331919    0.3784863021003310   -0.1323290459638757 H
   0.7247466353103200    0.3423597758375060   -0.2491479828596224 H
   0.2352342423570236    0.6854473951976128    0.9788145059585498 H
   0.1977190152071897   -0.0634809458108249   -0.0859921389076316 H
   0.2832641013374136    0.9112313855209530    0.6923619802972125 H
   0.0248448276121008    0.8641275655763537    0.6894167496311899 H
   1.0340254544060123   -0.0032778006967115    0.8213856774583354 H
   1.0639541142843585    0.6967198376238182    0.7283937848435591 H
   0.1032721328068145   -0.1834081192425361   -0.0204430499515988 H
   0.4117549343516124    0.6749532176178346    0.6815737509941672 H
   0.3661211282002961    0.9236372311202181   -0.1430043053202646 H
   0.5353408592205523   -0.2105170115088352    0.9134601900098375 H
   0.4099156937993452   -0.2378546640485960    0.9423115926984869 H
   0.5753961423744960   -0.0325843913104342    0.7033793543147526 H
  -0.2649775865014588    0.6976276799678005   -0.1638957333987577 H
  -0.2429395005974544   -0.0941796146760604   -0.1258841505673887 H
  -0.3066673056920629    0.7442283872830032   -0.0563170170547445 H
   0.9194869290175381   -0.0328762606243718    0.7756456683471911 H
   0.7815054867508179    0.1375145492857692    1.0812566150329934 Cl
   0.1561412984860581    0.3419670440393604    0.2322930743466724 Cl
   0.7024309432855516    0.4809485085004525    0.1211907372338613 Cl
   0.0667926084925461    0.2631951235811499    1.0086433791076312 O
   0.1354504422862809    0.0618500891855952    1.1687241971357387 O
   0.5013353094534050    0.1583221358376252    0.0992039813959778 O
   0.4699202168016301    1.1962058968108455    0.3017239228385630 O
  -0.0868336587171569    0.2532720468239297    1.2807086612788248 O
   0.3717940532790813    0.4180570302426168    1.1773051058498580 O
   0.5416713987986692    0.4013023398642925    0.2862838955902163 O
   0.4901910637408852    0.6376500956827645    0.2828074658133196 O
  -0.1407012464099845    0.4744184425125478    0.3012359888136424 O
   1.2885030652240592    0.9250609838711333    0.2842215931597641 O
   0.2889730272099578    0.6758098688516716    1.2133272959326593 O
   0.4505277892300954    0.9504325778368776    0.1178224701718485 O
   0.5852051586473750   -0.1939158944609467    1.2266032676780334 O
  -0.0660115996245689    0.9927612270382392    0.2181654213722498 O
   0.9614238536586209    0.7747718830956110    0.1676670540115113 O
   0.7501519954572530    0.7159916908713164    0.0958853089417525 O
   1.2405980089953672    0.2394088543077166    0.5556843689487898 O
   0.3023293216945606    0.0145055110510942    0.4720585662376601 O
   1.0302333707967271    0.1814493195679383    0.6319527034319310 O
   0.5038585650870939    0.0844651218561270    0.4923170421327586 O
   1.4337542677771875    0.2522226290659519    0.6456020368449783 O
   0.6812976773313578    0.2481801310866685    0.6018946855683550 O
   0.8605976306041443    0.1903813684271902    0.4887428653098188 O
   0.8247968412548796    0.0036699527555347    0.4111589517315717 O
   0.1771353613710504    0.5598684032614265    0.3415109766046180 O
   0.2510937920343381    0.4591738898835086    0.5332337953653784 O
   0.4544430755558005    0.5236354954728308    0.5153028208535213 O
   0.6923979220737275    0.5449293975710670    0.4381651786248321 O
   0.9788562380143858    0.6517748427773761    0.3335173513720532 O
   0.7462319090257135    0.6616611259241795    0.5953616575893701 O
   0.0621432259812123    0.8112935407398697    0.6421031733198094 O
   0.2717806481459198    0.8721181779255904    0.6257874286835512 O
   0.4098964933760070    0.7112429155442475    0.6100757928400518 O
   0.5968406151902959    0.8157647642666197    0.5758643267249357 O
   0.6131033737577115    0.9188220673221796    0.3961996476604867 O
   0.8944623772668120   -0.2233123894618621    0.5130410183045055 O
   0.1084882478136794    0.2791827471683914    0.8105613939169954 O
   0.3273178726515277    0.1720901448834120   -0.1616980272733768 O
   0.6054888058688556    0.0402302436907312    0.7213055215948371 O
   0.3900856565792285    0.3041800061411985   -0.0068587744085409 O
   0.1627958452080064    0.4689681890042697    0.7165431573187656 O
   1.0397295801727220    0.6457054967807788    0.7796484900031893 O
   0.3067102182862158    0.6546959355000401    0.9946383105434103 O
   0.3635178708026982    0.5837922486433752    0.8098298934822623 O
   0.4753411363241020    0.4028588695571468    0.8092458148218895 O
   0.8676777867100882    0.3490210190451580   -0.0335484450895745 O
   0.7109495311065789    0.4025429244242190   -0.1994315918672294 O
  -0.1716403285665010    0.5834915008712718    0.7757137707973033 O
   0.1318759634748281   -0.0369723492970886   -0.0459643229502981 O
   0.3074958356078019    0.9622945178908494   -0.1765812168413954 O
   0.0834622560312028   -0.2627607388564568   -0.0130126720417256 O
   0.4648905059046730   -0.1784065878091251    0.9299890552546817 O
   0.9932485553416097   -0.0086205528736845    0.7534282455047516 O
  -0.3079825346907263    0.7571317464839927   -0.1328858836442037 O
  -0.2211574203379588   -0.0229380664924369   -0.1496278694976338 O
