Li1 Co1 H90 C51 N3 Cl6 O45
1.0
  14.5207838176999999    0.0000000000000000    0.0000000000000000
   0.0000000000000000   14.1444287938999995    0.0000000000000000
   0.0000000000000000    0.0000000000000000   14.1909706356999994
Li Co H C N Cl O
1 1 90 51 3 6 45
direct
   1.0112672699458944    0.6350525729659596    0.3967179880308658 Li
   0.2045229407781654    0.1230446223074468    0.2348537957238612 Co
   0.3083472259494873    0.0454670816383444    1.0164268314750482 H
   0.5301102547520230    0.2511940178335292    0.1964927833607948 H
   0.5573382615155467    0.0048553320675358    1.0009120364936448 H
   0.4024220374162674    0.0196950971127332    1.0858787403896200 H
   0.4863043550164567    0.1418718230293908    0.9563146642456978 H
   0.6551955822937766    0.4213062249123816    1.1722442210507351 H
  -0.0858856248296889    0.1477476347154620    0.1470395064838405 H
  -0.0392565992550043    0.0509816203402281    0.2143759857515861 H
  -0.0904184379909020    0.3217751642726519    0.2592946890851272 H
   0.2111541255137048    0.5153642614287628    0.0806789999212429 H
   0.1036557962501509    0.4217247642600118    0.2272313431956403 H
   0.2142469337645417    0.6728215071367331    0.2941013286505282 H
   0.3823941929382368    0.5272653287997263    0.1511202703361958 H
   0.6894637048859918    0.6760962947350824    0.3185774556834601 H
   0.1539753939504723    0.6819643295075997    0.1901063280346169 H
   0.1908156917412793    0.6380912251891258    0.0403385598839810 H
   0.3470324654690833   -0.1485513577053153    0.2648073493539884 H
   0.4542463748244664    0.7486372233897977    0.0981182580490427 H
   0.5527364438148693   -0.1327352365130280    1.1158153818573475 H
   0.5334896177820121    0.7223972100666676    0.3166226915794308 H
   0.3400300886499988   -0.0732135681397472    1.0256439599828719 H
   0.2985867335560092    0.0931466316454005    0.4232297756779722 H
   0.1614646590869341    0.2204257198455831    0.5813346761529020 H
   0.2772786551571801    0.1692147440928976    0.5919252131822661 H
   0.1990487183809484    0.3123707548095164    0.3892322421487089 H
   0.5513882383566945    0.0420049411225592   -0.6265009568009334 H
   0.4772171045169929    0.2525274050119590    0.3427646666087309 H
   0.3505591345967911    0.2430558312954031    0.3565586490659671 H
   0.5704527739544601    0.1271204320018518    0.5792594128917750 H
  -0.0191171905514925    0.1994619888727298    0.4221185056736267 H
  -0.1006355173071822    0.1236731383210332    0.3625293470664863 H
  -0.1397663250606442    0.1923446989865934    0.6014467606132841 H
  -0.1387505396743195    0.0643791214172404    0.6308302334358554 H
  -0.2420500597850451    0.1264827250904289    0.6337807011011657 H
   0.1681592012838578    0.4039799685063478    0.5209597362002665 H
   0.2720027691608184    0.4532224660401031    0.4721449639212433 H
   0.3166897508104619    0.4398838574084584    0.6183349641162277 H
   0.3565815367685942    0.3230017956377503    0.5598026747243804 H
   0.3912422001541689    0.6342748816105658    0.6884196697739209 H
   0.9592686995188885    0.5140958298603040    0.6340900527383930 H
   0.7133584205126418    0.6116992085556233    0.4166787791051141 H
   1.2029752407378544    0.7231946972020169    0.5422081770392202 H
   1.0379724399193855    0.7820475510096589    0.5512073500541181 H
   1.2226229404475792    0.7815774012357164    0.6512826751645310 H
   0.5918346775691630    0.6823595381145681    0.6020252975020397 H
   0.3778689551256675    0.0002924047877977    0.4598982329215476 H
   0.5637041713149421    0.8698234533165400    0.4296549175756393 H
   0.9106253198730176    0.8051704359819423    0.3872126480888142 H
   0.6717194836900309    0.8982374674740664    0.4199583292637847 H
   0.7320440509446068    0.7259116680009066    0.5607638492874287 H
   0.0416391715757786   -0.0598351558505490    0.4161957959339166 H
   0.0548795036689846    0.0767048224080918    0.9710719352862822 H
   0.1970150816041234    0.1773585865681538    0.6894780892707673 H
   0.3240254429698726    0.0091050618286926    0.8331342247342201 H
   0.3753511847036993    0.1419849417719935    0.9027834422101214 H
   0.3197164469276803    0.2199555700716404    0.7685015774301227 H
   0.1580826102515167    0.3217065860349490    0.7797622588945741 H
   0.1174360441012407    0.3316221508162207    0.6607112057023506 H
   0.4847152534714098    0.1123951996835398    0.8341397937235675 H
   0.5665162095983183   -0.0171844409443261    0.8793960356316687 H
   0.4319920665132236   -0.0430200547626513    0.7863284059462485 H
   0.3990558279461961    0.2850433875731175    0.6943896631010066 H
  -0.0157695751190014    0.2250932819622287    0.7195908990968247 H
  -0.0116355007636745    0.0981606199112671    0.7309206385577414 H
  -0.0339800245905840    0.1725899245753069    0.8320765099108069 H
  -0.2285452791573654   -0.0331737752112238    0.7332418328470971 H
  -0.1742196993606028    0.2603219933694292    0.8426628188995712 H
  -0.2569046298074342    0.2534019542907064    0.7582845173204180 H
  -0.2615462525218943    0.0981259772963450    0.8096770554858685 H
  -0.1675175818150353    0.1042160076012202    0.8783228179927226 H
  -0.1470868665227673    0.3074967509876207    0.7294119327370036 H
   0.3399687971927902    0.3384156383016566    0.7963502715149235 H
   0.1781476428047077    0.4275899710639640    0.7083633372837393 H
   1.0434976237529334    0.6530271411655355    0.7926824462944937 H
   0.4731544450393351    0.5241933772467064    0.9503601737341449 H
   0.3569603042007831    0.6035313283475640   -0.1280487943952656 H
   0.5775351740019452    0.4805035959904632    0.6817802366851812 H
   0.6277673108588337    0.4469050670625965    0.7884008505136422 H
   0.8307219197145695    0.4534873052962218    0.6412488301474895 H
   0.6880719067397125    0.5920695717533411    0.9142971014371345 H
   0.7827678967952824    0.5422787311148188    0.8519236371602606 H
   1.1617853154894022    0.6827314159808745    0.7785544486298638 H
   1.1268106194691401    0.9264217091856811    0.8368534911152823 H
   0.5955121650016877   -0.1675751022425316    0.9396139038760171 H
   0.4738109522995271   -0.1765828891144162    0.9276936480779784 H
   0.3567075630233043   -0.1026604978156650    0.8790965494225078 H
  -0.0559010175615005   -0.0751167909840384    0.7945033224461922 H
   0.6683587835644278    0.7278580173658150    0.7627606029688658 H
  -0.1975207831208039   -0.0591536154263675    0.8491232649362476 H
   0.9107368840984986    0.7378244855812579    0.8619144970978697 H
   0.0488088947330848    0.2812065412224607    0.2575689438469268 C
   0.0449502876011679    0.1102275617784147    0.1064827317025494 C
   0.4015915037376860    0.2021351261588608    0.2208794168676951 C
  -0.0266002576754276    0.1247965488335067    0.1853948814594403 C
  -0.0289706531328715    0.2057535119378661    0.2634346455058813 C
   0.1370906304915507    0.5544822638636593    0.2557840060403276 C
   0.2405946850156583    0.5835320760538273    0.0669639408885385 C
   0.2831846724270925    0.6149853080282330    0.1649466677713647 C
   0.1992084893705262    0.6332631758564126    0.2295560608521625 C
   0.3342831537016058    0.7080763772531603    0.1439741770488991 C
   0.5974149548473929    0.8383057436588507    0.2854218659723275 C
   0.3332398215929401   -0.0172480702370401    0.3132670366899616 C
   0.3688005741310073    0.0000866700746890    1.0179785223752187 C
   0.2240838683125160    0.2128128284684185    0.6285872578975984 C
   0.3537366490188265    0.0438388787370061    0.3980357273511739 C
   0.4144792377849271    0.2087186369783404    0.3274211072716243 C
   0.4356533013795671    0.1134196312962358    0.3844503282302004 C
   0.4696195118949251    0.1478586324816409    0.4852818524953775 C
   0.0392605121016325    0.0728962557430857    0.3642233820001872 C
  -0.0305635423522403    0.1540158270399365    0.3582040615327690 C
   0.2384735873954006    0.3926723361989210    0.5012126725783442 C
   0.2996996211385860    0.3699665765899854    0.5871418899168909 C
   1.0456917201873948    0.6189154773415371    0.6072983688035720 C
   1.2618701331029321    0.6411390683101285    0.6443134549089976 C
   0.5569424151155062    0.6994178444990616    0.4735540289185098 C
   0.7188443502668538    0.6862996053178497    0.3903449214999210 C
   1.1965912878353255    0.7199920228020767    0.6186964615875209 C
   1.0923889238998734    0.7049825796429753    0.6530986186021962 C
   0.6222972204699680    0.8446884687102104    0.3930558001979025 C
   0.6568821303691048    0.7493774441617044    0.4517534764445500 C
   0.8197390415172092    0.7043314398808682    0.3859160489715057 C
   0.3340173278310151    0.2872803107080867    0.7342452878161445 C
   0.4438195272175593    0.1081292091031338    0.9021675576293999 C
   0.5256259926889360   -0.0326795877044781    0.9432915945245135 C
   0.3816118660237521   -0.0356022932164764    0.8467471061190931 C
  -0.1662084238357788    0.1345367795637442    0.6417724025084462 C
  -0.0451192304372295    0.1648907801569077    0.7572007295799722 C
  -0.1848003954117844    0.2529558422495669    0.7667497592748896 C
  -0.1933956614502378    0.0856786736571957    0.8106163851724840 C
  -0.1782270587931611   -0.0176340879461720    0.7937683480552395 C
   0.1686502216095863    0.3512645134770457    0.7093019622969214 C
   0.3114069781335149    0.5689375665824357   -0.0087666083169133 C
   0.5139252469073690    0.5317123800675108    0.8171705527757920 C
   0.5971098748974663    0.5084192584575319    0.7525865279385937 C
   0.7454083432883473    0.5625737889204617    0.6797853061954525 C
   0.6714591671639084    0.5912438049323411    0.7563234111554890 C
   0.7306426114455079    0.5999327383485142    0.8469993792082215 C
   1.0934653120753486    0.7056004907744429    0.7587932915392750 C
   1.0648477109033325    0.7990266742743308    0.8007312262498730 C
   0.5299574393098362   -0.1365621849737071    0.9686549054099951 C
   0.7876946280859719    0.6917003182849895    0.8494537567764746 C
   0.2584277443911691    0.3038755372400503    0.6653585269950951 N
   0.4312641443753625    0.0091248576086481    0.9283581551255990 N
  -0.1485158527442072    0.1566133161669520    0.7413300745147423 N
  -0.3873727934950386    1.3171112223870347    1.2543992779477642 Cl
   0.6826362497537729    0.5092130692337467    0.1429347837347523 Cl
   0.9289294282005596    0.3881617263376367   -0.4072277245547934 Cl
   1.0496997682880118    0.8030551154952710    0.3889863111204803 Cl
   1.1327324761043984    1.0457584476708686    0.8626121237968564 Cl
   0.5916136151223764    2.1230469138245147    0.7049971122927704 Cl
   0.1316535961694941    0.1215415570151128    0.1162029970417635 O
   0.1325908733971469    0.2560517608361757    0.2746946222968993 O
   0.3234352544437165    0.1905560088691876    0.1838142989485039 O
   0.0083551556391959    0.0879417555013918    0.0261858986491850 O
   0.1100342398082116    0.0625925522762584    0.3154367261911535 O
   0.4750316164332631    0.2099297145163311    0.1662235360325403 O
  -0.1150761978263977    0.2551955933531012    0.2557988041824273 O
   0.1492118769896532    0.4730726843904608    0.2058085661492833 O
   0.0224335967596271    0.3639005840179134    0.2553132841868699 O
   0.0764768226523943    0.5653804770220782    0.3135714556131559 O
   0.3402821411594191    0.5425513472844915    0.2021153726852539 O
   0.2900789283609885    0.0120426141756576    0.2413114230668044 O
   0.3093444172982318    0.7857733995941368    0.1709222984859171 O
   0.4109863133920872    0.6927770673161393    0.0946921358162416 O
   0.5133179794133614   -0.1641101337581813    1.0694020661717352 O
   0.6155475848283622    0.9022545968207463    0.2247741469336539 O
   0.5513217818890468    0.7604256103532859    0.2623952521917345 O
   0.3696965312751486   -0.1010443137807283    0.3173964230092160 O
   0.2451984309868995    0.3064291928543073    0.4405294379986313 O
   0.5037307903368112    0.0639846198024134    0.3328062216490547 O
   0.5524233753154638    0.1203665360763268    0.5079286332019424 O
   0.4216179708795996    0.1965795819127836    0.5401914016730588 O
   1.0548427413490782    0.5996004520421186    0.5230765751939594 O
   0.4944813929429677    0.6893135128160717    0.4133518044243810 O
   0.5448432059952766    0.6628048424792601    0.5552358271377210 O
   0.8795305796944866    0.6440235962464985    0.3679954988887484 O
   0.7711769247022443    0.6186135916972161    0.6196583408240025 O
   1.0420293834521577    0.7865821986037465    0.6196118323774032 O
   1.3420448684764390    0.6827653516036554    0.6660829312845480 O
   0.8400905599827467    0.7960113527918264    0.3977623140590459 O
   0.0118219106458118    0.0071884061337174    0.4259747605701263 O
   0.6916206132452930    0.7762615273255287    0.5347586513715360 O
  -0.0925216302416380   -0.0385723672019397    0.7507550816853954 O
   1.2379182580274246    0.5572220705087119    0.6530091250761646 O
   0.9921085245577225    0.5727763925110879    0.6670032347884637 O
   0.3022229009050224    0.6209240420148771   -0.0867112414498561 O
   0.3766369279689659    0.5093115744487894    0.0026716508527346 O
   0.4365244664736015    0.5584456618076029    0.7878321790529531 O
   0.5308751583646270    0.5181122903924184    0.9073088549989016 O
   0.7790077691957346    0.4760064896790770    0.6918190144162558 O
   1.1371964224597588    0.8522214699754119    0.8047133358215636 O
   0.6281357482701448    0.6779698239094403    0.7296945067837649 O
   0.9892477974426087    0.8199112221273621    0.8318932948181438 O
   0.8714049852719473    0.6815995215627059    0.8841913383454103 O
   0.7527268187462949    0.7680314318090379    0.8176483213635828 O
