Li1 Co1 H90 C51 N3 Cl6 O45
1.0
  12.8933990000000005    0.0000000000000000    0.0000000000000000
   0.0000000000000000   14.0783539999999991    0.0000000000000000
   0.0000000000000000    0.0000000000000000   13.5883900000000004
Li Co H C N Cl O
1 1 90 51 3 6 45
direct
   0.4527344271281762    0.2448434596828578    0.6679862669528913 Li
   0.2656176521024440    0.8000175744977006    0.6328369070949538 Co
   0.6317600362790292    0.8773251610237960   -0.0009426142464265 H
   0.6839326573233325    0.8539256286636918    0.1191989838384091 H
   0.6370479925425405    0.9708199268181494    0.0887767895975903 H
   0.4462822099897785    0.8982792718523771   -0.0214463258708353 H
   0.4581956557770375    0.9978194972224737    0.0614585098013819 H
   0.3638590646267908    0.9066619407354013    0.0852880091018877 H
   0.5106736640974191    0.7484135013226689    0.0189611366762361 H
   0.4271227540542257    0.7427684138358789    0.1227827019978084 H
   0.5649157417683265    0.7247581507042656    0.1369981984620695 H
   0.5190966462761293    0.9740469688430906    0.2223342890511679 H
   0.5859054893127871    0.8684333353174668    0.2557352534038249 H
   0.4355997095878286    0.8825169007683712    0.3567750903528674 H
   0.4175205048722994    0.7820490065813093    0.2797686775254464 H
   0.2699827252689535    0.8714959809932327    0.2802702049322988 H
   0.5105759862081364    0.3411643037247110    0.4208989998079243 H
   0.4191225230833234    0.4310844826035771    0.3797628490203769 H
   0.4821147356100590    0.4423574495995768    0.4973252092411242 H
   0.6934691914831767    0.3784696257815367    0.4260034345496412 H
   0.6627686973776271    0.4763687551826017    0.5057277241821878 H
   0.7383027780339381    0.4960789698852579    0.3963773140158620 H
   0.5987167906616401    0.3590267534116560    0.2699328500285906 H
   0.6540145868440120    0.4697005743711232    0.2332737631168961 H
   0.5152240886984106    0.4544975009152349    0.2290011105068371 H
   0.5339028304328439    0.5929558675680411    0.4526538692221815 H
   0.4696690399482711    0.5773376141841582    0.3371200046510293 H
   0.5777653309263134    0.6965030571045451    0.2879891488248423 H
   0.6692131904085182    0.6054840537466242    0.2694294092236093 H
   0.7419964611348798    0.7204561683844575    0.3580536671379023 H
   0.1950938933945967    0.2014229426252530    0.4231601999942597 H
   0.2608712814983853    0.3102460834554949    0.3950238372610736 H
   0.3298622923249331    0.1992624926181001    0.3887332185785071 H
   0.1566221242358202    0.0897770073120764    0.2927066024746125 H
   0.2916891690081103    0.0865172626004432    0.2596066627466536 H
   0.1951357977830361    0.1137857046356414    0.1685908588140317 H
   0.0652426509099734    0.2414253654937218    0.3039223837408258 H
   0.0981201714148457    0.2605453116181053    0.1785485042746050 H
   0.1307023120900858    0.3493262287622545    0.2697721061877087 H
   0.3838299567088554    0.2377446844993385    0.2332114834796470 H
   0.3123017157849531    0.3473131376011713    0.2371929816556634 H
   0.3488075487309436    0.3302072181165497    0.0736545264008466 H
   0.2186038227778416    0.2909040076702149    0.0776182204072741 H
   0.3953704209417547    0.1690051038637045    0.0761134152022425 H
   0.1923495177648656    0.0330003592749550    0.6267141390554731 H
   0.0826257606702468    0.1080768199180103    0.6437341038931028 H
   0.1149189837373372    0.2628868133305925    0.6395438164491893 H
   0.2202976825583386    0.2161670213719587    0.8280301867991720 H
   0.1499369770531417    0.1496483509364802    0.9152434409080104 H
   0.0598422402036887    0.3228895579696320    0.9177362689766778 H
   0.1968374910293244   -0.0246658437484950    0.9112160094021440 H
   0.3260353898921455    0.0877111805826164    0.7631899820361352 H
   0.6206675198681123    0.2165519797271755    0.9900451775375889 H
   0.5804014465076276    0.3032090448926060    0.9026559975096388 H
   0.4459462683191607    0.2338965073615850    0.8362692342507096 H
   0.7328424684600235    0.1836529796025871    0.7329160062376778 H
   0.8243394833278641    0.2765364992242701    0.7469624782626934 H
   0.7190014960368478    0.4231667942147214    0.7957868062367948 H
   0.8432204890269819    0.2400493239479559    1.0220529900893336 H
   0.7460377011523494    0.1070482749616894    0.8932076316620291 H
   0.5334353284188288    0.9472608076199818    0.7922121914369545 H
   0.4829796975956456    0.9291086727894470    0.6723298455519748 H
   0.3062812474817540    0.9398813902534344    0.7676109590613751 H
   0.5336913043643494    0.6899630276380321    0.6857195650110131 H
   0.6490665618895374    0.7178688843880472    0.6194344937111754 H
   0.6136403410768564    0.7572103116600137    0.4583597225278344 H
   0.7696648471050961    0.8331952314879992    0.7849259110166840 H
   0.5738315629571380    0.7558566477302674    0.8426572390106554 H
   0.8090834852780092    0.0464045789727975    0.2447168590245055 H
   0.6823356975146739    0.0748013183927610    0.2860592159924759 H
   0.6629176472394905    0.1996397476580004    0.1847082553562269 H
   0.7636557792091906    0.1955645894399303    0.4766228419996776 H
   0.7537262928107631    0.0927655683327753    0.5520721270143114 H
   0.6012390960676854    0.0103611785866444    0.5360009721534339 H
   0.9304442947899153   -0.0350897150334478    0.4625964054608382 H
   0.9135609570447637    0.1526365049493712    0.3817003706840913 H
   0.1820966573670759    0.6822256003791353    0.2054977668436069 H
   0.0690488807489786    0.7522343606361938    0.2037339353668831 H
   0.1622187562798607    0.8288610273615794    0.4261636212972986 H
  -0.0807864621268604    0.6304743402531291    0.3288090126939247 H
  -0.1139691349038372    0.5498210458410124    0.2337393554350441 H
  -0.0859540808440040    0.6516489697588227    0.0727961244856823 H
   0.2091861471129529    0.5255838374287222    0.1632268951656524 H
   0.0968255306455652    0.5532233675897055    0.3510222145522758 H
   0.3899737702990499    0.4895849706577914    0.6340148884452095 H
   0.2680899559534301    0.4416565565832483    0.6603480309293447 H
   0.2075892051428797    0.6239889400422806    0.5002712609808815 H
   0.2159240996109714    0.5928809404849459    0.8253895450454394 H
   0.2866029190595901    0.5464331377091385    0.9270198647521891 H
   0.1498726573186791    0.4676389803808030    1.0012810737695930 H
   0.4517948959773912    0.4628444767051603    0.9452397657117583 H
   0.4495264026188905    0.5873390170470213    0.8582620597436488 H
   0.6262856908407162    0.8945252292988229    0.0774388084239560 C
   0.4404200327625011    0.9220813335138469    0.0548674670067609 C
   0.5044065308147214    0.7634804196570140    0.0975647173800575 C
   0.5147914029496798    0.8959970654239836    0.2216440983810444 C
   0.4218114129563508    0.8605019500148953    0.2799126055404650 C
   0.4903535460276998    0.4167379183674456    0.4215538963777166 C
   0.6754813622071262    0.4545040705752960    0.4291772807521715 C
   0.5868759642046290    0.4361049217827596    0.2682389135136686 C
   0.5452734604738440    0.5748312799919650    0.3748017226470538 C
   0.6226077468012895    0.6411984462104022    0.3260581680390392 C
   0.2549686983238477    0.2344664312319466    0.3775262647009689 C
   0.2168465623378288    0.1209146381743207    0.2459506843709961 C
   0.1227298744109292    0.2731217307080075    0.2545568665603504 C
   0.3107821079608254    0.2727618612232652    0.2124382358763621 C
   0.2980161577253601    0.2726754754142423    0.1003903170279923 C
   0.1641375900955210    0.0972254661304866    0.6646090162263520 C
   0.2325772148988796    0.1800605148868966    0.6369973683416504 C
   0.1712321366925820    0.0803980294855492    0.7749205108184266 C
   0.1517944065796769    0.1698471334077833    0.8369630147500917 C
   0.0569843646349578    0.2300067522098109    0.8109273291390665 C
   0.0970884721709147    0.0011167136442229    0.8085638887314832 C
   0.6218698110560295    0.2354553678647376    0.9109532041691473 C
   0.5695980796064715    0.1546908459611117    0.8573333316161811 C
   0.7357557157736295    0.2437070676017949    0.8777220391819780 C
   0.7441783535900811    0.2547488676588187    0.7649024490760126 C
   0.6641408150015368    0.3195272515522766    0.7179280363604518 C
   0.7863443115349179    0.3292621609031852    0.9307124125816228 C
   0.5055763200999208    0.8922946830289963    0.7402807013928802 C
   0.4169408757147746    0.8398079747106800    0.7877134914437987 C
   0.5979392129259321    0.8261215536986781    0.7204450652358373 C
   0.5742859954927323    0.7467416020367155    0.6449465896990003 C
   0.5034815652567644    0.7731953465582695    0.5607113513815838 C
   0.6882801362154386    0.8884054272253703    0.6835412561753085 C
   0.7649128046064502    0.0916186679209800    0.2965647652150107 C
   0.7882497951083342    0.1950854403859997    0.2700252546475336 C
   0.7990843927190959    0.0667358037736514    0.4013777511537422 C
   0.7351530996597561    0.1218443654705657    0.4789283785643479 C
   0.6178420492532651    0.1290933634713263    0.4641319516145768 C
   0.7917273094550165   -0.0422729027839476    0.4148280848577351 C
   0.1059355093253532    0.6916514828367011    0.2416350928991588 C
   0.1287424409963579    0.7178382416012554    0.3460221512629532 C
   0.0406787574013648    0.6006563977578629    0.2273660705940880 C
  -0.0744179358755593    0.6181730570207284    0.2487770280364340 C
  -0.1364817027689905    0.6964582002981315    0.1986879313884868 C
   0.0606363674931645    0.5651689103711982    0.1220328743876206 C
   0.3180582552358768    0.5033274877162487    0.6753595444346239 C
   0.2685485518597540    0.5894120243034093    0.6297259896131918 C
   0.3477414590210075    0.5082039015356483    0.7839604301907731 C
   0.2552784653604531    0.5290968731145701    0.8537256481452180 C
   0.1790118695620914    0.4469908257740927    0.8569894785180583 C
   0.3930506548350826    0.4092524701396200    0.8153798198314884 C
   0.5197583732575095    0.8683104033326624    0.1135683042656268 N
   0.5766212206726868    0.4709673751633182    0.3728370218988415 N
   0.2253485787572385    0.2247938771819490    0.2711327258048967 N
   0.5391350349120507    0.1382536218367574    0.1441495725394988 Cl
   0.5010876782763024    0.5617461508639433    0.0029547635886223 Cl
   0.3154538838051936    0.5223446313397149    0.2480778370358813 Cl
   1.1456591043215212    0.8848993781517357    0.5543296387577925 Cl
   0.9113214676750482   -0.0487317409407378    0.0913675188892871 Cl
  -0.0261279698239386    0.0833870905647066    0.0860663250024469 Cl
   0.3273744301250586    0.9005711058267182    0.2438328359724735 O
   0.6898212216964664    0.6843942970889921    0.3978533166916757 O
   0.3243157960131382    0.1859774793274839    0.0536068275932616 O
   0.3288931592049544    0.1730718399324239    0.6387122992495800 O
   0.1873200821598711    0.2608768482451855    0.6103480324011895 O
   0.0212711962144350    0.2356427484349378    0.7268475095283548 O
   0.0121156112519282    0.2757636801859081    0.8866401052663339 O
   0.0159978419965131   -0.0165507956398880    0.7676822780329383 O
   0.1285378324210706   -0.0476517950891134    0.8898534579887682 O
   0.2777749156758431    0.0454839592753528    0.7985486043600455 O
   0.6087011749190419    0.0756471566207243    0.8478633090454424 O
   0.4727054308952976    0.1695819852235567    0.8204769203709932 O
   0.5956831359985059    0.2881123858655636    0.6623868471540778 O
   0.6707759815701041    0.4120161859831057    0.7368994178118232 O
   0.7787649943975208    0.4111673850508377    0.8996171282984959 O
   0.8351005448602031    0.3095591963378674    1.0145034746574098 O
   0.7919718314774870    0.1612436134224214    0.9083620244929679 O
   0.4273795591061751    0.7772358721765343    0.8489904109316850 O
   0.3182166548944929    0.8678776396729335    0.7597221488344094 O
   0.4078353760711197    0.7804936408048839    0.5723041213859773 O
   0.5428483893192166    0.7863633980222404    0.4725533988942030 O
   0.6787112428615604    0.9444384393232335    0.6150147339015144 O
   0.7788222694419058    0.8780069665814627    0.7296957726412032 O
   0.6352371434406086    0.7828806151628237    0.8096793865939967 O
   0.8642014087984091    0.2382634887572795    0.3043246079925583 O
   0.7277516688966191    0.2375954269938091    0.2044643809899480 O
   0.5773099250244252    0.1970375833708969    0.4221024035960110 O
   0.5591626203454961    0.0588686894788979    0.5003346032900144 O
   0.7151273151478519   -0.0875727617021138    0.3914041163081130 O
   0.8764968523815946   -0.0840444543445917    0.4528445194758172 O
   0.9065519767130451    0.0900769983479603    0.4160307799525919 O
   0.1215012123645596    0.6630206734395229    0.4176125979604647 O
   0.1637646178482493    0.8066552545844494    0.3545903657460523 O
  -0.1953670036892521    0.7489254858913195    0.2462751812392785 O
  -0.1307932508720160    0.7043923195850880    0.1012436403429692 O
  -0.0029235921419945    0.5708071774583876    0.0545305735263707 O
   0.1539323013272140    0.5277523089702106    0.1040237526300025 O
   0.0704512122831225    0.5238490010977136    0.2899597847868658 O
   0.2454729245562012    0.6647735409977616    0.6739207912048447 O
   0.2530653530539154    0.5762310814176146    0.5348330030268487 O
   0.1539294192322753    0.4017266258541304    0.7840022548661025 O
   0.1401879310490585    0.4210120195869489    0.9452807102239484 O
   0.3938324727249967    0.3408206136882195    0.7576183469859196 O
   0.4253612418261468    0.3990882520783325    0.9064520638574547 O
   0.4243584325591723    0.5799774852940905    0.7891340769583445 O
