Li1 Co1 H90 C51 N3 Cl6 O45
1.0
  13.6657249753999999    0.0000000000000000    0.0000000000000000
   0.0000000000000000   13.3115316815000000    0.0000000000000000
   0.0000000000000000    0.0000000000000000   13.3553328992000004
Li Co H C N Cl O
1 1 90 51 3 6 45
direct
   0.8484594859454661    0.7561614682395256    0.3240596458557201 Li
   0.2624847195561980    0.1858762312257958    0.2907837999180557 Co
   0.1219945513831916    0.0429294956037400    0.0689473228821693 H
   0.1093512411811331    0.2930915415407976    0.0114159976955073 H
   0.0440396677661358    0.3086126705095353    0.1172471297734404 H
  -0.0391648458653643    0.2751071348077458    0.3233318467006289 H
   0.6159412693327397    0.1415477486650641    1.0393798907424840 H
   0.6689695573529140    0.0847886905733463    0.9341350413172633 H
  -0.1313385140950025    0.1873291068574467    0.2541250356854302 H
  -0.2409155766142318    0.1407867543450732    0.3271018762745840 H
  -0.1338791769623220    0.0592897466410165    0.3024757585669752 H
   0.1937207131319802    0.5063589601914588    0.0970110186978273 H
   0.0918278386224635    0.6270012753227733    0.1040681247026987 H
   0.3196371941893368    0.3984813669618429    0.0609460247635427 H
   0.3329983587326512    0.3732836655984336    0.1975311637314578 H
   0.5135854848779852    0.6415705979702589    1.1322049823636942 H
   0.8611254806374113    0.5406717658796868    0.3227081258197739 H
   0.2012058630368798   -0.1137572065658311    0.2899960995979364 H
   0.2360748510238163    0.7099331291780467    0.2311918746544276 H
   0.2704894174552788    0.8271457863937774    0.1685824282025097 H
   0.0379521751413572    0.8840986614001624    0.2254840423918139 H
   0.4825567615015593    0.0379383344368897    1.1115944890066556 H
   0.6379876664717383    0.0129201766494703    1.1511389918645092 H
   0.5009191389423255   -0.0896247470047386    1.1132440173386164 H
   0.6539992575431147   -0.1191224794516897    1.1003517890954468 H
   0.7285573217390596   -0.0124420437229006    1.0638697332996541 H
  -0.0094752391499969    0.7166333348443829    0.1040194550061134 H
   0.0268265304884982    0.1090000291113382    0.3769666011022139 H
   0.2415293732049798    0.3059172631846318    0.5687416784687556 H
   0.0020353100731991    0.1350218279762579    0.5107153450295928 H
   0.0744785944055053    0.2684805495198491    0.4735900255978547 H
   0.4643916805821891    0.2152823138138734    0.3714407186283730 H
   0.5542165528234856    0.0620091932731656   -0.6303231535998821 H
   0.4220796187603043    0.0894823653130333    0.6043746352502751 H
   0.5082725431840246    0.1433033693223382    0.5265085866950727 H
  -0.0513303182643238    0.0272190570904438    0.4443580324347802 H
  -0.1698853164745507    0.1933374312121228    0.5731197048677458 H
  -0.2504650150988286    0.2150434231981210    0.4696424639460476 H
  -0.2213278854758651    0.0904769916503166    0.5052739980748978 H
   0.0963405885944565    0.6217404231777623    0.3771148564856584 H
   0.0439035608268151    0.4227595648231114    0.3883246107561018 H
   0.2223075609357547    0.4374618548887988    0.5510741293495469 H
   0.0183857049774006    0.4981161071054767    0.5351238717552371 H
   0.3444693930379799    0.3957100855734458    0.5442384330259106 H
   0.6131349784064234    0.6632608141608772    0.6036206293354841 H
   0.6216036107115758    0.4488804507075838    0.6478501520630967 H
   0.4065063505741595    0.5319445958755427    0.3757356321608867 H
   0.6325616828423679    0.4431686361832140    0.3852352081697782 H
   0.4330000785433485    0.3498235554118641    0.7020494749450715 H
   0.7089213345899661    0.4591153360130325    0.4890546120337624 H
   0.7394195336061367    0.5776907965810787    0.6418345775651513 H
  -0.1259505818680227    0.3318098507731070    0.4045091567821276 H
  -0.0207882137838563    0.3047731424054155    0.5526832243951139 H
   1.0554020378474536    0.8107937988683666    0.5007081066470882 H
   0.3102787444744320   -0.0646276236111590    0.5233359214893601 H
   0.4826895023552840    0.6865714299055136    0.4714775361366831 H
   0.6020422628517872    0.7035356685373337    0.4091821964188811 H
   0.3795242474904403   -0.1428372560493913    0.4355754733712748 H
   0.7253514910876405    0.8202427490725572    0.5692583260171228 H
   0.1730478252677393    0.2780489450319159    0.7232462509548224 H
   0.3404256997762264    0.2454291075564534    0.7207820667784796 H
   1.1407454793479554    1.0340460940291232    0.7252604276288919 H
   0.3679178380035292    0.1531722561749740    0.9944060960393974 H
   0.5496014299439068    0.1089549554102528    0.9148648365277283 H
   0.3493048481725557    0.0456519471492947    0.8792251408651430 H
   0.9044352941354453    0.1762034149728813    0.8289448517051309 H
   0.9003594035332074    0.3755696534718119    0.8209360659408759 H
   0.3842411578714143    0.5246449099847714    0.6795520948896483 H
   0.2633050199808136    0.5565009735953428    0.6845875365748217 H
   0.1949405532816984    0.3723438789308042    0.8237521694617587 H
   0.1243881309451162    0.4026153765797204    0.7140648998851427 H
   0.2572987524649844    0.5210165972439376    0.8785752132245884 H
   0.3696886917301748    0.3334437724374507    0.8157763293382690 H
   0.5567850224848598    0.5581294864155563    0.8894315506213660 H
   0.3679610117100879    0.4695947461468693    0.8751383838811019 H
   0.8581245421527116    0.6301391561466645    0.9139700628751213 H
   0.6143394516436378    0.4506215726576754    0.9407900607518838 H
   0.7869347588260847    0.5781540791054008    1.0187574171524398 H
   1.0370707747457191    0.7233350429674220    0.7088632324670163 H
   0.0886981107758259    0.8133254384126600   -0.1005857031448814 H
   0.3392702543074771    0.6883480849566275   -0.0586361685111502 H
   0.3291646799417851   -0.0471690767241029    1.0489146586858296 H
   0.4075695945678852   -0.0998639894346256    0.9459482998253648 H
   0.6493035681365510    0.7132708367434164    0.8412463047082112 H
   0.4975770696351929   -0.1613940987862269    0.6496651573634478 H
   0.4056136061334539    0.6594543401042200    0.8006512851686775 H
   0.5694941177075901   -0.0809157567266990    0.8644175728702004 H
   0.5929691986548129   -0.1694525253119347    0.9752781565168041 H
   0.9207125132658186    0.6694088669889179    0.6873257685811680 H
   0.9111784416937257    0.8513548712467151    0.7702574340334268 H
   0.8992888419620991    0.9453620846870087    0.6796644095740759 H
   0.6872342305004647   -0.0814536362263174    0.9201271538754455 H
   0.1253906390465643    0.1742629921411572    0.1314452034142224 C
   0.1185970002043424    0.2845335481613939    0.0936138738761721 C
   0.2972432121246537    0.3492653927467573    0.1237134605382222 C
   0.3411479446639121    0.2473267103721463    0.1019056926451848 C
   0.6039492235177535    0.0876140604030459    0.9733029156000029 C
  -0.1611905710282688    0.1396629167313453    0.3159976978075026 C
   0.1529874186304415    0.3701495409162994    0.2510768151500635 C
   0.1825109163392186    0.3639729414109046    0.1356495164346311 C
   0.0317878479540589    0.6565696232347581    0.2488132998765647 C
   0.5026594322705471    0.6266977790687986    0.3174203504769197 C
   0.5989571722271849    0.5764375223224008    1.0402432162834514 C
   0.2320626233448091    0.7576451442335848    0.1602254669165289 C
   0.1254250316602636    0.7815079128165167    0.1392847683872731 C
   0.1238949262295133    0.8254239710123175    0.0298236257086380 C
   0.0549838364999005    0.6943811998469007    0.1481156976415386 C
   0.2859353597949622    0.6993287897693684    0.0770452116294036 C
   0.4869892376496626   -0.0249507470024347    1.0648101815905950 C
   0.6574231520005422   -0.0375037727547026    1.0885003435946399 C
   0.3607553932612125    0.1624596922836088    0.4728164769279733 C
   0.4401280574961922    0.1030946230408068    0.5233647489250299 C
  -0.0272459758242063    0.1050019918250683    0.4419799561831652 C
  -0.0689100661688412    0.2797309453107506    0.4013493703268962 C
  -0.1906379659322644    0.1701169628696571    0.4971176308153048 C
   0.2749516761433302    0.3848150207927671    0.5842508388590898 C
   0.5976151285351734    0.5721360639049914    0.4868905551571471 C
   0.6664413343671454    0.5003125485593655    0.4315804400461830 C
   0.5281637088916122    0.5023745952611848    0.5377455959956039 C
   0.5396102293127084    0.6510398313399379    0.4242955598612923 C
   0.7396427197163130    0.5586128267368614    0.3756023520686992 C
   0.0058704523795417    0.3145015495563354    0.4791209472572037 C
   0.2986233072190560   -0.0404313096401956    0.3631301807452890 C
   1.0217653298917861    0.6428183882619715    0.5677068858428954 C
   0.3584876760302726   -0.0615415775435158    0.4522818334211516 C
   0.5182827109757994   -0.0772715479939490    0.5285585543152463 C
   0.4541960268389143   -0.0037292973031039    0.4626452591062044 C
   0.9800200144382016    0.7122596833824019    0.6495356210940746 C
   0.8642595990304787    0.8050010770505487    0.5531589893983494 C
   0.9572118574936501    0.8162837756605613    0.6139550778319546 C
   0.1907314827710930    0.3594775909559931    0.7429245324311113 C
   0.3180485481395239    0.5052228024327675    0.7222945711954388 C
   0.3263203376130780    0.5271530360816653    0.8348952836861083 C
   0.3645949261139848    0.3239745390677715    0.7351927895551114 C
   0.6182214264452305    0.5341841578368031    0.9370192824133657 C
   0.7174316770862007    0.5297246409742544    0.7758746657839356 C
   0.8600746765252365    0.4730848028219074    0.9320924115898057 C
   0.7089798752090288    0.5811807781332816    0.8828940872231134 C
   0.8066614839347251    0.5700319484154923    0.9381132274396912 C
   1.0529469906355131    0.9171759969416409    0.7386805348888715 C
   0.3956792630785202   -0.0369771616803555    1.0003774934281346 C
   0.6063193868320530   -0.0974119800955830    0.9326390097206870 C
   0.9469313930285084    0.8835435036484611    0.7030797749835546 C
   0.5831263253171645   -0.0144876385238238    1.0095670809080060 N
  -0.1132677567480969    0.1755220508581412    0.4161959489555634 N
   0.2846160005928375    0.3960015621737977    0.6966673552672979 N
   0.6007851030574165    0.2125756380636985    0.3372693502735387 Cl
   0.8903811550139767    0.8723524548973219    0.2081965661647084 Cl
   1.2727326226021101    1.0804382008712121    0.7559215877130803 Cl
   0.8317717507239160    0.1319275183967491   -0.0971458787431436 Cl
  -0.0704899311257948    1.2489327102684400    0.7243439398039622 Cl
   0.5480839839220287    1.7175512095707739    0.7321760171313842 Cl
   0.1263448511372857    0.1442514195018332    0.2176766742949658 O
   0.1230109628816671    0.1146830715898484    0.0535557185282027 O
   0.2094586268092386    0.3267195274638689    0.3184117147581345 O
   0.3562484973511258    0.1821884512486633    0.1662088445382718 O
   0.3622796446300566    0.2289884750855747    0.0066254020223862 O
   0.1496213330343385    0.4495395033402866    0.0774300766147090 O
   0.1132076044618860    0.6331966555369537    0.3048792928137271 O
   0.2916174586327319    0.6068360526855423    0.0908981048067112 O
   0.0721786798340809    0.4145659171941475    0.2682092971126588 O
   0.4396768556747667    0.5485909897918759    0.3093486684893851 O
   0.5218075880011098    0.6741243273507962    0.2394702156613090 O
   0.5179481513378562    0.6320908474036598    1.0554191764433167 O
   0.8200409424214967    0.4980127380843210    0.3642952584050852 O
   0.6476263794004057    0.5528511306499572    1.1135345379890027 O
  -0.0556111010332809    0.6395558035317441    0.2770971324737010 O
   0.1077984512604960    0.8596529396165266    0.2154116614923413 O
   0.1491530080818372    0.9148471890522316    0.0157723099221748 O
   0.3037895168513359    0.0353533576796453    0.3052424436267099 O
   0.2698242496711793    0.1511191490905366    0.4856889632446789 O
   0.3953733883439178    0.2230056924948468    0.3944577412904148 O
   0.0284232258734324    0.4220218585820146    0.4613087892379715 O
   0.4437035721569919    0.4889777147017640    0.5080067640999353 O
   0.5531716027732171    0.4450392699010909    0.6149112501787154 O
   0.6575680400327223    0.6220634513688740    0.5628204483057293 O
   1.0153734260478817    0.5468780389049627    0.5961809046389959 O
   1.0599601567992201    0.6720652104395475    0.4861971340294302 O
   0.2462887255347742   -0.1220875777547538    0.3479369990004779 O
   1.0276303681641266    0.8621665496803860    0.5499948601086534 O
   0.4628271093619656   -0.1095999088690596    0.6081514037052960 O
   0.4952616857051813    0.0167409240448045    0.3714976247351496 O
   0.6006826569740569   -0.1027404427922219    0.5033902561876771 O
   0.7408362165874530    0.6492128439892788    0.3483907503255656 O
   0.7865688799569430    0.8348068131215830    0.6025049701368360 O
   0.8660202081487881    0.7811811284836478    0.4639730433055082 O
   1.0710923872717235    1.0102869949586877    0.7163643558576583 O
   0.3761757240800560    0.0560399327927633    0.9480867714168675 O
   0.6816318932561679    0.4499380299807162    0.7524622954327084 O
   0.7588667272587530    0.5920774204934983    0.7134584005892332 O
   0.6950267186554432    0.6867336952294208    0.8910705962494470 O
   0.8898037981584712    0.4509314543526372    0.8345755612177709 O
   0.8753369476726108    0.4210557789220855    1.0042837981525288 O
   0.0785771694976299    0.7727546000657431   -0.0401431813378545 O
   0.3256032150295604    0.7426423628273284   -0.0040939114593898 O
   0.3642780750133082    0.6247152874493950    0.8533276209298131 O
   1.1098155432661980    0.8623205514924275    0.7828299398082592 O
