Li1 Co1 H90 C51 N3 Cl6 O45
1.0
  13.9050079202999992    0.0000000000000000    0.0000000000000000
   0.0000000000000000   13.5703170760000003    0.0000000000000000
   0.0000000000000000    0.0000000000000000   14.0253924938000001
Li Co H C N Cl O
1 1 90 51 3 6 45
direct
   0.8799720593496799    0.6175361998593879    0.4067726624707287 Li
   0.5535851902437410    0.8466833879895409    0.6814744222755363 Co
   0.0350620767492149    0.1581696305236722    0.2653035377473309 H
   0.3906850313237933    0.1823002383912758    0.1750258502915452 H
   0.3877781649464653    0.2503148613975687    0.0727606195228487 H
   0.5836648566773992    0.1718502246439330    0.2274650244768753 H
   0.8426157339899750    1.1259539443645643    0.1314798318631849 H
   0.7954406439965098    0.3154666183571495    0.2205525619527172 H
   1.1438410208799685    0.4278452747628341    0.2601550187285639 H
   1.0137734933843798    0.4507574144172488    0.1381049584000056 H
   0.1602220198413187    0.6571410224283841    0.1619816520574584 H
   0.5530318644172402    0.4035744343576014    0.0879266835095806 H
   0.4027533451976038    0.4177075602769063    0.0980490383786339 H
   0.4467182967822420    0.4710625199248661    0.1994415662974521 H
   0.9770378077286913    0.3649776206599817    0.2164079364083201 H
   0.8656808053540682    0.4728253365094769    0.0309977953980387 H
   0.7614902857726351    0.4525886907139501    0.0876008459259251 H
   0.8825610546387399    0.6202656865613241    0.2187736456043135 H
   0.2019976163263775    0.9908340359843189    0.2098926107202586 H
   0.2068253733751165    0.6961511647143180    0.0581670885332183 H
   0.1061702706939666    0.8276145631013110    0.2347404001959582 H
   0.3604851204422654    0.8248917085214906    0.2262215655143037 H
   0.3612984964622452    0.7285645562022681    0.1447842723686815 H
   0.5608295586452101    0.8790171940120995    0.2798115096340321 H
   0.6540419471191345    0.7165545199527658    0.3091753937593467 H
   0.7197981124691126    0.7121935312103094    0.2056545831551636 H
   0.7038448673309959    0.9338648439108882    0.1325543115974713 H
   0.8087905105384049    0.8645252702863226    0.1394182906299694 H
   0.7022138002988880    0.9876049294163155    0.3238965504108465 H
   0.2352618907986513    0.1043462750405671    0.4714968404501536 H
   0.0692310612419436    0.0529613297887543    0.5157992441279596 H
   0.0873187891628187    0.3186706702416037    0.4456583478617858 H
   0.1987700021993493    0.2743931491907021    0.3836053963750642 H
   0.6104842588767727    0.0704745535895686    0.5126547788290744 H
   0.6171315042814345    0.1568807881258087    0.4257396896050921 H
   0.4636227819394808    0.2494423688880945    0.6110157880207843 H
   0.4754317647851703    0.1285034113966343    0.5694419069149430 H
   0.4811602764448948    0.2263043686305094    0.4858803951413451 H
   0.7203676914327057    0.1758118122545186    0.6638064675206488 H
  -0.0166322483543764    0.0478560695643984    0.4213718974005544 H
   0.7246251503524935    0.1241483178738365    0.5043972387957957 H
  -0.0782496170686485    0.2122155305488899    0.3957497980433452 H
   0.7079225349112654    0.3230876635708169    0.5439726731549673 H
   0.1774294893639134    0.3755374328734661    0.5802603563855780 H
   0.0894496761187868    0.6372210752019425    0.5014925072513481 H
   0.5935277780641453    0.3624139370109439    0.5997890077314193 H
   0.5856645678720549    0.3437533560840726    0.4810939337264738 H
   0.3883484630754166    0.3746811522180530    0.3394918358972734 H
   0.2250677218479772    0.7529162348070694    0.3422553949218878 H
   0.1873964020614367    0.6941062603952379    0.5620750542549782 H
   0.9248501351894624    0.8587066884832750    0.4066614356369207 H
   0.2221414380059812    0.1984022939863104    0.9197786267017216 H
   0.1864219330012488    0.1384036959108118    0.7449364608882501 H
   0.0846327065504189    0.0567880642496492    0.7270774241368204 H
   0.1184212525687273    0.2678052412222059    0.7957771058338522 H
   0.1775021250650786    0.0799312228244357    0.9704645522695269 H
   0.0219035081925670    0.2758087388112257    0.8786311151254778 H
   0.1160803693282021    0.2116355883149742    0.9898194473371693 H
   0.2792489207597823    0.0124545386119908    0.8313761095851351 H
   0.0365306124103985    0.0051967863097851    0.9275837558664414 H
   0.4625234657731316    0.1818765194783132   -0.0491439903307300 H
   0.4764619691606088    0.2859367261847169    0.7885323887933189 H
   0.6119973827901567    0.1061973740133705    0.6822530101121925 H
   0.6104346364670657    0.2086938737053280    0.8181622191302386 H
  -0.0018879201831791    0.2194364377282292    0.7608019705414285 H
   0.6754335206949936    0.2984272228363959    0.7685685981098300 H
  -0.0193406250928765    0.1205699195410605    0.9571879184724822 H
  -0.0467962009680007    0.0673331384139871    0.8434477860159261 H
   0.1476826526579710    0.5166189558237261    0.7842059501551971 H
   0.0987851616319226    0.6648593387664187    0.7891676651325685 H
   0.3505218035715325    0.5560173720144252    0.8416538968245098 H
   0.3751287654633326    0.5885494047980048    0.9650308362409957 H
   0.6037758844166747    0.5947128569510810    0.9828435284783388 H
   0.5122946348344339    0.5329380291924434    0.7946448737050887 H
   0.5210242954499297    0.4142013046947025    0.9267852042391018 H
   0.4106735132860534    0.6496526196570352    0.7230105147775838 H
   0.6470682006419080    0.5026809616751213    0.9010654249060485 H
   0.5973436694540766    0.6322432991027039    0.8062167423762681 H
   0.8516484508873625    0.3659068546586700   -0.0747225971439502 H
  -0.0340331733582925    0.5644770122245301    0.7472394267420954 H
  -0.1203373313191107    0.4366108768732207    0.6991929994996572 H
   0.3067821664935784    0.6796644460365592    0.8851628396416007 H
   0.2167548894740201   -0.0405331694845064    0.7393195057809455 H
   0.0603695056997774    0.6928542631202408   -0.0276437007571368 H
   0.1854733538939515   -0.0680262632648894    0.9302061423712226 H
   0.0883435997980717    0.8102664054509378    0.6778003717972501 H
   0.3973998782721140    0.7705768390993490    0.7790930807626508 H
   0.4180133149305388    0.7977029554559835    0.9403206543225073 H
   0.5131471837914678    0.7374287558614449    0.7400873987297355 H
   0.5378907727179945    0.7939174875326988    0.8845639259210960 H
   0.5092770241836164    0.7224814264170403    0.9930207837717717 H
  -0.0642891791377500    0.6749003716499453    0.6721057005047847 H
   0.5214656688051394    0.1653109522376204    0.0802049744702168 C
   0.4380478234757155    0.2280618809912323    0.1269630242210456 C
   0.5124813661196573    0.2841733186043353    0.2826991293578939 C
   0.4815858785038020    0.3161902565702437    0.1792731467594574 C
   0.8439699223592251    0.3257464076368499    0.0687493235805162 C
   0.7999160100197933    1.0112911851021513    0.2001845045078877 C
   1.0238410892320333    0.5111574032612530    0.2734523293088164 C
   0.3146850746134343    0.3868503593983378    0.2204363441712383 C
   0.4107670047826028    0.4055750508389963    0.1733439009264612 C
   0.9764387429854170    0.4449072931890277    0.2064688206180402 C
   0.8346437859957441    0.4328831821025904    0.0925889416266997 C
   0.8154320026202021    0.4438779878366344    0.2831133780145763 C
   0.8706725321044476    0.4760726298301270    0.1897220522046906 C
   0.0639998524273261    0.7607649828800507    0.0934210039026865 C
   0.1695416837165769    0.7223465732673496    0.1190602150804816 C
   0.2279393491227596    0.8002946413983998    0.1765858779349549 C
   0.2444175849722691    0.8927243166208241    0.1119260118812319 C
   0.3240910383316613    0.7592528590376174    0.2065208690723221 C
   0.3360975039846774    0.6886797106994877    0.2882918427193684 C
   0.5791976172226618    0.7715466027331902    0.1953169045437384 C
   0.6739103284665966    0.7602417821353491    0.2450688099045661 C
   0.7259189288316654    0.8520856199041992    0.2748911482230765 C
   0.7619886673657791    0.9116656573839366    0.1826862419738096 C
   0.1605895133392936    0.0865405009641943    0.3488348899371462 C
   0.1884226510274058    0.2333624203667796    0.5359751786071616 C
   0.1413806066251838    0.2584443693067913    0.4364402814114421 C
   0.0882472316400900    0.1651458860871793    0.3925163769451444 C
   0.0245191125998758    0.1009918950548183    0.4676864658011999 C
   0.6365892422094372    0.1844217805659178    0.6651775521450898 C
   0.6456902798158416    0.1401346797830710    0.4963365731103273 C
   0.6308272893605624    0.3221716938163605    0.5433162922369952 C
   0.4980512412934019    0.2043174100112677    0.5577938193429041 C
  -0.0539439854618808    0.1580406725936401    0.5185696407508832 C
   0.1443931903101485    0.5192233164884084    0.6391797057275163 C
   0.0831879033460517    0.6245117185204375    0.6513191164481263 C
  -0.0700367486794635    0.5332040509795380    0.6011422675427501 C
   0.0583644726814719    0.7828013139639332    0.5507364767377858 C
   0.1061839348357699    0.6816924015991209    0.5581563760415666 C
   0.8174068306934684    0.8203634429212213    0.3341736246576968 C
   0.1585600286988137    0.1560945132038417    0.9433073800072621 C
   0.0532612753005912    0.2312379305823082    0.8217656833486083 C
   0.0084076510829832    0.0739328368218004    0.8997050351694735 C
   0.1390605791800428    0.0846444509414940    0.7763466335586222 C
   0.6132343472060410    0.2520104739518763    0.7514938531352517 C
   0.5826526314359125    0.5425992625494641    0.9283830204863054 C
   0.5362031792887421    0.5909163354909365    0.8414606758503945 C
   0.3632848311812407    0.6172598614378906    0.8924503362335985 C
  -0.0258145516462428    0.6007642999306436    0.6734511173983471 C
   0.2046031524186733   -0.0049319379661634    0.8061611289593641 C
   0.4414063256979129    0.7097904922969687    0.7622201126724805 C
   0.4834073086061916    0.7511520903242305    0.9210855419989658 C
   0.6028301819708098    0.2150680799611996    0.5649817108792418 N
   0.0880847002691657    0.1363064715172614    0.8593703350710574 N
   0.4576638496990300    0.6670951008219463    0.8569611333310748 N
   0.6430006013766514    0.7523318711584097    0.5938219732946295 Cl
   0.4382585389256307    0.9348928228388582    0.6209991093475775 Cl
   0.3891805373947062    0.2592475929852768    0.8858972219417434 Cl
   0.1008786519892710    0.5536217021256579   -0.0969045075708796 Cl
   0.8139498028172152    0.4407578691420695    0.8318509626063924 Cl
   0.6279923395190415    0.9249881169099368    0.7986319279015911 Cl
   0.1400889856420861    0.0558684099829061    0.2693255285775295 O
   0.0276971043171970    0.2000839053939288    0.3187573002948969 O
   0.5813569112102738    0.1304503076888902    0.1376201234834066 O
   0.5701169319958910    0.2076194699225464    0.2928970614345346 O
   0.8502755642188026    0.2609188877584926    0.1328166928464543 O
   0.7939411842249291    1.0536837096672125    0.2763855805542405 O
   0.8359656119238810    1.0567506976946042    0.1210501772161108 O
   0.2368124113106551    0.3848275621529773    0.1760689583547574 O
   1.1135663168012011    0.4874603151092946    0.2978666193296746 O
   0.3206016480142946    0.3794879669471918    0.3164115548895869 O
   0.5662624214262311    0.3434202761733613    0.1261466477805957 O
   0.4011884413784385    0.6229450638961621    0.2859382543962899 O
   0.7749645679214767    0.3522166808064640    0.2811269808415691 O
   0.8522805972371080    0.5764428343265927    0.1726444552600147 O
   0.9862869933988585    0.5842090493243535    0.3109250774142495 O
   0.2330957647401377    0.9800723124975270    0.1456077787343754 O
   0.2615186180218691    0.8899277717952713    0.0252246949278883 O
   0.1704082779730540    0.8206957859294753    0.2593799958545300 O
   0.0214159140797940    0.7355592343272084    0.0163194182980035 O
   0.0220559712484783    0.8137829039772984    0.1511947881556547 O
   0.6644770364647629    0.9176139340194737    0.3278657797942388 O
   0.5517148568970025    0.7214630272210155    0.1261929922946824 O
   0.5201813905003476    0.8348199953290465    0.2393078303073307 O
   0.2332439128039006    0.0585124159997925    0.3998708948344368 O
   0.2293266190984810    0.1514932942602969    0.5488829100720763 O
   0.1934323569117370    0.3018781370440545    0.6026124581280842 O
  -0.0717339789245140    0.1501838185936283    0.6041425400854689 O
  -0.1051974622009738    0.2168469624931850    0.4610090056130875 O
   0.1529203339608111    0.4772269948985531    0.5620866760331261 O
   0.4919107917165736    0.3335170440493545    0.3586278422599219 O
  -0.1133506398654388    0.4499393789993710    0.6298865611643522 O
   0.8074276921848580    0.5044840146077070    0.3495186497680557 O
  -0.0722107855569159    0.5540203663550713    0.5173475573041934 O
   0.2725815387250945    0.6971047164940982    0.3625378932637882 O
   0.0223091174545197    0.8023962872066941    0.4725952054340076 O
   0.0629642543117020    0.8495794146468327    0.6235979670990531 O
   0.8737778881206035    0.8867274044231036    0.3668001625747130 O
   0.8337218160066955    0.7308180039167715    0.3411552474567227 O
   0.5133136777635151    0.1419349324863189   -0.0069897333100187 O
   0.5305131429756745    0.3140841893472055    0.7516271827373164 O
   0.8564301813531849    0.3020350972674649   -0.0205023676326431 O
   0.1719695859654289    0.4794249096438725    0.7221306820024616 O
   0.5108610362263456    0.4747946198983863    0.9655634416567304 O
   0.1200091696793509    0.6899294972671131    0.7272884699240458 O
   0.1504226726722262   -0.0652164541951046    0.8684645547199110 O
