Li1 Co1 H110 Cl3 O55
1.0
  12.3981101159999998    0.0000000000000000    0.0000000000000000
   0.0000000000000000   11.4726195049000008    0.0000000000000000
   0.0000000000000000    0.0000000000000000   12.6512032459999997
Li Co H Cl O
1 1 110 3 55
direct
   0.1071880347541833    0.6870656478351241    0.5401672070331073 Li
   0.5429646127527586    0.3541695731096607    0.7400209245677943 Co
   1.1056915069909676    0.0606475924877337    0.2701715446774350 H
   0.2170730081294271    0.0709309458186457    0.1401262068539216 H
   0.2767046772372770    0.1617270364198462    0.0710506428140898 H
   0.1311558812420536    0.3745833940247509    0.0759908053254905 H
   0.0474936141468934    1.0379436664324200    0.0779253248746677 H
   0.3108518170867325    0.3499630359731865    0.0604740203855231 H
   0.1721363206192062    0.4048842333275384    0.3319316780660944 H
   0.3562393797664509    0.3890064296644605    0.1932270848445114 H
   0.3937628406526084    0.4532689984426819    0.0475417326956760 H
   0.4075278418022401    0.3481918624420395    0.2955746619739351 H
   0.6606898133150925    0.0898419713178646    0.0231242449679636 H
   0.4099983796272325    1.0146359989999043    0.1599338089552656 H
   0.5783280670129515    1.0214435114399920    0.1743545716647480 H
  -0.0032507327022357    0.4634706790571232    1.1619056968077421 H
  -0.0386070084489964    0.4250784008322699    1.0401386229535563 H
   0.6888376517142397    0.1380123128657531    0.2438538898642242 H
   0.7350801834094630    0.3408883865476099    0.3085947673976686 H
   0.8925945127490429    0.4947948243272171    0.3174215957892927 H
   0.7260425156559400    0.4794722556736573    0.2772412279526823 H
   1.1394224543762714   -0.0670742411679683    0.2098681897185924 H
   0.2464476464083697    0.7754796320666042    0.2096610947925956 H
   0.1369712836965740    0.7360091345218548    0.1581790351548353 H
   1.0753401069405375    0.5898393779737736    0.0481250764185217 H
   1.0190250723532128    0.7117740415789355    0.0471982080588890 H
   0.3918060908114618   -0.2800700612556406    0.1075261456597106 H
   0.3931530702981538   -0.3140683996328009    0.2260792959677031 H
   0.4409426119667156    0.9032316244842047    0.2070542281287131 H
   0.5953395306978736    0.5892614803108059    0.2455754652414032 H
   0.4346973052808139    0.5165300522665291    0.2868837890299119 H
   0.6552018801250014    0.5561400122940461    0.1328992262875547 H
  -0.0653772981862746    0.8846247143614706    1.0149157256689922 H
   0.6946062728452701    0.9598185268671108    0.1775511055606671 H
   0.7206441122401143    0.7226573450779030    0.1871644204078895 H
   0.8105473305186444    0.8004120374233609    0.1341354723343443 H
   0.8292832505763494    0.8390492466335746    0.2894432293748639 H
   1.0063941150109397    0.4629398499820894    0.3501299470783951 H
   1.1136362662388213    1.1141947788855409    0.4202892815496547 H
   0.1035647405924363    0.3078767452360295    0.3989505997855028 H
   0.2076102755917803    0.0717597887865432    0.5707065946697858 H
   0.2903688565690426    0.0305596426648908    0.4796124925839327 H
   0.1854923884755727    0.4832882978583825    0.5081868497395888 H
   1.0007158302287174    1.1361252543007274    0.3755868142030164 H
   0.4288093111174300    0.0490225229085467    0.3647174923427833 H
   0.5903000529536513    0.2611550702278882    0.3696190024042556 H
   0.4777901633858984    0.2125558815454897    0.4246485506980211 H
  -0.4550358795990548    0.3359705907490215    0.5233458821470901 H
  -0.3868650058052122    0.4544884235263800    0.5594539100648640 H
   0.4682685509066178    0.0123716952732006    0.4757432953978487 H
   0.7903031160656615    0.0518482071375194    0.6378646335913906 H
   0.7556058923779283    0.1473092306232404    0.3476780063896857 H
   0.8646789678182594    0.0789883035964853    0.4831995031723799 H
   0.7374361876493596    0.4739059593302001    0.4392368864010582 H
   0.7819897522516890    0.4817725149988034    0.5623753713109859 H
   0.1012597118636529    0.7330438134820112    0.3508334374758649 H
   0.2164575917531720    0.5457718483408012    0.6149593024252328 H
   0.0133114689622749    0.6420550031624365    0.3654059644059251 H
   0.1998163457834544    0.8809734122345145    0.5491031159582717 H
   0.2766925786191331    0.7938895514324291    0.6118536689739306 H
   0.5888611239690653   -0.0230195246506000    0.6158509172211271 H
   0.3385778169999276    0.5669326651792147    0.5125492806425506 H
   0.4453400563747663    0.5107188249377117    0.5385373225391941 H
   0.4126737873861290    0.6875389486360163    0.6104411551084491 H
   0.4643526315006961    0.5862578070882013    0.3771076181633894 H
   0.4849364138362521    0.8543997077836879    0.5862268575398081 H
   0.6068759663853915    0.8466726145978521    0.5188269443916576 H
   0.9311891046282106    0.5020695360845758    0.6542836252051468 H
   0.8591458664537642   -0.0017272644221781    0.3900486797222387 H
  -0.0569074589109739    0.7131207261781590    0.6532892533849030 H
   0.8743739938242697   -0.0459760081186966    0.6323015263808370 H
   0.9402711339815947    0.8143931513208009    0.3526854352301028 H
   0.7253286971854477    0.6697095418547109    0.4928254650379838 H
   0.8044593058686138    0.8064237420711567    0.6011511296686032 H
   0.7768486461150577    0.7885315771726059    0.4357289196774952 H
   0.0901843948423276    1.0062943992493742   -0.0420476113343757 H
   0.2663466469569788    1.0125614945687380    0.9810138120201378 H
   0.2538745847996629    1.0443502242345510    0.8605904838689840 H
   0.0801883552168960    0.3364116408507737    0.8101051673674140 H
   0.1713547498871077    0.3197493607221287   -0.0315886852206216 H
   0.1989767016842650    0.4628805784269133    0.7681115332703587 H
   0.1992791671378635    0.2912231815125574    0.7826295199336489 H
   0.6613132954367769    0.0375173039004880   -0.0911047632852171 H
   0.5305893395405942    0.1264308253124309    0.6745243876860565 H
   0.5679805222017114    0.2300993902371218   -0.0800386222014222 H
   0.4056961110152476    0.1869976382973140    0.6917282848781133 H
   0.4594196215961404    0.3007606720528186   -0.0510628802998839 H
   0.9195341024828819    0.1103887174118426    0.9553719822516873 H
  -0.0883453148707298    0.2180873122682550    0.8119389850327284 H
   0.7893715224685781    0.1226766696044338    0.9304889735861256 H
  -0.0170559012641052    0.2058050257390263    0.7065450573506660 H
   0.9020395006467452    0.3788980145853699    0.7015012683324020 H
   0.7506801416442589    0.4428197719213282    0.7507289969436636 H
   0.8016169371793309    0.4177269847093890   -0.0302869908537078 H
   0.6842506622886007    0.4692792914643888    0.8575472950709403 H
   0.8670341654836129    0.2982329145526580   -0.0560283368480475 H
   0.1332360369882683    0.7046135147293426    0.9111943661678804 H
   0.1814812932735852    0.7867298962233537    0.8222937313325651 H
   0.0387898682541432    0.6720202608660646    0.7235853337424123 H
   0.2106155723387350    0.5951895074689412    0.7810992307094898 H
   0.6374152983043242   -0.0133871996220569    0.7228114943051954 H
   0.3795792273151964    0.8982284079149213    0.8746840049778456 H
   0.5597236186057439    0.8988559890873750    0.8421337414185117 H
   0.4419306657818041    0.7774591276813851    0.8902319332005775 H
   0.4547148722872337    0.5214452331435657    0.8424657256510256 H
   0.4122559817728916    0.7454263386707290    0.7314185807524414 H
   0.5875883493403230    0.5434864069044489   -0.0337305368273901 H
   0.3808286112821939    0.5068034157340147    0.7539429204898571 H
   0.6882093301452977    0.8525797223835723    0.8427819011105625 H
   0.6975091346252728    0.5997455724528514   -0.0410459674785625 H
   0.8167966700772606    0.7984177239197858    0.7290148568213114 H
  -0.1169859703156068    0.7623623139218052    0.9646991583080288 H
   0.2477639760624304    0.1419930951082474    0.7230596920409320 Cl
   0.4197522855748768    0.6223873065301522   -0.0376051880401511 Cl
   0.7886544776999139    0.6877934676670669    0.8428609449754467 Cl
   0.2901026869698759    0.0795641093222115    0.0945563121340435 O
   0.0260650901610366    0.4429670791687513    1.0901259631063556 O
   0.1863973651127394    0.3124781355268391    0.0441219789253238 O
   1.1143218546003113    0.0191926135444443    0.2021029204323637 O
   0.0245899782424549    1.0296456487077545    0.0004131720041454 O
   0.3910834000209972    0.3698695621072100    0.0713397852718364 O
   0.3481768606353294    0.3964258337476906    0.2732107812822344 O
   0.6607220762968097    1.0348580590011893    0.1591014770580345 O
   0.7008096376549394    0.1929544295925201    0.3091812728751098 O
   0.7635788817347846    0.4233176869873304    0.3189408188723680 O
   1.0954560760411947    0.6723628155893623    0.0451228323424882 O
   0.1651029906048626    0.7835579963809106    0.2241047802228946 O
   0.4639485376546884    0.9849479229807765    0.2120766753034583 O
   0.3793832297012645   -0.2465833758621334    0.1792797948856856 O
   0.4786023839506282    0.5848335464829383    0.3014982092083607 O
   0.6627957794466810    0.5901993655074173    0.2016650174209050 O
   0.9641780034340195    0.5130147260602713    0.2942838756603753 O
  -0.0916990518202299    0.7991132930525888    1.0329930575680200 O
   0.7524247623806150    0.8052287229219429    0.1890606827264626 O
   1.0792277962374568    1.1530612295518037    0.3597891073672503 O
   0.1314018864776471    0.3922384727025969    0.3998524902838321 O
   0.2118988324365355    0.0248029146594172    0.5028395322801693 O
   0.6249085534416623    0.0374420813238453    0.6647213675631118 O
   0.5188915889444904    0.2844915017974746    0.4004429479545174 O
  -0.4464103714369688    0.3943922964208372    0.5838784643140971 O
   0.4226841840384248    0.0692525148385391    0.4412153543391110 O
   0.8721478480857848    0.4464946083422514    0.6644455044746659 O
   0.8654452136340423    0.0845553844164080    0.4015985692591252 O
   0.8650177291262897    0.0449572786999263    0.6152912866577466 O
   0.2123940692058941    0.5561173496405964    0.5371414078853382 O
   0.0385466053719957    0.7161993604852512    0.3967761030625371 O
   0.2023183400156211    0.8008129920613174    0.5818754927779303 O
   0.0010279839330958    0.6544035343709798    0.6580152860663322 O
   0.4040216622641263    0.7633211184908316    0.6539698210615563 O
   0.4169276615255382    0.5807080719145727    0.5051847637512851 O
   0.5415619796226046    0.8995358686908663    0.5380638497885374 O
   0.7304431863621624    0.5208786668073228    0.5098025063378229 O
   0.8603395967772997    0.8181534085124192    0.6597937730262278 O
   0.8753257517849262    0.8616378106393203    0.3543374520061837 O
   0.7216918525713795    0.7570793007464695    0.4948537306109136 O
   0.1574994123886680    0.3532935743897774    0.8300637432506869 O
   0.5189730529733263    0.2919196222858776   -0.0956584803411987 O
   0.4863616310536082    0.2004976066292063    0.6853834338438547 O
   0.6699363838752342    0.1113897965459579   -0.0540039444244970 O
   0.8644531269462391    0.1406106732478147    0.9118188127004659 O
  -0.0336415742478150    0.2591206612605176    0.7665440934297042 O
   0.6841038657217875    0.4182124884775232    0.7952955088427011 O
   0.8756645130929566    0.3870766175591654   -0.0423108274044402 O
   0.1385110344990260    0.7159683757481675    0.8343242075679479 O
   0.2569347286155367    0.9835271489375828    0.9076769141805312 O
   0.2418332334482711    0.5307700433976065    0.7405252244257557 O
   0.4583726878394181    0.5006095382181038    0.7659552166363165 O
   0.4436881917108471    0.8565639911881358    0.8474929154576638 O
   0.6400495707615314    0.9254061592442344    0.8478248996901777 O
   0.6645839552083551    0.5294730423078690   -0.0095550497964073 O
