Li1 Co1 H110 Cl3 O55
1.0
  12.7023974038999992    0.0000000000000000    0.0000000000000000
   0.0000000000000000   11.7541924415000008    0.0000000000000000
   0.0000000000000000    0.0000000000000000   12.9617022082000002
Li Co H Cl O
1 1 110 3 55
direct
   0.3717250021283599    0.7775463321947859    0.2210083643402740 Li
   0.5084826506858396    0.2739090104933773    0.6125163559981626 Co
   0.1445072645449135    0.2036796005097974    0.2683817717937749 H
   0.1660362713382325    0.2045975708470793    0.1464710864055291 H
   1.0712173670320102    0.3940048832660589    0.2285513551010205 H
   0.2979649102174946    0.0729433540472632    0.0831773934304667 H
   0.3079968747316009    0.2702822194388521    0.0462444356822822 H
   0.3070364261161093    0.3889335012637073    0.0998421799323004 H
   0.0022337280985469    0.1779883417097617    1.1686238705991321 H
   0.4848815940925421    0.3282725920988572    0.0445269915038535 H
   0.6554769495279403    0.0992950580491821    0.0297287191072963 H
   0.5967258353665403    0.2834800635929337    0.0703597096624431 H
   0.5472469866094519    0.4470046961498865    0.1692690179775920 H
   0.4572781434327205    0.4736164775680307    0.2535827896138997 H
   0.6280380347374940    0.4157018225725465    0.3105699035079919 H
   0.4190121386350149    0.0795223683338569    0.2945990073498440 H
   0.7459181444827825    0.1954859282963017    0.0241704830945585 H
   0.7282380174281016    1.1644797623419956    0.1912398976834873 H
   0.9100981755184748    0.1866941716091181    1.0238820789837439 H
  -0.1189933876211372    0.1419050461442966    1.1900408107155607 H
   0.6994190481926087    0.3057453107634659    0.3131721851727151 H
   0.7449852497210140    1.1233710258290568    0.3050953139162709 H
   0.9176951666164208    0.4850957859655696    0.3174416861310838 H
   1.0089928927955700    0.5066140656141987    0.1840116803941927 H
   0.0835405056429893    0.7969368603943492    0.0590013249661136 H
   1.0812076071390502    0.9225830932044979    0.2602732688894642 H
   0.2354853660208747    0.6743031697198030    0.0974556878263152 H
   1.0137242831063116    0.6221073252963382    1.0619326368563038 H
   0.3038842652501843    0.5375443061908627    0.2308049171356058 H
   0.5310705127150900   -0.0254697871155320    0.0364766908316171 H
   0.3520421035344899    0.6658993597182548    0.0533370997879149 H
   0.6575017641501079    0.7085964656655822    0.0070613105153810 H
   0.6286875184323960   -0.1080968161380430    0.0102081194255715 H
   0.5199277342694603    0.6260548529747330    0.2355751239345928 H
   0.6021791366448276    0.7161469631107877    0.1147221699908580 H
   0.5474130969847542    0.7460860679664754    0.2687335774383386 H
  -0.0047763659150966    0.9967864044350138    0.1255247634890653 H
   0.9176400589089745    0.5412519194715619    1.0401839501890804 H
  -0.0402468354393508    0.8715059985433368    0.1592587586832598 H
   0.7854949254647451    0.7867277370881558    0.1330006334360463 H
   0.8787340174519291    0.6993308355049360    0.1441835782122579 H
   0.8503929107652913    0.7559514841213603    0.3205084129669196 H
   0.2997236333379932    0.4761900274014669    0.3356414562084091 H
   1.2620868480368801    0.1288143977849301    0.3645759274665697 H
   1.1447782839431055    0.0762644669347955    0.3627760095526062 H
   0.1691309627378206    0.2422258470728816    0.5119200007466810 H
   0.1688491261768813    0.3056415180098530    0.6285682600349930 H
   0.1916645043125882    0.4392678822043429    0.4575513700930484 H
   0.2992906442080585    0.2325441951375082    0.6011837395222901 H
   0.4849603193888939    0.1077537420885011    0.4671751060805243 H
   0.5946104866535682    0.0962170924483923    0.4725879753837253 H
   0.6404419924306791    0.3733475730162522    0.4781435728541288 H
   0.5975996861560451    0.4732880841016814    0.5536992355494532 H
   0.9535939017528285    0.4579973696698302    0.6172595601709220 H
   0.8630440658890211    1.2917364843536963    0.6076967729683596 H
   0.8053234658568657    0.4574724505798368    0.3647209701445917 H
   0.9132786774910864    0.4442354714530815    0.4981332312985333 H
   0.8812768445240913    1.1002303463350183    0.5670277318553402 H
   0.7644004823072879    1.0003766127976916    0.4606157824180647 H
   0.0543380654889668    0.7199319955765588    0.6553857253969188 H
   0.1245763812675355    0.5057335287290396    0.3776027658623153 H
   0.2326866817355693    0.8650002347164650    0.3550177692856463 H
   1.0547952702130308    0.8908071969139709    0.3728233010200503 H
   1.1631527681116092    0.6445197539945348    0.4890264027274121 H
   0.2840777679410422   -0.2154925395178200    0.5760550955549919 H
   1.0908593284717774    0.7539819740835405    0.4940720363139194 H
   0.3162260299592515    0.8101364060689817    0.4247107760751803 H
   0.3706897644813341   -0.0184448042925127    0.3596892236230014 H
   0.4053658957653989   -0.2280940007187647    0.5632458211762792 H
   0.5697639958719857    0.7531652442190450    0.4296244825449762 H
   0.6720446881451706    0.9441328509833212    0.4015996140388786 H
   0.6796196361601382    0.7421768245004788    0.3733324934003401 H
   0.8656892358464405    0.9794223872117298    0.6139775838288727 H
   0.8381668722418613    0.6500445912237365    0.3837825097503770 H
  -0.0501796060800538    0.9125100915423872    0.4989973153378128 H
  -0.0764486629667129    0.7910453454864000    0.4414153721631094 H
   0.2994087321525861    0.3929397314011128    0.9116437343101835 H
   1.0027027416170637    0.0921163428443771    0.8177286002909885 H
   0.2159300024070947    0.1058263446843193   -0.0030714635516633 H
   0.3124314706750962    0.0246585396863736    0.8083934066523434 H
   0.0824593711481904    0.3831713019176368   -0.2420079820932419 H
   0.1197292647711570    0.2603521455030280   -0.2077046172374507 H
   0.2399679843951446    0.4126926834780460    0.8061714762656246 H
   0.5181902669789766    1.0011252818401459    0.7817063253999161 H
   0.5971722077968549    1.0116491864482802    0.8687095586084814 H
  -0.4048386406507113    0.4083214771824442    0.9490385141172187 H
  -0.3926417304869314    0.3799316067884713    0.8291854288475073 H
  -0.5579805978849218    0.4754217908726758    0.6933120711888321 H
   0.3457763571978525    0.1405404266623688    0.6781859714798011 H
  -0.6146919396178474    0.3824932459780504    0.7686756294861380 H
  -0.3779815058003044    1.1724258633153160    0.7415225600553849 H
   0.8801668178455314    0.1651503691522235    0.9023085406715385 H
   0.8867482526205394    1.2057926813210582    0.6947910436024918 H
  -0.2207119812783706    0.4414339178658070    0.8965762688752464 H
  -0.0619813152561479    0.4781663435214908    0.8352185870503341 H
  -0.1333591796994085    0.3620775516464901    0.9390629724851790 H
  -0.2952742839590604    1.2583016055259129    0.6840941460983749 H
   0.8978091567579634    0.0102390888526785    0.8031170934874927 H
   0.1875093831711417    0.8673517361179917    0.8572681601240925 H
   0.2566325551268876    0.7571638175139708    0.8664953432578275 H
   0.0599383468955428    0.7759069171438663    0.7643814404123613 H
   0.1305602910432337    0.7375997342182021   -0.0308483707986319 H
   0.3393602455451831    0.5816034793392914    0.8535726578489594 H
   0.4392154114377700    0.6660907807802459    0.8742180943588884 H
   0.6071159999790472    0.5668844758125871    0.8787005303126512 H
   0.6242426882003750    0.6904599581121296    0.8459887773970685 H
   0.6424085503335463   -0.1200891329817182    0.7662515651545163 H
   0.6178572794132828   -0.2284317525481446    0.6862875308516533 H
   0.3532363662801464   -0.0508125745067163    0.7146842640960838 H
  -0.0039528205899608    0.5690156303027549    0.7659907969355195 H
   0.7968849013409193   -0.1484602866496296   -0.2758376437346425 H
   0.9196632990252150   -0.1739728857918069   -0.2976542227192379 H
   0.4110104995138208    0.9577705381998446    0.1454596451774082 Cl
   0.5424337219905047   -0.3500504862140001    0.5623979387127361 Cl
   1.1555715220729335    1.0443694266446300    0.8546604779341239 Cl
   0.3279828657164251    0.3489145886637048    0.0361579595466639 O
   0.1213667509352738    0.2359923265341750    0.1989248451078298 O
   0.2530741717317875    0.1361913401339304    0.0550628762052938 O
   1.0301621249845614    0.4607181010309307    0.2501210529315360 O
   0.3322348189723843    0.4685731706547711    0.2651985479133576 O
   0.5543598171348345    0.3557912839707015    0.0708558636317830 O
   0.5350422039160369    0.4826192228035422    0.2346917523051508 O
   0.6728051745079288    0.1799323289393160    0.0575550643053694 O
  -0.0545236679327446    0.1273272688233280    1.1421767269683261 O
   0.7716314007771982    1.1811801865503768    0.2561272085081354 O
   0.1119356966082207    0.7226714436637207    0.0438377301818067 O
   0.3099697306581763    0.6560705262552171    0.1203387162461750 O
   0.0203750279392564    0.9192140825134540    0.1432191987041334 O
   1.1093597731144436    0.9299932152042434    0.3309707733746606 O
   0.5061523819138273    0.7079345741712306    0.2164171463779950 O
   0.6582189515998725    0.7496720225277758    0.0729621456278876 O
   0.9514368286327900    0.5880692574332139    1.0906325710180884 O
   0.8512510164955257    0.7729658388714070    0.1688925242176202 O
   1.1848573323157925    0.1477684859631537    0.3660140101890850 O
   0.1983671760439780    0.3030696696969677    0.5553587398070339 O
   0.3860900069536676    0.0598059989487709    0.3660595289018684 O
   0.3649010934405883    0.1960278625918054    0.6239971011664829 O
   0.5424652121090453    0.1431965002425301    0.5049741537773651 O
   0.5967644107617527    0.3914160197476634    0.5417671607713306 O
   0.6919724224106946    0.3827135928894090    0.3504682125181182 O
   0.8380487842973336    1.2195154445651331    0.6397350032354681 O
   0.9492089027460349    0.4097771280138522    0.5590642716290515 O
   0.6952025213200077    1.0192464757086392    0.4240141083185112 O
   0.8725619542179502    1.0165325504297427    0.5412841995136618 O
   0.3043825963760911    0.8286234268559469    0.3471661770823000 O
   0.1917597619211738    0.5136600622160232    0.4214241707114920 O
   1.1501788392728372    0.7141017354084470    0.5298667176410744 O
   0.3455519901032499   -0.1698909379898806    0.5501341173838187 O
   0.6103547586709590    0.7839168251378505    0.3724406352312266 O
   0.8666733020508377    0.5057037521193966    0.3752558518913436 O
  -0.0177585609099855    0.8412223357760651    0.4725555722322524 O
   0.8296251775876941    0.7328499395999956    0.3910176705721302 O
   0.2988450590307075    0.4370678161318582    0.8451015482495939 O
   0.1403277385615980    0.3262639470883636   -0.2509250207771642 O
  -0.5588119370143966    0.3969195879699772    0.7127099863670512 O
  -0.3669859436588526    0.4380453396884262    0.8858909439252273 O
   0.5944695683730986    1.0103560308294957    0.7882417324505741 O
   0.3664913444268941    0.0133599327713542    0.7565969690227805 O
  -0.3705348800183905    1.2478032237260441    0.7154488241701248 O
  -0.1472848973710734    0.4442950246723676    0.9211486587422585 O
   0.9233004077166669    0.0905751055292521    0.8189398609531928 O
   0.8610365708320509    0.2150993556880502    0.9641908449488705 O
  -0.0101566888436658    0.4881806427245910    0.7768597397438857 O
   0.1818380128219600    0.7831987834653149    0.8517981995540104 O
   0.0189387636326146    0.7280091136323088    0.7172934892932653 O
   0.3622291568824093    0.6572488292368068    0.8745344108375533 O
   0.5833661525756447    0.6492669963319146    0.8986284684685354 O
   0.6622410269904846   -0.1994480514818616    0.7501070806849059 O
   0.6000448938607310   -0.0271131156637189   -0.0038046234289199 O
   0.8629023603555879   -0.1134013064558860   -0.2875266948767177 O
