Li1 Co1 H90 C51 N3 Cl6 O45
1.0
  14.6166389455000001    0.0000000000000000    0.0000000000000000
   0.0000000000000000   14.2377995131000006    0.0000000000000000
   0.0000000000000000    0.0000000000000000   14.2846485887999997
Li Co H C N Cl O
1 1 90 51 3 6 45
direct
   0.9609172823636125    0.6905225240848598    0.3850554853349785 Li
   0.2246987823292402    0.1244259167696539    0.2364631005237599 Co
   0.0351045801099144    0.3133448573352351    0.0760167314197276 H
   0.1531481335173273    0.3395673083296101    0.1165049517917336 H
   0.4867283100668144    0.0599974214002686    1.0202191677733294 H
   0.5629720350541582    0.2048800627172810    0.1918928756391809 H
   0.5754640997949523   -0.0055225347658291   -0.6789328869037807 H
   0.3766030613005402    0.0260715328136530    0.9830764969752532 H
   0.7329312171385467    0.2073052970358447    1.1569834702239867 H
  -0.0450054920048856    0.1710981570542986    0.1629800187752169 H
   0.1728674411553350    0.5254040310314250    0.0501981053816206 H
   0.0215337447941068    0.4686883145854233    0.1907083872777895 H
   0.2680199591306242    0.5975720650773180    0.2063335528961444 H
  -0.0032763364668554    0.3795165996141702    0.3071095706645264 H
   0.6357515573483384    0.6441754745009087    1.1162082284405324 H
   0.6947555461049683    0.5392372079783813    0.4000723055715077 H
   0.2152390152435540    0.8435848001756899   -0.0198932233462715 H
   0.0444193070117455    0.6938636302688760    0.0647129881742268 H
   0.0737030569624670    0.7498301438629772    0.1706553913486777 H
   0.3049265285554700   -0.1553736404817757    0.2375628825661630 H
   0.4008863456673114   -0.1480403443566312    1.0589670583188466 H
   0.5008633927469273   -0.0870098459849902    1.1079763143497512 H
  -0.0283470795676705   -0.0125510085063062    0.3268545436154986 H
   0.2553720446073667    0.2230942537347478    0.5911235577626028 H
   0.1553511023475804    0.3451819399955812    0.6444451354874621 H
   0.3214754767029830    0.0510775036922584    0.4151297288369735 H
   0.5031785364763561    0.2021921473575522    0.3228761468319363 H
   0.3859868875352456    0.1915556722575438    0.3550680483086411 H
   0.5016503930992581    0.1615791299128291    0.5650368117230699 H
   0.3971529292366620    0.3566795032144889    0.6020345717109756 H
  -0.0782846885297308    0.2153936255654073    0.2696959796561320 H
  -0.2546159237480359    0.2454242493009501    0.7824611313129232 H
  -0.0478351438936828    0.2135667983245778    0.6282144246961736 H
  -0.1782433729747491    0.2972412452715140    0.6953949362806463 H
  -0.2608553882610509    0.2029949399512731    0.6635635616988095 H
  -0.1282599258413761    0.1341956849049628    0.5822118929632454 H
  -0.3287506139487271    0.0495386422986954    0.5817596592271587 H
   0.2116307985942513    0.3361700136875908    0.4292469119616681 H
   0.2287975358267701    0.4571630083153765    0.5369712980698789 H
   1.0331356633427078    0.5197487680867603    0.6301388682573231 H
   0.5045283461058863    0.5535261435553160    0.3417635558096789 H
   0.3371192920050226    0.4389401080869192    0.4763465655385517 H
   0.6003330181116294    0.5277483539704640    0.6166068587858714 H
   0.7225020069371870    0.5377529898602263    0.5196364649124046 H
   1.0438960030204161    0.8145866393559562    0.5200484456456662 H
   1.2386206596677134    0.7041805335139910    0.5599285306515135 H
   0.6366074312634460    0.7509827096077681    0.3880678100507393 H
   0.5179642187940093    0.7168095918059384    0.3825857010920773 H
   0.3833214320810015   -0.0503173781974414    0.4415903027636124 H
   0.6427223801469250    0.7261087816054703    0.5665454242637309 H
   0.8210212359726239    0.7798200309664677    0.4514952016570254 H
  -0.3007824879298617   -0.0150310265714230    0.7312691124505656 H
  -0.2131494825052905   -0.0387783759907564    0.6498831411560724 H
   0.3592091856668896    0.2057214848758791    0.6544432813369847 H
   0.1651413147578046    0.3196000374224429    0.7731392359108616 H
   0.3170305423892705    0.3065825764145483    0.8353850793750931 H
   0.1176837561093056    0.1525587753361382    0.9441598938439824 H
   0.2518397688090447    0.1846135882712467    0.7158427616635553 H
   0.5631911688791055    0.1585927133699583    0.8086969884759647 H
   0.4282852573797263    0.1478403495753182    0.8791194419053568 H
   0.4579632156037373    0.0484520979920582    0.8049902119549438 H
   0.4142081497240470    0.3340250193033180    0.7684754880009386 H
  -0.1416289363730456    0.1967488904884908    0.8760049095650315 H
  -0.1254206958272300    0.0145746719504704    0.7769125173930719 H
  -0.0381304504597883    0.1445512177149551    0.8363728530618091 H
  -0.0323315797128239    0.0919714634269975    0.6484333330021470 H
  -0.2288576080775300    0.0784609487001247    0.8202975538640365 H
  -0.0645989157097361    0.2614204009387400    0.7959357365020852 H
   0.1899924451274050    0.4352379910602325    0.7189999971894863 H
   0.3498014141188119    0.4633864419238126    0.6425605949030261 H
   0.3256604333286532    0.4259872638057283    0.7970761215734248 H
   0.3004939089743489    0.6556126351274629    0.8329670989966972 H
   0.1824298310126169    0.6357767047408783   -0.0212282229356175 H
   0.5911489642056301    0.5121396217506062    0.8738368478302625 H
   0.4261274425689753    0.5586648589820000    0.0736169523991308 H
   0.7048276290611750    0.4849539601149113    0.9468942978271944 H
   0.8450130716680635    0.6078559576033563    0.9183867712003733 H
   0.8555435363373975    0.4861902466621269    0.7172071634462692 H
   1.1599096780056672    0.9509658599099072    0.8017342690655634 H
   1.0819314229328139    0.7082584108535743    0.7662542222972182 H
   1.2484108720779372    0.7963605082911638    0.6542626678634392 H
   0.6157018043857927   -0.0285394342311207    0.8928236642236774 H
   0.4599122272818817   -0.1031661347280894    0.8144829200994282 H
   0.3756130936305476   -0.1326306597492498    0.9100015456727453 H
   0.4665597883499420   -0.2109194429965779    0.8884910410152546 H
   0.6373073185657283   -0.1242297829220442    0.9685434128248479 H
   0.6150101269052379   -0.0085883175056295    1.0125374947298613 H
   0.5139101404097141   -0.1969495876255288    1.0428266542643310 H
   0.7620733476644663    0.6833289967489983    0.9629359945182610 H
   0.6661627894829907    0.7259029913780336    0.7883212684720293 H
   0.9227771872241872    0.8272473036555305    0.8297426584573538 H
   0.9898801651151450    0.7579571019574171    0.6971394664204733 H
   0.1139188686953669    0.1990462960650972    0.0729414020038927 C
   0.0894289704817830    0.2881429292093436    0.1229734343326655 C
   0.0462405191316628    0.2830108159264750    0.2252818664172920 C
   0.0176826542520278    0.1022153216767085    0.2717695343407900 C
   0.1126169277997235    0.2888649508946849    0.3052502319601199 C
   0.4249938030187488    0.1673700528657854    0.2100501301482881 C
   0.4388021074280287    0.1598098958414529    0.3120932424403807 C
  -0.0202234609681595    0.1937877587517214    0.2316453411247671 C
   0.0323385543395066    0.6097452945037143    0.1956003522124250 C
   0.2054378564043596    0.5961308311295356    0.0429140620008418 C
   0.5873225031287340    0.6405576401612268    0.2914634034794801 C
   0.1879139919266880    0.6646308826369788    0.1207661696734060 C
   0.0781821988667114    0.6856474729973560    0.1321385180367651 C
   0.2233311628597756    0.7652531732291344    0.0877713082968690 C
   0.4743341474501225   -0.1243716587785023    1.0476290125144168 C
   0.3289395729570394   -0.0430311399058746    0.3001881543352846 C
   0.4623094268111748    0.0610966081099565    0.3564079482635484 C
   0.5182239912365084    0.0798178999609023    0.4481967655977063 C
  -0.1852566131855952    0.0608585095191679    0.7609443261854252 C
  -0.0837332735496487    0.1462530256367274    0.6428763184556192 C
  -0.2141825517393533    0.2308833787254433    0.7177280023002143 C
  -0.2465976645273631    0.0161999230982134    0.6825160755332952 C
   0.2847796260358137    0.4050668961796817    0.5217807248715901 C
   0.3350408388043055    0.3904768607034221    0.6135875335478802 C
   0.5389704844030074    0.5460060910428834    0.4945289519224662 C
   0.6078477415996729    0.6275703804495090    0.4787702163399544 C
   0.7032677629329213    0.5824412859283500    0.4616124263896880 C
   0.7826697379237114    0.6504685817972687    0.4412341861977496 C
   1.0670559101141204    0.6534367370912885    0.5796910049080619 C
   1.1090580422245950    0.7434092078246600    0.6142238810186278 C
   1.2174187950560538    0.7301810400992533    0.6297055359312586 C
   0.3721225510926745    0.0036888605680728    0.3840747121704930 C
   0.5845817909753198    0.6884533841188915    0.3876141762102064 C
   0.2887306027422458    0.2283675405183494    0.6621389554249137 C
   0.1914667922793291    0.3621241647950003    0.7124468083295660 C
   0.3433724395542503    0.3502360917929703    0.7836624209276677 C
   0.4766760675131161    0.0860927460084113    0.8707384166910672 C
   0.4529064443257715    0.0263250832303925    0.9614686850587595 C
  -0.0943937270630039    0.1911756978102970    0.8159194272611157 C
   0.3031730474648057    0.5893411583355722    0.0155875234742968 C
   0.6552512522551315    0.5342129062993064    0.9129697670984542 C
   0.6099460352028985    0.5765546318900708    1.0048068180307801 C
   0.7413736504818148    0.5580521238474749    0.7531093417051102 C
   0.7065311670696627    0.6084396152108646    0.8432914691821586 C
   0.7890049836902157    0.6510915713253793    0.8949112199527964 C
   1.2583105487778636    0.6584403192764747    0.7028777944927698 C
   1.0755975454699309    0.8601617999980882    0.7527075117290827 C
   1.0598251096274915    0.7615601868268731    0.7129753477579647 C
   0.5971592378620816   -0.0630440639351694    0.9578991187734552 C
   0.4473139137648955   -0.1355566736997671    0.8848759713354525 C
   0.8215637683584595    0.7351726822371137    0.8370995072693292 C
  -0.1469044309848722    0.1567848497337049    0.7303884467539754 N
   0.2875415468953577    0.3332215243538721    0.6888186456973655 N
   0.4925079561478998   -0.0743161709663391    0.9603311001963121 N
  -0.3365978352167405    1.2285796861450118    1.2614158607533306 Cl
   0.7783848951336881    0.1799724216401812    0.0756205018614843 Cl
   0.9356351363533103    0.8471935038909464    0.4018567386880483 Cl
   0.9361414086931822    0.4347653056572804   -0.3702518596745055 Cl
   1.1714930523115725    1.0786232270703093    0.8304840137615580 Cl
   0.5255509150525318    2.2196949204209537    0.6830621162672701 Cl
   0.0912303421991919    0.2044663751952323   -0.0159834316805675 O
   0.1525884973362257    0.1283914171932308    0.1033894733929935 O
   0.0958736805379893    0.0674613556902705    0.2792061891061926 O
   0.1872900454753864    0.2397253349479741    0.2996309127657411 O
   0.3493402957984422    0.1615222390991009    0.1731510775238316 O
   0.4976716535123502    0.1822592918809120    0.1585157857488617 O
   0.5168201801362611    0.0073839540375091    0.2907612510997664 O
  -0.0526666239804055    0.0510732895579082    0.3048112992162710 O
   0.0404553314209112    0.5260905837526517    0.1503874793870911 O
   0.0092272220243576    0.6205124077685802    0.2779278937469132 O
  -0.0095465878113490    0.3709148490496032    0.2389650871689213 O
   0.2158417529887257    0.6380361831083327    0.2121460865040835 O
   0.3618431701378444    0.5734589287963837    0.0920654286330245 O
   0.5355873536994046    0.5628821539330038    0.2808394109425555 O
   0.6651700852057556    0.6311334310426377    1.0543257120800611 O
   0.6330395795709709    0.6726524873726626    0.2273148180730134 O
   0.2033012502997384    0.7782867884187050   -0.0024416214779932 O
   0.2612406988390161    0.8254724507383538    0.1349408270856125 O
   0.2730943131101233   -0.0032195103434224    0.2471928009463641 O
   0.3511649286774127   -0.1280948464769403    0.2903804226904301 O
   0.2545620088635718    0.3218693487700477    0.4799811526743324 O
   0.4720769937964669    0.1461575052581220    0.4985646829830959 O
   0.5787726579511958    0.0260602951220524    0.4780131798659540 O
  -0.2768713821480773    0.0788226618985204    0.6121398255506240 O
   1.2744428484726984    0.5733964893724277    0.6853022833810127 O
   0.1052595592281266    0.3489788750451484    0.3671754515061970 O
   1.0722356234724577    0.5833547697843373    0.6432907493716616 O
   0.5535789043548281    0.5006044825004090    0.5735844493664440 O
   0.4741199395182119    0.5278811694380692    0.4433213919007570 O
   0.8537756880587100    0.6192622145780087    0.4094530053603050 O
   1.0999102483645595    0.8206093396981758    0.5595407017199469 O
   0.5931754218687388    0.6862332376720394    0.5584563208264508 O
   1.0350519725643037    0.6542458508865348    0.5005358200275225 O
   0.7669253523055082    0.7372832611908595    0.4700734675730716 O
   0.5665472755861881    0.1221011193197710    0.8658807543153609 O
   0.3267345516713543    0.5816534535115725   -0.0669339325259748 O
   0.5278637586635734    0.5600660586534552    1.0300920042749271 O
   0.8225544201802627    0.5220668580394691    0.7702550207519180 O
   0.6982488252500838    0.5399239714063255    0.6802143038239247 O
   1.1619580285267161    0.8833760614221160    0.7697579836735563 O
   1.2765089869408239    0.7006750760903154    0.7846053912721087 O
   1.0087319682572644    0.9149652125115230    0.7652503474093724 O
   0.6341273809498847    0.6733183206000006    0.8249038974916697 O
   0.9005573047182990    0.7752392669277556    0.8729498816636651 O
   0.7851511565408941    0.7627513821365414    0.7665405436564434 O
