Li1 Co1 H90 C51 N3 Cl6 O45
1.0
  13.4231920999999996    0.0000000000000000    0.0000000000000000
   0.0000000000000000   13.0752848626000002    0.0000000000000000
   0.0000000000000000    0.0000000000000000   13.1183087167999997
Li Co H C N Cl O
1 1 90 51 3 6 45
direct
   0.8245577853273813    0.7915593459997434    0.5607955657407753 Li
   0.1632463823563994    0.3717367526349621    0.6949388488414688 Co
   0.2988810351600347    0.2506770574441037    0.1850156457510210 H
   0.1140866895587377    0.2693519851849472    0.2170449270456370 H
  -0.0087864681605801    0.2224145756792118    0.2372746689833412 H
  -0.0436656531198715    0.2092248056809078    0.3994807921915058 H
   0.4226377383066730    0.1694987113389209    0.1098962060981035 H
   0.7202293968511410    0.0718220631113090    1.0776916951416746 H
   0.7725567415518102    0.0586414707333215    0.3422569521214334 H
  -0.1223153507577382    0.3240245990141691    0.3194750519198271 H
   0.0119172510389686    0.3243580525523380    0.1468537141478350 H
   0.2987685432885968    0.5852286978838643    0.0135888217184360 H
   0.1519405767872457    0.4345606229086884    0.2435437698084102 H
   0.0260204538084499    0.4967339528623082    0.2215599907843144 H
   0.3105638002453976    0.4804094901647087    0.0921233357507685 H
   0.5858716385352185    0.5562822539648797    1.0345939138494904 H
   0.5706845654097433    0.3556254401692151    0.2967122090529273 H
   0.5692440734719129    0.6134469741108981    0.2936622732064899 H
   0.6834520046837445    0.5445092791029469    0.3220805707209075 H
   0.8273589074241142   -0.4624209819469819    1.0527860455603697 H
  -0.1132951416228335    0.4457835523929811    0.2735750801323907 H
   0.2443932505443322    0.9645093064605152    1.0009439968114289 H
  -0.0160038274353535    0.7469790553119815    0.2046363152715037 H
   0.2269912795183792    0.8393632758237021    0.3311876898304769 H
   0.3552647920459993    0.6968363619106823    0.1687208622835266 H
   0.5793709493288114   -0.0831718832000845    1.1526655367574341 H
   0.7124734175561713   -0.0744080205994487    1.1835498533828801 H
   0.6667778784153734   -0.2007050777842990    1.1461342070068030 H
   0.7978934869001838   -0.1984527367982729    1.0284269603384486 H
  -0.0214697404203878    1.0059156701221283    0.2076969232253767 H
   0.8396443607478432   -0.0666666978624179    1.0258145808968739 H
  -0.0875561074626951    0.8478724594605529    0.2605467238336002 H
   0.1525916886788799    0.3000473011354245    0.3771151041798906 H
   0.2428496534740049    0.0803870772717524    0.3870676066570429 H
   0.0592584494115971    0.0913864552211672    0.4151492754112039 H
   0.6324283737249056    0.0388139868410548    0.6394934392462124 H
   0.5070449412699681    0.0602337878582473    0.3579655319733541 H
   0.3743630808948938    0.2626859736283418    0.4637514248013523 H
   0.6135505987432006    0.1291883085034455    0.5441826010130202 H
   0.4455177654799413    0.1999798828153448    0.5603615158854987 H
   0.0054702003407967    0.2547305064172576    0.5241401545608121 H
   0.8972282792555729    0.1174807241862683    0.6417986144523175 H
   0.7359916684795117    0.2015989679995272    0.4486871353211909 H
   0.9115609356436164    0.0082831032545829    0.5523694033149406 H
   0.0763378444088571    0.5144041468525642    0.3459746569759885 H
   0.0817769381397738    0.3912193109636641    0.4630507247188616 H
   0.3937236024507166    0.5960752684550082    0.3918372763874000 H
   0.4547052969613689    0.5162609691134271    0.5443833890914884 H
   0.5692731276638736    0.5840157223986904    0.5752313443223145 H
   0.6523088908188984    0.3815881632431120    0.4232450598825657 H
   0.6881841130769484    0.4550583790047423    0.5585921567020031 H
  -0.0831629646423670    0.4263810688015411    0.4061988838222612 H
  -0.0447309734917673    0.6219852202120848    0.4977080124695118 H
   0.1508841961667226    0.7299094463248457    0.3550550958169687 H
   0.0059142079923001    0.9136882339574827    0.4037000860955375 H
   0.3273310489238994   -0.0107719309277055    0.3509653917889416 H
   0.6529711773997483    0.8281122781172745    0.4215253259986461 H
   0.4484541758141121   -0.1479612938249439    0.5153154651515938 H
   0.1585537578650908    1.0596514018773666    0.8672141054151900 H
   1.0165367111150858    0.2067812642716198    0.8430776098626416 H
   0.2407078380409977    1.0037772845883666    0.7905853248535131 H
   0.3724417793290763    0.2967418282180715   -0.1199527832109023 H
   0.6966962463421797    0.0491648129547651    0.9419112345310101 H
   0.3315372019446849    0.0742082443936184   -0.3427261652900576 H
   0.5956234173241103    0.0467205067437840    1.0261629489753097 H
   0.8121665449457436    0.0846684371494345    0.7695246831226029 H
   0.0930469847034373    0.4628819944039450   -0.0463609795080623 H
   0.1074116752005658    0.6662175261295098    0.7648632590533792 H
   0.6016897836096677    0.3222724383353963    0.7116452707386249 H
   0.3378546262479549    0.4948288318449259   -0.2133512560209609 H
   0.4704131851022232    0.3711815066058093   -0.0744979907622111 H
   0.9513152650180728    0.5541850147622038    0.7763822744434103 H
   0.8111474132892726    0.3668511994197721    0.8545775679179662 H
   0.7380604759429764    0.4572066304803445    0.9227304082955549 H
   0.9240341237461691    0.4383899849857792    0.7082942290038240 H
   0.2707625371762354    0.7039352512255530    0.7636847534751257 H
   0.0567515941308774    0.9237010177228657    0.8408181722598321 H
   0.0994769008781451    0.7029555402567587    0.8978041767927667 H
   0.1336766647331226    0.8582447000216686    0.9379130057095745 H
   0.2654716943222469    0.7347552298519970    0.8956971978676098 H
   0.0126406259208642    0.7686130008032274    0.8057320944782844 H
   0.2356285693028263    0.8764324490840406    0.6635491316996049 H
   0.1448222997568514    0.7839380971285210    0.6356911198255601 H
   0.1014138470088646    0.9009259881055924    0.6739041250857597 H
   0.3251266552312844    0.8236932539348437    0.8123853911710376 H
   0.5501577042915150   -0.1960940883769132    0.7373696234189236 H
   0.5734973836811886   -0.0379705735375678    0.8341770722612911 H
   0.6300578496526174   -0.2192844053135115    0.9750793821476899 H
   0.5318417926835749   -0.1186525633439625    0.9927775477429751 H
   0.6862918657030916   -0.0990147502715717    0.8241376683378769 H
   0.7863351333547555    0.6692813217118597    0.7610357839509143 H
   0.7833663909197873   -0.1215580449758514    0.9122603086077724 H
   0.0372145124854467    0.2899679796227463    0.2216316463628111 C
   0.3406684129924655    0.1372363167193885    0.2771479492431760 C
   0.3798602830097321    0.2875863871505951    0.0343094805981811 C
   0.0788990831770932    0.4594019172600692    0.2788188963502469 C
   0.3416115567622697    0.5153626361039798    0.0247907230589501 C
   0.4427160473997835    0.5612637133123779    0.0464055520831269 C
  -0.0809175970892944    0.3942815769426279    0.3330095710284237 C
   0.2165712543143892    0.7347093417504141    0.2041781769451581 C
   0.1022489687829171    0.9244321681414195    0.1826380526730310 C
   0.0777778893591190    0.8557980994056084    0.2788082242428112 C
   0.1686571668746363    0.7871992115476774    0.2978350672138376 C
   0.6585853412617108   -0.1146924201773605    1.1347226749845167 C
   0.7848727390260622   -0.1194854323876916    0.9965707196429683 C
  -0.0242015794439834    0.7946705592870622    0.2659894986257929 C
   0.0203712759202783    0.2309941210718231    0.4478470880073259 C
   0.0770910184619946    0.3250769661438030    0.4035171356823545 C
   0.3200682459129822    0.0711345063892589    0.3671763229837272 C
   0.3016516131062447    0.2032968277580935    0.5969315502059765 C
   0.3995292259879079    0.0951569275678933    0.4561184286460045 C
   0.3759416919914302    0.1948878331430320    0.5164590576926649 C
   0.4168298798316386    0.0001601444727212    0.5221408114620777 C
   0.6654048816004057    0.1068882207375550    0.6040559442126758 C
   0.8563192319954954    0.0481858667876638    0.6068932002037880 C
   0.7684824498637698    0.0839885284443149    0.5463846379236934 C
   0.4821698521322660    0.4660702232217538    0.3514075219541337 C
   0.6206740906285623    0.5854514081368799    0.3550550958169687 C
   0.5559592304426605    0.5099848458119206    0.4283237633525243 C
   0.5091216008150551    0.5705298976650075    0.5127539306790161 C
   0.9047913089167516    0.5937158552319555    0.6348449741645890 C
   0.4464132305757585    0.6659123702539838    0.5091180961343603 C
   0.6683326501749163    0.6745959286768496    0.4096382753607618 C
   0.7371627759093160   -0.0097103861777550    0.4750743021025836 C
  -0.0407349046282367    0.7538439153087795    0.3745004378581511 C
   0.2019383712760842    0.9884606010816963    0.8646009636802268 C
   0.6753965437177942    0.0303246880482232    1.0193983574478702 C
   0.6721305545496887    0.1920160027856371    0.6861511306615814 C
   0.2226301708071361    0.4236568451709045   -0.0840906907601036 C
   0.3924198887088862    0.3450337015221948   -0.0574325286791836 C
   0.3354073693097189    0.4494774680902331   -0.0688669295031177 C
   0.8031500607072442    0.4485678129565220    0.8734138375419269 C
   0.7971805417282228    0.5174640710087439    0.7776415831208195 C
   0.9009278463652473    0.4718182433061939    0.9389649705853764 C
   0.7120651689101581    0.4731749250294915    0.7091754401606553 C
   0.8961897781377949    0.5187965467584565    0.7204871117490791 C
   0.1331745486976976    0.8975616254578748    0.8640071371307705 C
   0.2629983631091743    0.7661755778074837    0.8199633497437527 C
   0.0862013700899058    0.7268663003882081    0.8191072942687343 C
   0.1619188292775755    0.8482953947968085    0.6823267047326695 C
   0.6077315655789505   -0.1122221107088158    0.8500442091379704 C
   0.6057961094067931   -0.1378720298902561    0.9621867140720102 C
   0.8308714847342460   -0.0295325164581703    0.6920200274578127 C
   0.0274403843181236    0.3671035839784779    0.3126250835329022 N
   0.6836993378050517   -0.0855404740434538    1.0286663204623629 N
   0.1643772609050272    0.8110533763538411    0.7927853035720379 N
   0.8466866498915709    1.0962846381726679    0.2311061908855229 Cl
   0.6900093123155111    1.2983972519910489    0.3106492190705265 Cl
   1.7130610497632677    1.5992319979514389    1.1026758609419707 Cl
   0.0221778506768148    1.2788007382100828    0.7036488130957537 Cl
   1.0423062894257471    0.1844750580921848   -0.0584471411789607 Cl
   0.2137343732121662    0.5225036017487952    0.6401772164154836 Cl
   0.2829794524061084    0.2151833756714439    0.2589100799290011 O
   0.3222592299785385    0.3171773294563113    0.1029540002111989 O
   0.4040177261562099    0.1086067301418336    0.2148121697114168 O
   0.4351910116819382    0.2019071830818255    0.0396287638614753 O
   0.5238004118260365    0.5194950630887680    0.0114765067395612 O
   0.4986065237045963    0.3833517959472804    0.3045036097743560 O
   0.4502682003634590    0.6380621166016446    0.1036042364713866 O
   0.8965510930891022    0.5099997517969181    1.0307298486643890 O
   0.1731851509448337    0.6989892786766122    0.1280082970032151 O
   0.1811229051843786    0.9202479380787544    0.1402995155955560 O
   0.3095595681745477    0.7228204994319846    0.2257609896470278 O
   0.0334054334214587    0.9903565444787620    0.1521409810888222 O
   0.2542754007074070    0.2844285209600004    0.6029269877046594 O
   0.0902540573787959    0.1478158185393201    0.4556542682018916 O
   0.5902379621014290    0.2518670888784862    0.6837430458480609 O
   0.4945671268460801    0.1152949209475374    0.4079590192557588 O
   0.4083825597638582    0.0010044855418460    0.6162023270612469 O
   0.7252811013559137    0.0091633900032810    0.3799866633734747 O
   0.7964407773021441    0.1631302076409111    0.4826165472300588 O
   0.3952642196039197    0.5057570067567180    0.3415724126587739 O
   0.6193621821146402    0.4334417180317593    0.4735689251194433 O
   0.7410061240202322    0.4725214784629514    0.6105392494798464 O
   0.9450209350725153    0.5646010784603309    0.5493856345346043 O
  -0.0309399170410442    0.6628011569666649    0.3971740923986242 O
   0.0672699565999655    0.9321597244479755    0.3557137173044273 O
   0.3755028991948942    0.6641127918702421    0.4408783543105098 O
   0.4502340803123872   -0.0801876269938116    0.4693533664530141 O
   0.4679648106950656    0.7409853044435651    0.5630415107506125 O
   0.6226587154332687    0.7630689533303232    0.3819838720507218 O
   0.7398171370876827    0.6750135104012537    0.4717633570000053 O
   0.8345665819682340   -0.1201668706961973    0.6842339627901017 O
   0.8661455087124917    0.6797919913794170    0.6515742648633930 O
   0.7140624583626425   -0.0898646628159466    0.5211425120408094 O
  -0.0658116522075252    0.8187901102807137    0.4418277144962516 O
   0.2892268486569599    0.1356822396791152    0.6698487242602045 O
   0.7444479282986646    0.2112209380997628    0.7434893147398932 O
   0.2001563808358222    0.3625522491031499   -0.1546607634718719 O
   0.1632501072528047    0.4822432551841297   -0.0231270393272165 O
   0.3773727971903196    0.5055602997612660   -0.1506396658487884 O
   0.6356913829758870    0.4303771576477164    0.7462655872599444 O
   0.9863270562893904    0.4461690124462773    0.9087590950754839 O
   0.7585719904880153    0.6163042732361250    0.8071194684449217 O
   0.2778130210920546    0.9864002253206252    0.9399368946554109 O
   0.5479700726327235   -0.1889164244876587    0.8069631983003280 O
   0.8018828509501850    0.0071970848504548    0.7816108447935013 O
