Li1 Co1 H90 C51 N3 Cl6 O45
1.0
  14.2792712667000004    0.0000000000000000    0.0000000000000000
   0.0000000000000000   13.9355719762000003    0.0000000000000000
   0.0000000000000000    0.0000000000000000   14.4028960780999995
Li Co H C N Cl O
1 1 90 51 3 6 45
direct
   0.5923145495333556    0.6912575604755894    0.3352366088679680 Li
   0.7004853357836378    0.6647972185083019    0.5725599903229923 Co
   0.1197442149577677    0.2287993268984885    0.1607758624753942 H
   0.2970039611118133    0.1695775022464772    0.1540904014765877 H
   0.2831103949560490    0.3509765868565167    0.0930172676269655 H
  -0.0228484959705790    0.3232209984486220    0.2344874267499072 H
   0.3451093571905270    0.1076238198662708    0.0527580033195824 H
   0.4978307362629747    0.1160196001184068    0.1057952533183181 H
   0.6285537938431662    0.3705724814826133    0.2467745389418148 H
   0.8504215587191090    1.0820775432722420    0.3242520124963700 H
   0.7031234255920334    1.0582629484664612    0.2327474989003892 H
   0.7382092496962620    0.2764615255606145   -0.0132696896418357 H
   0.3393275495297584    0.5357745272925598    0.2707683245059184 H
   0.1648893759369091    0.3892699558629258    1.0040402958324808 H
   0.6004851345597836    0.4152780020786815    0.0848189164509445 H
   0.3315757533818601    0.6044896831279587    0.1118384823694773 H
   0.7222455498867633    0.6192763026044985    0.1466023241194242 H
   0.7011989576351788    0.4298842916768142    0.0126702322998413 H
   0.8193247336986667    0.3667592185544210    0.2194418415547534 H
   0.8352254050816309    0.4945704776144658    0.2543584303625192 H
   0.8582377839252426    0.5626880261170459    0.0974177715017641 H
   0.0872950800302342    0.7116205567332701    0.2624908225817548 H
   0.1360412651120491    0.7590581503339499    0.1249858382188281 H
   0.2525661191415595    0.7536984851456419    0.3413846779451755 H
   0.2522481757454853    0.9526189173126391    0.3330349683209522 H
   0.3269123501341543    0.8177231266547085    0.2726755798142289 H
   0.6059489988244778    0.9745706535257239    0.0554435743179606 H
   0.3726135618985004    0.7243936241254085    0.1192342171871412 H
   0.6491556855297570    0.9465215716030323    0.2182608290758906 H
   0.8836319369760096    1.0030904732129799    0.1875399242244846 H
   0.9494994439680078    0.8423041055040179    0.2545014571530223 H
   0.2401740301690181    0.2050292225521633    0.3717889798040117 H
   0.2269401615443155    0.0929197230161409    0.4273646081817729 H
   0.0203770992626604    0.1289447961783618    0.4025362682381319 H
   0.0931868372795131    0.2582082381868039    0.6355630138176744 H
   0.3569103795853445    0.0696210740224356    0.4659088701822549 H
   0.6505759260743352    1.0547661418708492    0.6131369685106387 H
   0.5515522452722562    0.3283266374651986    0.4899257760964737 H
   0.4505492617822374    0.3639118291492521    0.5654567661210514 H
   0.6846189798773423    0.1927807120287693    0.4363176686843805 H
   0.7065703802076225    0.2079060330676174    0.5774649066409970 H
  -0.0170302718855904    0.2290540706582756    0.4601685663189427 H
   0.1987622529882728    0.3177888568666843    0.5415258151420960 H
   0.5371706290003595    0.4522929879637931    0.5161836202098563 H
   0.5792916860743735    0.5196290830736744    0.6552812703724676 H
   0.7945265494365762    0.2781277650260385    0.5271034379428430 H
   0.6958037243238220    0.4233325692103141    0.5472143932971921 H
   0.3386797573681534    0.9113080905318514    0.6068951682843150 H
   0.4889584347544623    1.0013000910139134    0.6062473818982016 H
   0.5745785604012906    0.9125035922327110    0.6051503803011391 H
   0.4618427652802817    0.8027470639314540    0.6301363274362568 H
   0.7228597268875498    0.8904786620379408    0.3935179430835472 H
   0.8407936164080324    0.8965695494550460    0.4013420639679121 H
  -0.0228919155533028   -0.0437865423064170    0.7021440677112818 H
   0.2156909880396004    0.0913819318126942   -0.0706324585960771 H
   0.2046918272934724    0.2617610166507634   -0.1120199682168947 H
   0.0116672710314370   -0.1104569309769900    0.9492547863265277 H
   0.3201094819635261    0.3045579682949849   -0.0906159395876284 H
   0.5681680091700474    0.2157578815735039    0.6431684286874352 H
   0.5031113979012086    0.2823565114385032    0.7275979762871716 H
   0.4793012192408397    1.0095588119474033    0.7768998664174288 H
   0.6323908243874191    0.2676323221228127    0.7346062890218223 H
  -0.0919185473463823    0.1714604533047340    0.7232176072518127 H
  -0.0653429614560178    0.0331998922534473    0.8992891407995668 H
  -0.1928438658085935    0.1322880389300457    0.8141271016271083 H
  -0.1381954187397439    0.3426353432966168    0.7876914460523285 H
  -0.1747848209747464   -0.0119019522258050    0.9124399681729590 H
   0.1082030097434426    0.5297828823035633    0.6972589390803124 H
   0.2626807809686528    0.5540755342720770    0.8095363582348446 H
   0.0373310456846018    0.6249990673490099    0.7266683021489015 H
   0.5061937680850880    0.4400691624695166    0.7148588716650820 H
   0.6307597887718753    0.4474939743234334    0.7428712934594370 H
   0.0396196778836561    0.5792155142168064    0.9653168337609850 H
   0.7345886167497777    0.3698721155402129    0.6516236726425152 H
  -0.0335514231119947    0.4463773355498992    0.8981713100582563 H
  -0.0756971313039423    0.5283503612678933    0.8070354723154656 H
   0.2719767735666473    0.8974851918141677    0.7091634893228648 H
   0.3395775622883453    1.0077103051158218    0.6948691419302563 H
  -0.0188503927807379   -0.2195755234966959    0.8807699486486514 H
   0.0543585252708336   -0.1399498000678268    0.7558263268768979 H
   0.3331465618342709    0.8275246619080354    0.8595443563551097 H
   0.3587283995329408    0.9494887982135094    0.8625812455864713 H
   0.3744637963752145    0.7498299679371577    0.6958911586080258 H
   0.4886631815919404    0.7539496409651503    0.7430719475490264 H
   0.4501114943441625    0.8692287269433678    0.8834339961979732 H
   0.5611202405465399    0.8967403354123117    0.7822251842968395 H
  -0.2068011607067427    0.0276393024095326    0.7304335171241354 H
   0.0448692454981331   -0.0264302400022790    0.8054934213363037 H
  -0.1034303392949912   -0.1634615727140863    0.9559596878599658 H
  -0.2132090507377545   -0.1541322104014350    0.8345834041930899 H
  -0.1307265501954007   -0.2206303779386309    0.7669532557341906 H
  -0.1729079744957178   -0.1187909986563326    0.7207076953699263 H
   0.1435108339722427    0.1799574134727291    0.0313824411874550 C
   0.0522939941439021    0.2554060568291466    0.3301251368695037 C
   0.2468900591741988    0.2303744326808337    0.0242311016623012 C
   0.3267561796995188    0.1772779396726029    0.0824735548086173 C
   0.4231546565048491    0.2341058905706719    0.0965582221491291 C
   0.6942189095544035    0.2999410067443659    0.1116183877452565 C
   0.6588956783768949    0.5082143381122426    0.2357059316884165 C
   0.6783406482786516    0.4036535061285574    0.0842565295562479 C
   0.7235558408428312    0.4798778621732278    0.1504952911793793 C
   0.9087179510526078    0.4472898205215758    0.1373930651425659 C
   0.8187042538552266    0.4424650454700150    0.1981364042082611 C
   0.1915518009927211    0.6186441075273932    0.2397287337475176 C
   0.2492942434885664    0.7023127220622908    0.1978538221512963 C
   0.2592583374078271    0.7860452019341492    0.2727116836642587 C
   0.1739297532495135    0.8539268792428082    0.2734212631783080 C
   0.4131996666916433    0.6481714208449053    0.2428281104116231 C
   0.3492272143907838    0.6654121914720694    0.1606196438935340 C
   0.7418838069632258    0.9903339103461233    0.1060014618463735 C
   0.7139839237997856    0.9875640204509741    0.2067728617182988 C
   0.7944901330123562    0.9381623883417389    0.2686624980224435 C
   0.8076406640508632    0.8270173271526287    0.2446582978862158 C
   0.2255416307910990    0.1704938621936548    0.4365058252874210 C
   0.1333226389808592    0.2082110079913061    0.4808708610784933 C
   0.1184969524282341    0.1460341557257652    0.5688083142915196 C
   0.0416716033252806    0.2017878773043942    0.4178241658113711 C
   0.3062719410757925    0.1953755104383184    0.5044126542124148 C
   0.7618344049089595    1.0402557937957686    0.4138825974148372 C
   0.7185366771431306    0.2686713896275215    0.5362660396365857 C
   0.5230253693279674    0.3770903337928827    0.5458589714504926 C
   0.6884791208446578    0.3625082269122283    0.5881253320976151 C
   0.5442078228545262    0.9727207115180311    0.6466441185576217 C
   0.7786272786853128    0.9379564405697421    0.3748959938210081 C
   0.2718927356646013    0.2435715946139135   -0.0808588741170471 C
   0.3196871915057446    0.1496952899861410   -0.1295831026468260 C
   0.5713886217027924    0.2761522451085914    0.6892841540525535 C
  -0.1574239910437319    0.0674618515627196    0.7830986197456399 C
  -0.1210572892491515    0.0005826447679268    0.8567594997691494 C
   0.0976548524049618    0.5860670449729940    0.7517458975187105 C
   0.1521828451475453    0.4720867144409762    0.8861841375435204 C
   0.0739848769778396    0.5349487269580164    0.8411876315293290 C
   0.1791723177054867    0.6556723687915359    0.7626825868585380 C
   0.5796273474614626    0.4503063454314822    0.6867374440158289 C
  -0.0082623174387852    0.3953515146353063    0.7564574499476128 C
  -0.0198910621344082    0.4737008067823896    0.8268141333885780 C
   0.3391111519319898    0.9294214482347929    0.6830978982108913 C
  -0.0431737628962681   -0.1511298219762267    0.9084317465148316 C
   0.4383276997192646    0.7923872451707628    0.7019746573380645 C
   0.5070207710728062    0.9446759351236739    0.7399836797618531 C
   0.3882768262081846    0.8847795776992687    0.8419131800539683 C
   0.0019440857647083   -0.0767984632225935    0.7628061731144096 C
  -0.1574443002033931   -0.1495331885522094    0.7858765332835177 C
   0.5920470288785091    0.3668202135391587    0.6247186670173466 N
   0.4148895288386194    0.8844853665964161    0.7432031711577889 N
  -0.0772280217528813   -0.0947747616068891    0.8284825478428445 N
   0.4785820648940806   -0.0152817919683316    1.0761014975777423 Cl
   0.5859290696095562    1.7216099582474487    0.4907549843289875 Cl
   0.8297622411327867    0.6402951743451237    0.5086594320596148 Cl
   0.3602873026158951    0.9542413839066630    0.4027653888248602 Cl
   0.7597985867318938    0.3417663441611179    0.8563630517236288 Cl
   0.6692162330640010    0.6569475227665825    0.7171674351525709 Cl
   0.0931182063261755    0.1867091994891691    0.1086141308398836 O
   0.1218990868293986    0.2500370629961139    0.2791020651195515 O
  -0.0244795315861229    0.3037729269620074    0.3027729989478108 O
   0.2262545523267897    0.3177953151591860    0.0687221537760739 O
   0.5028045895271555    0.1907843820577058    0.1014683457531959 O
   0.4164400281313692    0.3211765900778240    0.1029041680966928 O
   0.6866155803667865    0.2765576823600834    0.1960375207728688 O
   0.7192103809911998    0.2377921404129987    0.0455650055059325 O
   0.2218313574157656    0.5358833136418097    0.2448436772700233 O
   0.9674471385816438    0.3839425821371260    0.1398710390032721 O
   0.4003068518860776    0.5623679818441868    0.2837344668003114 O
   0.6499022222262660    0.5902247501679406    0.2620929859266177 O
   0.6093707420694532    0.4362132748108133    0.2725860144939624 O
   0.7402401656623750    0.5660398799253987    0.1026451924032091 O
   0.9199089983417410    0.5266335318445399    0.0857888602680940 O
   0.1091694456169722    0.6394663601407462    0.2787118658173053 O
   0.2006965253670329    0.7309057357312320    0.1099583049486892 O
   0.0934725661464697    0.8205784095284905    0.2538640853390328 O
   0.1867245238360256    0.9430915006966041    0.2985030243769665 O
   0.4769562116158295    0.6989788079553315    0.2757166348744399 O
   0.6796425354445150    0.9744479459681927    0.0376672883118912 O
   0.8227639848399014    1.0134983703734055    0.0874392227973455 O
   0.8816094248001012    0.9875747842718102    0.2537536908745183 O
   0.7406757621213137    0.7748501106765787    0.2314435944704631 O
   0.8964035971394589    0.7944352414818393    0.2350893890186751 O
   0.1284589453999437    0.0591019507133705    0.5596226616781425 O
   0.1434723166004716    0.3054025694365887    0.5032817705407089 O
   0.3109171361113883    0.2720662987192186    0.5482163445660028 O
   0.1056118410970225    0.1880159273386682    0.6523728275306356 O
   0.3723628488240631    0.1279373025481055    0.5113284924896524 O
   0.6105304651176888    1.0457123333716012    0.6690743296935071 O
   0.6708612749965525    0.2590815428506372    0.4502059171946335 O
   0.8077898313269949    1.1151935144565006    0.3742127978896730 O
   0.6948414903453947    1.0577757061766149    0.4687966921712813 O
  -0.0789381930595185    0.1052636727509481    0.7272473523589965 O
   0.1109237368221837    0.1318876247949438   -0.0327671572675999 O
   0.2684667905245237    0.0691410076131468   -0.1064988563815527 O
   0.3893707195664841    0.1490824697865407   -0.1772096352747342 O
  -0.0780284827698700    0.3296556105444257    0.7477675309673385 O
   0.0637882781962515    0.3813492189036884    0.7106770738048876 O
   0.1240903751252495    0.4385447184039065    0.9673657272501820 O
   0.2323269910654676    0.4588801592802468    0.8588944870545716 O
   0.0532828401246441    0.6124599336630420    0.9031980768701121 O
   0.2658868269317098    0.6210817541527356    0.7833624555727815 O
   0.1733169768804277    0.7422228169582779    0.7560929399232725 O
