Li1 Co1 H90 C51 N3 Cl6 O45
1.0
  14.1070321835999994    0.0000000000000000    0.0000000000000000
   0.0000000000000000   13.7674786544999996    0.0000000000000000
   0.0000000000000000    0.0000000000000000   14.2291658107999996
Li Co H C N Cl O
1 1 90 51 3 6 45
direct
   0.8185478306361409    0.5930942790698337    0.5033207146946125 Li
   0.6096739894446865    0.7731846254739366    0.6062479712515911 Co
   0.1040722507393713    0.1558958529053879    1.0416698422440174 H
   0.1706319627879182    0.2382043153651871    0.2524324302042872 H
   0.3026150741729283    0.2872895558045552    0.3102847323663152 H
   0.0600403103627042    0.3416023329487995    1.0313206761749687 H
   0.6465570129770836    1.2250516779764369   -0.0164540281358094 H
   0.3769141887108894    0.1780219086374905    0.0905726254466594 H
   0.4829130253576492    0.1488313785422329    0.1235576933164681 H
   0.6270369611039385    1.0872181612068466    0.1035895515590403 H
   0.8274384320303736    0.3157900539601668    0.3009117303384119 H
   0.7375541825654789    1.1347395713661537    0.1543036980940597 H
   1.0474868419013592    0.6200788860064544    0.2940097094254602 H
   0.3502211185385702    0.3738057603973749    0.2226140975176330 H
   0.3540093001563967    0.3487198308188958    0.0518809686538114 H
   0.8053352712845938    0.4671447538506151    0.0377536471598539 H
   0.8785505292182030    0.6226000448090980    0.2945712321532322 H
   0.7293072317904428    0.4960163003389097    0.2445226200652716 H
   0.9893201070899130    0.4799690628203835    0.2236584314018246 H
   0.9815856666647437    0.3786374366737174    0.3017121989077890 H
   0.8203150343736486    0.5462106036926415    0.1760688531367353 H
   0.1829754520302858    0.7624273907095601    0.1555848694741953 H
   0.2365863029985865    0.9896098747715695    0.0600388607989641 H
   0.0322293580026394    0.8104071273466742    0.1942828513040269 H
   0.1649454371632543    0.7707644292393044    0.0417616122618358 H
   0.3467880789474150    0.7625697551939503    0.1975184591121147 H
   0.3596674711282326    0.9993814533863674    0.2919878059363488 H
   0.4075180743745164    0.8746578171206418    0.1844495271400903 H
   0.4524499205453135    0.8818239804012183    0.0225180386299811 H
   0.6392953863878219    0.9912485190408763    0.2667951836304144 H
   0.8269315926110724    0.9737006436409725    0.0430378641687618 H
   0.6963825177928405    0.8786817928528934    0.2535737479888950 H
   0.8697775996332066    0.9516552126933970    0.2033199235899089 H
   0.7137086284034159    0.8023831454127062    0.0697246007666152 H
   0.0863321621975065    0.2059616650484635    0.5660217902083174 H
   0.1923076771423153    0.1494327958538401    0.5374381750190632 H
   0.4799536502419864    0.3099385831119685    0.3223374417296308 H
   0.5664697213840700    0.0608799075149494    0.5135727506846125 H
   0.6430573399517824    0.3029423855933679    0.5322016769002876 H
   0.4224886222014021    0.2036235462971787    0.4053472271032396 H
   0.5048384733168293    0.2138716101250375    0.6125884694367708 H
   0.5759429400072870    0.1701323013444008    0.4531006941043946 H
   0.6869148992135572    0.0949696643816939    0.4663252219862171 H
   0.7533186606715498    0.2454910526478493    0.5368446054372407 H
  -0.0203096870887612    0.1785775659362581    0.4288278727322623 H
   0.1291087003202121    0.4783198138496886    0.5034567732679499 H
   0.0212270438390382    0.5482596353786852    0.5845053052293019 H
   0.0537810207509138    0.6734488616163193    0.5787923209910902 H
   0.5800439443324388    0.5338060811009773    0.6049639887439072 H
   0.4736456615139639    0.5872653250533499    0.5793914425498207 H
   0.1648866012586361   -0.1748647833939520    0.4193881064250871 H
   0.0899721907543065   -0.0354449195125861    0.6641895267132774 H
   0.1631931196184813   -0.0331736249070354    0.4505025094678827 H
   0.0521555902775462   -0.0169905600488106    0.4072482521077743 H
   0.5641452069452271    0.6639598329220711    0.6347640491014975 H
  -0.0599643779350993   -0.0733443790355869    0.5901746467123262 H
   0.1291150801170984    0.3307913483280716    0.8439365360607075 H
   0.1821999522754389    0.1428092155826484    0.8029882466284656 H
   0.0217104906697563    0.1707867421629493    0.7838233845679632 H
   0.1790050917680392    0.2919265704389765    0.9551053860855893 H
   0.2789240528687781    0.0942389568750793    0.9154382680334828 H
   0.2653329589019766    0.2385449732385492    0.8065534591415910 H
   0.0680731835088886    0.0738372546426816    0.9397763075647356 H
   0.5737128465623614    0.2085576378403529    0.7183585490051516 H
   0.5253317986482970    0.1010804419693172    0.6677638753909347 H
   0.7706632018064634    0.0878942947773865    0.6123488208132788 H
  -0.0347478763088005    0.2917653208699224    0.8102381445755189 H
  -0.0696042510303131    0.1708165224887656    0.8701137557904324 H
   0.7748759943503898    0.2675343045471943    0.7076144195155675 H
   0.7204924790925251    0.1271149838774569    0.7205821508958532 H
  -0.0203430038058342    0.1365916646317325    1.0121776003529652 H
  -0.0590938900932784    0.2828014427992154    1.0193628423664078 H
   0.6705634797939458    0.0225279323094229    0.6545333035848835 H
   0.1529840268677446    0.6351796902435503    0.8413538126257113 H
  -0.0130920102113830    0.3740999319084872    0.9368639794247017 H
   0.3730778041832553    0.6527449980292978    0.7275270415039166 H
   0.3955332714904235    0.4894996387008926    0.6572418249776658 H
   0.4199381211795197    0.6397644077204405    0.8440546034177360 H
   0.4823684033634546    0.4088163830463123    0.7054842876158468 H
   0.5577635670064838    0.3722114234420875    0.9459678159898557 H
   0.3878122995253475    0.4538146006246274    0.7804472203824606 H
   0.6348593009528746    0.5047767279398326    0.7574261941075842 H
   0.5053097985334635    0.5313711399733190    0.9262294839095011 H
   0.6479421377677335    0.3689995063503878    0.7906537217284334 H
   0.6249691980464535    0.5368701860877108    0.9278163654105137 H
   0.7610084425185150    0.3816009422671446    0.6504346796194690 H
  -0.1794452140219047    0.5461517693904190    0.8375623043449482 H
   0.1659399766111979    0.7080310833831480    0.7121515793785159 H
   0.4803889650495290    0.7112459058724885    0.7595738955544817 H
   0.6169186032422515    0.6280571079275828    0.7981819213027679 H
  -0.0695680988479573    0.7164407568539078    0.7021552098167783 H
  -0.0517252246895909    0.6796235579520360    0.8107575003900663 H
   0.2477863908656632    0.2891257671134238    0.1610482958643070 C
   0.3251166177909421    0.2976000856816873    0.2347532490530587 C
   0.4120597808912481    0.1414545739327117    0.2779813629269681 C
   0.4374499547661187    0.2108739661093331    0.1201850430404010 C
   0.4191590770930692    0.2383394163554757    0.2230371722136514 C
   0.4793829419671900    0.2921858771784014    0.0599496074993057 C
   0.7408348158976834    1.1157578822306067    0.0128196485883626 C
   0.7021760822319303    1.0863654269993261    0.1068638123709171 C
   0.9656347567163285    0.4539613958404194    0.2937047020864701 C
   0.8644774061533248    0.4837237808262912    0.3126545128895280 C
   0.8151778801475280    0.3947711097720519    0.1638671540133600 C
   0.8017732180230710    0.4845170996520611    0.2233773186469951 C
   0.2915595950352745    0.8731978548062328    0.2872109974499082 C
   0.1824154476369320    0.8180127320203937    0.1029310449308521 C
   0.2864614284567925    0.8556383578157666    0.1006294342506855 C
   0.1112218764499622    0.8981988015037239    0.1167111921725952 C
   0.3377450712942315    0.8449908018123232    0.1917584587656578 C
   0.3427333635930049    0.7897424866278010    0.0261844517348451 C
   0.6341851690818880    0.9206887582903135    0.0831660071387886 C
   0.7854650394490224    0.9931036154344088    0.3023953029020247 C
   0.7044139732063835    0.9597830625930172    0.2368292667474747 C
   0.7153227170156523    0.9791773181935316    0.1274159658765033 C
   0.0680958672311510    0.0470640153844155    0.5454400495852855 C
   0.1137468582842994    0.1760229950607475    0.4181202879008059 C
   0.1152943134623898    0.1454218944109713    0.5195900451021822 C
   0.6174417465869289    0.1166904171429308    0.4971769954378133 C
   0.6900076829707760    0.2618310089786673    0.5772675654088949 C
  -0.0420619590057940    0.0665497910106093    0.5492693675315732 C
   0.1716101983104857    0.5751214892649900    0.5993410308654298 C
   0.0699226157395977    0.6008291739385606    0.6122082644358640 C
   1.0339205582557824    0.5037083405924376    0.3629961850243984 C
   0.8248730448157565    0.4214726583435358    0.3915544297875293 C
   0.0699431728628980   -0.1328461963659695    0.5032377864319377 C
   0.0897758347834723   -0.0313228866099638    0.4721718050611615 C
   0.1455217911097245    0.2705994990580430    0.8915774174035532 C
   0.2123529989591000    0.2002721701187294    0.8503192011591119 C
   0.0077188872317588    0.3157421148990967    0.9864065885539691 C
   0.0546189007419824    0.1407347616672494    0.9848899852416638 C
   0.5553734115463439    0.1721297622223236    0.6506370808029464 C
   0.7053177777652775    0.0951490726860019    0.6496693501444457 C
  -0.0142843233628022    0.2177546740717193    0.8402335782977157 C
   0.7226360908463251    0.3160711511818963    0.6664827040107992 C
   0.0874599685137419    0.5375199056350932    0.7792278938083875 C
   0.0545111530612359    0.6208204887542215    0.7164772018934552 C
   0.5299536070592680    0.5917025935999790    0.6298740927312380 C
   0.4374272710438563    0.6465383423195342    0.7686538375354751 C
   0.4374322331081011    0.4704020474426660    0.7177105841052697 C
   0.5857964654115599    0.5565095119792111    0.7925891830454346 C
   0.5708894320070090    0.5105547648626645    0.8881626002142617 C
  -0.0464753607184788    0.6503386024334584    0.7396851681502933 C
  -0.1205263720441946    0.5771254872876040    0.7101866012222575 C
   0.6430013395124470    0.1622281670631081    0.5934102545204140 N
   0.0482681673748216    0.2356562816343679    0.9267565703248063 N
   0.4962992569577681    0.5611276415289684    0.7339328984045941 N
  -0.0243941748286407    0.6795698080956848    0.1933080928266556 Cl
   0.4402464324012844    1.3176176468064269    0.4624582349307823 Cl
   0.4721140140548251    0.8273485009890996    0.5652078985048973 Cl
   0.7032216600549643    0.7196149037762796    0.4823485787333110 Cl
   0.7989646896604533    0.5963214494991466    0.9627003499391957 Cl
   0.6450520897782352   -0.1904987280981006    0.7542341587764950 Cl
   0.1606518338587680    0.2717754587530819    0.1899537148796523 O
   0.3951568634741312    0.0655648612104409    0.2350111700056148 O
   0.5631785259436871    0.2949053293700169    0.0373418169740287 O
   0.4986026471802541    0.2888003625776749    0.2597125477724846 O
   0.8298818942378302    0.3164750014539418    0.1983765557962318 O
   0.2600270944915292    0.3216916429176658    0.0800618195435837 O
   0.4260570552598112    0.3639245030216437    0.0338574243779168 O
   0.8127875829141240    0.3970482151728837    0.0685031658468809 O
   0.3225895093576428    0.9441106213701302    0.3352608978510309 O
   0.2212294230269187    0.8273564908326113    0.3159934296350156 O
   0.1183842617543258    0.9735960493259105    0.0749532980064442 O
   0.0375883873871394    0.8808898950597607    0.1763583992742097 O
   0.2992139335662046    0.9524309538634411    0.0654369284735779 O
   0.5559494363185455    0.9574660079746268    0.0734971339364273 O
   0.6521925002266571    0.8305393539479049    0.0507052145567370 O
   0.8755541512805995    0.9753392879102794    0.2708607768471363 O
   0.8033398125918203    0.9357379917192883    0.0980488191613505 O
   0.1019591202373615    0.0311482471091272    0.6429078856089087 O
   0.1791312699731240    0.1907381077610517    0.3640524662006703 O
   0.4175449884808329    0.1367289446702516    0.3701968882393565 O
   0.7682310814601381    1.0267960591737992    0.3797245022824161 O
   0.8178212426574223    0.3259211755329909    0.3745400803014726 O
   0.0247883882342403    0.1883491445510561    0.3776351317321456 O
  -0.0759167056161560    0.1433539776402636    0.5194197610509442 O
  -0.1016910850368467   -0.0040092433905433    0.5791116650805767 O
   1.0330762984678274    0.4627360598897814    0.4431240024354949 O
   0.1916569378599118    0.5057674685352824    0.5339316447935085 O
   1.0775902679425713    0.5870314405432806    0.3513974727601324 O
  -0.1403016157927921    0.5748018955245223    0.6225686750151059 O
   0.8014102784668721    0.4568898187573362    0.4669601854211882 O
   0.8605212232174921    0.5825041046697923    0.3473143099962336 O
   0.1304704325222789   -0.1991154111507542    0.4742609647768657 O
   0.0115885884764659   -0.1553114572726139    0.5687696673867759 O
   0.2576644430446325    0.1590591045866074    0.9311426320820340 O
   0.7028324924448994    1.1836650149352879   -0.0409825215584591 O
   0.8081352932513630    1.0719168845325484   -0.0228753462380027 O
   0.2345327172675155    0.6173449068266359    0.6443253966751366 O
   0.1481998880693332    0.5630691735023093    0.8495355993550244 O
   0.0621130354844341    0.4521011423660748    0.7740877470863298 O
   0.6426412354215310    0.3477457962598797    0.7238423560699885 O
   0.5728948148282724    0.4036332989253374    0.8811397008167332 O
  -0.1693410334866318    0.5186726637753655    0.7677444377736017 O
   0.3094017603273203    0.7156127185263326   -0.0025726803023277 O
   0.1015479777713548    0.7076642769310204    0.7388291798118373 O
   0.4293632077795609    0.8183940654607245   -0.0063775414389453 O
