Li1 Co1 H90 C51 N3 Cl6 O45
1.0
  14.2040903638000007    0.0000000000000000    0.0000000000000000
   0.0000000000000000   13.8622006630999994    0.0000000000000000
   0.0000000000000000    0.0000000000000000   14.3270642859000006
Li Co H C N Cl O
1 1 90 51 3 6 45
direct
   0.9105412137873744    0.5624888876595070    0.5700731133689426 Li
   0.6215976845023343    0.4753464036226428    0.6400349687775528 Co
   0.0931301932555507    0.1990603006379301    1.0310780944452242 H
  -0.0279419737015684    0.2370095420884833    1.0408798233408085 H
   0.4556479517403280    0.2129787256188633    0.1044234961919150 H
   0.5018435885740870    0.3231214105436505    0.1425939119230849 H
   0.5623298976579550    0.0287085608679252    0.1754310647837030 H
   0.6757764443024882    0.1905414512236127    0.1829524940067191 H
  -0.2194269565718376    0.2127031560976279    0.9913204728813576 H
   0.7724281808683715    1.0559610401878659   -0.0098120490209812 H
  -0.0564330625101398    0.0948611164604171    0.1934689541128054 H
   0.0110179305109780    0.4126522888048266    1.0349791029759812 H
   0.3432933440797603    0.4783453213998656    0.2339615482984087 H
   0.5813544879751703    0.3539693264260319    0.2777234793883002 H
   0.4372726110240236    0.6205366695057158    0.1808438973397990 H
   1.0141465811363821    0.5192461865495992    0.2716168550126349 H
   0.9118345032222837    0.3671165895792146    0.2778770349218064 H
   0.8023385791493313    0.5662999708550222    0.0975351345547633 H
   0.7999970001289129    0.5914280157063152    0.2406516837013978 H
   0.7583632182496353    0.4835022226551107    0.2884339778503625 H
   0.2374548171839194    0.7893085735387950    0.1596043751370908 H
   0.2111673189748396    0.6880613016149348    0.3349920156094635 H
   1.0967910849331004    0.6654768644387103    0.2171179022321665 H
   0.3563367699701060    0.8044749966132814    0.1966824526412729 H
   0.6617333063829800    0.7687793655929364    0.1072168109423336 H
   0.7142111476884463    0.7653650447971057   -0.0228328602826151 H
   0.8941508646670019    0.8695793780844248    0.0091967300676995 H
   0.8254664241282134    0.8063102030583676    0.0929319584480640 H
   0.9013910326303158    0.8351389590194455    0.2243685153324534 H
   0.1731247561524331    0.1678697263194576    0.3847454044248904 H
  -0.0006582835761049    0.2233212392993671    0.4458367754506621 H
  -0.0027119173712223   -0.0004679032325124    0.5713606765173926 H
   0.0565963507701125   -0.0148682141825170    0.3363398144058299 H
   0.3711508125881584    0.2358603739017606    0.3468911734968039 H
   0.5574468676135415    0.2647295274889880    0.3678829129068087 H
   0.5265404182207093    0.0099784900580906    0.6395652284409633 H
   0.5247034121659958    0.1042578928573092    0.5458727612883545 H
   0.4318643097507665    0.0337395080959250    0.4008966546309590 H
  -0.0556875026236025    0.0390986860363911    0.3508159133372846 H
  -0.0981886402915620    0.1462000068210512    0.4733176321107024 H
   0.2895081328882696    0.5996316193594287    0.3657512829098626 H
   1.0284009258226146    0.5929306631218477    0.3783072396927912 H
   0.3231083133839053    0.4620515160013302    0.6821831708062329 H
   0.4093257316510455    0.4956658757501665    0.6015365025884377 H
  -0.0520336255592697    0.3248844783706124    0.5640338440341108 H
   0.8415709400909520    0.6603117393809991    0.3843070731746999 H
   0.1342690472781375    0.7028179773384744    0.6749981677975351 H
   0.1379891024627107    0.8288239443888302    0.6429350744217281 H
   0.3407201416385008    0.0175782934775024    0.5342731762872909 H
   0.3485404241877511    0.6437378918669046    0.5915868019969291 H
   0.4168383563434339   -0.0889062421221935    0.5596224727483547 H
   0.3733318744658661    0.8744934607510630    0.4006062950766926 H
   0.0352898121429508    0.8686740384269629    0.5071937486908209 H
   0.1868651643729695    0.3025409841789235    0.8851424052993541 H
   0.0076027170930437    0.1496778096008314    0.9553438073402342 H
   0.2920975278483112    0.1138840700598370    0.5949580439370896 H
   0.1137812868833109    0.2205540019081128    0.8213205376959618 H
   0.3244170913150411    0.2193983412457589    0.6703838240156716 H
   0.4686325917472687    0.2126836786707343    0.7642118388255845 H
   0.5028214055017655    0.2638314016933385   -0.0523629853352664 H
   0.5616453061247455    0.1504655633107504    0.7014432225861058 H
   0.5009648980222576    0.2512093076801019    0.6541348566519173 H
   0.3758790280725628    0.2057266303388114    0.5549014078707045 H
  -0.0576066681105720    0.2493192758852410    0.8228868041377257 H
   0.8040444258019089    1.1315579836652119   -0.1547691706305977 H
  -0.1913857381763892    0.3552966769995219    0.8940137272578300 H
   0.1122789027493444    0.3459482334767733    0.8025644272578687 H
   0.0637288032823969    0.4530167311901866    0.9338369589132856 H
   0.3149198270379986    0.5061958055605575    0.8713356688980471 H
   0.3274401641694236    0.6201052805693316    0.9135103941552419 H
   0.2852368280425456    0.5998393785796272    0.7982285773754099 H
   0.0860871516078463    0.6469697019588804    0.8251336007848016 H
   0.1335495362261629    0.3798014441902196    1.0170836015052209 H
   0.4721438338418070    0.4915182659011006    0.9301202170227362 H
   0.4811827794350574    0.6141372526918951    0.9598667157816916 H
   0.5703803251806795    0.5601191340541185    0.8844388417640163 H
   0.4562827688788461    0.4450637370964375    0.7634992015541759 H
   0.5211809620323700    0.5464582439398896    0.7179490464786342 H
  -0.0438388030103613    0.3722990279052758    0.8251266209878241 H
  -0.1246838251545875    0.3537060204698776    1.0002923039163105 H
   0.1268345690894372    0.9217146787891530    0.8895780662785920 H
   0.2711366642960219    0.8457303509324786    0.0112564681557768 H
   0.3485319759170821    0.1044266972237204    0.7920291216999431 H
   0.4512920233834031    0.0304030970076688    0.7770176723403096 H
   0.5364517181627872    0.6906777692943090    0.7935186103749540 H
   0.4329062631332736    0.7345070295081869    0.8643091072807398 H
   0.4226500625411348    0.7199545060739396    0.7370234356589040 H
   0.3344120995389975    0.0040292182213664    0.7270095209352019 H
   0.6797569878326881    0.9960311617947899   -0.0798626874471460 H
  -0.0736238852763979    0.7388916147177915    0.8142960700177477 H
  -0.0550278334888665    0.9113779361980991    0.7325521777150804 H
  -0.1157272502003596    0.7275745083064263    0.6969161262664617 H
   0.0483071891987339    0.1322902384742929    0.2868893487792289 C
   0.5225939493822076    0.2417057661283856    0.1294188471482469 C
   0.5481587684378119    0.2073057446895558    0.2274249684289260 C
   0.4920398632785273    0.1163382258484311    0.2637115369558530 C
   0.5960641944504608    0.2387798237772575    0.0533118388846553 C
   0.5331753379928466    0.2948538930315811    0.2948714446027639 C
   0.4394283280897244    0.3395473738905900    0.3047883401484779 C
   0.2524504976213547    0.5763229104572346    0.1919354927168360 C
   0.3144171549331945    0.6560122777407813    0.2343398532945924 C
   0.9820530089100474    0.5768726067273430    0.3181930402438776 C
   0.8668087406694114    0.4702430869329405    0.1824206334770293 C
   0.8255255620228962    0.5219079572811555    0.2668922304385261 C
   0.3051712267085542    0.7495046482162621    0.1716850077458477 C
   0.2861886665379171    0.6716173036134644    0.3335171845081055 C
   0.3421802844191224    0.7319922772803683    0.0727750027565750 C
   0.6769254091134691    0.9091401962638784    0.0877906399943949 C
   0.7515440557746587    0.9911892177462762   -0.0513725521441509 C
   0.9736955571507613    0.6764390488489033    0.2774596430625484 C
   0.7507055649107627    0.9017849427599085    0.0108334924589368 C
   0.8764397692320460    0.9490270809972546    0.1379565348111955 C
   0.8361344779154649    0.8757385732998912    0.0626884981443064 C
   0.1455819857264544    0.0689049202730553    0.4845010118179943 C
   0.0374406010507614    0.0693189959410897    0.4594531029904213 C
  -0.0148893955179978    0.1879249835442385    0.5866988501735456 C
   0.0181419347525934    0.0523144808767921    0.3557338782876718 C
  -0.0223499225412609    0.1620236127066513    0.4854610828922573 C
   0.4816344803068254    0.0568361294608332    0.5917626928807637 C
   0.3758733958921169    0.5229115497365029    0.6652760085874948 C
   0.8853512867427059    0.5321513525003562    0.3511376819779500 C
   0.9023907446594781    0.4394548152600245    0.4066535911780486 C
   0.0930724634059794    0.7661499129622998    0.6513164146323794 C
   0.3327090689766427    0.7441894748328518    0.3951857847439213 C
   0.4131084448430802   -0.0108262874090035    0.5351369261632636 C
   0.0405544928148354    0.7382842075531837    0.5606254695740298 C
   0.1170718883088777    0.2886766631615836    0.8549359379195776 C
   0.0271041418872672    0.2160374030273404    0.9924532939308153 C
   0.4909441225727610    0.1882120952443739    0.6953756850735148 C
   0.3451667481006060    0.1688666820219376    0.6133951776533083 C
  -0.1372816047671447    0.3127572552777094    0.9352915486034087 C
  -0.0503517156735874    0.3103586462250711    0.8735461706008397 C
   0.0632317633580387    0.3943388185146607    0.9839456193948702 C
   0.3331434508935393    0.5755041371415220    0.8506573223723346 C
   0.4967097856953159    0.5645520521378666    0.9024020472654588 C
   0.4533029230093865    0.5174155969760729    0.7355297591057066 C
  -0.0229919911121032    0.6153607236552858    0.7497531893865738 C
   0.0834674836779075    0.8224331842091843    0.8102743109992789 C
   0.0210727806521729    0.8001625500218011    0.7236201315228998 C
   0.3884542789633362    0.0574175667229164    0.7455283182760581 C
   0.4542070991777338    0.6909244833682947    0.8011593941262863 C
  -0.0537007509712813    0.7214809592334532    0.7433450377814780 C
   0.8146308129726938    0.9915953581663169   -0.1411138958237038 C
   0.0375469084566794    0.3008601543766236    0.9269039265754774 N
   0.4224289994586298    0.1164435482308929    0.6626885978479142 N
   0.4320818527204926    0.5849045204693204    0.8210532114717214 N
   0.6984586430035817    0.6376897901233498    1.0607094265540500 Cl
   0.5511548068260537    1.4181827481282205    0.5093061633066878 Cl
   0.6983051660864287    0.6117400864116193    0.6550499080356751 Cl
   0.3689472219886666    0.3026657839882788    0.9042112106420419 Cl
   0.6922639485355538    0.3584974674857043    0.7225494306665425 Cl
   0.1928901894050621    0.9537867870211064    0.0172325703279617 Cl
   0.1147612862809123    0.1927084953120714    0.3000148569955262 O
   0.3561579482409459    0.3050910843296232    0.3367788436357183 O
   0.5031522961029672    0.0318992519475701    0.2199893907087337 O
   0.6411307903115664    0.1808452995615041    0.2406586634983754 O
   0.6816557366655409    0.2360493770812467    0.0704186232969515 O
  -0.0076809085696926    0.1463991094070747    0.2132608664223681 O
   0.8870747339591774    1.0381182743809620    0.1259526799691918 O
   0.2813111982716940    0.4887143820918392    0.2027569699508414 O
   0.1737513362270490    0.5937667497059103    0.1531396871764769 O
   0.4101015645074800    0.6269584492911553    0.2426576773527479 O
   0.4325817087350738    0.4197399801741729    0.2661398083243454 O
   0.3939280543342779    0.6632492239110270    0.0607620741785004 O
   0.9124878361540180    0.3937480032322214    0.1913142907858333 O
   0.8553592218452793    0.5130816530763915    0.1035244983412056 O
   1.0421758311483829    0.7082658857792334    0.2266327614719731 O
   0.6397093687715110    0.8310804403637634    0.1259840890555908 O
   0.6438271967000819    0.9891383168329978    0.1147570856171892 O
   0.3437748955078919    0.8284242964444207    0.3540363916627297 O
   0.7169913327610958    0.8301729365477576   -0.0511645541942197 O
   0.9006827859392331    0.7258200971136395    0.2789819367833538 O
   0.9095541741642155    0.9075632460716777    0.2165462568597045 O
   0.2014081583070589    0.1315659667483233    0.4435302317414584 O
   0.1736041955128976    0.0150678695667712    0.5456634371769975 O
   0.0117233611118376    0.1312824619790942    0.6466071456116212 O
  -0.0385853866993687    0.2792315538905482    0.6150075107551243 O
  -0.0030639286490963   -0.0093827936603331    0.5061592660009800 O
   0.4289179753549605    0.1247467031770182    0.3278000328037880 O
  -0.0593104026954825    0.5457606635026261    0.7084984013710210 O
   0.9068479114599196    0.3578734684389276    0.3622188076595206 O
   0.9165000606992266    0.4441475766462568    0.4931952563271496 O
   0.8409795611441236    0.5974847740840448    0.4152171040898142 O
   0.3587283345919824    0.7299312769605525    0.4749497180379647 O
   0.3402209896464753    0.6164485740166028    0.6523445387271737 O
   0.4463643583089551   -0.0221946122392371    0.4399674641722339 O
   0.0099499282939080    0.6527501694291932    0.5581025521585218 O
   0.0274413686914706    0.7999317064438030    0.4931391387594499 O
   0.5714166463827407    0.2469819846580086   -0.0387084085080702 O
   0.8113007862840050    1.0740144507596932   -0.1893163737507174 O
  -0.1665844315824938    0.2121534598275195    0.9478398276096619 O
   0.0517892847594642    0.5906236701142275    0.8033559362351238 O
   0.1245802888659316    0.7613079689137862    0.8570536083225686 O
   0.0891404974321260    0.9176915080563518    0.8277175216258935 O
   0.3127120123031725    0.7836529058778374   -0.0036809953558945 O
  -0.0099689818758741    0.8880728342268113    0.6850525653437070 O
   0.8598480696607296    0.9241890333908219   -0.1722800852878945 O
