Li1 Co1 H90 C51 N3 Cl6 O45
1.0
  14.0705823278000004    0.0000000000000000    0.0000000000000000
   0.0000000000000000   13.7319061395999995    0.0000000000000000
   0.0000000000000000    0.0000000000000000   14.1924003851999991
Li Co H C N Cl O
1 1 90 51 3 6 45
direct
   0.8392911812091602    0.5568619893015628    0.5640227851060021 Li
   0.6255267519959252    0.5050819965772089    0.6360277294609875 Co
   0.1343665541449987    0.1776509790410686    0.9972907900315372 H
   0.0209647088747124    0.1976008678048713    1.0432801915622778 H
   0.0534914365777839    0.0211825340810604    0.3473309700126906 H
   0.5255409115221877    0.1174845322564223    0.0998774100312295 H
   0.4645253842327615    0.2259924105402017    0.1197584725958285 H
   0.5737584610303949   -0.0032263132116988    0.2294502765012087 H
   0.5753485160458007    0.3492797373533251    0.2263486165419882 H
  -0.0463182207116157    0.1002305547247276    0.2053310302349488 H
  -0.2023522745163579    0.2145089356025706    1.0121952455329890 H
   0.7617798192348102    1.0442509891942577    0.0137559670881036 H
   0.6950412878703571    0.2059281895064258    0.2083516609130901 H
   0.1307512098177427    0.3437968860117419    1.0464967017198974 H
   0.0054379883090428    0.3786449249609755    1.0454644591391937 H
   0.3185437217722314    0.4528646283028808    0.1681843893784965 H
   0.4213205625816415    0.6334012540849890    0.1679342555108174 H
  -0.1342015770071716    0.3620048461782453    0.9878420712552659 H
   0.9983293750711683    0.5291538913775056    0.2328605523309740 H
   0.9294224899535291    0.3490037377971477    0.2871311463880022 H
   0.7404757969124541    0.5139876065309019    0.1068085842744943 H
   0.7716251829001290    0.5670047909333295    0.2608987973916874 H
   0.7570508038714210    0.4622599007937076    0.3293192177324651 H
   1.0696242210576066    0.6814055146223540    0.1942166312806681 H
   0.2439412657014509    0.8524123636444376    0.0261175123685588 H
   0.2030318003651999    0.7627744075233761    0.1639109755546273 H
   0.3209764569073203    0.7961871031342831    0.1836835293428247 H
   0.6369321079549981    0.7449291064043038    0.1147311341567013 H
   0.8961438388578418    0.8770549730942759    0.0252564881817875 H
   0.8475296462065166    0.7896024382610469    0.1033856256007340 H
   0.8819880636838129    0.8294403161520427    0.2575836428918845 H
   0.1832941666603536    0.1872308580951961    0.3850737045369077 H
   0.0440923941700857    0.2817122787232134    0.4632624513226307 H
   0.3537171061048883   -0.0220838554470948    0.5440177829714742 H
   0.3245818513976230    0.1007279365106621    0.6369641461092848 H
  -0.0030406941804725    0.0702747717607186    0.5927045435789725 H
   0.5609511730445980    0.2231435707941168    0.6251070961788525 H
   0.3964175420927386    0.2434306305196878    0.3544375902645529 H
   0.3778234289348855    0.2133364836620806    0.5940792229475412 H
   0.4791340901989587    0.1107709704928342    0.5178367642632169 H
   0.5555108864795736    0.3079708328040748    0.3427651461744924 H
   0.4248115339469810    0.0131435918630054    0.3998020094273179 H
  -0.0525212333493767    0.0702463707509800    0.3647529700471490 H
  -0.0612586115996785    0.2190378043093452    0.4792846881415080 H
   1.0488269297172306    0.5614760610375532    0.3395289071484362 H
   0.2440919346610299    0.6006374123119557    0.3608854072311196 H
   0.2902037433185928    0.6109273166095476    0.5654510142603274 H
   0.1844874363921136    0.7020508640092424    0.3228319430290251 H
   0.4118312609387240    0.5112412288891816    0.5519314548628846 H
   0.4406793917796218    0.6298678771811025    0.6061476536112232 H
   0.0035198018849689    0.3675211961466996    0.5870909759062990 H
   0.1367289297187747    0.7459923236919531    0.6617133069606292 H
   0.1408637976755224    0.8766231321000457    0.6391329124324289 H
   0.0260490755578634    0.9174827181106113    0.5225816628126000 H
   0.4517818462737298   -0.0930186543087752    0.5708677160101010 H
   0.4029531635657965    0.8510957219621980    0.3793466958707233 H
   0.5692215485904688    0.0341516002973248    0.5669743647446152 H
  -0.1154383166211120    0.7462501174726570    0.6693349915991772 H
   0.8545321993137416    0.6501957178437340    0.3974119979367055 H
   0.0296310168610618    0.1424999959879568    0.9345628528371798 H
   0.1336515872896380    0.3654646717492190    0.8307107939890507 H
   0.2023097264834441    0.2750875611439356    0.8852963453386212 H
   0.1075496114478589    0.2470361022944492    0.8003966830336799 H
   0.5199035826503555    0.2125543635477413    0.7414440057351659 H
   0.5081874719621510    0.2750285744314017   -0.0454560039098635 H
   0.4296684757854844    0.0685685264833472    0.8022519012691700 H
   0.3595242573724348    0.1950061806843957    0.7185564045413091 H
   0.6051473538075892    0.1239424849323633    0.7031150419774025 H
  -0.0456309712591965    0.2544021590510057    0.8157640623409490 H
   0.8507228331658956    1.1170791887051765   -0.0955877632098584 H
   0.6847218855444760    0.9939069223930453   -0.0655879049445858 H
   0.0935786189601062    0.4411831473512004    0.9715199556361513 H
   0.2873630648684175    0.4715650692605613    0.8524851233211248 H
   0.2709415696795878    0.5559007243565649    0.7586130534921686 H
   0.0855292008648632    0.6582142695932588    0.7927559741291396 H
   0.2846424951643216    0.5996426487400865    0.8731222243083143 H
   0.4343434777482699    0.5453238970375114    0.9366879338087857 H
   0.4674740894841445    0.4348855511456295    0.8776499996145275 H
   0.5432757851888569    0.5417446415794318    0.8681991670309237 H
   0.5156211280513765    0.5060364889737307    0.7106719031910871 H
   0.4165112378199861    0.4328095829799434    0.7065908458344752 H
   0.5029294806241643    0.6698645094342268    0.7729918755702722 H
   0.4344863289788141    0.6864019076432867    0.8695985074850382 H
  -0.1897067424513165    0.3174516724396269    0.8859713544801326 H
  -0.0230860621282324    0.3830456250084170    0.8464776828821622 H
   0.4120935102127081   -0.0296013842555904    0.7072447169026617 H
   0.1028014071132025    0.9115221472206050    0.9201586650710861 H
   0.5269235835073808    0.0036591110723586    0.7530445803759215 H
   0.3731150239480424    0.7058748050896851    0.7713571978998061 H
  -0.0926674040507795    0.7323926094132884    0.7915419441178407 H
  -0.0794270138764569    0.9125402141850801    0.7414313228911711 H
   0.7436632982507170    0.8153563282457844   -0.0842746663663227 H
   0.0454413077799013    0.1582399812312798    0.2874151011730013 C
   0.5343857480115856    0.1899697349574214    0.1270137639634099 C
   0.5636957644979097    0.2006550686982967    0.2344910023867751 C
   0.6052319274216925    0.2425858825377199    0.0641604075339908 C
   0.5314075486006623    0.2996639015710507    0.2679948486068871 C
   0.5072936212524223    0.1202357890459696    0.2883754743044001 C
   0.4311474479783328    0.3339730495662702    0.2644485845053977 C
   0.2214070171100797    0.5627919744887738    0.1758293258977018 C
   0.2949050412790407    0.6440348834235197    0.2166398994638194 C
   0.8303441456801991    0.4363882558532078    0.1920309544988639 C
   0.8091119043244349    0.4976284792752779    0.2810116741604171 C
   0.9801218841492160    0.5671992286153857    0.2960049095698338 C
   0.2783044490250511    0.7334026658365552    0.1512133349083047 C
   0.3059394104602824    0.7218485524900872    0.0499626682840379 C
   0.6700458760383160    0.8934459968685294    0.1155012646281751 C
   0.9554469992076001    0.6738807035036690    0.2714967227543941 C
   0.7465608329120542    0.8865481926571499    0.0379379229718943 C
   0.8671713350550273    0.9417582991269051    0.1679673718256932 C
   0.8430500874696000    0.8685965698093127    0.0839688960468407 C
   0.1584018067110435    0.0967197529824281    0.4895013531216764 C
   0.0452792675780899    0.1167461060032193    0.4708669436615409 C
   0.0196456447757568    0.0894003030110837    0.3676502952975611 C
   0.0119892452401703    0.2182221855681347    0.5019754234124649 C
   0.4914688319997365    0.0522983890582374    0.5669743647446152 C
   0.0144404586438868    0.2292199304161343    0.6062554577851806 C
   0.2579115474865641    0.6672632682345807    0.3220702677868812 C
   0.4041691757820212    0.5591326136186111    0.6174579320449822 C
   0.8949072162650709    0.5220573529210580    0.3531953761554876 C
   0.9257019616356236    0.4247380160122399    0.4098122963515899 C
   0.0963986870337354    0.8078897756086145    0.6366562348411839 C
   0.3275447707017964    0.7271493460769358    0.3828232043302403 C
   0.0759517720946446    0.7823732889360508    0.5352728915766807 C
   0.4255336078287368   -0.0352320664940179    0.5319665446074299 C
   0.0612786053990427    0.1980683921190294    0.9814795111844433 C
   0.1316374560092284    0.2940550662631912    0.8594635059281488 C
   0.4551474496934573    0.0319953082502498    0.7393316076075552 C
   0.5481983959512524    0.1692151509176923    0.6783968836336012 C
   0.3751106769598244    0.1561026231906972    0.6505615640768077 C
  -0.0419267891020001    0.3105167284462816    0.8747935413058769 C
  -0.1294284980801319    0.3047418564661044    0.9321312698023615 C
   0.0745197062760048    0.3722430460734927    1.0045841299311036 C
   0.3062101881659408    0.5441623685623055    0.8232511679126612 C
   0.4377797250103660    0.5083748387755401    0.7026063190127143 C
   0.4675195033828100    0.5130934116627480    0.8753529956465451 C
   0.4320073981721562    0.6595207160412333    0.8005848118862724 C
  -0.0164893202281754    0.6338425620824654    0.7014275191236240 C
   0.0732816622779549    0.8251910881565403    0.8091999859710948 C
   0.0158178003592833    0.8192035727188332    0.7111320085871277 C
   0.7490895129034788    0.9785507148967026   -0.0259314701820128 C
   0.8159396245823372    0.9721502924712578   -0.1056234158221203 C
  -0.0558842782396019    0.7353514120432331    0.7175882807830244 C
   0.0544061108748506    0.2939786020062027    0.9333312077647768 N
   0.4692964021221467    0.1024531157945259    0.6580909457951699 N
   0.4080922543521908    0.5539345006054326    0.7936846401505508 N
   0.6462778476647321    0.6073334965310894    1.1157626449936748 Cl
   0.1489608328476134    0.9529271782643550    0.0383465923895108 Cl
   0.5965734371643779    1.3773533242596823    0.5490034089459068 Cl
   0.6759631862149886    0.6360323527564116    0.5516180476957194 Cl
   0.3669276467683509    0.2625299454533712    0.9005108259155062 Cl
   0.7258004981089337    0.4722541360153006    0.7528367226548924 Cl
   0.1128898310812384    0.2146407454169983    0.3000056422478106 O
   0.5196808626571817    0.0281626283975798    0.2675086729204123 O
   0.6580392656462063    0.1852027347074542    0.2655449459085206 O
   0.3668224627777015    0.3027566987084798    0.3224310242382944 O
  -0.0014522737811375    0.1555790250880809    0.2065464694511358 O
   0.6902092206242370    0.2456094977283499    0.0846368591639104 O
   0.8672750976403977    1.0290404279017025    0.1621551062637646 O
   0.2521811521040863    0.4739984604926523    0.1508814671571023 O
   0.1346828168195866    0.5752738541533688    0.1607409691583227 O
   0.4094212682880998    0.3926480792241316    0.2001719311387625 O
   0.3891413684692971    0.6132234290122587    0.2286174364122040 O
   0.3392209043665277    0.6455190182401150    0.0186839565826034 O
   0.8989582213103547    0.3737723312132623    0.1945520220440913 O
   0.7926882770276866    0.4605607921803218    0.1142752563753256 O
   1.0157849426005048    0.7229481813286833    0.2177123043838407 O
   0.2852593850554279    0.7967274505503350   -0.0058650971745980 O
   0.6218374945941588    0.8156250454917725    0.1426460737896855 O
   0.6500310683040555    0.9738376037421369    0.1505622822498949 O
   0.8818601372086987    0.7146558147160379    0.2951678418661641 O
   0.8851087589739606    0.9016087383598039    0.2511562593961986 O
   0.2150156682728450    0.1563283748065679    0.4434867972836790 O
   0.1888149047641721    0.0393424310003139    0.5499036794888181 O
  -0.0055238892029675    0.0466524139684122    0.5258442539700681 O
   0.4504974644635830    0.1365882165762193    0.3550012722198860 O
   0.0055133227888322    0.1661332772455473    0.6664658504465316 O
   0.3079528310380524    0.5868607378956892    0.6259617789436265 O
   0.9605192839458792    0.3550932055775061    0.3587976701890546 O
   0.0097427141966365    0.3242016457541619    0.6423747882780384 O
  -0.0521616178137778    0.5713909263603921    0.6486182705357969 O
   0.9194420927867006    0.4281395102785968    0.4982754855179028 O
   0.8615013493969088    0.5849797171737727    0.4239268925131311 O
   0.0925893208858895    0.7004516686916549    0.5024878103098628 O
   0.0332705250780616    0.8536984196238818    0.4895571576352543 O
   0.3486021792082378    0.7010022113419718    0.4613476941806086 O
   0.4497353780232219   -0.0465742646139751    0.4364483825484121 O
   0.3667044861395405    0.8071600881276388    0.3362961911346007 O
   0.5781704319462927    0.2861166199257496   -0.0185007328058340 O
   0.8686382253030037    1.0532278929647048   -0.1288245651036314 O
  -0.1402652919275860    0.2108539441185215    0.9740966867744679 O
   0.0567919396357309    0.6029648386484810    0.7548025634741167 O
   0.0760534025720965    0.9082640416418769    0.8527888069745605 O
   0.1093128646965167    0.7508161259613974    0.8438495157654214 O
  -0.0320451796020655    0.9067427670433158    0.6919351149958143 O
   0.8291530080563577    0.8975153518023542   -0.1552323601085437 O
   0.7140540048828894    0.8067923314630752   -0.0201650037789550 O
