Li1 Co1 H110 Cl3 O55
1.0
  12.5524841541000001    0.0000000000000000    0.0000000000000000
   0.0000000000000000   11.6154698735000004    0.0000000000000000
   0.0000000000000000    0.0000000000000000   12.8087286520999992
Li Co H Cl O
1 1 110 3 55
direct
   0.4192637897400586    0.7308346566476073    0.5663230148068382 Li
   0.5337598514244357    0.2220777949487056    0.7101811642023207 Co
   0.2544358581051714    0.4729802579346339    0.0056740077859394 H
   0.0709368811916929    0.1079278712314591    0.2274119395622012 H
   0.1665855181674935    0.0471196553183501    0.2909529842752192 H
   0.0668304430263706    0.1009883327644102    1.0418417150176831 H
   0.0905455894743164    0.4354733809210805    0.0111296624334865 H
   0.3940098243808226    0.4435436528102842    0.2378071945181386 H
   0.3401336360743744    0.0746707577261919    0.1883744977066412 H
   0.4499182797418896    0.1344644645296105    0.1671678653094855 H
   0.3842651397034039    0.2481602525074123    0.2407786057357352 H
   0.5482605668020009    0.4122982530156531    0.0570196969533162 H
   0.6148441999489909    0.1650977496119283    0.2558074196975673 H
   0.5796081467048582    0.2228276569943101    0.1418780798203619 H
   0.3579508264611034    0.1566753611019987    0.0237516645377698 H
   0.6596600302734016    0.4222134782501272    0.2198936289932431 H
   0.6555572567213491    1.0343583227924764    0.1326539012770348 H
   0.6700699219247939    0.3568954146450612    0.0341411499905811 H
  -0.0453258427507486    0.4184977439345945    1.1285247910790974 H
   0.7685109942121779    0.4255667648949371    0.2805241584621203 H
   0.8941554467873167    0.3116962099880221    0.3114788309178441 H
  -0.0584695359014076    0.0495440083842769    1.0582133632659751 H
   0.7347654825827812    1.0020565731356679    0.0396865168985103 H
   0.9438906220988973    0.4335750504841598    0.2902995236369826 H
   0.2817945861293633    0.6148798124038284    0.0121591947436927 H
   0.1968034411971837    0.7870889457221061    1.0201143439757201 H
   0.0941267132939642    0.9138035785376013    0.0962929155266151 H
   0.1708635558324493    0.8489805444115510    0.1698832011515246 H
   1.0098616275057848    0.7318427949431330    0.1354769761490340 H
   1.0088498755812980    0.6241166320218428    0.2771772220748800 H
   0.3494449403998869    0.5308048666086534    0.1679415564594167 H
   0.5407879423518547    0.6192550120774931    0.0222977341356337 H
   0.4142010468423317    0.7977109869605311    0.2552413994314723 H
   0.4343938626139580    0.6618499312144938    0.2580059204828410 H
   0.5477738105611651    0.7880394023218159    0.1230744962218825 H
   0.6396631916462034    0.8277424883805325    0.0447577461956780 H
  -0.0536625192775076    0.5387451394520635    1.0874746592290645 H
   0.7598943730978089    0.8607613850912891    0.2040567723067098 H
   0.8949122690930352    0.7281873250859152    0.1860424942103298 H
   0.8338805250497839    0.8708212450257189    0.2973509650761134 H
   0.2644083861293643    0.2845195220504826    0.3654826293265637 H
   0.1525580158947671    0.2306155468502666    0.3752939075114128 H
   0.2362195435340581    0.2311682580250979    0.5385208800538613 H
   0.1977912934699110    0.4307133496350332    0.4095330589457042 H
   0.1981896209992364    0.1829704661064739    0.6523947889808699 H
   0.2645565639702734    0.3344649832602400    0.6602714489320867 H
   0.4455956293936494    0.3193497961940196    0.3361979118352222 H
   0.3867634499673334    0.1295107260561223    0.5981005636218228 H
   0.5416865692580130    0.3827514500246704    0.5511880232502627 H
   0.5723442458800786    0.2731898038872736    0.4364849922231261 H
   0.5007584156198190    0.0614718082502201    0.5691234488681937 H
   0.6002096465215724    0.3858369902903954    0.3832135069310921 H
   0.6239834267818349    0.1029711195350551    0.4339250191851600 H
  -0.0853622207162886    0.2191506641162655    0.6401039516717206 H
  -0.1358486417481770    0.3429450534659854    0.6142020835776060 H
   0.9863284370732348    1.0184226781723400    0.3393574759964448 H
   0.7188084817580022    0.1927703279493164    0.4000184534520498 H
   0.8508174115967037    0.2190077512579758    0.4768738562588384 H
   0.8812018355336519    0.1275555748442190    0.3906787287026784 H
   0.2687286465124286    0.5257986119643480    0.3450317315743459 H
   1.0821501075277744    0.5700172277925197    0.3634113855114603 H
   0.2518212362026789    0.8710898523256368    0.5828906231748402 H
   0.0559247132664739    0.8873466204165090    0.6178808249484191 H
   0.2940096981436587    0.5737501805247138    0.5001439252950135 H
   0.2965574010212245    0.8836317470218094    0.4630340752146099 H
   0.3470844514611041    0.5255868254394125    0.6045578789609560 H
   0.6362423548243562   -0.0307174024887285    0.5605800560793972 H
   0.5152894038896129    0.7593939834430581    0.3863355966471111 H
   0.5975798881729656    0.7035124730892790    0.4580007887932108 H
   0.5709564727679085   -0.1034897491269362    0.4782166905452982 H
   0.7491976856253022    0.7058911973510531    0.3680769539392997 H
   0.7082838717781640    0.5731647543582258    0.3640656268673053 H
  -0.1028336628075632    0.5384498436063203    0.6401991992199463 H
   0.9360515363217716    0.9474225370690081    0.4321926068121051 H
   0.8862048293019800    0.8953798727098906    0.6107099337152021 H
   0.9440101203576949    0.6346766869602866    0.4865852025898114 H
   0.9244363055666405    0.7800500569909209    0.5586938423374863 H
   0.8239733227404002    0.6127748609669708    0.4920268043204072 H
   1.0325184973738186    0.4536913266696873    0.7472504169670870 H
   0.1575450765619222    0.2621751827489684   -0.0562633648876500 H
   0.2676420090124287    0.1632243858791667   -0.0611467535282350 H
   0.2122226998573734    0.4410211547693874    0.7198753347459088 H
   0.1107909048143078    0.1673852162653969   -0.1389226223953353 H
   0.1171570550534936    0.4327416791177475   -0.1133041547930724 H
   0.5565752556491411    0.4331506165134560    0.6822018065522355 H
   0.3745029286146948    0.3310643459696112    0.8001651143120793 H
   0.4024113486293558    0.2295307866005977    0.8815525828356696 H
   0.6549940215948828    0.0353638329980212    0.7477453919308171 H
   0.8378558337924522    1.0783427681540532    0.9131872603283159 H
   0.7935219797785253    0.2822492738136755    0.8991968007856649 H
   0.7007809744357891    0.1336569207881903    0.8143015680475023 H
   0.7715040272675296    0.4716045064433871   -0.0849117975281399 H
   0.8542430283489029    0.2259553823808555    0.8102808723642069 H
   0.8559956694779350    0.4148035326398886   -0.0037432422219468 H
   0.1112070774169471    0.7256484695491902    0.8773679364546089 H
   0.0779581208856075    0.7691740441067401    0.7695453697103620 H
   1.0898378288437565    0.5701954384049653    0.7702854900031317 H
   0.2733380926817832    0.7827516265650963    0.9263033161495512 H
   0.1157222792928632    0.9712011704784178    0.6984797686875187 H
   0.5436447473921772    0.5417161772469902    0.8584355344507425 H
   0.4341588493716559    0.7860919993974103    0.7711958067345340 H
   0.4513044595439423    0.8459492421583095    0.9482961311783726 H
   0.5337702079401981    0.6244523911467402    0.7539692727050367 H
   0.4048738094156460    0.9566257807745326    0.8927090374598038 H
   0.5311093800443040    0.8119110151811975    0.6930912557542944 H
   0.4363767370549402    0.5426528591133709   -0.0042407154820236 H
  -0.1510838730898183    0.5133953255222998    0.7562138358292063 H
   0.6819631852953943    0.5721040998918828    0.8162065190120150 H
   0.8732352849471422    0.9427133001121120    0.9176529650484031 H
   0.9419786499581350    0.7900711754878625   -0.1386915299832469 H
   0.7825400897950215    0.6489696946309247    0.8601999562457419 H
   0.8467704038987567    0.8433828371549261   -0.2061533385256840 H
   0.2847159202294364    0.9294981653244782    0.2804921490401756 Cl
   0.0382279293253093    0.1639208708331208    0.7319327374901444 Cl
   0.7158990974838086    0.8970586683343783    0.6793904424443624 Cl
   0.0980033164748658    0.0940676484636056    0.3001888735826724 O
   0.0173094085945555    0.0538416390908820    1.0924009873381118 O
   0.3707522765985660    0.1436272449559808    0.1599969740762684 O
   0.5903000542470129    0.1447714087431316    0.1788278827910420 O
   0.3818162220531108    0.3163555135366001    0.2905251510258122 O
   0.5978467676176137    0.3501595700471170    0.0735798104322776 O
  -0.0363450706090703    0.4596626735678649    1.0637018080530753 O
   0.6911892475296313    0.4443511965517045    0.2884882587854787 O
   0.8982422872381963    0.3734466176608434    0.2626199615485256 O
   0.3163192264061207    0.5330062411788150    0.0237782401651600 O
   0.1276450189006337    0.8341709842410706    0.1035491391944311 O
   0.3836572918936532    0.5286232932176526    0.2381187008438929 O
   0.5709524894926152    0.7766804128502827    0.0484783340303017 O
   0.4714112365692343    0.7392811509408629    0.2639323478482575 O
   0.9544224019742633    0.6801522472047415    0.1545499073224137 O
   0.6986260225021382    0.9736547948526689    0.1032701107211864 O
   0.7951774289904021    0.8153073478676610    0.2547261258099238 O
   0.2046839530373592    0.2736133769371443    0.4175853803588127 O
   0.2618829895934408    0.2067241328117246    0.6096465963325519 O
   0.5575161052734079    0.3686616196706371    0.6280403031866177 O
   0.5472974108360918    0.3573628946574186    0.4337243747597994 O
   0.4665930667745132    0.1374570253453639    0.5941095352076469 O
   0.6446303359368923    0.1688229540566248    0.3929076774746801 O
  -0.1522931954688505    0.2577664071628140    0.6024647750528171 O
   0.8533348415820408    0.2088006738610909    0.3969775583673050 O
   0.1246312728137571    0.8964990697928823    0.6629781968804334 O
   0.2081486058874323    0.5159031879090346    0.3996554197641406 O
   1.0077345584991866    0.5707851691756187    0.3376492658692505 O
   0.3167438435523816    0.8731199036500173    0.5339544627622895 O
   0.3435608461366909    0.5965473641844231    0.5617089737411536 O
   0.5811576407939343   -0.0239986902153623    0.5069150891127262 O
   0.5362509917928374    0.7526125100409612    0.4563706504268573 O
   0.9195050107535909    0.9939208712631508    0.3725504658354711 O
   0.7172820906656268    0.6411060437416578    0.4114754843554205 O
   0.9400985440197187    0.8639820899278061    0.5652651424474469 O
   0.8888656571978742    0.6251781474090188    0.5382054701400649 O
   1.0987922317029934    0.4884639191174086    0.7749479355605374 O
   0.1506109909314241    0.1758549554211454   -0.0685409299974564 O
   0.2808186836825158    0.4014618424897936    0.7084136195368876 O
   0.1438856289262926    0.4110473350452016   -0.0404687450237316 O
   0.6304562491333741    0.0964189954428881    0.7942800649799083 O
   0.3448753269834650    0.1364721319123311   -0.0498555470448898 O
   0.4334745226762747    0.2782589057523933    0.8187985014719259 O
   0.8079733025424540    0.2068248605491939    0.8664066612325766 O
   0.7819083423335114    0.4014850873522866   -0.0378963585757918 O
   0.8518371300717769    1.0122843126325465    0.9599990881283914 O
  -0.1009049609105692    0.4785039259996149    0.6989333656180031 O
   0.0540371984360122    0.7221298861044306    0.8255829374889816 O
   0.2258263816388975    0.7296758572062944    0.9643945282637221 O
   0.3998078798976844    0.8734074512082629    0.8951214548697810 O
   0.5650859216407095    0.5543605215222979    0.7846577204562937 O
   0.4683727941755395    0.7557850033108262    0.7044850485313843 O
   0.5165863583250966    0.5472562028077994   -0.0080051015744790 O
   0.8674675023225091    0.8154958895301033   -0.1327869627108657 O
   0.7595454381821198    0.5720464181960671    0.8339288087228509 O
