Li1 Co1 H90 C51 N3 Cl6 O45
1.0
  14.2635530813999996    0.0000000000000000    0.0000000000000000
   0.0000000000000000   13.9202321246000000    0.0000000000000000
   0.0000000000000000    0.0000000000000000   14.3870418102999995
Li Co H C N Cl O
1 1 90 51 3 6 45
direct
   0.9840928803149426    0.8241564838581787    0.2986097463152098 Li
   0.6894313765497478    0.7282809274699011    0.6662482136068892 Co
   0.1786449015093438    0.0547504923393582    1.0030756214851839 H
   0.1222942856836053    0.1575483470871374    1.0580674683451539 H
  -0.0097429415943506    0.1678463075461925    0.9612998340839332 H
   0.3384465993746752    0.2847840127101267    0.1695908677663823 H
   0.3335473993225420    0.2276750512442385    0.2773996877066683 H
   0.5245594132612585    0.1360357747880885    0.2663772689154427 H
   0.6098481202936157    1.0121253321201245    0.1583522822300392 H
  -0.0220876918115747    0.2605437560118429    0.2982740275438539 H
   0.8129959603488787    1.1989562683229742    0.1346740303356078 H
   0.7775945426853889    0.3598079053185274    0.1786615302222717 H
   1.0667602208626223    0.6547131887401545    0.2346160489214298 H
   0.5600708315670181    0.3918713074230972    0.1895595314978189 H
   0.4723801984644536    0.5726226036283896    1.0307595613285268 H
   0.4017758410331175    0.4508840446136134    1.0864402224792080 H
   0.3673180872606081    0.4568607409255214    0.2582748388581014 H
   0.4532975057828567    0.4547710487609350    0.3575718325581712 H
   0.8572310815980696    0.4794708523936909    0.0060047719565360 H
   0.9603554568225089    0.4849341951971202    0.0670472024700320 H
   0.9074640071469171    0.4603592458041819    0.2673093576781513 H
   0.8141120917860561    0.5371897893200452    0.2940785855067850 H
   0.7638069542158334    0.6359326111132916    0.0893262786155205 H
   0.0903331048054356    1.0158292933427884    0.3130748464201535 H
   0.1947622040277311    0.7252206336746047    0.1186304264423633 H
   0.2532721696188632    0.8410743051913318    0.0978638224427764 H
   0.3447935452922428    0.8335176783291900    0.2463947037856062 H
   0.1181508580493598    0.7646632230714949    0.3482968195458043 H
   0.5897717761761447    0.8776175176497675    0.2980703720572964 H
   0.4094793914299178    0.7148946564413673    0.1824301993284658 H
   0.6649360773766679    0.8215997736193383    0.0709840784968640 H
   0.7417759779081295    0.8886475061316882    0.3281870566206094 H
   0.6924783031992287    0.9854389955220791    0.0648570371521387 H
   0.7008450824525426    0.7526203204460608    0.1686636444931136 H
   0.9283437976381351    0.8848975686642122    0.1078533673328947 H
   0.3180169071137762    0.2442595448025048    0.5913217614415623 H
   0.3206074257446623    0.0605068618655813    0.5982856669699574 H
   0.0849767956471216    0.1479673286956188    0.5466140301038033 H
   0.4340665330767856    0.2550179860885048    0.5875510071256084 H
   0.3836751617334644    0.1065168704823309    0.4962395327223372 H
   0.4828855752906106    0.0027642902758783    0.4653298428873059 H
   0.5721908832128757    0.1205144818910989    0.5321739525159792 H
   0.6274433154436426    0.0452082664043997    0.6171234519415679 H
   0.6466201641880616   -0.6978655492771926   -0.6152939020766920 H
  -0.2059394982327703    0.1889824493408434    0.3011599578516587 H
  -0.0967850686797108    0.2183713270792421    0.5466374539601070 H
  -0.0867770433871805    0.3394145672291198    0.5115390990197267 H
   0.1571397408912650    0.3171168068741417    0.4617645512397013 H
   0.0811944281197520    0.4485120295707286    0.6118874902342717 H
   0.2664336868739716    0.4974740722938189    0.3373188852294581 H
   0.0617911280850011    0.3934280343372774    0.4665779104356427 H
   0.2353698981060953    0.7291465739542515    0.5766391739586533 H
  -0.0124785853555733    0.8097932176273905    0.6337043448829658 H
   0.2766071688368373    0.8109656118700956    0.3462004886671098 H
   0.4097675384278323   -0.0801991251084888    0.5317432871935525 H
   0.5402385360382916   -0.0806279972671254    0.5429363456501360 H
  -0.0991729729981948    0.7974342283188740    0.4772732293225204 H
  -0.0318636571130838    0.6950106489390173    0.6089584655914274 H
   0.2373736064273599    0.1620439617751574    0.8238177841892887 H
   0.2372621335011594    0.1736005219359401    0.9923027327952353 H
   0.1760866329074214    0.0461292280582894    0.8376524558768002 H
   0.1272222303267714    0.1378712326864412    0.7641460315580161 H
   0.0293412891592732    0.0559832304033790    0.9403059422205090 H
   0.0581826302790009    0.2750083136569825    0.8447324380818340 H
   0.1993529255419510    0.3579566430860206    0.8032986250812190 H
   0.0644377337227806    0.2956890032764649    0.9628150865095148 H
   0.3365950270596089    0.2478399448672366    0.7380287793143344 H
   0.4318875528589793    0.0474417061719060    0.7539159924755807 H
   0.5621531318066919    0.1442260117740451    0.6627735590768515 H
  -0.0039323276802006    0.1283290067514827    0.8419618893807476 H
   0.7741178493455879   -0.0639443674309833   -0.2251789587822464 H
   0.1608148420179511    0.4205098384785881    0.9028166510158460 H
   0.1952101989952917    0.6215858675954827    0.7783150318770433 H
   0.3140424415877969    0.3525917900195243    0.9454890786138859 H
   0.4838149369948332    0.5781605859917558    0.8496764704227336 H
   0.5293408305989158    0.3762465679752807    1.0190448528969895 H
   0.4015732267207154    0.4793546905376581    0.8475488613976395 H
   0.4726220035729225    0.3122030957098628    0.9301023157950334 H
   0.4931686372431942    0.3364318583469436    0.7767733667945020 H
   0.5936515948779916    0.3002478353011013    0.9407723341368234 H
   0.5195666670925031    0.4581316249051596    0.7320866265683268 H
   0.6436209114944403    0.5223386001911902    0.9713192669806110 H
   0.6842461327624586    0.4265743206829340    0.9027089151782473 H
   0.6135049931430615    0.3718896004005218    0.7663410623653493 H
   0.6539942034193635    0.5379639861799492    0.8419862168279474 H
   0.3693147847060110    0.6098885051849634    0.9743511619716141 H
   0.2448359826945188    0.7575771343398507    0.6948906548699001 H
   0.1236628086518028    0.7499838701576246    0.8033556208146582 H
   0.1248770923510436    0.8766038851274287    0.7269076605944699 H
   0.1391827845467761    0.7847871691014575   -0.0483622070453614 H
   0.3985922023043343   -0.0555601681622263    0.6849344733359414 H
   0.5187873801969753   -0.0352867993366249    0.7215792545878148 H
   0.4197769658955349    0.1509191472883120    0.1740608624218478 C
   0.3803260663343459    0.2486948156692091    0.2251095776257056 C
   0.7284791507488910    1.0922525879026534    0.1681805708987194 C
   0.8847095084502892    0.3523690925837164    0.0849716655667735 C
   0.4526414280197219    0.3264679440416003    0.2617383722694192 C
   0.3991776104387836    0.4094956543308216    0.3112878216558553 C
   0.9425955060897327    0.6137979227516309    0.2491520461582126 C
   0.8852689763440502    0.4631409522910709    0.0753157542382512 C
   0.8756037828811554    0.5296452312221668    0.2507256844570734 C
   0.7246435005649727    0.4989917193999089    0.1530183156640242 C
   0.8289912736272731    0.5216938551955849    0.1435048936691002 C
   0.3055754068096611    0.6822824129143547    0.2671668683445530 C
   0.1905697002624540    0.8040842611036296    0.1261448273473917 C
   0.0989200255608059    0.8329839228620761    0.0800443149039536 C
   0.1902044336300611    0.8198505211800081    0.2348912966097464 C
   0.1725503471227963    0.9276784644617464    0.2442809961589120 C
   0.2857241118073496    0.7896563407785747    0.2729679218968023 C
   0.5543527612142420    0.8196975064902432    0.1797340231088186 C
   0.6600200512224668    0.8202599971103646    0.1471192572530561 C
   0.6863311672437186    0.9977318939786786    0.1380048053922072 C
   0.7125034679229094    0.9043864678127094    0.1941129345436834 C
   0.8219832021159502    0.8946711125808809    0.1957206312686238 C
   0.0537973274275279    0.1540045843424901    0.4161634465337771 C
   0.0806433732770250    0.3120687588695528    0.5938469504608915 C
   0.0827627610500071    0.3233803518509468    0.4901995141315948 C
   0.3807537297619076    0.2072659088206768    0.6146587340052779 C
   0.5280906512152632    0.2799062204871072    0.3300004940418673 C
   0.5665731384936801    0.0975788011393547    0.6043661386300434 C
   0.3799776258040210    0.1060535161400853    0.5736271579673620 C
   0.0197286772653410    0.2605897322566549    0.4315474290729496 C
  -0.0858628251748191    0.2650645139587445    0.4850864407861531 C
  -0.1765905697006579    0.2563297458232962    0.4208635093327598 C
   0.1176832326293866    0.6143568214776263    0.6612367594837503 C
   0.3236550534817292    0.3872083104688086    0.3827576911090642 C
   0.0348651582506810    0.7651043076701598    0.4968928984471292 C
   0.1047825199563323    0.7256667469250457    0.6624677283120552 C
   0.1988768870709438    0.7672903344352038    0.6320347869351461 C
   0.0234374305961630    0.7493646276103134    0.6009380537846452 C
   0.4770868097566668   -0.0368995597991696    0.5315757753428345 C
   0.1694410236781467    0.1346507404131280    1.0002967319450580 C
   0.1703931006201612    0.1234576799378899    0.8254101893759893 C
   0.1089750237216094    0.2719013252380488    0.8997548680182833 C
   0.0265832105952932    0.1262852189938258    0.9144535116163441 C
   0.1886368017873923    0.3470372849431787    0.8786358635692607 C
   0.4547778522210478   -0.0016946870920572    0.6970606631601136 C
   0.5333851244484773    0.3513863503508606    0.9502475272861479 C
   0.4202494989286113    0.5451352746402607    0.9806338989784175 C
   0.4608972952169043    0.5114166558845776    0.8850145202250229 C
   0.5421179415305288    0.3993482660735256    0.7803265642254988 C
   0.6346238545011624    0.4900997699775096    0.9022237563740932 C
   0.2086914121896921    0.8777547280053782    0.6223455122504642 C
   0.4738517111990589    0.0414540186639726    0.6045141885230015 N
   0.1226756773304800    0.1632185111543381    0.9111533196362245 N
   0.5426954974840130    0.4379804523177226    0.8827659690338504 N
   0.5565774523426664    0.6493411518854063    0.6479275606557524 Cl
   0.7352502546560896    0.7893783281732274    0.5135548365411982 Cl
   0.8417083013527517   -1.0080471584164206    0.7420240412144457 Cl
   0.2337594999206703    0.7162998054234330   -0.1010624083791191 Cl
   0.8201961298588112    0.6412500511773256    0.7063697345985602 Cl
   0.6772710123676857    0.8427007148515551    0.7872883845441341 Cl
   0.0598988926899371    0.1168715828685758    0.3379319368988906 O
   0.3756673393242679    0.1252205815748987    0.1062415001884343 O
   0.5006826135566949    0.1112129128625781    0.2009121085010405 O
   0.9289649612394789    0.3053037854727672    0.0310905404389502 O
   0.7119026358615644    1.1289021204272169    0.2433843559621229 O
   0.7915552997887273    1.1316829648595157    0.1116859828717280 O
   0.8355843012875852    0.3104042751315946    0.1497097828448646 O
   1.0289204205744444    0.5968405905830926    0.2160597672674159 O
   0.2666629425146481    0.6215844308378324    0.3180981167319323 O
   0.4996554501342020    0.3674026062584040    0.1812235579473605 O
   0.3766656880469693    0.6577167306082612    0.2119595498093859 O
   0.6664672526648562    0.5573886622614748    0.1176872165609348 O
   0.7046842380743916    0.4129410710143008    0.1830592376060581 O
   0.8287858549645262    0.6191175179521403    0.1048923694737308 O
   0.1065920270162286    0.9445151089876533    0.3064563906419942 O
   0.2179359531008868    0.9878829202853652    0.2028082592427774 O
   0.1159024701605231    0.7626496072244959    0.2758253543378875 O
   0.0303950238012818    0.8650221817077645    0.1243647532822934 O
   0.5327256814649288    0.8499017441952292    0.2604267753303952 O
   0.4980053703913999    0.7755287028024479    0.1255164841397194 O
   0.6870617005085043    0.9107936885545520    0.2910466905157820 O
   0.9168810156043089    0.6932420002714069    0.2765822854807582 O
   0.8670406991037147    0.8902617033518834    0.2681719394488608 O
   0.8539422797313614    0.8933952717873488    0.1102951479618249 O
   0.1017489139709887    0.2295248767190949    0.6271255080902460 O
   0.0788072248888543    0.1006714219817846    0.4914650279349234 O
   0.5967335759067806    0.3401228887507542    0.3486068207301205 O
   0.5268400511790590    0.1970397862441404    0.3596188134725463 O
   0.0113934469534045    0.3047068126690368    0.3462491435615092 O
  -0.1524675480358324    0.2054340428164501    0.3453330414069604 O
  -0.2564248153126378    0.2791849681466195    0.4460326862055731 O
   0.0672890569357208    0.3872111839841094    0.6449352846501890 O
   0.0966232626285237    0.5639172890247739    0.5971388016019715 O
   0.2465227994268360    0.4410658893719006    0.3753607570205144 O
   0.3246688261313263    0.3223853971780629    0.4385273212095046 O
   0.1117183794462799    0.7608996364063405    0.4605998225747716 O
   0.2575978800255120    0.9200607753994637    0.5653320545281991 O
  -0.0386550925602811    0.7949594132661049    0.4413354036862703 O
   0.2759965215492861    0.3100070116412662    0.9112381181664634 O
   0.3853710926044018    0.2026122507911157    0.7172225563293079 O
   0.1648222586604802    0.5786771003670652    0.7339932033588635 O
   0.3690876323280930    0.4728203526626988    1.0301492899387741 O
   0.1552075435037894    0.9279686895071219    0.6845584405092261 O
   0.0777871424509817    0.7633521817155289    0.7521011649144829 O
   0.0913763231336517    0.8303833915148994   -0.0083588479400890 O
