Li1 Co1 H90 C51 N3 Cl6 O45
1.0
  15.1092660831999996    0.0000000000000000    0.0000000000000000
   0.0000000000000000   14.7455889784000007    0.0000000000000000
   0.0000000000000000    0.0000000000000000   15.2400766921000006
Li Co H C N Cl O
1 1 90 51 3 6 45
direct
   0.9182959293719350    0.3358121534822070    0.4253376460671072 Li
   0.4339441442023622    0.7426246591601524    0.4974264565236517 Co
   0.0961884933389297    0.0581630201720882    0.9518028445105686 H
   0.3314130224741849    1.0870422343034323    0.2361004093873880 H
   1.0223307641113792    0.4093791708179708    0.1592208750076596 H
   0.3711925853391407    0.2980096621190926    0.1566119642519407 H
   0.5890899988780205    0.1988912069566058    0.2924721729524189 H
   0.6620167706968827    1.0516275756712843    0.1601073534862753 H
   0.8441090036915183    1.1894762572653210    0.1353863492806143 H
   0.8452745136443531    1.0135843343452353    0.2927956621381758 H
   0.1261403121438941    0.6092037423773849    0.1115446057421222 H
   0.9770949468164570    0.5201083524323336    0.1683074434546401 H
   0.3207937111776286    0.3959155512710802    0.2084889997795787 H
   0.5217730958332774    0.3679254858620561    0.1550522608147315 H
   0.5671610714122181    0.4193481181564140    0.2460255562915639 H
   0.5258259730321301    0.4787822242666397    0.0738597560131369 H
   0.4082334314608651    0.4769888201483820    0.3256353918922547 H
   0.7920224234654242    0.4178834089452976    0.3075147481724528 H
   0.7283952429851666    0.3932849340704501    0.0401296107923803 H
   0.8117474053645369    0.5282933086369853    0.1311101240806596 H
   0.1424872345317808   -0.0128514372045492    1.0360622630124223 H
   0.2710077059634902    0.6687754557410729    0.2846657817902491 H
   0.2243978973783435    0.7761777441352421    0.2910489517680240 H
   0.3071861673784889    0.8675664300652510    0.1261915136619301 H
   0.0722138013846478   -0.1536047162387248    1.0681677444929476 H
   0.4064371827317374    0.6556311859337483    0.1919365896377870 H
   0.4166117338418626    0.8832728220133284    0.1583914828559421 H
   0.5184247730410636    0.8499618433389928    0.2938120612228359 H
   0.6889909465275119    0.9593538793141491    0.0893314629319233 H
   0.7625901533901448    0.9603596038071973    0.3550355064095432 H
   0.0335084137913847    0.0226439235278502    1.0502669159399380 H
  -0.0323663940595868   -0.1064095854766091    1.0568377490153327 H
   0.7425435145704881    0.7684384805380289    0.2789368079954349 H
   0.8223170782474291    0.8324250735037022    0.2170119227690235 H
   0.2106308488099629    0.1137504911914343    0.6397912912836160 H
   0.2813404381518252    0.0188841550926109    0.3723090415313488 H
   0.1378476974679691    0.0402403722271923    0.4439832215285023 H
   0.1495027969963179    0.1627597237869311    0.4664584365106916 H
   0.5325850703594021    0.0141179839954137    0.5222502161177296 H
   0.6412765177769585    0.0595566572814707    0.5207785699801727 H
   0.4097444247728027    0.2720107006288749    0.6557898984380268 H
   0.4100230617348375    0.1304680329838374    0.5844707035311257 H
   0.5484346820269255    0.1964247066321171    0.5173150112943190 H
   0.5930398929146580    0.1835422100239273    0.6228668357699700 H
   0.6325864861581499    0.0953388834626626    0.7406280541849871 H
  -0.0186436891407462    0.0738260093099463    0.5151088937872182 H
  -0.0188620981608685    0.0980190069936990    0.6288858343520146 H
   0.7517160315701125    1.2040365437560474    0.3640859857992892 H
  -0.0356193647683791    0.3230829230476037    0.6067304340333910 H
  -0.0822404247272897    0.6145266901494255    0.4488480264437186 H
   0.0436670806091374    0.6705617526491573    0.6017567057817943 H
   0.3728756584851141    0.5601144858505465    0.7365742688105327 H
   0.3906203986017840    0.4697830788140993    0.6553607667392742 H
   0.3254120691849436    0.3507461110421643    0.3698333322050592 H
   0.4563053229743522    0.5710513158568782    0.6517288952521254 H
  -0.1614222985133537    0.6729292403128333    0.5150296619024716 H
  -0.1803775540779140    0.5951039325763281    0.6436718491833447 H
   0.0318531381570633   -0.1203100136182214    0.5506679208806262 H
   0.6525927524013597   -0.0946501365828414    0.5463084283831614 H
   0.6578749414607438   -0.1347367008337417    0.6566665344464877 H
   0.5641646982097938   -0.1426088855372513    0.6054791279943680 H
  -0.1265397306177477    0.6964223676818012    0.6700267034347149 H
  -0.0901329324998938    0.7687802776685051    0.3760649281424491 H
   0.6844817930302581   -0.0235943109027138    0.7530125062985279 H
   0.7153350454273639    0.0533297103528331    0.6612465638918895 H
   0.3846220926946050    0.2808987823590779    0.8198231937098193 H
   0.4858460695296256    0.0450797855666344    0.7219680431006982 H
   0.4638638634998237   -0.0478110444983051    0.6519447734308557 H
   0.9980264730903671    0.3797900509368236   -0.0077559750051174 H
   0.4491272112512029    0.5839595828836358    0.8653636469517487 H
   0.3881675991212582    0.4339720168908679    0.8500546688728562 H
   0.5616765561787390    0.5395450802849703    0.8736628177863394 H
   0.5249434682217325    0.6239362837711687    0.7906310833951370 H
   0.4942758634917307    0.2727282033353112    0.7773076596288212 H
   0.4971138570622907    0.3904549352103756    0.8777494113946434 H
   0.6209512419952667    0.4242542633165682    0.7765904716368693 H
   0.5617938352040895    0.4139808181376807    0.6739518805324791 H
   0.6047227899546587    0.5178972505192285    0.6980357488367812 H
   1.0097682743812493    0.5299268140897200   -0.1378097824788964 H
   0.9111215239836727    0.4442668243904102   -0.0550785715097563 H
  -0.0444497076364785    0.4614539303358723    0.6836598369285708 H
   0.1638741105203703    0.0070718090238885    0.7579009331421158 H
   0.2447681786550907   -0.0641440645189224    0.9109415015802668 H
   0.2136170957759998   -0.1211597592620445    0.8069361194537029 H
   0.0913034115888592   -0.1753386734559952    0.8613092054126171 H
   0.1472181062767347   -0.1649545511110488    0.9610692020790450 H
   0.5310284758914452   -0.0662484226456445    0.7519501756864784 H
   0.0116642025515692   -0.0106297558564533    0.8376780907354394 H
  -0.0671569654285351   -0.0077719520710820    0.9281349846114794 H
  -0.0524401685453799   -0.1162172642483317    0.8650447509187308 H
  -0.1607273607220552    0.6883908132845179    0.8020129158822344 H
  -0.0047455951602921   -0.2106102384482018    1.0056588727040137 H
   0.3598598045768513    0.3302877895439929    0.2220611099584743 C
   0.3015915872357783    0.2689745384202591    0.2761093944022778 C
   0.4871336899800743    0.2703315544085191    0.3168565646787831 C
   0.8023127975407658    1.0565822777253711    0.1110137685184359 C
   0.7288558874639702    1.0836819073559916    0.3198198043600775 C
   0.7166163783454151    1.0091748800945270    0.1349906819803883 C
   0.8510272748652735    0.3477594551639548    0.0786215430740654 C
   0.7770693477332276    0.9986049394683296    0.2990974676960038 C
   0.4408663864492105    0.3569377931874988    0.2732478602459171 C
   0.5020345461010962    0.4030790494639792    0.2139666625031051 C
   0.4704911212004037    0.4970322311259249    0.1870028874314867 C
   1.0234095723016805    0.5204026099222416   -0.0044029735056900 C
   0.9567882027092000    0.4459058908282041    0.1691886726158399 C
   0.9114954666999427    0.4300338222154931    0.2533050472181094 C
   0.9004413228996884    0.4386676584214589    0.0840873948334059 C
   0.0842461528568443    0.0066872872521027    1.0035624265610252 C
   0.2019202999801732    0.7108368478569473    0.1616893665225022 C
   0.2580064126565689    0.7273963762933962    0.2450655873691251 C
   0.3273539239274862    0.9498941011930899    0.2399711248169618 C
   0.3987240350938398    0.7770661454069165    0.3227745139005710 C
   0.3525854605157451    0.7692712719591098    0.2293635666487145 C
   0.3488857440839752    0.8676376378007670    0.1879215179792750 C
   0.6687881121661918    0.8827682643445302    0.2456653218838955 C
   0.0177690655867475   -0.1436519093203317    1.0243018235067007 C
   0.7450360247819453    0.9469901819218607    0.2116215299475369 C
   0.1595264473289040    0.0969332585693090    0.4868616802923444 C
   0.1102745514457921    0.0839381859221130    0.5750036908044254 C
   0.2648280543850579    0.0842297985532734    0.4917622461824566 C
   0.5761973144201965    0.0557304282930833    0.5577466254160123 C
   0.5473144423073522    0.1539286082451408    0.5755864962705294 C
   0.0135742887093668    0.1145025805122641    0.5670630483493432 C
  -0.0067251750972195    0.2108832677863922    0.5546557617050432 C
   0.4206781126892320    0.5258757042908843    0.6964274892134746 C
  -0.0635988839370869    0.4965405586664104    0.5542503175511300 C
  -0.0553926613901252    0.5957604000808937    0.5813854172199110 C
  -0.1151268665480802    0.6233632310424932    0.6623069260099080 C
  -0.0902646397574827    0.6569163160175828    0.5059397995088124 C
  -0.0484174715020350    0.7518952281554123    0.4959535636732086 C
   0.1142952629525904   -0.0191109362408512    0.5931051745156591 C
   0.6225522462973154   -0.1004199976663579    0.6075040521875642 C
   0.6604528297437033    0.0333562796250794    0.7074950188202931 C
   0.5121760711199970   -0.0185697574509304    0.6973231539975683 C
   0.5075211130556735    0.5599510471433148    0.8312260234665803 C
   0.4336873481423394    0.3148309637546760    0.7784598848016185 C
   0.4504876347083591    0.4050020652242541    0.8233868240705609 C
   0.5771828685773608    0.4576397049371861    0.7331779604424239 C
  -0.0859275660942647    0.5929656660041223    0.7524829814041956 C
   0.9560158289925853    0.4435813312565104    0.0010543481128497 C
   0.1917192750494271   -0.0740195601816124    0.8606156393490371 C
   0.1184006906853756   -0.1278281941508806    0.9081646126672380 C
  -0.0206543758169031   -0.0491694168243845    0.8878700953725628 C
   0.5932397702603457   -0.0050124827776137    0.6425478390916580 N
   0.4895291074544044    0.4831852426943950    0.7693254163332176 N
   0.0494330787403682   -0.0772964723531630    0.9559944244671915 N
  -0.1500451741015243    0.7106795126699026    0.2689283281772810 Cl
   0.7335821262903153    1.3329157633507203    0.3912846678252707 Cl
   0.5610724235921702    0.6681576438643587    0.5149117294250758 Cl
   0.3714004048310148    0.7857297532280171    0.6207001800065435 Cl
   0.6043733355224628    0.4359787865114877    0.9927179929443839 Cl
   0.7530840662506971    0.7764530807125701    0.7661121779099895 Cl
   0.3594421800565568    1.0299770332299039    0.2138885789065431 O
   0.2791020766183286    0.1926649381968779    0.2615858454417442 O
   0.5620646623890413    0.2547445201885447    0.2701527314645474 O
   0.6504053529725584    1.0991645035638762    0.3102824507800037 O
   0.8905229060040704    0.2773404300900122    0.0979580599403327 O
   0.8009838117455969    1.1385111855343208    0.1494768295543333 O
   0.7695243088562725    0.3400154443843738    0.0474537209169613 O
   1.0550212996595751    0.5602189238626364    0.0582240079251025 O
   0.1715468855818211    0.6281253331262323    0.1605620756074305 O
   0.4296090560756907    0.5436675334531038    0.2407558977706439 O
   0.4858559310278068    0.5208967237898310    0.1039166913720941 O
   0.9492398546046674    0.3968853328119157    0.3185842462733022 O
   0.8448860103267415    0.5146489570756664    0.0753289087249212 O
   0.8261154096610119    0.4478004913111637    0.2537387720696009 O
   0.1902109291195516    0.7758027167281917    0.1121246553165828 O
   0.2823954199035679    0.9405143470033723    0.3070108137005232 O
   0.4812525307291426    0.8000336918708861    0.3327350936973045 O
   0.3917872322456500    0.7144582698346128    0.1648008994207966 O
   0.5896459491110593    0.9131651512139913    0.2411272869778211 O
   0.6831468506254496    0.8045821707480776    0.2842943925830718 O
   0.8115111265154955    0.8847064710883817    0.1789865235726795 O
   0.1462213669303580    0.1336079550356335    0.6421744813904497 O
   0.3045248865605735    0.1068243521169216    0.5606721356283797 O
   0.3109950883203201    0.0554205051013617    0.4246329252040181 O
   0.2768319465000869    0.3064223474436134    0.3543025704653435 O
   0.4621152676478136    0.1536064780130451    0.6195112096118347 O
   0.4632677392439927    0.2184997828109542    0.3757939321308515 O
   0.7852424780044132    1.1453417027925694    0.3478117894805419 O
  -0.0326708429967270    0.2560581333665854    0.6250564572970913 O
  -0.0039950623456898    0.2440972683066442    0.4787255007635185 O
   0.0357361857966330    0.6070146131369535    0.6015198303334003 O
   0.4177282672265489    0.4119129454982992    0.3491208380111404 O
  -0.0539253498822121    0.4353070602064545    0.6196424425472330 O
  -0.0734292753791405    0.4691377061528960    0.4768392897830383 O
  -0.0574410732606668    0.7981605893423632    0.4241257099087036 O
   0.0652902354467684   -0.0617752205174269    0.5362684526605119 O
  -0.0109636337786247    0.7867734551800072    0.5611235769261499 O
   0.3572375726443517    0.7477068569692583    0.3851147513675181 O
   0.8622515129630172    1.0306843634026952    0.0617600793694106 O
   0.4003548224440869    0.3272733287404866    0.6937680537776275 O
   1.0388702835442829    0.5573468785301620   -0.0822142617267466 O
  -0.0325980399900196    0.5264792746204952    0.7641187496212888 O
   0.1565402003628671    0.0072569491362298    0.8205561296540189 O
   0.1626761701372749   -0.0586963336675016    0.6471665822530024 O
  -0.1181700322284520    0.6363650853787860    0.8224426031003700 O
