Li1 Co1 H110 Cl3 O55
1.0
  12.4597805192000006    0.0000000000000000    0.0000000000000000
   0.0000000000000000   11.5296863533000007    0.0000000000000000
   0.0000000000000000    0.0000000000000000   12.7141325792999993
Li Co H Cl O
1 1 110 3 55
direct
   0.0994723187691895    0.6907357175696779    0.5390143406918374 Li
   0.5345704323873320    0.3564230674344236    0.7588751910145027 Co
   1.1024849304875226    0.0531018067481744    0.2719037077943018 H
   0.2028551189730174    0.0644458273912480    0.1289305251047061 H
   0.1363362907542667    0.3314128467602536    0.0414640783719926 H
   0.2846101706314557    0.1340111195789609    0.0531912645618514 H
   0.0271335967017264    0.4759935360279094    1.1498204614840404 H
   0.3241847040062747    0.3635637647159621    0.0349048420670499 H
   1.0773239736378486    0.4540970167069184    0.3298864286289298 H
   0.3849538322291380    0.3565549010293214    0.2120820884068882 H
   0.4103772335091101    0.4631319545888310    0.0422318853725185 H
   0.4291287676665514    0.3104851308965051    0.3314626273884603 H
   0.5512545143966150    1.0285246114440805    0.2103839780666554 H
   0.6497297642703407    0.0827087699854958    0.0564076066713067 H
   0.4238854971370802    0.4992586962222477    0.2852864532500966 H
   0.4136918986379508    0.0043072443671277    0.3190488823676664 H
  -0.0326284832845597    0.4184681203594974    1.0473439463247394 H
   0.7049249580332045    0.1414909414368483    0.2466168863776810 H
   0.8470309925072118    0.2828746660282318    0.0077088852966323 H
   0.8133698859288329    0.3533154373652201    0.1019330875792514 H
   0.7650712823480823    0.3575453876436196    0.2674212942560958 H
   0.9551308099899101    0.4564943065509817    0.3033089175095197 H
   0.0636242555298959    0.9815762397873726    0.0788684389946174 H
   1.1373250305463534   -0.0745877899058252    0.2279604818986064 H
   0.2311533702509330    0.7499949184762529    0.2226356986640645 H
   0.1077309714670788    0.7291678124612423    0.1740960129127321 H
   1.0297308399477156    0.5934173720728944    0.0496816267850164 H
   0.3527582410321788    0.9938142136295331    0.1567263655048112 H
   0.3658844754588588   -0.2957048196219296    0.1325037142087717 H
   0.3770909328908205   -0.3313389199270440    0.2536633757422690 H
   0.4016098238559733    0.8692037120100519    0.1871240349949998 H
   0.5880184043619425    0.5955405868117754    0.2303121956166685 H
   0.6436550184204146    0.5861561164381270    0.1213232424688878 H
   0.6469046743784476    0.9514539980057828    0.1742651160730609 H
   0.7633762284129464    0.5016984850541398    0.2664979123480674 H
   0.9705484170419751    0.7126998883406823    0.0422580766992112 H
  -0.0618325290090636    0.8801302885134918    1.0171492006269456 H
   0.7033543043631946    0.7574131601681026    0.1692337071585314 H
   0.7853589591342405    0.8485466019463570    0.1172584744103778 H
   0.8190810619716489    0.8557324001945709    0.3080139179982980 H
   0.2381912149276408    0.3841471520456681    0.3674863196964743 H
   1.1571889438487275    1.1416846714856592    0.4187403078026671 H
   0.1548767457521717    0.2897803178872880    0.3914659343574367 H
   0.2521368859394410    0.1194200895331306    0.5740218409852240 H
   0.1863740902997141    0.4814698341738628    0.5122512093592291 H
   1.0300920020077586    1.1414504933894591    0.3934165196486721 H
   0.3156355967538751    0.0680447977993306    0.4750021090335760 H
   0.5903900352228927    0.2507593084500945    0.3634537992173759 H
   0.4890848799631398    0.1782629738242387    0.4108844828474817 H
  -0.4791793668596132    0.3635073885076176    0.5335259599812564 H
  -0.3811680095874541    0.4494715656438255    0.5465885892219170 H
   0.7683963810475464    0.1885902278666628    0.3457632490679938 H
   0.7706981872435549    0.0808540794635911    0.6400090402508612 H
   0.8546715765330140    0.1136263499678838    0.4815090413377659 H
   0.7675937986918949    0.4603443679177676    0.4155462243882690 H
   0.8622961089117029    0.0296341171936743    0.3901720985493389 H
   0.7944867282650648    0.4848021017501619    0.5396341234376010 H
   0.0839529442744279    0.7377552099815280    0.3507042074549055 H
   0.2085743208393898    0.5339448089008928    0.6279335015507250 H
   0.0189965833856596    0.6282014926214307    0.3637613310112764 H
   0.1556785255254675    0.9284351584755958    0.5644985802165632 H
   0.2502540277330826    0.8551755767213840    0.5884947119303947 H
   0.3238845382052610    0.5867883972978672    0.5092789263690765 H
   0.4443946866533982    0.5350159568594376    0.5225806596131788 H
   0.6041784000929851   -0.0059488021875260    0.6137201842935008 H
   0.4697771562332321   -0.0154788966439594    0.4294181892195270 H
   0.3977742827783148    0.7235536094364156    0.5995634969318288 H
   0.4428850292424178    0.5975085501461384    0.3664245091548744 H
   0.5000714298296529    0.8564167206312445    0.5511008907605532 H
   0.6184434988823345    0.8514521449918027    0.4953872983796407 H
   0.8530824634688240   -0.0146520744991166    0.6346921222795904 H
  -0.0452861701320104    0.7322962583612191    0.6564026084868373 H
   0.9242313892973281    0.8177339684441178    0.3742473000043211 H
   0.7135222202269432    0.6534788497905253    0.4710348702396278 H
   0.8044090539279841    0.7834442238764486    0.6003980013648936 H
   0.7816831319453567    0.7684602950247714    0.4427592487799849 H
   0.2003542723528073    0.2245660547269729    0.7631790630764546 H
   0.0814029796140520    0.2740166627078927    0.7588956406990076 H
   0.1664202877735069    0.2961265442943105   -0.0755474433123210 H
   0.1901125189123387    0.4344754942241972    0.7937584201482056 H
   0.5825744882435585    0.2191183783483329   -0.0482566314668538 H
   0.5679771203589693    0.1497374797282205    0.6710634592241876 H
   0.6546584225163965    0.0393403742912900   -0.0567581158839647 H
   0.4855214143040472    0.3050400564967118   -0.0283995158968116 H
   0.6355192410811755    0.0018096916048395    0.7334051089636651 H
   0.4339041326826777    0.1864357893816219    0.6777237641621641 H
   0.3555167165885530    0.4788617840432195    0.8026587520657946 H
  -0.0638349719864141    0.2081258850474440    0.8027830232254781 H
   0.8016104492538274    0.1359357165992128    0.9403291742580075 H
  -0.0639682006574522    0.1765690855950580    0.6835857448781230 H
   0.9220563911135125    0.1010763988620079    0.9659935283116416 H
   0.7473149503116490    0.4260858470962583    0.7411327301275313 H
   0.9162456948585957    0.4018952497587885    0.6811247040005923 H
   0.7675970090213176    0.4833961658466790   -0.0189213230866942 H
   0.0830843896491419    0.7104673904902415    0.9131861507094046 H
   0.1807014382099695    0.5790856725854486    0.8028648219634977 H
   0.1498638163587725    0.7862465550943096    0.8350998169538176 H
   0.0363658620552565    0.6741697855792268    0.7229254321812372 H
   0.1250166692101582    0.9659556934445440   -0.0202367883687875 H
   0.2764615519745262    0.9539692442242282    0.9780667074327966 H
   0.2566754891606502    0.9960432421748452    0.8533000361631679 H
   0.3594646191960026    0.8755828968157989    0.8643821921121628 H
   0.4397284728376405    0.7679303586663335    0.8845880534556461 H
   0.4531853711948489    0.5377332901016409    0.8690226974421180 H
   0.5374549133735433    0.9195103710315254    0.8447819560405549 H
   0.4053169517567275    0.8017144520114671    0.7055125258253252 H
   0.6582242959225560    0.8850376206183072    0.8465988318561815 H
   0.6954496707423832    0.5017609325464598    0.8374122043555242 H
   0.8278597077777649    0.7940238698669995    0.7207695635186258 H
   0.7388838226655301    0.6135393418204581   -0.0455045758482922 H
   0.9148170982655361    0.5367462727924717    0.6686118566625823 H
  -0.1584987582531509    0.8310109991723811    0.9446314732673051 H
   0.4636526502772556    0.6443771277848815    0.0102585676912283 Cl
   0.3061627172101206    0.0994006377521257    0.7159788316601922 Cl
   0.7612550032469596    0.7345495720424333    0.8393706549100308 Cl
   0.0343190121961679    0.4665778419081012    1.0694846624329160 O
   0.2732536302989872    0.0565442247623158    0.0780462043722555 O
   1.1126456231100703    0.0016688378166066    0.2083972125643728 O
   0.3944788796260099    0.3813812485316603    0.0712399201479672 O
   0.3754833604324506    0.3677833070789748    0.2888093046692271 O
   0.6266442853923815    1.0366948250226171    0.1826078008247280 O
   0.8446633745580400    0.3616608508527657    0.0316266789882837 O
   0.8059885360039062    0.4302134528733555    0.2878237871813569 O
   0.7230264004825681    0.2118493167770255    0.2859990461024593 O
   1.0218254037445484    0.5014573683476818    0.2911405687027843 O
   0.0488438186099826    0.9620440519117203    0.0031327178202347 O
   1.0446428201157201    0.6801239805066848    0.0449365134535553 O
   0.1494512890279676    0.7641037151091674    0.2309414166783574 O
   0.4109462643992670    0.9566145893850070    0.2011776874078204 O
   0.3440133036850002   -0.2646172436882260    0.2024266912152727 O
   0.4662899358979264    0.5779434038717616    0.2894920095211595 O
   0.6589570536132657    0.5975076828198560    0.1959024553318864 O
  -0.1290873252479466    0.8389340247604843    1.0169447037818966 O
   0.7374191098664661    0.8350458010372804    0.1797975422579602 O
   1.0986004318861693    1.1564031984949761    0.3609384880232747 O
   0.1766548179727747    0.3716489803188409    0.4100877316781182 O
   0.2450412553331263    0.0908804580187122    0.4999680277087356 O
   0.6416750477490224    0.0468175941703307    0.6659038465183389 O
   0.5204209054571963    0.2547412034117783    0.4022216818806804 O
  -0.4564879559182788    0.4333375621419212    0.5705666308302251 O
   0.4284281132700676    0.0375790080773524    0.3894768092761727 O
   0.8705627071749134    0.4667365626177479    0.6582556645135109 O
   0.8454739827372478    0.0682732515420680    0.6222052303103751 O
   0.8751534782492398    0.1124559798826527    0.4066411733127176 O
   0.7425596498544138    0.4946211025912036    0.4832299609414849 O
   0.1955684737660575    0.5545091150523899    0.5517891012967754 O
   0.0266338045913916    0.7048497181602859    0.4004228961705775 O
   0.1729974501780709    0.8466558306511117    0.5821498040495897 O
   0.0047619024675893    0.6635762623681604    0.6523449191652713 O
   0.4004332381225882    0.8061967942379932    0.6293311588340015 O
   0.4044068233654187    0.6064073178017418    0.5021797397405718 O
   0.5592522475706820    0.9059020216634533    0.5140413432797339 O
   0.8538529425302493    0.8228329796573044    0.6503439961891007 O
   0.8623924187943812    0.8677283900039914    0.3711452401701950 O
   0.7243875801577531    0.7382088216271303    0.4913941042168978 O
   0.1901317808888744    0.2874593527560604   -0.0016602949645474 O
   0.1546391813748988    0.2921524552691667    0.7854519156075858 O
   0.5261505408941922    0.2636477770039219   -0.0869646594766652 O
   0.4332716977864243    0.4880962069700432    0.8073322915014884 O
   0.5117313462925577    0.2186708379867060    0.6706340158495849 O
   0.6728208612247896    0.1079495259854806   -0.0147429019739167 O
   0.6821364346268363    0.4411859976697532    0.7828013218852213 O
  -0.0344887086684887    0.2370746343691867    0.7347414171934268 O
   0.8771438824912554    0.1576240776124704    0.9315200793943635 O
   0.0967490765782285    0.7234521322613955    0.8358391517013022 O
   0.2569226845261908    0.9306468404952633    0.9047152621664184 O
   0.2158497298933705    0.5144100190463938    0.7669882100786535 O
   0.4212987742048155    0.8291835426957381    0.8392998675405908 O
   0.6081929170359538    0.9520871461918052    0.8442785791912040 O
   0.7041488608952896    0.5376257416426453   -0.0266960571775544 O
