Li1 Co1 H110 Cl3 O55
1.0
  12.9636743637999992    0.0000000000000000    0.0000000000000000
   0.0000000000000000   12.3888391653000003    0.0000000000000000
   0.0000000000000000    0.0000000000000000   12.5829502364000003
Li Co H Cl O
1 1 110 3 55
direct
   0.3735727268360993    0.4248056668166906    0.2704793434177743 Li
   0.7143796520962100    0.1476876935996363    0.6635000505722893 Co
   1.2365086264941683    1.0907437656103252    1.1805743358363681 H
   1.2247604140872534    0.2354602431897308    0.2576890202442444 H
   1.1050335560651088    0.2184328205890039    0.2232384349795901 H
   0.1846208964167811    0.2723087318906450    1.0633204349402205 H
   0.3958519041661397    1.0467444858774204    0.2461988691045094 H
   0.5276255010693607    0.1439730598566381    0.1731683013333927 H
   0.5172912396369614    0.2074987856731733    0.0649299331913871 H
   0.6645558149745662    0.2795305545978601    0.1960460839353813 H
   0.4016033599577324    0.2285144754021387    0.2957659410774843 H
   0.4860230984738429    1.0417722686116950    0.3270320585307596 H
   0.6733488467031561    1.1319663525844481    1.0611349379396486 H
  -0.0411191150858056    0.1052712901748627    0.2706271624876312 H
  -0.0657016517229405    0.2081663219846595    0.1884453227304826 H
   0.8376479443376683    0.1861836328588858    0.0226218106924214 H
   0.7415949299641263    0.3230891150731210    0.2916190598596716 H
   0.2263220364507811    0.6021265578774960    1.1959522874585753 H
   0.0894467223843551    0.6145175493135594    0.0987342471248176 H
   0.2429762653322843    0.6607607842410610    1.0815752953413627 H
   0.4149629982161278    0.4042710552517467    0.0642217526905835 H
   0.3867256335826723    0.5248739608237974    0.0862916961285424 H
   0.5795228243991323    0.4162269776770592    0.3249904069691342 H
  -0.0239593968024475    0.5904111745341942    0.1113958246568593 H
   0.8205000282637538    0.3653569977224249    1.0340586169180155 H
   0.7310925063318120    0.3843111545136204    1.1199923589805099 H
  -0.1590802700088415    0.5430911639845372    0.2561599670700260 H
  -0.1834306193882954    0.5073929041153858    0.1417321124771638 H
   1.2378816939980626    0.9584391987231410    1.1933932691524507 H
   1.1637669042373018    0.7944165673137684    0.2102526091652819 H
   0.0120695859452409    0.7465549402405235    0.0039990159107866 H
   1.0347911252198250    0.9226247052036219    1.2801296846587917 H
   1.2149329534133142    0.8245687062685043    0.3132340225584205 H
   0.3392822943919371    0.9818150772970708    0.0511078170157326 H
   0.5240223559509957    0.7479465153324246    0.0016163950280248 H
   0.6329806620886669    0.7496569257847090    0.0635498911762985 H
   0.6523972250889594    0.6904140871129691    0.2746913921825132 H
   0.7743364188420977    0.6767663193323060    0.1824840816391039 H
   0.8116599419746372    0.9629190373310592    0.0743017416929312 H
   0.9250537189816296    0.9494472343822025    1.2301652495948037 H
   0.8945762487126073    0.8728379582961635    0.0640365814901714 H
   0.7680041092131833    0.7975508399830562    0.1681694736484478 H
   0.2769026034720430    0.2972699083070887    0.5417400522240533 H
   0.1148266409758582    1.2323631680894689    0.6277182989527411 H
   0.3535830238608666    0.2610800769582576    0.4069918438829629 H
   0.3724303038174097    1.1197779628584004    0.5843063812595592 H
   0.6400033624007189    1.0166205981571488    0.5166863093356769 H
   0.4826613972480165    1.0257336392172203    0.5311757570863789 H
  -0.1131966737916311    0.2592792625556872    0.3446972321048383 H
  -0.1753773470620845    0.2657253870823241    0.4493793595275130 H
   1.1709485101144115    0.4025485371275490    0.6240975264674297 H
   0.2068530191862948    0.5287718240017500    0.3459068053538822 H
   0.2926867086769210    0.6178269796365260    0.3506870833387697 H
   0.1090585232415216    1.6083628834661274    0.4570087308749646 H
   1.1343693747016796    0.4103878511023420    0.5036599524860853 H
   0.0275392741194519    1.5366370350517831    0.3968972319188660 H
   0.1400748839365104    0.6393875146015896    0.6427735917450457 H
   0.5346736571272714    0.5317341677298689    0.3505877425660165 H
   0.6203283850106485    0.4406328155417465    0.6648256538439091 H
   0.3887597790926548    0.3336381260221088    0.5510288118395756 H
   0.8807607211874697    0.4382806984780576    0.3781877881416049 H
   0.7387284587031876    0.5791365104485363    0.6167908139498807 H
   0.8466268801496506    0.5352187557065144    0.4432170527120817 H
   0.6775027615955550    0.6222850244350002    0.3745709892872036 H
   0.8098471843150017    0.6606025773280606    0.5743309782227662 H
   0.2576997144597160   -0.0382433665477751    0.6372422975181433 H
   0.1438978741327461    0.7647212911792275    0.6057043837106150 H
   0.2439937237803946    0.7530147867953288    0.4744521758442579 H
   0.1377946662165603   -0.0197880458394072    0.6261145415174122 H
   0.3637822927015908    0.7682454308841231    0.4481181290766373 H
   0.5400733607942712    0.7284370199894729    0.4253977022586899 H
   0.5168785479995551    0.7314615164334132    0.5442219820905212 H
   0.5031193316698019    0.9063681377147080    0.4920291348121317 H
   0.7673569161593815    0.9974662611903203    0.5204318538315665 H
  -0.0181042667004483    0.7162663881822312    0.6162233794559140 H
   0.9278307094389436    0.9224955567032135    0.4417118413233240 H
   0.8915986978333761    0.8971905224044324    0.5617369524161968 H
   0.0158664261480036    1.1617754408349739    0.6790925782636436 H
   0.1032270746970334    0.1520052894039163    0.7893878567099695 H
   0.1624057441445064    0.2302361863482089    0.9463287936841419 H
   0.0872268270682278    0.0574355735195122    0.8719503703083087 H
   0.3228849371277356    0.3018910030873286    0.9774423237104680 H
   0.4117486317617866    0.0648721056086564   -0.1134202913456259 H
   0.5758055141175221    1.0907599091728761   -0.1838942249891643 H
   0.4032356132376426    1.0706369584529842    0.6938196491427714 H
   0.4306884780669070    0.1915166587476273   -0.1263926068148397 H
   0.9386532583600872    0.2308012110374959   -0.0289473354783139 H
   0.7189123176315371    1.0872567560992970    0.9560959784612441 H
  -0.1122571253535732   -0.6932563093849820    0.7813197965100395 H
   0.2670975129990097    0.4864950623930431   -0.2599844885610820 H
   0.1535934277599630    0.4801143192947380   -0.2070660562785026 H
   1.1217263542585190    0.4098857863070042    0.9459711669022302 H
   1.0545463267786623    0.5173236166186682    0.9596960880658227 H
   0.3952378807205781    0.5639777052130942    0.8745093886144331 H
   0.4490736976668026    0.5276546894732169    0.7703780064359025 H
   0.4083182771607656    0.3596066607417385    0.9082773040887268 H
   0.5723797878339298    0.6484787618522171    0.6957850069909222 H
  -0.0371759429136672   -0.6098134632710809    0.8154214969807843 H
   0.6749471589885879    0.4953199408615782    0.7678619033436076 H
  -0.2274281762532465    0.5270824001807820    0.9427604731268442 H
  -0.1646874765739015    0.4933447759834564    0.8403520573109464 H
  -0.1664423802656764    0.6649645679293561    0.8434673839444893 H
   0.1789751205398139    0.9095403477559907   -0.1991036946607820 H
   0.0436811636893054    0.8438279763919149   -0.0627549872617090 H
   0.2057260238923682    0.9264265141843958   -0.0883729062667057 H
   0.3652679825962538    0.8838882268623618   -0.0214672931804650 H
   0.6665027938396386    0.9946007788375076   -0.1915935322406343 H
   0.5528506024428685    0.7683422922594295    0.7132411675791279 H
  -0.3552530470034144   -0.1630791142207129    0.8869389061013230 H
  -0.2556987104949422   -0.1762288530966760    0.8164307992319574 H
  -0.0969258238704850    0.7600453082863139    0.8717198997155210 H
  -0.0931406315999182    0.7538808889261931    0.7000638127549512 H
   0.5962935326025950    0.2690784050241786    0.6173185121347461 Cl
   0.8770812088315285    0.1265347835889868    0.7231784237591837 Cl
   0.3607445736957844    0.7020576316029188    0.9899513138155607 Cl
   1.1779912664686552    0.2087071313301199    0.1999998466909617 O
   1.2826298096727267    1.0213264466407819    1.1752973539877141 O
   0.4581459712136001    1.0867078749725609    0.2658866208118448 O
   0.5646111570295937    0.1878649848985783    0.1175168057108251 O
   0.3455791202538969    0.2740457792211387    0.3243458840355110 O
  -0.0342649626667877    0.1908620372861820    0.2584463942957154 O
   0.8899093619718433    0.2432156106392584    0.0327955773842482 O
   0.7368524473720243    1.1034406775567311    1.0306412943353027 O
   0.0272601865784919    0.6004516632628238    0.0565226043843500 O
   0.1931732556390703    0.6478507772689810    1.1387558441381487 O
   0.2821125461244595    0.5360081759152612    0.3307942922764717 O
   0.4107951983714422    0.4583536041540413    0.1239350143568688 O
   0.6873147945447315    0.3430409440299718    0.2418103911273607 O
   0.7664837069378039    0.4224107693122414    1.0575904591678116 O
  -0.1546903109275707    0.5718888580412395    0.1817863120512850 O
   1.1655565203097933    0.8557096384294925    0.2623945939680216 O
   0.9727485300859992    0.9694329648204105    1.2857404515038966 O
   0.7237288533025008    0.7354465548491415    0.1686916087500390 O
   0.8442972937104594    0.9063842812772590    0.1141201460088451 O
   0.0917797800616180    1.1637288119036517    0.6610729568123812 O
   0.3475114427804445    0.2700260321459256    0.5363152513055424 O
   0.3791089658672502    1.0519104258937586    0.6225915203524900 O
  -0.1614461116012254    0.3021678651850792    0.3823585111448784 O
   0.7069535167816092    1.0298018169800864    0.5548061453827463 O
   1.1586217580288896    0.3563448539282975    0.5584388387607880 O
   0.0970487337612524    1.5405922078767920    0.4222640969229606 O
   0.5188772097425831    0.4529172594649730    0.3564170591111788 O
   0.6160201928706209    0.6502957198173386    0.3343594339290412 O
   0.8902102026047189    0.5142765191871563    0.3817712084963610 O
   0.7786739236591746    0.5949055423484083    0.5525300495974232 O
   0.1926595124044672   -0.0787314214258250    0.6334307907491455 O
   0.1261613903591286    0.6883380249689033    0.5837015946350373 O
   0.2964973566933465    0.7470465117202032    0.4192894368236365 O
   0.5248438822946178    0.9870294480010622    0.4759637450424718 O
   0.4993287396955681    0.7639899877956646    0.4768633750805255 O
   0.8892536836694219    0.9508920832305221    0.5012408059879976 O
  -0.0834389068827962    0.7569441299202559    0.6214288359481857 O
   0.1961523492907778    0.2902240504316800    0.9856597924326191 O
   0.0950216078660370    0.1367512371494230    0.8691052505766549 O
   0.6527520627585051    1.0774414700682546   -0.1912287529230842 O
   0.3983141690382916    0.2998205911901556    0.9626922057720616 O
   0.4466546304239867    0.1177058692298140   -0.1584510662715951 O
   0.1933383322940329    0.4858912931536336   -0.2763939947675592 O
   1.0856640476253430    0.4648949756997294    0.9031990037855794 O
   0.4032734111633117    0.4976438066908028    0.8279940651804388 O
   0.6337944745699073    0.5099726454110447    0.7008688703773438 O
  -0.0919480684757494   -0.6226015863459003    0.7606203583729847 O
  -0.2186505722494196    0.5449137721965516    0.8657038225175827 O
   0.1460592983720223    0.9123331840773234   -0.1323991472985939 O
   0.3383643447685472    0.9580113943155379   -0.0244577683308114 O
   0.5951665373086683    0.7667335862512167   -0.0032708451537018 O
   0.5173807204405860    0.7035024804512383    0.6848821584997046 O
  -0.3234457068598340   -0.1340190872725560    0.8236628074883960 O
  -0.0193794452907222    0.8108063191937287   -0.0307021703608460 O
  -0.1385737382540531    0.7402597580237390    0.8091193183573162 O
