Li1 Co1 H110 Cl3 O55
1.0
  12.6146807105000001    0.0000000000000000    0.0000000000000000
   0.0000000000000000   11.6730235989000004    0.0000000000000000
   0.0000000000000000    0.0000000000000000   12.8721948795000003
Li Co H Cl O
1 1 110 3 55
direct
   0.3639711904462475    0.7070117463206117    0.5294132821631665 Li
   0.6361310713651772    0.5836598154519301    0.7821285362788932 Co
   0.2990373234068546    0.1208020173653107    0.1354330754094143 H
   0.2611520997561122    0.2350012210853837    0.2011172891674367 H
   0.1029174170234342    0.2500538763388656    0.3031643768860950 H
   0.3066039041385057    0.2765371604152493    0.0361697942082497 H
   1.0014023061864163    0.0033994448108320    0.1374793464802438 H
   0.0138526974491353    0.4625181088478884    1.0042421716584609 H
   0.4404630194623268    0.2381657824937476    0.2377474058191756 H
   0.6276885271229473    0.2949299956717660    0.2355830507685564 H
   0.4238323963958723    0.4310789536974967    0.3236309719358301 H
   0.5920839795083451    0.0128817352441719    0.1037326541665804 H
   0.6849717843518461    1.0447965513107740    0.2603869014706988 H
   0.6953636446777984    1.1485571570988182    0.1807058517661561 H
   0.6781353053335372    0.3066476109786425    0.0838235398003788 H
   0.7496456368831214    0.3274991065605529    0.2446778478172278 H
   0.8973885756678264    0.1309673356305100    0.0841586030930321 H
   0.8190179832851664    0.0649267769467561    0.1419230330881194 H
  -0.0597652577978026    0.1702013863560784    0.2647591161960702 H
   0.1845548380278998   -0.0219865228854832    1.1038366861916185 H
   0.2944117604347034   -0.0672752174144497    1.1290926742374294 H
   0.0888111543217644    0.5916500331714240    0.1761083452372385 H
   0.0806832434888999    0.6310151553359420    0.0192986465886733 H
   1.0670242603997298   -0.0772572070003339    0.2079374158685802 H
   0.1814069184799285    0.5503668132826702    0.0365803147177251 H
   0.0567134731126812    0.8094522142823730    1.0471563758925608 H
   0.0904995838974945    0.7404992139581169    0.2839974824823347 H
   0.3649676484849783   -0.1296506588612239    0.2661116438856351 H
   0.3539955118787150    0.5695306570035962    0.0337537416009722 H
   0.4912482921697647   -0.0669890876065468    0.1024039763334598 H
   0.4091177948724666   -0.2173417348988377    0.1885265848223596 H
   0.5202755825470166    0.6408703568632343    0.1396763299989627 H
   0.4521501959659132    0.6077264163304269    0.2264160049690926 H
   0.6226792842058909    0.8253195684799139    1.0809501464244826 H
   0.6504873602127624    0.7711519404748113    1.1876219310621414 H
   0.8464400011656561    0.5331493375963418    0.2915051376184380 H
  -0.0053989986954890    0.6271926667046156    0.2586948823392384 H
   0.8328843667485545    0.5974625803169976    0.1837705971626717 H
   0.7709145065562695    0.7077716179960906    0.0840893841285632 H
   0.8994813753673088    0.6998233774041034    0.0593218131754746 H
  -0.2614818179230205    0.6807254977406880    0.3099138085730222 H
   0.1716254580663253    0.4045297055636025    0.3608926825057862 H
   0.1982824942384815    0.2158776411398214    0.3748296995941235 H
   0.2624783322929432    0.1452515524477974    0.5579251252043631 H
   0.2435828877335262    0.0364290447883676    0.4817834874203592 H
   0.0872403654564143    0.1086012367540713    0.5086141874861287 H
   0.4920362629657062    0.2682676662964251    0.3551477415153594 H
   0.3633496923536739    0.4465188265353264    0.5920490647587232 H
   0.4881764744290473    1.2886236947998191    0.5269746926068515 H
   0.5220306804768097    1.1602507854756907    0.4920109584330660 H
   0.3800326354126155    0.3189571894509707    0.6538217466862117 H
   0.5993691420985887    1.0005834992572653    0.4761061339709963 H
   0.6322768319186306    1.0090131918014724    0.6353788935269514 H
   0.6694050011326285    0.2981785113351434    0.5104639108800715 H
  -0.0088210432950062    0.0137365266283802    0.4972035460706606 H
   0.8908644311501219    0.3251261138423158    0.3392561238141873 H
   0.8111018098764425    1.2257179708647457    0.6197964694044391 H
  -0.0140386149094201    0.1623970673441144    0.3764681148137056 H
   0.7982794480813189    0.3788302800927014    0.4067535481566122 H
   0.8989581754424382    1.1352444109466864    0.6063263501572440 H
   0.7193032121492632    0.4070997337782997    0.5592388094795236 H
   0.3274779956865242    0.5061888849480958    0.3420645026756332 H
   0.1396658699283216    0.5347084880465913    0.3518965477297022 H
   0.1593334307405021    0.8333243496926244    0.3415960510979149 H
   0.2501577667893999    0.5293773928532377    0.5018841775064038 H
   0.2204653783258353    0.5598116669716827    0.6256742548721292 H
   1.0094484868491986    0.8395635215218377    0.4242260928240478 H
   0.4776197268540449    0.9602511898079497    0.4608709699732603 H
   0.4656479613004153    0.5753440608252414    0.4243900120328348 H
   0.5639239326429244    0.6551862706951697    0.4587540038882146 H
  -0.0757101718718131    0.6884835562447874    0.6297279535993837 H
  -0.3143654394200531    0.7943036113088758    0.3545549910115467 H
  -0.0355199354611521    0.7988508478967468    0.5784173569076052 H
   0.8906107584592756    0.8797639028561323    0.4381817547512993 H
   1.0548400439675163    0.4980530322964358    0.7424973774302622 H
   0.3245789924664459    0.4586699199344150   -0.0314018754364680 H
   0.3243134288682161    0.1596676973801059    0.7164614136232088 H
   1.0555138620525768    0.1475328808263770    0.8132413343486159 H
   0.2491533814790801    0.2647373042055026    0.7282457286852483 H
   0.1132588599020807    0.3378374733922084    0.8171878252521138 H
   0.2006868357114095    0.3009335815812988    0.8937559637262792 H
   0.5339493333107933    0.0223199925274333   -0.0577997044921138 H
   0.5927942630427150    0.0552587591411007   -0.1769588699925338 H
   0.3807833480320889    0.2949514125735552   -0.0600658292884727 H
   0.4428007718539076    0.0113591648621780    0.7871160306884319 H
   0.5201122807522842    0.3978793292200375    0.8199612450405956 H
   0.4936407427353093    0.4480993938873651    0.7067132703442535 H
   0.5702617862782885    0.3010997767391826   -0.0595453275354523 H
   0.5135191689717559    0.2117056286712961   -0.1311399552292647 H
   0.9215112631129958    0.2721895293520531   -0.0140511437166049 H
   0.7474402699270760    0.2768755474635178   -0.0142236861633897 H
   0.9085026104355318    0.1649353985441637   -0.0858485340336088 H
   0.9364462427865743    0.1464440455394169    0.7630331137576374 H
   0.9396409332369204    0.4570919226105908    0.7246806801112026 H
   0.7114076496466707    0.4752388918345682    0.9287771861533834 H
  -0.0339934600439842    0.4348431883559566    0.9019596928485113 H
   0.7378054640378684    1.0635063567137701    0.6823328128591203 H
   0.2557116132646170    0.7748459276954027    0.8589134210054359 H
   0.1842163435310518    0.6400710780884635    0.7560622746086043 H
   1.2445713621774033   -0.0725814690017280    0.9583836366124991 H
   1.1492776304066565   -0.0663114568339383    0.8646855523859457 H
   0.2876989468531820    0.6328090350298006    0.8744973988645244 H
   0.3234739308069465   -0.0295556843158024    0.7933232083102724 H
   0.0863813663070359    0.6690490028852468    0.6777982326615380 H
   0.0160219160467351    0.8085441376465132    0.9370042213242582 H
   0.0194067817425001    0.8442915167608090    0.7578102282568072 H
   0.3551132571727567    0.7373509293951128    0.7341157454700575 H
   0.5277716105615259    0.7561712460113409    0.7026230588074589 H
   0.6479942332980382    0.7937964590745088    0.7245532737119559 H
   0.3976105674339493    0.8609590064091924    0.6809997068767575 H
  -0.0108439244590740    0.9749774514781651    0.8146863093644635 H
   0.7625528204842469    0.5898775703793544    0.9706193121499190 H
   0.3097985945888519    0.8695326205334225    0.4064769830460521 Cl
   0.7386473402806146    0.9563447469216098    0.4013069245888121 Cl
   0.7780268546258738    0.5518085991111155    0.6696822896558603 Cl
   0.3150321792918755    0.2001036646340811    0.1560767964288339 O
   0.1825769837664573    0.2614442413864038    0.3144320745365545 O
   0.4824355443443310    0.2921046779877421    0.2822860416436721 O
   0.6946129320583250    0.2915504085694391    0.1992209536762087 O
   0.6856622497072435    1.0661192187320456    0.1867949454082067 O
   0.8937341034653213    0.0920379189159903    0.1529833069056590 O
   0.6824112756286159    0.3176276281879007    0.0067899018479897 O
  -0.0244474395965727    0.2150380985896869    0.3191243589966191 O
   0.2574698821030457   -0.0191408163109561    1.0817736268098581 O
   0.0696996916115485    0.6125914797408488    0.2527883527448890 O
   0.1056423373594193    0.5607274536921865    0.0566681087901875 O
   1.0577097162827154   -0.0564279849962841    0.1346367854141219 O
   0.0865819262782362    0.8220856163097532    0.3166702320745423 O
   0.3992602326516094    0.5075895503251058    0.3205133994957243 O
   0.5507123418127833   -0.0374209129964547    0.0574520465796992 O
   0.3924546699924973   -0.1326464550834894    0.1924109262628104 O
   0.4475817093492023    0.6363830876003730    0.1510574504194835 O
   0.6491421022241178    0.7556272567058967    1.1113023904401649 O
  -0.3317071387480362    0.7139653859935108    0.3255521672122770 O
   0.8532178183742068    0.6078549177411617    0.2595820659242374 O
   0.8329953485507998    0.6556917095773935    0.0675804668856746 O
   0.2178446223385291    0.1111968795833083    0.5025142176880449 O
   0.0066591741184601    0.0979166014542889    0.5013302704169955 O
   0.1953169019370559    0.4839384373413185    0.3858348157632086 O
   0.4164925356316651    0.3861188801095828    0.6129973181470741 O
   0.5368134565358803    1.2455328884000616    0.4779325513162963 O
   0.8258750732096065    0.3774501749414089    0.3347091137239956 O
   0.8417232745702319    1.1586059674182845    0.6553933512330181 O
   0.7408392308749588    0.3276661583945082    0.5348101861605288 O
   0.2820341185757196    0.5644634180402848    0.5684509136396967 O
   0.5256478945028468    0.9992899183892011    0.5127199363886853 O
   0.4916906339244281    0.6251340741046431    0.4767703563573134 O
  -0.0251976765797508    0.7495868337252864    0.6376170510649392 O
   0.9597999848876159    0.8712348358876236    0.4754263742189174 O
   0.2971656945847040    0.2248359028201844    0.6782185184053948 O
   1.0037646331199228    0.4331212694521095    0.7604352662022639 O
   0.1617131976715044    0.2750825244457307    0.8317929490682087 O
   0.3108442017114342    0.3143439888055892   -0.0298866715273769 O
   0.3752057197421049    0.0026184132363855    0.7389649573243162 O
   0.5319603808691262    0.0615160925030313   -0.1316099605435592 O
   0.5262448180534945    0.4668974369257325    0.7744196722561746 O
   0.5079724570409688    0.2959066063933510   -0.1030732577171436 O
   0.8810583961945930    0.2002630063833923   -0.0215407755084244 O
   0.9856508175391760    0.1097359042108601    0.8100717117332080 O
   0.6682737794768856    1.0275687955115866    0.7018865876703494 O
  -0.0338598855177104    0.4058044395580923    0.9739132336914212 O
   0.0288556931129470    0.7537674129545273    0.9956733144408264 O
   0.2995977815081933    0.5417889157780823   -0.0153170505920478 O
   1.2241110742063279   -0.0857571469824093    0.8807978006809355 O
   0.2745682141932482    0.6993522055647422    0.8274269492891420 O
   0.1358893177433466    0.6103058679819114    0.6985476077681380 O
   0.0070583122429637    0.8881421948360454    0.8224316861967224 O
   0.5922639285734144    0.7434136259535836    0.7458728701420139 O
   0.3949818841750541    0.7765738433317509    0.6697211330702647 O
   0.7131706748480527    0.5607574373546913    0.9170076315888176 O
