Li1 Co1 H90 C51 N3 Cl6 O45
1.0
  13.5083546784999999    0.0000000000000000    0.0000000000000000
   0.0000000000000000   12.7889005038000008    0.0000000000000000
   0.0000000000000000    0.0000000000000000   13.4969326732999999
Li Co H C N Cl O
1 1 90 51 3 6 45
direct
   0.7027840965939293    0.5574188531517473    0.6705038882280604 Li
   0.3360229241259480    0.3884897885024391    0.8145773638146105 Co
   0.2778026583187631    0.2601871248362038    1.0711919653567530 H
   0.1541813854291892    0.0670626260361602    1.0620009881915931 H
   0.2468758719008046    0.2752494048142803    0.2883037154284476 H
   0.0008459090297790    0.2420205905097410    0.3271881058824515 H
   0.1188625023116652    0.1495513434741091    0.3105376560773215 H
   0.1018108327721756    0.2532334387102091    1.0376969475669466 H
   0.5893690999890191    0.2030485146966634    0.0710988088796159 H
   0.5412588737277579    0.0761024961927580    0.2146469799268595 H
   0.7413839122198763    0.3109545852451016    0.2174039026218664 H
   0.8457615387745092    0.0864520958288386    0.1859115620813489 H
   0.1322630980398861    0.5952461863033546    0.2231600252817718 H
   0.0761955740500510    0.4186378063000158    0.1750098258453020 H
   0.0192100996291589    0.6231886196574822    0.1548096806271708 H
   0.4416571804037415    0.5404363142747370    0.2712605838097316 H
   0.4414395373176683    0.4227218164918601    0.2101170617980577 H
   0.4375745958616155    0.6251575144809673    0.1193134674062404 H
   0.6531881231430461    0.4450552453831970    1.0056504070329153 H
   0.6650933480077709    0.5590323616776655    0.3300020785767906 H
   0.8855828206998466    0.4543456452861985    1.0017524843512624 H
   0.0628682662997935    0.7910990666393740    0.2136208208479602 H
   0.6005680952479145   -0.0307370244989551    0.2680279974839281 H
   0.3738158317116917    0.8062911466733276    0.0921339586334291 H
   0.3908164217513886   -0.0096711009725386    0.3001893789257063 H
   0.8721059758632396    0.8010655215322029    0.1997732301009358 H
   0.7182930171831585   -0.1177757812450298    0.1584075351305176 H
   0.1999834105259054    0.0744401171638741    0.3813307779760606 H
   0.1702758695595202    0.1966093372258924    0.5918163800580777 H
   0.0778575084998276    0.1027349654889885    0.4331941914599814 H
   0.2827048097336498    0.2690017997151353    0.5438152515289542 H
   0.2760163563912303    0.1394957487838705    0.5187083618227950 H
   0.0508268294356216    0.2683793849893631    0.5017525907939657 H
   0.2807038258504666    0.3534281348546713    0.4070736640384127 H
   0.1156015574335958    0.3820357543987666    0.4694001214907876 H
   0.3245196727161135    0.2210711742623949    0.3865097324609027 H
   0.5939825411876862    0.2155249586218147    0.5786319029396562 H
   0.6158319822946600    0.0940117761916089    0.5127298923473100 H
   0.4968615274725147    0.0134473836784405    0.6105665662022696 H
   0.4762346704916658    0.1301782941704271    0.6925170379704275 H
   0.8021418667993705    0.1209624902031525    0.5738863802679232 H
   0.7669599359638992    0.1935418334957365    0.4757753477798108 H
   0.8306175775098856    0.2836590409646315    0.6305622205137031 H
  -0.0380907351817576    0.3655143966841438    0.3898356733310682 H
   0.1005242216034845    0.4493230086661924    0.3175044241776036 H
   0.2525360727039190    0.5404695462167538    0.4753956318751640 H
   0.5502273974957060    0.5839208186568580    0.3786627643709223 H
   0.4839745472189483    0.3018005535935758    0.3672898099585721 H
   0.4697507572331989    0.5942549361175992    0.6317654568632574 H
   0.7289086697487693    0.3795546967042001    0.5295235598780366 H
   0.8650866161960762    0.6254515194268095    0.3976159596036473 H
   0.2212287810266352    0.7085149539796359    0.5586947804457193 H
   0.3909770630768236    0.8687836181537750    0.4583324957112276 H
   0.6713746459170601   -0.0543277936905956    0.5855779255856355 H
   0.7040514604148725    0.7735541651106359    0.4682521569587683 H
   1.0297469358973494    0.7816424288334840    0.3900520187830816 H
   0.8262713783318730    0.9008176464018069    0.5119060755387698 H
   0.9413335037344459    0.6637589563995525    0.4924431570847376 H
   0.9061537937467918    0.9456815500524388    0.4189111684453259 H
   0.2582673406371798    0.0532397020132958    0.9692702892768752 H
   0.1468155735025624    0.2162490239937556    0.7875823414032765 H
   0.1394416184672730    0.0778587065873362    0.7823063278286613 H
   0.0109996252494386    0.0552711510805772    0.8811154448540580 H
   0.2456788349274020    0.1578866964599522    0.8250189955105879 H
   0.1276281886456539    0.3079949875854941    0.9209141171155434 H
   0.3153727408401938    0.2197653544231493    0.9559983848867496 H
  -0.0054383500099331    0.1915956145856273    0.8748191994732012 H
  -0.0060468623118112    0.1229149645376413    0.9972247889497071 H
   0.6242874902168641    0.2161231335781158    0.7592047826444869 H
   0.5031684391599609    0.0044888340387778    0.7403819874102356 H
   0.6405892534767886    0.1024229761980549    0.8249797273292293 H
   0.6370662485563044    0.0294612700902667   -0.0368316398572103 H
   0.7440963076871286    0.1518494300055718    0.7636139325928840 H
   0.2339919934313561    0.4314442238611921    0.9690843210972335 H
   0.0809452272481653    0.5474954043015283    0.7105989241224409 H
   0.4136356330718179    0.4727817884034229    0.6564703293013943 H
   0.6898994778418750    0.6264774090250672    0.9968447025905192 H
   0.9996951635193179    0.3895414817262627    0.7132832377273884 H
   0.9396375162848076    0.6132276382609854    0.8757520040077386 H
   0.8563179687316648    0.5811726543412816    0.7725722643062212 H
   0.1460856548533510    0.8242723640525442   -0.0074412583830015 H
   0.0926661217440731    0.6992608355380363   -0.0402976125439187 H
  -0.0013371843744042    0.8399077972894035   -0.1086657390164934 H
   0.2573012718367528    0.7171794986734565    0.6832230744428366 H
   0.1417031818276595   -0.0142954234451724    0.9451707395589265 H
   0.6797502033178496   -0.0755188257046044    0.7236211421518524 H
   0.5415252274092855   -0.0561137173509770   -0.0074019902016429 H
   0.4175443252298670    0.7304879140410974    0.7441139464574675 H
   0.7699499374082858   -0.0004334030199354    0.6565681293002498 H
   1.0070143376417862    0.9149533416436524    0.6784412472260738 H
   0.6950511044948797    0.8198067729735432    0.9639468575209966 H
   0.7999143564388459    0.7024597031801642    0.9714937574326709 H
   0.1745302736944271    0.0534985201970025    0.9832327209316465 C
   0.6225085911153884    0.3460178027489644    0.2796380428025944 C
   0.6340185050686741   -0.0061461693346230    0.1109982447762856 C
   0.7184803086823984    0.0795531446661656    0.1277613127619157 C
   0.1236417668140072    0.5259840085471977    0.0764437269988793 C
   0.1030730146148790    0.6121696896127822    0.1504012715878560 C
   0.4924199872977151    0.4848664863768005    0.2329755888032581 C
   0.5448379920697535    0.5334831676790951    0.1409887626071070 C
   0.2625254461851151    0.7100240751112191    0.1035595175906181 C
   0.1466830629161437    0.7199389227529162    0.1155755810863507 C
   0.0982833861560574    0.7636400993969863    0.0213704730979796 C
  -0.0054679613141607    0.7927794300133494    0.0299768729972538 C
   0.5640372214483530   -0.0030067282241014    0.1974927119458079 C
   0.4729407830376431   -0.0738384623306291    0.1824744848488478 C
   0.7928653854674548    0.8059658646055875    0.3322433285505600 C
   0.0239975072401635    0.3218609176509684    0.3560857828169722 C
   0.2618458667530906    0.2750320288170885    0.3709402690067577 C
   0.1425500651285701    0.1308843751972767    0.3868631460931302 C
   0.2271547432851928    0.2056460796703004    0.5320947366661263 C
   0.0940349042819960    0.3080622333975750    0.4397736863829778 C
   0.6430418097494434    0.1461820155176364    0.5720112875625957 C
   0.5189591187117423    0.0580227558795624    0.6778774154144909 C
   0.7511460189411253    0.1829912783514605    0.5543964704960250 C
   0.3035400636708267    0.5831604718235153    0.6163775161342606 C
   0.5523487513305746    0.4341559503297572    0.3132538287728053 C
   0.6049757378821996    0.5236041792576542    0.3728673735296582 C
   0.6417655625372318    0.4870755894964632    0.4714874105572678 C
   0.2859798199812273    0.7004235625445979    0.6093848162161004 C
   0.3654299103544226    0.7769422593402474    0.5757601393369025 C
   0.6916820783563793   -0.0184068011186774    0.6581603429179788 C
   0.8929871273219693    0.8814015910555152    0.4686950724081300 C
   0.8835463032515902    0.7879729183056592    0.4010026550185562 C
   0.9829714391741494    0.8861643147925480    0.5376516288738180 C
   0.8727107867520891    0.6850477294194930    0.4576197411741148 C
   0.7938373765287273    0.6796735379493523    0.5349502002690708 C
   0.1697110339313778    0.1457902695658627    0.8236920273442999 C
   0.0219335993354966    0.1280053161265567    0.9182127626017044 C
   0.1480311175411073    0.2483237125002552    0.9724324892398661 C
   0.2555845564741551    0.2648826027611558    0.9902780253946456 C
   0.4985686413697166    0.1081529449297865    0.0075880823501922 C
   0.5788807760315871    0.0194768308523464    0.0179734049559193 C
   0.6624312917577055    0.1413614291050921    0.7574495690286656 C
   0.2145632764449923    0.5397819186918241    0.6791799335810650 C
   0.4013580460564304    0.5602986941505147    0.6671179337222336 C
   0.4075801213572643    0.5867553860216779    0.7775007915212669 C
   0.7239828292905006    0.4635480000910569    0.8768329903587235 C
   0.8854910256567409    0.5584277749113753    0.8429897453002656 C
   0.7991059678334311    0.5430082320084176    0.9203554716675361 C
   0.9457085739340805    0.4639787642523984    0.8272083818486006 C
   0.7445782316634336    0.6489226536271898    0.9379068669166671 C
   0.6983875581987296    0.7189982633118309    0.8580064905790612 C
   0.1783138580921145    0.2300696022324777    0.4355591732504845 N
   0.6311543516672551    0.0803241257209538    0.6664259246394235 N
   0.1297372537892680    0.1416577798350765    0.9242163488950772 N
   0.9865729140508368    1.1523310582892674    1.1768663459381650 Cl
   0.1441387116003833    0.5732907414301562    0.3982627732324409 Cl
   0.4133994829206024    0.0525531691876325    0.4274744474360140 Cl
   0.3815125499630625    0.2632796502638782    0.7093060377739360 Cl
   0.9685218629936642    1.2702974150962290    0.6565696111184142 Cl
   0.0844785961251291    0.8729129801723714    0.7899554731936843 Cl
   0.5178559495727413    0.2020609395727309    0.0489952682292158 O
   0.5985937615385362    0.2519760984099056    0.2760446337537411 O
   0.7163616198649103    0.3731217746578087    0.2468728204587924 O
   0.7088640376344705    0.1735932851491296    0.1046316130326162 O
   0.7883459601597105    0.0357440619515472    0.1853188348155587 O
   0.1053405002361110    0.4250582174976479    0.0995749085463433 O
   0.1669853133772231    0.5434992828222178   -0.0046072811434419 O
   0.5135504659380417    0.6291257993217887    0.1085688038956279 O
   0.6141419171058672    0.4882335467419355    0.1030512539602030 O
   0.3105690470118641    0.6306505590143209    0.1223089628257277 O
   0.8391352691709678    0.5139861124063677    1.0159579341850076 O
   0.1332994936878537    0.7917574500553289    0.1951410665187852 O
   0.3008076805732208    0.8012453649831169    0.0694110179902782 O
   0.3949175873869175   -0.0595049392927782    0.2370646660281285 O
   0.4718829191941105   -0.1441783636953092    0.1183643628718937 O
   0.9696581967934000    0.7759101143176101    0.3418840375286382 O
   0.7122160372730399    0.8362843427175087    0.3680803599493198 O
  -0.0571152578654141    0.7740976051036154    0.1038677357688291 O
   0.6845761056243501   -0.1030505122554052    0.0924273586299953 O
   0.8059543222186799    0.8063771587585474    0.2342232796977465 O
   0.7599287317750449    0.2813969231233515    0.6040161890062052 O
   0.0736341962343597    0.3866405286702141    0.2809620473325533 O
   0.3137604053249985    0.5324263684651217    0.5210508940681061 O
   0.4792290396034259    0.3796837148320297    0.3703882917404906 O
   0.6210472732517541    0.5196270195334944    0.5553719513936993 O
   0.7071406597284216    0.4066594505410918    0.4656412674438706 O
   0.8058728911320537    0.6181459656794612    0.6051416299021245 O
   1.0718978871827969    0.8636174195442566    0.5209510195238206 O
   0.3539503479879701    0.8029272922131873    0.4783648250222320 O
   0.4337532570510378    0.7953003660383361    0.6311742114156316 O
   0.7121871662514180    0.7401767844770806    0.5382689543211385 O
   0.9473386762318124    0.9164608989191407    0.6305192477869334 O
   0.4162147776700458    0.0888565245747549   -0.0261284672552031 O
   0.2231461129753753    0.4595212270322863    0.7337078783974377 O
   0.1319736475410609    0.5890173474773484    0.6705624200455572 O
   0.2726599150570267    0.3691675645218417    0.9447810213816694 O
   0.4138310676797203    0.5170264832332772    0.8387732317132502 O
   0.6718247377413203    0.4072349495840168    0.9403340850700782 O
   0.9989422961093299    0.4626511286206289    0.7471264827858463 O
   0.7146286182849874    0.4568722893859316    0.7832939596352843 O
   0.9389135198964416    0.3859891826066862    0.8791846357857463 O
   0.4162747405611067    0.6878986390805046    0.8058924275526193 O
  -0.0525225445797063    0.8356947689697297   -0.0521884624047530 O
   0.6753122090967313    0.6848835245295279    0.7780001642426952 O
   0.6729144337368977    0.8108708992472567    0.8965567310369759 O
