Li1 Co1 H90 C51 N3 Cl6 O45
1.0
  13.9272066589999994    0.0000000000000000    0.0000000000000000
   0.0000000000000000   13.5919814954000007    0.0000000000000000
   0.0000000000000000    0.0000000000000000   14.0477834212000001
Li Co H C N Cl O
1 1 90 51 3 6 45
direct
   0.8154713365124627    0.4532792551097192    0.3711326943389508 Li
   0.5704430919007016    0.5630138806685298    0.4744114790766547 Co
   0.3790887833697937    0.1017544239718153    0.0753408334159519 H
   0.4764188534398052    0.1986358095479842    0.0717829767419535 H
   0.6085590625326845    1.0074089824455752    0.2021793492568940 H
   0.6319183770000810    1.0250664520412498    0.0343642620423289 H
   0.6922125925280276    1.1075003488486577    0.1787464709066182 H
   0.9314105940775500    0.2321842660518665    0.1193029291774799 H
   0.7747294983324912    0.3602068064437073    0.0987253055529760 H
   0.7160335932586811    1.1260583493937120    0.3636589173841071 H
   0.2967348678946604    0.3341164236602982   -0.0290115726574311 H
   1.1585121283221134    0.5368726590872430    0.0883300712571780 H
   1.0487399365659116    0.3876288567257903    0.1060467453072923 H
   1.0458499098013565    0.4684750821545030    0.2078314865101047 H
   0.2473136151730884    0.4207589783458351    0.3052831597708146 H
   0.3341321732375394    0.3132430874145111    0.2394023035352802 H
   0.3396889228352765    0.4939697902011021    0.0067627545037909 H
   0.4143937811370420    0.3988746048201157    0.2028484939694907 H
   0.4157070380196187    0.6821451493910485    0.2262934738730794 H
   0.8209268454210564    0.4658362983971724    0.0435877812350053 H
   0.8548058573114335    0.5426444444613292    0.1875030125126314 H
   0.1360522518616847    0.8096033864837276    0.1941567312665055 H
   0.0758750734424641   -0.0730199458140737    0.3045100840709422 H
   0.2215898639017962    0.8225610262553535    0.3390094769978443 H
   0.2505676776071166    0.6871046911637336    0.3541001139790551 H
   0.3260271739534902    0.7134834792838721    1.0378264864617772 H
   0.4847223131953384    0.7394274522152172    1.0717934110429108 H
   0.4686826287511040    0.8729856093253021    0.2869606961989771 H
   0.5473505933204377    0.6045265916879612    0.9937134772118764 H
   0.6597186394274213    0.6632818217675690    0.9947492278042468 H
   0.8548058573114335    0.9763671508963788    0.2111743626487794 H
  -0.0510276173320622   -0.2702163590748704    1.0146762149741622 H
   0.8612838253784686    0.8442694136674362    0.2913101368308558 H
   0.2167805721579478    0.1143692145421253    0.4097288189903148 H
   0.1149676218141914    0.1701035458650732    0.3660215677044353 H
   0.2486103576170105    0.2407290098803735    0.5280642139887378 H
   0.1577988954935059    0.3075058812517165    0.5868528481268240 H
   0.1777045382248751    0.0614777358240811    0.5840055661891171 H
   0.6516840060124220    0.1200894989632241    0.6642550949723350 H
   0.4417452816444202    1.0155306827316857    0.4361294253265648 H
   0.5751828075964792    0.2175653526824474    0.6144643216504433 H
   0.7723234164224231    1.0301540104685036    0.4330328513906118 H
  -0.0286433727643590    0.0508383746647872    0.4959987281754947 H
   0.6858351471310640    0.2672063855390878    0.5446031221590741 H
   0.7822076669667374    0.1867089245640057    0.5982667484691389 H
   0.0368823297217363    0.3378458283844847    0.4559630881647551 H
   0.0627913299135888    0.5871155909387260    0.5582889111718704 H
   0.1915091729019772    0.8193105803939499    0.5145143894866926 H
   0.6726659593326281    0.9806593874639274    0.5437187833543305 H
   0.4642594876641444    0.8653303605276772    0.4462423375021331 H
   0.3695613883042331    0.7855325767853237    0.5046760402001121 H
  -0.1377851437753983    0.7105376247729938    0.4488819710221117 H
  -0.1324603143378976    0.7934556305384830    0.5507891514702078 H
  -0.2745275679117788    0.8156871204873374    0.6279390453363406 H
  -0.0509436091006453    0.7327698504497480    0.6876673294963712 H
   0.0128351529834221    0.6387048312740892    0.4549827911608008 H
   0.1007802829717456    0.1217816731328096    0.8746121250743532 H
   0.2114076354426271    0.0121574803317621    0.9348757250044611 H
   0.0677815624635659    0.0456014634738700    1.0306082658386593 H
   0.6657069184873937    0.1413189275125240    0.8735429172463529 H
   0.6215365392389128    0.2805951618600083    0.9300301206867527 H
   0.3984408333966979    0.2490007986580473   -0.0501088512183134 H
   0.5696124156363752    0.1844053605096700    0.7405219313746633 H
   0.7825106710150957    0.1563586772406400    0.9110093263031520 H
   0.7937964947878354    0.1492257952518872    0.7396990257493848 H
   0.8252127012614612    0.2704781675095864    0.7873150787553373 H
  -0.0434855450004133   -0.0077483737257620    0.9890970905510360 H
   0.7909667816253232    0.3258107913992327    0.6011440707333049 H
   0.6017242389868956    0.3477913981342485    0.7807097662147149 H
   0.4204847369243019    0.7101197313258961    0.8025146297163643 H
   0.4412728250950843    0.6111290138609439    0.8742184686636447 H
   0.5081113536523132    0.6228057513589838    0.7647734442137543 H
   0.6083285784105920    0.3853378000457515    0.6611314705054473 H
   0.7093179608788343    0.4116988571235044    0.7387785958415257 H
   0.8628792637563174    0.4278903153059982   -0.1069733383796454 H
   0.6342397326596603    0.5856066130161957    0.9019082463557592 H
  -0.1593264339526449    0.5317084378128279    0.7125744617825913 H
   0.0895368223242504    0.0542352303782552    0.7670613496459733 H
  -0.0122179684746789    0.0857302703137404    0.8432520174480378 H
   0.2074800711191199   -0.0700284761734064    0.8175219795365390 H
   0.0745122732439236   -0.1423218353375982    0.7817490760874715 H
   0.0803555124513644   -0.2371593688080677    0.9397540747017222 H
   0.1988990251903751   -0.1219017074781001    0.9345831521567195 H
  -0.0107381311674123   -0.2728576222352234    0.8542359567197055 H
   0.5978131891020431    0.7967435985227777    0.7635098996766700 H
   0.4775416198625965    0.8540854953068316    0.8856765040827479 H
   0.5794352755500388    0.8441443399244667    0.9567119101735088 H
   0.4323356417066576    0.8572410322691587    1.0519226605030969 H
   0.6664299636928365    0.6907428656283424    0.7719582076012423 H
  -0.0423747694961234   -0.0934415451293714    0.8200148995190006 H
   0.6851422587266428    0.7909821133392889    0.8590623409233288 H
   0.0557518709322973   -0.0850101033974367    1.0393712141493676 H
   0.2949290499287335    0.2148100516976223    0.1097633458865131 C
   0.3735191094287618    0.2859770114471900    0.1003554559698340 C
   0.3725289611285577    0.3172211681688367   -0.0088397069969486 C
   0.6855766602651661    1.0273082149520008    0.1934064349611045 C
   0.8870987650718970    0.3294828093472332   -0.0052313085414669 C
   0.9160780148153612    0.3229179092971413    0.2299502785418128 C
   0.2754793493080456    0.4342912216072204    0.1673347061325351 C
   1.0122473352536758    0.5522553315894650    0.0989509639294581 C
   1.0076613474412006    0.4493759243100154    0.1456323499060068 C
   0.3532566112186388    0.3625920362949231    0.1776651615253050 C
   0.8417415002975006    0.3968254554735376    0.0780138529859527 C
   0.9065944189131890    0.4143875011606058    0.1636366138113223 C
   0.2671532001498392    0.7595091452407982    0.2093897394631624 C
   0.2693302339759587    0.7597600284546366    0.3182467707932604 C
   0.3739484848337814    0.7832871352350738    0.3493043395867527 C
   0.4411543519482143    0.6934863949667704    0.3516513290733819 C
   0.7353332278933336    0.9789679490222417    0.1126378207263701 C
   0.7426835891327748    0.9894402999482765    0.2847090954266968 C
   0.7225022270777809    0.8820431554999835    0.2986863895031189 C
   0.1379808510889133    0.1174085064962808    0.4208273670904166 C
   0.1101971031002277    0.1674497753304232    0.5129231669194180 C
   0.1743470810444876    0.2617642062641209    0.5212080433664994 C
   0.0954382210765183    0.0177306191728970    0.4050974833518527 C
   0.0003473652842563    0.1911865645623089    0.5148131341266240 C
   0.6139406154768684    0.1873129571697577    0.6788602461088746 C
   0.6184497752486463    1.0229939065474576    0.4172517140144875 C
   0.7155151834887410    1.0467203955887456    0.3831196388234362 C
   0.7448828815501244    0.2615383377988762    0.5982646129009073 C
   0.1744504757908468    0.3357703399790931    0.4407543542603317 C
  -0.0805805643140059    0.6483222663805334    0.5800386058275344 C
  -0.1232718242742922    0.5433132946950554    0.5661112840477339 C
   0.0798837739211004    0.7453897911153567    0.5564643528603207 C
   0.3847431835613147    0.8405098440993570    0.4502893816724042 C
   0.3308228233349718    0.9376251911476686    0.4651516552240395 C
  -0.2605692771532816    0.7052801132008816    0.5385881518632990 C
  -0.1487536031183408    0.7170650027001949    0.5275241999685507 C
   0.0206055553799476    0.6484598474977997    0.5333278201949960 C
   0.0620833631086568    0.0556779927898017    0.8432819154032816 C
   0.7241321303710828    0.1920267658239031    0.8697223856798564 C
   0.7665282844928022    0.2179817746737454    0.7718215312344141 C
   0.4785920099629363    0.6615506540192931    0.8282332779306274 C
   0.6504224465030249    0.3609543059899242    0.7202347450296696 C
   0.4391051255169000    0.4031127653870276   -0.0339689383792648 C
   0.1836526082168190   -0.0523621778429338    0.8935161750612881 C
   0.0108010049526185   -0.2156304990035412    0.9063438215729829 C
   0.0287945628954137   -0.1229309908099479    0.8421308441263998 C
   0.0339750704994547   -0.0188939156801319    0.9980337317445886 C
   0.4487151645776408    0.7825227139471610    1.0183999341141550 C
   0.5157103943351489    0.8057158002610799    0.9353220587648847 C
   0.6021643846779944    0.6374106858983062    0.9476471348860548 C
   0.6320957277108500    0.7482900304964463    0.8180423463289946 C
   0.6901468516580587    0.2611175014401793    0.6929578438623486 N
   0.0763547101825195   -0.0370075365736949    0.8966711211955739 N
   0.5563243956815332    0.7118803281901649    0.8811733025381874 N
   0.5037226056788995    0.0912879588689791    0.9773343807308782 Cl
   0.0090655528557415    0.8069017936355893    0.2522634072826049 Cl
   0.6373667057179553    0.4466701378128481    0.3768460512148033 Cl
   0.4899876906536826    0.5064116847149545    0.5965454804743954 Cl
   0.7664471483376729    0.9668998042814978    0.6483337219489963 Cl
   0.8213562208260760    0.5459972300735980    0.8568883324634666 Cl
   0.2143148946649087    0.2403839534953580    0.1328047033943121 O
   0.3064015586601773    0.1173393480736978    0.0876580791202724 O
   0.4679803342968403    0.2498189280826469    0.1179710464569815 O
   0.9194304458622452    0.2450720116730097    0.0077522344511414 O
   0.9369091841304600    0.2354773841314599    0.1917371324599988 O
   0.9060099513886305    0.3332504719222103    0.3186952401219157 O
   1.1011144017303693    0.5815343590906932    0.0761509256318403 O
   0.2503242691417293    0.4730471822578641    0.0892455181724965 O
   0.2338241908685675    0.4668942898316712    0.2460503274405365 O
   0.4028308020025338    0.4936935243747197   -0.0208821762554581 O
   0.4657070141131738    0.6528801007199170    0.2711717284060032 O
   0.9432248798872369    0.6086871329614421    0.0893622625691623 O
   0.8564673534439007    0.4840373164079551    0.2247814915650417 O
   0.2019003449110807    0.8068112991039115    0.1618854478613351 O
   0.3284109972723282    0.7042567156922324    0.1672350462817228 O
   0.4052763749615587    0.8490126514375743    0.2725854745753831 O
   0.6409381325817807    0.8490943172344543    0.2858437940138023 O
   0.8435135713670464    1.0042129804487581    0.2729841139786321 O
   0.8198146338786226    0.9459484808783298    0.1070034798750902 O
   0.7953395177734327    0.8189110801443477    0.3148341327590171 O
   0.1265657838832246   -0.0210459197871047    0.3238056549003539 O
   0.1320571937454152    0.1093051994076658    0.5950228203251993 O
  -0.0281903027299654    0.2780723508915262    0.5250455171076339 O
   0.5479042578268100    1.0388326567747779    0.3665106128294927 O
   0.3706448790837893    1.0210765996405273    0.4442433032660542 O
   0.0360386573122078   -0.0198533048614968    0.4571455522946428 O
  -0.0628648797520511    0.1226851469937883    0.5034292954664505 O
   0.2486426684752478    0.3553473236653977    0.4012869177704375 O
   0.0878710180773516    0.3671307417089113    0.4148719791483056 O
   0.4761843484109099    0.6703933676472270    0.4301299023076656 O
  -0.3071112733963776    0.6487416312834308    0.4888268493830045 O
  -0.1622616959187322    0.4956504870154504    0.6420601343403632 O
  -0.1304211401735904    0.5067078887674219    0.4849749249635022 O
   0.1656920791513330    0.7542567837639848    0.5093433886375213 O
   0.2462710514806327    0.9420248439885910    0.4974297012619436 O
   0.0555673400308090    0.8016862185537669    0.6184799017821009 O
   0.6103936012614890    0.9891003936585597    0.5058379316893679 O
  -0.3105864857045632    0.7565728551926174    0.6040399012554788 O
  -0.0821027647465169    0.6696627898427061    0.6770428775437050 O
   0.6851113839065495    0.9790702152003167    0.0293592019633208 O
   0.6917990135425908    0.2808637025434425    0.9164180087779498 O
   0.5228165206692508    0.3946035572160819   -0.0631977489103518 O
   0.8940290851542537    0.3601361765653247   -0.0940410490245977 O
   0.3616739487989815    0.7324336227995304    0.9811499293048340 O
  -0.0605198294630978   -0.2073638603211661    0.9796550315426499 O
