Li1 Co1 H90 C51 N3 Cl6 O45
1.0
  14.7277319811999998    0.0000000000000000    0.0000000000000000
   0.0000000000000000   14.3732383282999994    0.0000000000000000
   0.0000000000000000    0.0000000000000000   14.8552394046000007
Li Co H C N Cl O
1 1 90 51 3 6 45
direct
   0.9481657126382742    0.4031613844940241    0.5186780227799008 Li
   0.4660116369758099    0.8708943926334045    0.6699905286762354 Co
   0.2229406736686466    0.2986433930931481    0.0984198007503850 H
   0.0807680701290898    0.2163724411343448    0.3623125522052079 H
   0.3777825734880504    0.0371963959609117    0.1955565725450671 H
   0.5552048679279235    0.1835071960719351    0.1479538392103874 H
   0.4925794751534380    0.2344831823642780    0.0597156113165910 H
   0.4289540641807127    0.2780321715136170    0.3205925917845036 H
   0.9465802682514666    0.2601572852749229    0.1648098449050827 H
   0.3180014747334096    0.3337725677764792    0.2127067505436196 H
   0.1428142834337907    0.6263134624558009    0.2996827974998140 H
   0.4986850995710188    0.3805066429137032    0.0306484257775756 H
   0.4155005330971130    0.4054916178927185    0.1879875258984555 H
   0.8060786619863994    0.3606593410403097    0.0773578715900165 H
   1.0098948370656136    0.4192931005836037    0.2379544082746596 H
   0.8527993655460752    0.4709936208857597    0.0643409154351314 H
   0.7366334818795393    0.4281591610418854    0.1914132532538990 H
   0.9667456270710805    0.5282478791957819    0.1940163752196093 H
   0.8486452975552877    0.5817403477987801    0.3134388868117589 H
   0.7710433964982263    0.6815473618643204    0.1786238262493656 H
   0.1746752651924882    0.7880014514056696    0.1483294642574178 H
   0.1962495306941688    0.8892500334412617    0.0553326459380702 H
   0.1708097684498349    0.8428304316256900    0.2487627160795329 H
   0.0231699279926872    0.0000920226931321    0.2817261700275298 H
   0.9867948784002686    0.8752469260410518    0.0834022036640049 H
   0.3842907038724405    0.6556241849511278    0.1812545479049115 H
   0.3835723312123795    0.8258488722564683    0.2406147491095412 H
   0.6058278695517793    0.8756114924581884    0.3034437601122846 H
   0.7528070515984927    0.9368537803750904    0.2192297016291466 H
   0.7611837656884479    0.8690771264472195    0.1200714208448011 H
   0.1814210424871064    0.1617375716593265    0.3419917756913993 H
   0.1839835551705375    0.0528358778136131    0.4927623515803651 H
   0.2231688147024656    0.2675731506189304    0.5782145590760531 H
   0.1881104635144418    0.3273676089288450    0.4827654746566574 H
   0.3651044503229665    0.2499438596955975    0.5860464086229527 H
   0.6366370939849243    0.1607440585988853    0.3917439190174194 H
   0.6013302320279190    0.0581123505379731    0.5403343886746425 H
   0.5329177974937930    0.1589219222506392    0.5122484158648871 H
   0.6016113343731603    0.3003222075293138    0.4832994276805005 H
   0.7163506575871554    0.0797901376088602    0.4370087566740768 H
   0.7547258806507918    0.1951921063311156    0.4170918780603008 H
   0.5801747003820605    0.1395004116888633    0.6319056493558248 H
   0.6341777879596493    0.2981654214737341    0.5971233085313477 H
   0.0014639382036231    0.0977638185636485    0.5183701785321276 H
   0.7496157930897153    0.1818464708091387    0.6573337148155460 H
   0.7558896715197375    0.0771477268220565    0.5877925938774271 H
   0.8168929543841229    0.1761859510193982    0.5600576655616694 H
   0.7463281178345023    0.3629956273547085    0.4398124812634700 H
  -0.0293833097351586    0.6453933659358704    0.5762613088314953 H
   0.3837549798376690    0.5704895777004647    0.6014914643202006 H
   0.7030268138174230    0.4258154999106514    0.5261742668300315 H
   0.8193923208885506    0.3749170883425655    0.6180176200632026 H
   0.0348411072495760    0.7861556599845558    0.4788115161642879 H
   0.2742615424191666    0.8132163676077072    0.3722625769725119 H
   0.0465367301886598    0.7217679431136940    0.6272177410627794 H
   0.3064416500287419    0.6950738891199911    0.3835999910264280 H
   0.7769085222426563    0.7404130106954612    0.3856713140904287 H
  -0.1966385261625350    0.7140529106716544    0.6452766893364051 H
   0.7892804203891319    0.8633776453609909    0.5064760989291233 H
   0.8498484699122140    0.8249576325993078    0.3490014237464657 H
   0.1033085400686406    0.0597188082806613    0.7350382854764914 H
   0.0007204428701951    0.2215487276677359    0.8488708501321892 H
   0.0971263254468492    0.0164369823072392    0.9382009486824072 H
   0.1982084202256205    0.0252533671124989    0.8025107760032767 H
   0.2014960954808335    0.1269124342360885    0.7284682129692939 H
   0.1834559790298311    0.2240137254080322    0.9531189176201126 H
   0.2315733674304760    0.1113640939876712    0.9395365044051818 H
   0.2505586395930142    0.1984885103089660    0.8594724968448791 H
   0.1103870230375781    0.2886226867839503    0.8332642352749282 H
   0.0708629469107819    0.2154930290136181    0.7464039723834098 H
   0.0425415461321391    0.1265075150475893    0.9669854056913997 H
  -0.0679242066447824    0.1035273074941071    0.8380335963111469 H
   0.0375998483817384    0.5983225538790010    0.7373882980915146 H
   0.3836735008970194    0.5312144340546161    0.8524413075684777 H
   0.3156684610661415    0.4398058057420154    0.7033498025662643 H
   0.4553868510142141    0.5551548288452935    0.9418104495823656 H
   0.5468950344684183    0.4731056779814963    0.7771029054385570 H
   0.6152638098701796    0.5400759026458117    0.8517883392967583 H
   0.4590704460218671    0.4857262855200798    0.6541584041581229 H
   0.6078886077590431    0.5649348100011912    0.7278684245877454 H
   0.4847131587275357    0.6649623728343504    0.6699790849024012 H
   0.9060696179516377    0.4181801294051809   -0.0734394288766682 H
  -0.0555638513482321    0.5637033547371990    0.8071071341056480 H
  -0.1570648836801770    0.4778033806465287    0.7652579263569332 H
   0.3903418731980204    0.6495984030068134    0.8949044401252422 H
  -0.0650317042517202    0.0070800095132101    0.9228427310336663 H
  -0.0618553835487284   -0.0587137927184022    0.7938673609425781 H
   0.0435518849961946    0.7963475177033255    0.8538744719504269 H
   0.3797502899047392    0.6731595513204276    0.7316280408738826 H
   0.4840404821733558    0.7574947562556518    0.8438227995449481 H
   0.5809675583736986    0.6924231294839400    0.8809322654367799 H
   0.5680314864623414    0.7397673663536618    0.7676308265196250 H
   0.3742199068081450    0.1679052840408470    0.1858610034547837 C
   0.4371868321421868    0.2615278880263719    0.1859788070089599 C
   0.5205585014234710    0.2479303955520984    0.1274075530357273 C
   0.3397359821517010    0.3596498260188109    0.0727823815458135 C
   0.5913592466659194    0.3280445614553221    0.1167756139805348 C
   0.2655684184430220    0.6387581179964953    0.2115462172441925 C
   0.3768204429972126    0.3453927744539924    0.1688319948262411 C
   0.8592762623365495    0.3213487843589032    0.2494426108779212 C
   0.9483001528903461    0.3574554701416180    0.0379381097099980 C
   0.8693158258069292    0.4036861096692235    0.0890170576376252 C
   0.9507343362422541    0.4643711118988612    0.2380149929596645 C
   0.8665183821779583    0.4158136480860040    0.1973485328948786 C
   0.9413404933765227    0.4892685631082662    0.3399224721168988 C
   0.2199157679970287    0.8137840893565307    0.2045284912311254 C
   0.2684975863593766    0.8946740025023259    0.1659212372933392 C
   0.2781222862236153    0.7376404970078855    0.2450475285623994 C
   0.6515334813091948    0.7685194116868501    0.2196551407505143 C
   0.7572537647844468    0.7908268411384789    0.2504994770496733 C
   0.8899143809943303    0.8914360404692073    0.1822589073496593 C
   0.7893551094180609    0.8758737854720444    0.1892247997988888 C
   0.0717008220171290    0.0735876383554755    0.3703003063415200 C
   0.1246811451922133    0.1629293698893936    0.3881445155649619 C
   0.1493400675886548    0.1842829433145064    0.4873940099583980 C
   0.3102324577424664    0.2419400962170853    0.4581773821963706 C
   0.2200889107459093    0.2615891129208529    0.5031034168312174 C
   0.0588665308824665    0.2136020146590809    0.5355501507324391 C
   0.5876988052572344    0.1286684755277926    0.5568189429339410 C
   0.6979357380091646    0.1527966498527931    0.4320677390303443 C
   0.6572607718456924    0.2851363464857214    0.5286471317229814 C
   0.7521348503381332    0.1533337591543761    0.5906528641728249 C
   0.7331645159813808    0.3565774494957659    0.5114041851084231 C
   0.1660656571305096    0.7225513434680755    0.3877715831705984 C
  -0.0316545352057673    0.7094686966973919    0.6146329556609292 C
   0.2607469021300796    0.7391704236324723    0.3473858321463352 C
  -0.0761535796503961    0.7853012944115713    0.5580994339096779 C
   0.7224948487033104    0.8869631444849101    0.3942440470186214 C
   0.7767713660258960    0.8052230401907543    0.3487368706219443 C
   0.0597010110329533    0.0815211323528221    0.9121125101561326 C
   0.0686507936721441    0.2255380861331209    0.8167044213735901 C
   0.1615204902246038    0.0838678547287802    0.7757087845202776 C
   0.2004511280670019    0.1714702426694889    0.9037524967886238 C
  -0.0291891182599436    0.0461136626945776    0.8650981214291671 C
   0.4263032826449111    0.5884055124479586    0.8821284763840431 C
   0.5726434660995798    0.5446345830561260    0.7921945504732765 C
   0.4402850688603893    0.6278051235213372    0.7149605208658691 C
   0.4029391964136268    0.5420596588007388    0.6669754308524919 C
  -0.0348892491495580    0.5894651205649416    0.7363422025304301 C
  -0.0790229963436076    0.6839093904638988    0.7041838517298317 C
  -0.0695076140580738    0.5178247583528591    0.6734606848006826 C
   0.5358234044164764    0.7063705778891674    0.8262909380308647 C
  -0.0605306717719997    0.7642197543244366    0.7781631374261426 C
   0.6747780650941929    0.1814387686708905    0.5267663811514794 N
   0.1233265578039130    0.1394280549953858    0.8536301137209071 N
   0.4946014429647760    0.6121252888972735    0.8022011209465850 N
   0.3391343959732379    0.8229191219080664    0.6314317424864532 Cl
   0.5928061768536226    0.8165092928983712    0.6312116181309354 Cl
   0.3408950200824422    0.2989738683758579    0.7033282613449292 Cl
   0.8369666493955059    0.5255169706069557    0.8912033890346097 Cl
   0.0957608741997956    0.8359203673985878    0.0098120062780587 Cl
   0.4438728582136618    0.9749920194746737    0.7756259854507710 Cl
   0.2938640175571258    0.1715328590388444    0.1575686287206643 O
   0.0593153440472116    0.0557127521167814    0.2835484227198437 O
   0.4191419627529798    0.0899611232045113    0.2092137068715040 O
   0.4750621140058203    0.2687698190110585    0.2730827549668314 O
   0.9126300306562779    0.2495090237972952    0.2242440940580518 O
   0.8118113844522736    0.3034871171315176    0.3151116972810607 O
   0.9973633759936990    0.3027357206992511    0.0774649045335251 O
   0.2520476672333864    0.3414882959559560    0.0534632718240858 O
   0.1954252354112632    0.5908531167523227    0.2171213545909763 O
   0.3833041296994077    0.3998105738485781    0.0156880475603668 O
   0.6678387753155319    0.3321167126757438    0.1498137890400377 O
   0.3389205137540325    0.6035976351284864    0.1729194415745713 O
   0.5585524981036312    0.3940102108339434    0.0611757022252090 O
   0.7860491014012017    0.4679088950232028    0.2220805476402103 O
   0.2480443352828008    0.9235735441722182    0.0823009087232492 O
   0.1171002087559363    0.6547712108530180    0.3557613282666786 O
   0.3338912261424336    0.9302477534080813    0.2102005640739170 O
   0.6358345264195253    0.6981226105701684    0.1743182746350177 O
   0.5833906062703845    0.8161029822349976    0.2581694981712930 O
   0.3754644976265682    0.7543242807539496    0.2408496830547269 O
   0.8131313432907979    0.7115246008245654    0.2227651545807656 O
   0.9209076120351092    0.8719032119174660    0.0978092417581690 O
   0.9362249738860695    0.9104735039656024    0.2481710056559851 O
   0.3339699891183949    0.2269733924662373    0.3801029083753121 O
   0.1866139669711767    0.1043120993233632    0.5300636016583958 O
   0.0467166628492611    0.2944049606252155    0.5610767672797684 O
   0.3789558702334053    0.2353834666081232    0.5208254469398994 O
  -0.0044996412607585    0.1518476639883380    0.5582246422586878 O
   0.8811105814571367    0.5573895374938490    0.3648274897960778 O
   0.8170416534508085    0.3451520493006922    0.5559235012895687 O
  -0.0356924957061290    0.5013097605090798    0.5983760651846156 O
   0.9829409245075406    0.4467520483158564    0.3989191652114991 O
  -0.0279139728387767    0.8164856378255035    0.4900221062775937 O
   0.0349972752191545    0.0300894380390582    0.4346015251898823 O
   0.1302237501299050    0.7729185595027952    0.4451597528783188 O
   0.7509411838576160    0.9141755228693893    0.4742086283791993 O
  -0.1565678621422142    0.8108967789918032    0.5707805489606859 O
   0.6589229422349450    0.9312510067926444    0.3584284007332274 O
   0.3252422365924743    0.5101969018117112    0.7153327800970659 O
   0.9551063603992794    0.3746819290887636   -0.0510385781776915 O
  -0.1369294004721346    0.4643340986671977    0.7003077782158519 O
  -0.1709726598578984    0.6763752497555531    0.6955868849276370 O
  -0.0085756252667567   -0.0183102325230230    0.7974728228635363 O
  -0.1141180130549238    0.8266872358683952    0.7945930308363035 O
   0.0209075294073155    0.7517730115714302    0.8112497802336494 O
