Li1 Co1 H90 C51 N3 Cl6 O45
1.0
  14.1165617975999993    0.0000000000000000    0.0000000000000000
   0.0000000000000000   13.7767788924999994    0.0000000000000000
   0.0000000000000000    0.0000000000000000   14.2387779286999994
Li Co H C N Cl O
1 1 90 51 3 6 45
direct
   0.7810560072336122    0.7341057750230566    0.3087455248135448 Li
   0.6651772243221735    0.7198789371294253    0.5773284761840884 Co
   0.1697733079670615    0.1721268058886356    1.0571601748180584 H
   0.0114344693711073    0.2816698283742163    0.3096873191211146 H
   0.2382673232848980    0.0511064996900907    0.9903503681925502 H
   0.0827981636221587    0.0814728141431555    1.0570428894717763 H
   0.3600363506618224    0.2118225870481720    0.2526353723832834 H
   0.5260103345251126    0.1306446855425571    0.2047808441778413 H
   0.6133480317404225    1.0550516241581613    0.0677627651144983 H
   0.6935035268406794    1.0229149394182309    0.2531550799057306 H
   0.8087412188030785    1.2333814078594496    0.0878494608570810 H
  -0.2177105622859601    0.2016968529351027    0.2981589421198036 H
   0.0325805532603692    0.1910818898046708    1.0745907437364584 H
   1.0068716162824076    0.5048341125650392    0.1942012845587277 H
   0.3424173295739619    0.2984408023299485    0.1739797457832938 H
   0.5614133602168903    0.4327656698798979    0.2194969947526492 H
   0.3759219468300145    0.4500121541164525    0.2636594926263280 H
   0.4442381568128134    0.4864237132997887    1.0341301084990213 H
   0.7921394425802135    0.4000793646474645    0.1875974874863349 H
   0.9150078878056568    0.4469763937020375    0.2507356306965002 H
   0.9387204606544443    0.5219127781831751    0.0264235432411404 H
   0.2217533871478683    0.7563773090582756    0.1439933240455553 H
   0.2687875027859185    0.8719057654862483    0.1314543266053234 H
   0.0677987605779983    0.8026392114211686    0.2740845446036330 H
   0.3512140891376903    0.8470603351668040    0.3156934525426932 H
   0.3875827182246459    0.7190296820102646    0.1883728349252291 H
   0.5526229053044840    0.9265128696482781    0.2428522294269469 H
   0.6575854323875241    0.7852810174727859    0.1177066580216705 H
   0.6183492495307206    0.8561183305787746    0.0267711854352098 H
   0.8781299278984145    0.7100007209613421    0.1612258422594553 H
   0.9359577482773673    0.9104503341509225    0.1215602190698699 H
   0.7255453233124591    1.0173563106126478    0.0078861377614204 H
   0.1100859696419993    1.0432266539476944    0.3390430687572888 H
   0.1052037610002521    0.1573947700779651    0.5562145153157172 H
   0.3389242693864322    0.0661920288708735    0.6362314947015332 H
   0.3778855977811060    0.1462267023314645    0.5510586655393099 H
   0.5793518641975870    0.1332773764119551    0.5287653197487150 H
   0.6262676082360964    0.0286796318125638    0.5939216839146321 H
   0.4352643003018366    0.0354003609991522    0.4442904437429890 H
   0.4699726100889478    0.2618712962116301    0.6568055918232758 H
  -0.0931922818999497    0.1990460155887996    0.5351293490533193 H
   0.6363833858629316   -0.7146065949537412   -0.5877604860197501 H
   0.1333253394477387    0.3669749645871367    0.4964612131531010 H
   0.2757417457104733    0.4984917011289691    0.3905376565422493 H
   0.0171929537078400    0.4213357847646098    0.5205529576636019 H
   1.0527808121115352    0.6207926404956636    0.4002625079791761 H
   0.2207807707135794    0.7070428452258040    0.5975469950374325 H
   0.4569482630392817    0.4496024792538420    0.3567257660548221 H
  -0.1105307814233685    0.3206920123110338    0.5292987222666861 H
  -0.1180382752111277    0.6158059886421307    0.5915331362337635 H
   0.2644656288852656    0.8007193141646045    0.4006930224538520 H
   0.1275108924756754    0.8058932376597987    0.4950423413860740 H
   0.5136587362747763   -0.0546134230411145    0.4897256632006933 H
   0.3906202850638524   -0.0561631321688137    0.5249515795336545 H
   0.5376623927499393   -0.0757801995623485    0.6703755766188488 H
   0.0061619390576244    0.8140170524406927    0.6471334134460565 H
   0.1832815547153894    0.2926201383978552    0.9234099323789674 H
   0.1006325345978734    0.2738015159881467    0.8270863569381627 H
   0.1549502934823606    0.1120147864926620    0.8025828495622419 H
   0.2713185723559943    0.0122476340454195    0.8770365706124998 H
  -0.0297929915605585    0.1672642759371337    0.8195941409253704 H
   0.3499241149739321    0.2393921664806163    0.6847925442145182 H
   0.0637007372186676    0.3270164224420138    0.9399176692912926 H
   0.1104153699638815    0.0168336116888870    0.8869924812046768 H
   0.3490010856848729    0.1661914562225018    0.9608969978190515 H
   0.5823373645343026    0.1294034665222454    0.6560857266739403 H
   0.4893873233831293    0.0232110095324302    0.7380246406623630 H
   0.3828591884476333    0.1574934869123291    0.8156310199129794 H
   0.4859915248390285    0.2619184770515834    0.8621237739481175 H
  -0.0721637903836608    0.1931491364537046    0.9365767926909127 H
  -0.0395652011097317    0.0750787215408596    0.9015667656720059 H
   0.0833733745068219    0.4477681607823626    0.6822284196679580 H
   0.2150272450913696    0.6499141066330356    0.8451518118029037 H
   0.3754246586021406    0.5386703237459974    0.9382251083060255 H
   0.6618060068343508    0.3161873308841013    0.8684403272682386 H
   0.5760633155647399    0.3705367550740780    0.7928376312088947 H
   0.4214025680468007    0.4085237187964110    0.9393164941031644 H
   0.6208448997113467    0.4582131277171472    0.9871738315384576 H
   0.4913382941927978    0.4821116748716812    0.7582707601989938 H
   0.6563308776132156    0.4999735424330430    0.8758405410034086 H
   0.4265022517397690    0.5834399324341193    0.7994877805738301 H
   0.5570901403794383    0.5827031854717705    0.7665860805581483 H
   0.8113176251916498    0.5209507245635721    0.0240673017035590 H
   0.2704741741115134    0.7714730002661251    0.6997987477714487 H
   0.1680668017833748    0.8148793730232250   -0.0096483726614692 H
   0.1747653167161027    0.7979341928892034    0.8164829188653152 H
   0.5604457733359033    0.6038576223887089    1.0196506355391657 H
   0.4123769992272272   -0.0616644181073765    0.6795772089960147 H
   0.4965834807376256    0.6808233636751023    0.9397392831957500 H
   0.6133352807602206    0.6470208323552799    0.9078025536339090 H
   0.7492940239384852   -0.1014414954834480   -0.2125667701860378 H
  -0.0252996878149692    0.7112230676456724    0.7170853436599817 H
   0.0932447583464543    0.1544724614371610    1.0341336200363351 C
   0.4412763874670292    0.2052651761537299    0.1261736767927826 C
   0.5320979358286120    0.2692612674664801    0.3255664908542637 C
   0.7423355306871965    1.1114900707694579    0.1190909060307831 C
   0.6899821311415898    1.0287602825589153    0.0788781853277026 C
   0.3971381611103868    0.2598831682019027    0.2080725592558275 C
   0.4599184621997550    0.3227621623963723    0.2665452739908353 C
   0.8780385458736342    0.3859997309744877    0.0676946412906099 C
   0.9412756154093457    0.5228203197861550    0.2270482045923138 C
   0.7671269781386219    0.5487170118056680    0.1985190708398158 C
   0.8698084965411012    0.5617483598007886    0.1544696444676422 C
   0.8743499706563421    0.4961452890792266    0.0629147366990216 C
   0.9501850086315242    0.5907290092773767    0.3046988292130846 C
   0.2062914068774948    0.8308105280277874    0.1620889781311953 C
   0.1136073653410888    0.8611274840636701    0.1086567240564622 C
   0.2074864570775277    0.8367378932440830    0.2709972009973118 C
   0.1977985456752449    0.9437549261444678    0.2917953341996770 C
   0.2911527220600392    0.7949748654355128    0.3272000580126584 C
   0.3088517909680560    0.6914724421821158    0.3086647594553267 C
   0.5186648065214290    0.8406858407595657    0.1453094482307797 C
   0.6240737312535818    0.8542565020483072    0.1041584447574432 C
   0.6922595978832057    0.9369006388878576    0.1398138923346323 C
   0.7976329898838624    0.8912107134770146    0.1447195099620558 C
   0.0647555266364798    0.1752886480245876    0.4302004705019837 C
   0.0630539791673160    0.3140315294277704    0.6222682177268110 C
   0.0068193229258109    0.2734436674635772    0.4508629881332887 C
   0.3960274090572441    0.1150205689272297    0.6173141408844565 C
   0.5734417848740095    0.0882145932429539    0.5897471683559484 C
   0.4512021754888563   -0.0104920790939521    0.5042762096757808 C
  -0.1772368259617840    0.2441661416248210    0.4251663306088739 C
  -0.0922451674260646    0.2610191376561646    0.4854428518312510 C
   0.0600603323710271    0.3500167189897433    0.5232549451651033 C
   0.0141865559313492    0.6742028030410302    0.5699328274474263 C
   0.4081968028843732    0.4032075269222806    0.3190806814356157 C
   0.3278847540827486    0.3688404224129853    0.3699790101846875 C
   0.1970186107195624    0.8622271605641217    0.6056607531547730 C
   0.2095591997481244    0.7603622753866448    0.6523466417421717 C
   0.0228111772623520    0.7349187371884071    0.6599413946445279 C
   0.1094300025493907    0.2733391437566036    0.9054631674754340 C
   0.2422668807415585    0.0731174503169519    0.9155813110915101 C
   0.1459445595208790    0.0891734530826216    0.8777213203886971 C
  -0.0212632941932810    0.1499721351646858    0.8944004203219371 C
   0.4178662962041422    0.2017883111787047    0.6844456043279117 C
   0.1379766136702737    0.6209639432376481    0.7384390020653951 C
   0.4314524656092595    0.4869888671765225    0.9571017282902616 C
   0.5941280542494354    0.3577064700430663    0.8688076340712655 C
   0.4952902479900380    0.5459834265246775    0.8004183379619957 C
   0.6032938838512297    0.4588452058007071    0.9130403626912211 C
   0.1219330470251361    0.7301868618706221    0.7124648628624414 C
   0.4815559546982421   -0.0258106090381968    0.6768150337449542 C
   0.5455614833074544    0.6229999779464052    0.9461857633964830 C
   0.4746907561187639    0.0430959189250848    0.5898447890932730 N
   0.0846541396293232    0.1650562126273161    0.9271237342420764 N
   0.5152228352612415    0.5271752564856662    0.9046892246514654 N
   0.5322163074281528    0.6260500377846214    0.5502455339589190 Cl
   0.6894140041348166    0.8084874579981577    0.4433101629864596 Cl
   0.7687109332348127    0.6052469166605666    0.6413632553319675 Cl
   0.2729103197178639    0.7565130447055260   -0.0840051752818654 Cl
   0.6786217161694919    0.8501699154492691    0.6811995392350052 Cl
   0.7969571879331622   -1.0495615242596157    0.8542375634487130 Cl
   0.1137327499797407    0.9715865407034223    0.3251233348452581 O
   0.2617836727161341    1.0039613072203482    0.2833058415897563 O
   0.4043105874739518    0.2139929056860270    0.0474660794405483 O
   0.5104129600966286    0.1392090967827079    0.1353113991908367 O
   0.5402219395091327    0.1793723311873207    0.3141427576649049 O
   0.7841658296272963    1.1678973054404778    0.0594537655225086 O
   0.7398887592640110    1.1308240531232725    0.2061341906585922 O
   0.8294233086905493    0.3399592156298374    0.1300897432051682 O
   1.0367783319581592    0.5834116239301472    0.3396119378021297 O
   0.2908353643305698    0.6254381385833800    0.3616215513777670 O
   0.5202981858336578    0.3785320927984836    0.1974803581023842 O
   0.7184550699324174    0.6193089845438992    0.2202533798900486 O
   0.7439612806629379    0.4597391012530544    0.2121796532980857 O
   0.8999503969627989    0.6535724363771124    0.1241685889865844 O
   0.8874813551009252    0.6491345339851908    0.3296834172010006 O
   0.0382533226746337    0.8814827501377059    0.1525305735629441 O
   0.1286003928951482    0.7853419896351872    0.3056420281355800 O
   0.3424010366548151    0.6656950088088235    0.2216249863648315 O
   0.4954302254171432    0.8941874615485341    0.2197413977496919 O
   0.4658601356187216    0.7805186560738003    0.1093316415281807 O
   0.6649484150663285    0.9602566063829278    0.2327382996556475 O
   0.8081723834085163    0.8251778615964313    0.2055098393241929 O
   0.8688875924154088    0.9331022183420733    0.0996959831390253 O
   0.0607155910758466    0.1423179512060969    0.3486386956210666 O
   0.1211276101090498    0.1332033387861821    0.4886365950181814 O
   0.0643538707601202    0.2266722120291879    0.6441542251890012 O
   0.0076849728039617    0.3237246515314210    0.3662012983424668 O
  -0.1612357625839860    0.2108971167260097    0.3365042272793882 O
  -0.2533424680723618    0.2608841278679903    0.4614325047556847 O
   0.2568143323763407    0.4290849110903664    0.3880830919598806 O
   0.0765423910575521    0.6882053504801140    0.5093363560142369 O
   0.3169734569688730    0.2818099191759239    0.3912420709274041 O
   0.5773576817327898    0.3215935292836812    0.3872599876135184 O
  -0.0584139833992859    0.6201684016901268    0.5477412460081864 O
   0.1615609683292533    0.8621066679574715    0.5145700074113694 O
   0.2144867452083671    0.9372635684259604    0.6501526332284895 O
   0.3098236990145559    0.1526781378007806    0.9049097491947741 O
   0.4431111118405239    0.1717529884643897    0.7783307682579913 O
   0.9166102609843613    0.3450779738352399   -0.0026302141860442 O
   0.1072927965899956    0.5612540497698926    0.6829988509546128 O
   0.0720469621485958    0.3753499266083979    0.6945897333201100 O
   0.1772014623224533    0.5921553223621209    0.8193118133253383 O
   0.5203234681938471    0.3013747247159719    0.9079310758995952 O
   0.1171365533058572    0.8647807327942133    0.0161038373832504 O
   0.1108878646191405    0.7906284212871931    0.7890149716890571 O
