Li1 Co1 H90 C51 N3 Cl6 O45
1.0
  14.3582584553999997    0.0000000000000000    0.0000000000000000
   0.0000000000000000   14.0126579586000002    0.0000000000000000
   0.0000000000000000    0.0000000000000000   14.4825671094999997
Li Co H C N Cl O
1 1 90 51 3 6 45
direct
   0.7721879196588906    0.4012253418238517    0.3632162388703482 Li
   0.7623733589001656    0.6443604422498945    0.2699606723821341 Co
   0.1461203483080464    0.0218910987627252    1.0703622802156090 H
   0.0575852377339704    0.0841919129679427    0.2799112563435555 H
   0.2251953979407541    0.2904340126851000    1.0352669828034122 H
   0.2809828043652950    0.1693277953626051    1.0440402892924707 H
   0.3422416264384693    0.2756238317320545    1.0047040310384829 H
   0.3689691018625986    0.2891987010082474    0.2888212789261786 H
   0.4844734302706359    1.1495080038983061    0.0939456067707442 H
   0.4988038590367107    1.1143355190309712    0.2009010925135945 H
   0.6629239720239338    1.1066588883504955    0.2472278241577307 H
   0.8927631276743790    0.1624090508755537    0.2713623575838331 H
   0.9635091727574420    0.2318662518488115    0.0513640675078965 H
   0.8383101449238175    0.2072656371033103    0.0371241887322117 H
   0.3074108005724038    0.3915033461537589    0.3418042890650829 H
   1.0341500518829003    0.3496083679323213    0.2685189390318151 H
   0.5375980485778881    0.4882707120600822    0.3892889645925932 H
   0.5563202355920729    0.5990271441791931    1.0933071074335696 H
   0.3983180651305997    0.5363867084679016    0.2899764608682686 H
   0.6819597068137061    0.5608373873478300    1.0159734419630793 H
   0.6765210249399563    0.6336579759195893    0.9110990789778256 H
   0.9289081797788573    0.4481649732587515    0.2001470825430253 H
   0.9351512767587901    0.4603164865907027    0.0723037253535746 H
   0.7739304708239723    0.3701647820581093   -0.0230460831133358 H
   0.7257992854057230    0.3235240946217268    0.1195860886820219 H
   0.0476787438202531    0.7705220887571518    0.1812353800852242 H
   0.0516506739938984    0.8440777270268651    0.0850507748651838 H
   0.1840685438843059    0.9393580088937745    0.2866441787089584 H
   0.2834475879677025    0.8599540868621856    0.2791917706390381 H
   0.2855439424868454    0.9131973760514509    0.1126646638239767 H
   0.2335919594300522    0.7720114564461128    0.0005857769990539 H
   0.5001575050976430    0.8869482517891794   -0.0196668479521952 H
   0.5860044762904778    0.8077498582168240    0.2734524566506032 H
   0.6285876350975997    0.8732706182833695    0.1362868571418720 H
  -0.0820201333649271    0.8344913944126763    0.2327504184316102 H
   0.6894223110238777    0.9823562753026264    0.1480748225425649 H
   0.0020318429766827    0.2793369031674467    0.5944466536635454 H
   0.1526719785278396    0.0843039545238443    0.4922824455633502 H
   0.1695138539371135    0.2087250318919663    0.4803702618534032 H
   0.2713409665038283    0.2177475885242293    0.5847308347112755 H
  -0.0027284836473511    0.1109834039976365    0.6137802426524982 H
   0.5743364177637146   -0.0252006094591979    0.5258722778300964 H
   0.5469015445704513    0.3000274817041234    0.5262978929819818 H
  -0.0849369216460469    0.2552915007180699    0.5113669557824464 H
   0.6862415631538027   -0.1266467451031186    0.4437249629925494 H
   0.7412746998294294    0.0237337184909941    0.4609298547852864 H
   0.0662548128350639    0.5735187787387430    0.6011982191326162 H
   0.0874398333544292    0.4046772208423011    0.5842026134406845 H
   0.0005323575016945    0.6180927633350531    0.6968387219196818 H
   0.3446883019951966    0.5624045418494870    0.5576211381339016 H
   0.5359212435478918    0.4360953144902521    0.4921414484607951 H
   0.5923067726505190    0.3053369669009941    0.3868529323799851 H
   0.1262077662293701    0.7479931723351071    0.5587431767805819 H
   0.0109416979146879    0.8347190457268969    0.4945783092557883 H
   0.2494504286662264    0.7120078509571222    0.3265949688986663 H
   0.5614136109639654   -0.0394320279801652    0.6541107997687750 H
   0.5256064828504132   -0.1383368898625191    0.5701199581725991 H
   0.6560958458758683   -0.2359564852341789    0.5087458389795352 H
   0.6556236437615895   -0.2413615982558320    0.6608906751360081 H
   0.6521218263123369   -0.1436185430805353    0.7320921404703952 H
   0.7680209797625344   -0.1856305583412587    0.6846012505749957 H
   0.7729526363572357   -0.1934998719522659    0.5017792425717881 H
   0.1456746117989927    0.1599141637454112    0.8256694731182112 H
   0.1028713705905255    0.2098761339917717    0.9309042694410447 H
   0.3077555499036250    0.1481462321733146    0.7816137476949558 H
   0.1033359116085549    0.0103608094716176    0.9118703510814206 H
   0.2215689135616255    0.3017951691816299    0.7869366990348072 H
   0.3405206656355451    0.0981400162169802    0.8887321879735703 H
   0.1854238614571471    0.3567847366338983    0.8889697149240060 H
   0.3059238514367327    0.3594787294589235    0.8652612109409814 H
   0.3924245927249560    0.2144912469982453    0.8571279843445216 H
   0.5622519438326339    0.2771153403424657    0.9784345169997433 H
   0.6780281715111939    0.1786336672667979    0.5267143246790974 H
   0.8097272912807523    0.0938089321229199    0.5330558109160061 H
   0.1370489138855093    0.5871650120632810    0.8261438365337617 H
   0.5499546307184801    0.4387422784074178    1.0351924103887407 H
   0.5053665630229007    0.3931147463653898    0.8305284183223277 H
   0.6250600485064174    0.3864286486759433    0.8692694782295841 H
   0.5364178218775094    0.5373669650359691    0.7938961005855092 H
   0.4490244932299062    0.4582016843820458    0.9790614776712421 H
   0.4455327048521072    0.6151825374435426    1.0327867595302580 H
   0.4347054864618760    0.5910222388763303    0.8523601832027816 H
   0.6835002836231229    0.5038755316914497    0.8996073317798562 H
   0.2291018605646321    0.0313225713920053    0.9308711261456351 H
   0.1201387850732866    0.8251840952275166    0.6624573863294342 H
   0.2763972900284056    0.7434230186790910    0.7697415430850968 H
   0.1552112837028546    0.7461162978636326    0.8199080635995033 H
   0.6060375465192576    0.9608564284577169   -0.0182078524688503 H
   0.5445110039553329    0.6889251495199199    1.0134103604514011 H
   0.5399252806794549    0.6622135862243724    0.8398623988920657 H
   0.7289981413214783   -0.0046491908167941    0.6734471506990118 H
   0.8211834160267265   -0.0627445216530385    0.5928260846150786 H
   0.2756834151506243    0.2411699828315540    1.0059517380135914 C
   0.5536215796150712    1.0077397536584727    0.0970051472282460 C
   0.5341504856193467    1.1074124927010192    0.1343721413466446 C
   0.6228801183918269    1.1704747613020781    0.1370222240087732 C
   0.8655843440348329    0.3306119719033559    0.1215601862148582 C
   0.8930695715243533    0.2653174358700642    0.0400918946420160 C
   0.8516829366587223    0.2796159365964758    0.2134803540921924 C
   1.0425577567849247    0.3722450440673671    0.1306552588635184 C
   0.3795107703017174    0.3674229753206930    0.3131816010522592 C
   0.4070823592398670    0.4158050882647911    0.2253463443341623 C
   0.9416179384565447    0.4135953718718354    0.1348879338814570 C
   0.2106274751909492    0.8636157761827694    0.2700483640179054 C
   0.0747621119883299    0.8365252697905099    0.1554202053877250 C
   0.1787190093123667    0.8419253873287788    0.1689274792377927 C
   0.2264532106522399    0.7415846807937229    0.1404207927589027 C
   0.0238631814341759    0.9187908901607349    0.2003970382292397 C
   0.6187020350827444    0.9472394543930005    0.1569337492114315 C
   0.6047734656381133    0.9448037994229844    0.2592008396244608 C
   0.4601374008639090    0.9555055521128062    0.0884279385703612 C
   0.0249141445469289    0.3437515204846441    0.4656906820252839 C
  -0.0022681214090942    0.1312158253439380    0.3939165972141632 C
   0.1524184658883154    0.1530268194396317    0.6148732809156952 C
   0.1300027947259847    0.1552476686241292    0.5140767309005785 C
   0.0241341056560850    0.1591148864039468    0.4956921311271484 C
  -0.0115373514075238    0.2640778423503109    0.5216519624994043 C
   0.4206668758165723    0.2918413117184642    0.4689731801929476 C
   0.0724623901869313    0.5904534674110203    0.6740623731200532 C
   0.4914494155763141    0.4511021033964882    0.4334724298002398 C
   0.4200386659241248    0.5202075509754532    0.4571868719570251 C
   0.4590814928617586    0.3546816381291701    0.3902114529814946 C
   0.0984035585505581    0.7555527659762968    0.6282031000382571 C
   0.1624907180663370    0.8097359196822663    0.3495404866019482 C
   0.5766730521197692   -0.0749563376058413    0.5825502820674501 C
  -0.0060805614880936    0.7742915377907367    0.6229643879075719 C
   0.6910039791677228   -0.1752413801831882    0.6751105298373830 C
   0.7006952659231626   -0.1705206483851640    0.5042305345099910 C
   0.1574260369822149    0.1627387527789078    0.8973522067213591 C
   0.1592842010543323    0.0581133487812157    0.9361947679708075 C
   0.2426821983615650    0.3182495778085452    0.8551518153557223 C
   0.3309073827691896    0.1655176688214635    0.8546270465117364 C
   0.8908401925157897    0.3049430373541295   -0.0613369465912779 C
   0.7396665660803593    0.0493512709254121    0.5311374355485772 C
   0.2340467499619460    0.6547132247433091    0.6723817318486565 C
   0.1014408349817815    0.5060756853019273    0.7226393964254394 C
   0.1302082513981266    0.6755957725700338    0.6937294665190655 C
   0.5240828997454042    0.6188171084257554    1.0236689008660036 C
   0.6612921585228203    0.5631010549613344    0.9456385357065898 C
   0.5471261539832165    0.3879130208815201    0.8919760880117882 C
   0.5224510792796577    0.4572934341387586    0.9688188184190234 C
   0.5107123436576776    0.5904035125771788    0.8486578009113972 C
   0.7484566293315562   -0.0316726150036093    0.6024348783425880 C
   0.6786410592111427   -0.1116210447240710    0.5898155686153701 N
   0.2512089984871022    0.2226574350503679    0.9048646870142093 N
   0.5547622472002713    0.5571442978459743    0.9424678271124016 N
   0.6191937381692941    0.6629372176745911    0.2515012378096103 Cl
   0.8547480716217615    0.7087429457453367    0.1588954180084892 Cl
   0.6744741193147865    1.3341696153959242    0.5071881455244017 Cl
  -0.2023975458045230    0.5703173875299847    0.3902715252044246 Cl
   0.2502813093776343   -0.1869243885377542    0.8784798619268569 Cl
   0.6111962501482581    0.8391907169961971    0.9194201175816068 Cl
   0.1416838771163718    0.0839178750222977    1.0337189147136538 O
   0.5375307702235528    0.3134460637144407    0.3423062718934746 O
   0.5908400209504144    1.0255650656540960    0.0103368107026965 O
   0.6370970236407519    1.2326185746009364    0.0769555249613808 O
   0.6155965052485721    1.0225292390374980    0.2957641088291758 O
   0.3948587319423661    0.9687571422499961    0.1435417864099765 O
   0.6895811046552280    1.1538961792310425    0.1989546143935995 O
   0.8100894521943585    0.3118624954816643    0.2787574553721076 O
   0.8970874682754948    0.1978991057580241    0.2098539251861217 O
   0.2463811149234149    0.6799482658785977    0.2014534807704217 O
   1.0940653962592553    0.3761001299589660    0.0640627830470334 O
   1.0747023237206466    0.3379103731276029    0.2108351048273111 O
   0.4195079608930328    0.5128380711590547    0.2272493218789321 O
   0.4276001679222427    0.3771434723457704    0.1491064076121898 O
   0.7725312760635209    0.3746407351703100    0.1053047807870750 O
   0.2154393400988424    0.9113554699636655    0.1069467548804939 O
   0.0538222465489441    0.9997905123133189    0.1980390308579084 O
   0.2385361523640707    0.7210725123779087    0.0520593862261778 O
   0.5855051121076786    0.8672196606241938    0.3132851738504143 O
   0.4456274238602811    0.8964881977719439    0.0193172627880651 O
  -0.0567106572102247    0.9025862557030273    0.2419801357178721 O
  -0.0273512469927927    0.0967312899026491    0.5528563751275741 O
   0.0058017987946630    0.3484265792917275    0.3814201938740894 O
   0.0679611479087849    0.0985831869572028    0.3448541627280902 O
   0.2370840263931693    0.1872744262404150    0.6365130908769017 O
   0.3388554218962524    0.2646665957491575    0.4754461348349812 O
   0.4819784201612081    0.2640036237400321    0.5319455105197833 O
  -0.0852747063443141    0.1338220403894987    0.3704677157118476 O
   0.2618230991089421    0.6015455814452895    0.6076653046494209 O
   0.0818841456470527    0.4042661639238337    0.5094117499279937 O
   0.3761593889242703    0.5655260053240989    0.4010403342712713 O
   0.4073309966363235    0.5280134219474818    0.5475964650975332 O
   0.0893558038800645    0.8387975010898158    0.3923250285491798 O
   0.2119270757001588    0.7371365596603766    0.3815907437483848 O
  -0.0371470032425420    0.8271023608470310    0.5464004064244381 O
   0.1049809579122810    0.1146329614300017    0.6742032321255442 O
   0.5162947414288959    0.2939865150117160    0.9279655639147238 O
   0.6627233905948597    0.1146629343303066    0.5541679519948783 O
   0.9422280403033120    0.2843944732736595   -0.1226858768798305 O
   0.0973289156857616    0.4243400857187608    0.6819366677211254 O
   0.1250502442324214    0.5151927279341991    0.8109476355884446 O
   0.1122137292349718    0.6959623583272240    0.7890868703245072 O
   0.8131852315423952    0.3607911143079887   -0.0819078852755238 O
   0.2976449922443566    0.6968658271792721    0.7189342521927707 O
  -0.0676715965531721    0.7425523772892815    0.6723865652459037 O
