Li1 Co1 H110 Cl3 O55
1.0
  12.1459538806000005    0.0000000000000000    0.0000000000000000
   0.0000000000000000   12.3033615458999996    0.0000000000000000
   0.0000000000000000    0.0000000000000000   12.6341515312000006
Li Co H Cl O
1 1 110 3 55
direct
   0.8322344247037977    0.4825027494195894    0.5210517500398175 Li
   0.6334003089364570    0.8775728269643550    0.5462841528025000 Co
   0.0910929640583605    0.1200229520599672    0.2053787909059173 H
   0.1551933227171849    0.1303347680239774    1.0371172716459780 H
   0.0124447978138159    0.1970035395576679    0.2726907902831502 H
   0.1629300555356828    0.3020821390263490    0.2594188266229143 H
   0.1812554997278852    0.0187194997189000    1.1119936887653910 H
   0.5738059775965259    0.0701218743984240    0.2051445052878693 H
   0.5543550557239055    0.1600616031361163    0.3054701976677524 H
   0.5929967305247336    1.0820779120675779    0.0143807651151975 H
   0.4415644084460381    0.0074605848700422    0.3067089037226348 H
   0.8252691422046499    0.2614152043732960    0.0188625065174729 H
   0.8183203260943889    0.1886066474063170    0.2049315903174135 H
   0.8590417058116291    0.0828079195428921    0.2714196325041462 H
   0.7061693980247764    0.2483098429321595    0.0326028039621650 H
   0.1432733038019766    0.4206684290054648    0.2101776885485706 H
   0.1149544081943301    0.5074406494280831    0.0646034491183973 H
   0.3220060753356653    0.3759164319235386    0.2442021340317863 H
   0.1298408470675088    0.6534795992953052    1.1914450074804719 H
   0.4164062361852272    0.3460758067715982    1.0641234381588149 H
   0.4477672971397237    0.3558007912446320    0.2674850588307783 H
   0.4053935152976856    0.5118784609803408    0.1987158978899425 H
   0.4393999016268585    0.6134775235890925    0.1286644980935734 H
   0.4679509733178099    0.6138774143003948    0.3047966265158642 H
   0.5760486997629182    0.6528220554224524    0.0270054118598650 H
  -0.0024977091135226    0.5171973325550617    0.1279513516683663 H
  -0.1844695840051484    0.4169361156999762    0.1193041544481804 H
  -0.1806856078389447    0.4893984258315593    0.2159414313547394 H
   0.7752771855440993    0.6093201232063454    0.0823512178899107 H
   0.0278202061049904    0.9823653257615352    1.0234321421322925 H
   0.2537364270106843    0.6701173286862793    1.2038874734119431 H
   0.2272090745139298    0.8301061246471647    0.1754329730909505 H
   0.3046974306572273    0.9262180689794891    0.2056273236223602 H
   0.6651104573353553    0.9861529085149274    0.0835546228009927 H
   0.4855502497601011    0.7477465194108484    0.0165412584362244 H
   0.4886129980930598    0.9128152278628716    1.0367769242954352 H
   0.3696729778853891    0.8667546453232282    1.0572531707106489 H
  -0.0924729396094592    0.9294285736738881    1.0127784785548370 H
  -0.2283294574442269    0.8255626509150913    1.0739301908872454 H
  -0.1789385239780473    0.9000057205252189    1.1731374860431356 H
   0.1590118783000510    0.0834313264038045    0.3731106718135323 H
   0.2220246319728974    0.1007428553876030    0.4773060344185402 H
   0.2069249533636336    1.2349060633809559    0.5937277819626980 H
   0.2794528098547603    1.1501162280088790    0.6393477825283597 H
   0.0513379967048909    0.3238184749864281    0.6076527376326961 H
   0.3169904132807234    0.0114310851124153    0.3455536174960960 H
   0.3999620769233501    0.2480912034985409    0.5564502490126664 H
   0.5197896354920233    0.2811398949868846    0.4273612479845860 H
   0.6278206730621397    0.0248442486112148    0.3623240353177251 H
  -0.4250715185034901    0.2177312080935066    0.6038748820416713 H
   0.5500630914605418    1.0518016336203975    0.6287835590686049 H
   0.9960173617670932    1.0536791692771219    0.5365415120168462 H
   0.8537477617844990    0.1843655300657159    0.4152678359637878 H
   0.7808806976823027    0.1324471988342920    0.4848846992591151 H
   0.8740261196986847    0.2866115703293388    0.5505899425395995 H
   0.7462749347976476    0.0040204112360238    0.3927028066228011 H
   0.1467444185793297    0.3888673640249445    0.5535604625549182 H
   0.1677069549517650    0.5311666855126910    0.4583684746299665 H
   0.1844738554358248    0.4342061925978470    0.3784477931733230 H
   0.3322456992649681    0.4889733387543009    0.4930704487924022 H
   1.0001998245443593    0.6404717721739985    0.5041554828490341 H
   0.6020540677319587    0.3349121910810741    0.3478529408759258 H
   0.6542237043227983    0.5243132739726473    0.6628372902540766 H
   0.4569571887774882    0.3696214043645208    0.5447755433835825 H
   0.3998566920344741    0.5992245083179580    0.6236063218130227 H
   0.5801027247068666    0.5890654961216814    0.3726484326211672 H
   0.4460111567649385    0.5368984523746912    0.4696347634383991 H
   0.8414062033137867    0.3357875616015469    0.6664030223801121 H
   0.9353716514967350    0.6467684253050136    0.6124453032316184 H
   0.1334379297198465    0.6870533505387330    0.3643154630711337 H
   0.1911830855877818    0.9114822588251970    0.5025241900828279 H
   0.1654683493825945    0.7386067408567935    0.4726717699128937 H
   0.1912810606016587    0.8367790976955232    0.6157712092013412 H
   1.0296334946796473    0.9378165251792545    0.5698274828999306 H
   0.4508926177504524    0.9033462709793910    0.4189024290653982 H
   0.5032409146607146    0.7737963106654023    0.4094676839061656 H
   0.7930081930974856    0.7229581720260938    0.4726203220575791 H
   0.8334776370647567    0.9534626556519585    0.6074983940667523 H
   0.7856658302928283    0.7998022114760327    0.3819597029276448 H
   1.1470964798041652    0.3268940572050624   -0.1039217577181690 H
   0.2851403005762867    0.2705891199392914    0.9690240563734296 H
   0.2876868276176418    0.0166042241575903    0.7896641686592469 H
   0.1693881732571149    0.0696832950735892    0.7756014910380988 H
   0.2295176622358696    0.1740813488256576    0.9034478284839649 H
   0.6291396308119783    0.2230403262362444   -0.1075041114589984 H
   0.5174448217145323    0.2479042627188671   -0.0347397475260701 H
  -0.3481924187490069    0.1871574499708452    0.6971126429701343 H
   0.9440247388567874    0.1962232649990291    0.8863592254648516 H
   0.7852327642651036    0.2706338231692134    0.8217644643536963 H
  -0.0230252034915668    1.0082037926564578    0.8624953356535375 H
   0.9674399438539227    0.3274183041741478    0.8794572977980305 H
  -0.0222878385972125    1.0280113874419017    0.7328222035912699 H
   0.1584898937723371    0.5001621508107810    0.9179165484093652 H
   0.1553629265227197    0.6260001174692457    0.9253329546293324 H
   1.1309017863339241    0.3770226336676087   -0.2166614218327336 H
   0.3104853663509637    0.5483026527207957    0.9049437738154205 H
   0.3950303934517312    0.5800736446193684    0.7546060170369409 H
   0.4308686655445689    0.5995813213713356    0.9215495585000428 H
   0.4221628857400784    0.4080483008054817    0.9497825584857664 H
   0.7029576288723917    0.3572239795281492    0.7795321071841349 H
   0.7964644881248406    0.6556245415455633   -0.0270609572439984 H
   0.7589515842822078    0.5593451632975310    0.7170435421190130 H
   1.0579639167595145    0.7910273738353412    0.9251667384813929 H
   0.1780256175477248    0.7703834222573563    0.7732562603412192 H
   0.2874809977565559    0.7212984630169893    0.7165306465767997 H
   1.0225117814860740    0.7077769551445788    0.8343731464331069 H
   0.3642316596777215    0.8687622267397258    0.7800117594967603 H
   0.4155104646297812    0.9140750461606737    0.8872615416965232 H
   0.4871260831765750    0.9586888696228409    0.6960963499513041 H
   0.6333863125059033    0.7554850549033478    0.7141070568387486 H
   0.5191589727976560    0.7099405914728041    0.6697289283498348 H
   0.7896111770701235    0.8663970194838522    0.6930078956214949 H
   0.8918674520576130    0.9202278361699395    0.3084747524181254 Cl
   0.7430549324508192    0.4679815147689230    0.3703712713943961 Cl
   0.8561189217842088    0.7323165900137673    0.7685491773326659 Cl
   0.0905182870862086    0.1798968326455120    0.2592019541251266 O
   0.1270094514984108    0.0714259082545490    1.0811012304126353 O
   0.5481208808913349    0.0854551635402738    0.2763602096252812 O
   0.5928584128580838    1.0279951317219300    0.0817758725664001 O
   0.8535666315067434    0.1626088744556723    0.2698896524376365 O
   0.7710543801140604    0.2591442802932579    0.0739496248159421 O
   0.0771681622961752    0.5021217778533623    0.1347393025480290 O
   0.1888950808519506    0.3793496399815491    0.2647401178733775 O
   0.3963197117015735    0.3906863790897711    0.2199789007387365 O
   0.3940695796601821    0.5944461394322943    0.1926782941924068 O
   0.4992346422445381    0.6656006768921591    0.0125824646955854 O
  -0.1535465289950428    0.4895057135833721    0.1450264990945512 O
   0.1844359827413850    0.6973830477947118    1.2252264607855095 O
   0.2627089623151421    0.8964782292913729    0.1434189514923364 O
   0.4358151687661859    0.8626663317503607    1.0066205660264116 O
   0.3728476976627785   -0.0390920176738427    0.3204803073321556 O
   0.7539482720189310    0.6723898783383147    0.0369022616555334 O
  -0.2257722272500953    0.9019157676218866    1.1045377072721048 O
   0.1915544026571808    0.0405027334310972    0.4333228671573494 O
   0.2747681222164446    1.1942342520119114    0.5773357037539978 O
   0.5457875935860649    0.2799954923008811    0.3493623418003096 O
   0.4696000821648303    0.2893945495884837    0.5455630913226291 O
  -0.3753677236484599    0.1582694100092429    0.6272860307262166 O
   0.8438020628968268    0.1760873046701580    0.4959000808347057 O
   0.6761058885145657    0.0042163089174021    0.4256832563958635 O
   0.1275100297205718    0.3482573243917924    0.6269535984303376 O
   0.1919108999765816    0.4554564825307740    0.4536526850612830 O
   0.4039642327423049    0.4960860290278922    0.5265669601295434 O
   0.5067177926741782    0.6291602294317326    0.3767341838386135 O
   0.8888129369190978    0.3500495175186656    0.6046640129916507 O
   0.9264386355256057    0.6322309349343754    0.5350020338847399 O
   0.1271930517344994    0.6755825017407449    0.4392789457918482 O
   0.1570400282308478    0.8538394758057599    0.5417796951933396 O
   0.5953629506077773    0.7403721120457136    0.6488917554419525 O
   0.5130787587011777    0.9790735424672781    0.6242537732845203 O
   0.5068281174797201    0.8460854973792873    0.4492028413293027 O
   0.7646596579898428    0.9293879343739589    0.6467032428274156 O
   0.9797979687135219    0.9943376635206486    0.5858562600995630 O
   0.7392824827568364    0.7705061529431422    0.4405026132428694 O
   0.2109188759881450    0.2334155395081439    0.9565578452779672 O
   0.2453056359006047    0.0871798954292648    0.7852895179465726 O
   0.5901142891500862    0.2036358733060972   -0.0409821928383046 O
   0.9149944952492280    0.2708313301668688    0.9077931934943833 O
   0.7099673706215339    0.2795565878616468    0.7926006539395115 O
  -0.0067975937099410    1.0636764370596810    0.8033872904353186 O
   0.1909393830322560    0.5598832276285923    0.9574839066736300 O
   1.1020362066152336    0.3836736614940054   -0.1450460072348004 O
   0.4168994045323891    0.3360590321250734    0.9901097619977548 O
   0.3910002447716688    0.5350851268118548    0.8810323936761238 O
   0.4011221340204304    0.6325064693878948    0.6963694193372046 O
   0.7254095501196448    0.4955073253969018    0.6898759084910350 O
   1.0848782293951105    0.7320231742682791    0.8821721615477089 O
   0.2415685889427285    0.7864131877213910    0.7222579801315150 O
   0.3952312833961511    0.9309322277712648    0.8120249895899080 O
  -0.0183747165429691    0.9359796288224591    0.9782450950567400 O
