Li1 Co1 H90 C51 N3 Cl6 O45
1.0
  14.0891281128999992    0.0000000000000000    0.0000000000000000
   0.0000000000000000   13.7500055312999994    0.0000000000000000
   0.0000000000000000    0.0000000000000000   14.2111067329999994
Li Co H C N Cl O
1 1 90 51 3 6 45
direct
   0.7761479960699407    0.7222678014923716    0.3173027584142344 Li
   0.6847598001729148    0.6851710891427749    0.6052768111667099 Co
   0.2423974375016913    0.0711589725089728    1.0320697495320119 H
   0.0486934710013641    0.0756353343446018    1.0671000965241995 H
   0.1339719914585603    0.1797000197545658    1.0533552134781508 H
   0.0022704422121559    0.1926054691084632    1.0403928169906034 H
   0.1388324767526999    1.0713018429024084    0.3163950177123760 H
   0.3426172657753206    0.2534367173647626    0.2936156518204654 H
   0.4544564077984011    0.1468185784365380    0.2245415101337695 H
   0.6127006924790585    1.0325898584753248    0.0626969723920938 H
  -0.0105302079455265    0.3045814240631832    0.3063106518221940 H
   0.7431161436891046    1.2509694069900303    0.0841703175532683 H
  -0.1867959058722969    0.1881683799843084    0.2634519208701801 H
   0.3379477078386756    0.3614017648420667    0.2129013189010998 H
   0.4404281444157270    0.4927348756462241    1.0418824968865992 H
   0.5661777284781949    0.4391162063066566    0.2135304043177367 H
   0.4680497258848940    0.4908977854761511    0.3285805570411234 H
   0.9127881049945903    0.5114282499445033    0.0076822564597651 H
   0.9723162740394928    0.4948081839030904    0.1676078725782096 H
   0.7232533106055038    0.4173516332438481    0.1339152116900789 H
   0.8784453127279079    0.4865401872291100    0.2553807690482287 H
   1.0591385380005958    0.7029114456426123    0.2736960209768907 H
   0.1769916868678912    0.7256758001214143    0.1609574405059111 H
   0.2421362431985016    0.8189586716868290    0.1138400686797516 H
   0.3298691383851274    0.8789848293579064    0.2740626356324475 H
   0.5773518053081057    0.8812241011843730    0.2622352668597046 H
   0.3735368511825352    0.7341252512678543    0.1750823080318075 H
   0.6287449784127656    0.8513884768229031    0.0359974332830873 H
   0.6708604305007277    0.7749339621242018    0.1342304580733600 H
   0.7032251017810247    0.9927120563354037    0.2756015727758309 H
   0.7204610867230352    0.9932066015910054    0.0142770982100117 H
   0.8327064994503163    0.6968830844313160    0.1392237356085446 H
   0.9212009747655362    0.9163040870725239    0.1164528138161863 H
   0.0822058357280139    0.1516193037780469    0.5424411702291589 H
   0.6223904333136955    0.0101349970574757    0.5496230176332741 H
   0.5834480661492119    0.1130862283699015    0.4883779635813675 H
   0.4197100419426054    0.0324055335531107    0.4869508403895541 H
   0.5163395359106161    0.2265494554535998    0.6192482775507419 H
   0.4322729201123297    0.1923756510190954    0.5398508723240337 H
   0.6473607506520610    0.1268534955589280    0.5902955712112306 H
   0.6592436719129381   -0.7709279614666303   -0.6243093377729542 H
  -0.0828725127235478    0.1976069216419516    0.5286151534599132 H
  -0.1310685397990821    0.3173036007635340    0.4979417507341580 H
   0.1427539401361873    0.3458824983578281    0.4723077162536430 H
   0.1114503707125986    0.4368824617506937    0.6510846438873199 H
   0.0464108599169668    0.4212293044112253    0.4990297729614553 H
   0.0894731413539917    0.6183289342136120    0.5461078093572010 H
   0.3343811280193048    0.5370518032731171    0.3845206055493778 H
   0.5185358024043296    0.4248061756996073    0.4143240549187704 H
   0.0705578473865820    0.8397499360502675    0.6390722085993920 H
   0.0035636379197964    0.7281208900469034    0.6327011354872778 H
   0.2697880607473314    0.8593419281688722    0.3696167698397935 H
   0.1002445672920559    0.8208546709241132    0.3653736098148268 H
   0.2813182277454767    0.7498968812869368    0.6212607879440096 H
   0.2025063955936114    0.8872073715047174    0.5496921185146094 H
   0.3708638681776097   -0.0054984511990121    0.5994729000745167 H
   0.4674277569504235   -0.0628089735988890    0.5568510964824375 H
   0.1732803145543608    0.0538455249283089    0.8375585089977946 H
   0.1275720212632832    0.2167000048703464    0.8104065068877842 H
   0.1632222045801708    0.2590243514806258    0.9243209282214038 H
   0.0414751393072344    0.2733545275341165    0.8941318649724619 H
   0.3019589656016208    0.0096542699781336    0.9401508001818764 H
   0.0025713834745267    0.0906367828553282    0.8077219869051561 H
   0.3196853996292402    0.1390760360966343    0.6733510307314360 H
   0.3363876396908195    0.1844585632948617    0.9705995194920475 H
   0.3477503016467017    0.1850912903130579    0.8223640555286229 H
   0.4802998096812060    0.2820163422314914    0.8402606208544897 H
   0.5770561163224838    0.0784796968367457    0.7317687187832903 H
   0.4568996391839176    0.0284978987614235    0.7462165731170574 H
   0.3472172665333987    0.2627836226956325    0.6676540782335704 H
  -0.0738229818385769    0.1402396719921674    0.8952992617355497 H
  -0.0234969436112153    0.0202491748069629    0.9096563419991309 H
   0.1737295971465323    0.5916591267604271    0.8287822748632367 H
   0.6370258314978602    0.3528119501157280    0.8922868292203121 H
   0.5830482543258781    0.3889952082873312    0.7712807716127932 H
   0.4473769065545538    0.5729202252077351    0.7518065670205955 H
   0.6205684610955213    0.5328855504036476    0.8464846258994034 H
   0.5231413109553228    0.6490431036762095    0.9874082033256094 H
   0.3474742022338190    0.5337267864288746    0.9765082781536800 H
   0.5967238344225333    0.4906257855855704    0.9640982665118374 H
   0.3987790093310140    0.4169850152095116    0.9560573727132811 H
   0.4251007232815351    0.4534515459944337    0.7816853096109949 H
   0.3421282362239680    0.5492336892817232    0.8159036156962484 H
   0.7806379829231427    0.4979724008120188   -0.0011284577479642 H
   0.1305168450783220   -0.0186504459082755    0.9362714401126158 H
   0.1378224781292243    0.7291703441701872    0.8429507702368193 H
   0.2934580847067740    0.7479921547804359    0.7382608239889855 H
   0.1497139165956402    0.7662219656288322   -0.0185866335720807 H
   0.5527702984025862   -0.0453202533614605    0.6956385278244325 H
   0.5290757874772195    0.6822750903077668    0.8642545297319877 H
   0.4193778709265923    0.6768343652237147    0.9305041201184819 H
   0.7598751651209424   -0.1025282303480436   -0.2243897462324408 H
   0.0635339918855881    0.1446527611259769    1.0310620869854528 C
   0.3913023224022074    0.2426309035298679    0.1474806576206439 C
   0.5381188594813235    0.2590665332818389    0.3203363011783524 C
   0.3801249096667940    0.2993079716391139    0.2383645011006758 C
   0.7254968844978484    1.1110610996354719    0.1237203688307560 C
   0.6854603403284808    1.0165571376521820    0.0802381818618067 C
   0.4753788522277410    0.3439624991301984    0.2797511440307610 C
   0.8391589924130827    0.3826708471951086    0.0571330144621749 C
   0.8429363730695387    0.4885192409784380    0.0416606093827443 C
   0.9148989524339554    0.5312395147021726    0.2084090579393441 C
   0.9507010259162848    0.6147682083732806    0.2659872617607199 C
   0.7318038751993269    0.5658940462160190    0.1707089681387449 C
   0.8339031668285172    0.5591507762014044    0.1246414793569055 C
   0.3205392494845045    0.7276947084001644    0.3047168280317215 C
   0.1757574018318940    0.8025819510020694    0.1517357801199761 C
   0.0917813040550055    0.8327935752122835    0.0956859583175435 C
   0.1828934005391487    0.8452786610989195    0.2489111814413392 C
   0.1706023631795376    0.9565957072277937    0.2453956213277848 C
   0.2776437633226144    0.8301026672038629    0.3020337153990186 C
   0.5354641884683065    0.8213506707245843    0.1545624424450658 C
   0.6305236548361175    0.8422757532160092    0.1138456980794530 C
   0.6906494478029923    0.9266917192574613    0.1488084922752230 C
   0.7943783647586056    0.8932670054307064    0.1572321852534777 C
   0.0667911132370494    0.1856781991678674    0.4102849606329813 C
   0.0123186154465506    0.2821487058146083    0.4385994337813408 C
   0.0822498412899644    0.3083996043454013    0.6118139515700166 C
   0.4351929020778803    0.0094826336835424    0.5583186809846050 C
   0.5957088674291602    0.0827727860188283    0.5545889222124105 C
   0.4556563401053918    0.1774847479184447    0.6112559373246106 C
  -0.0898005496622302    0.2528774448624719    0.4714188340407843 C
  -0.1548159283755021    0.2125705519860731    0.3994772168811632 C
   0.0744189805641696    0.3493232242464326    0.5116868167356969 C
   0.4621232413408612    0.4193541778928171    0.3625582062891400 C
   0.3658372973754634    0.4029484390379127    0.4119378931203190 C
   0.0742713490014971    0.7620321491324781    0.6309081716823666 C
   0.0965630051979112    0.7531877890539914    0.5278525105353594 C
   0.1592979021281705    0.0533524342175768    0.9119207680290384 C
   0.2521006639117648    0.0724906083369235    0.9545585450427706 C
   0.1041326716205163    0.2256120012852609    0.8857173197687220 C
   0.5220109003385425    0.0308128069210997    0.7045167948285791 C
   0.3750600114397232    0.1909341970535037    0.6810942700207780 C
  -0.0083029586971313    0.0943633268107731    0.8812067632579367 C
   0.1402867895984493    0.6110627553184422    0.6981316482172113 C
   0.5721574455568452    0.3881457540835920    0.8502774339482543 C
   0.4165764200714567    0.5283152976966977    0.8047165911395452 C
   0.4114476428028450    0.4935433844118893    0.9711730145866324 C
   0.5718275457956425    0.4909844763503685    0.8902053586807017 C
   0.4886140927980404    0.6453420142559794    0.9186246793985007 C
   0.1407020033684657    0.7234714373718136    0.7017119464273325 C
   0.2358100887845608    0.8805310105540961    0.6894870013006749 C
   0.2416961875789971    0.7709797818966933    0.6839758189929570 C
   0.5003939558718979    0.0752615163131618    0.6096768907083543 N
   0.0806329917718496    0.1324287660434012    0.9260259326559799 N
   0.4749571795768577    0.5379354392812876    0.8960796372691630 N
   0.7196086564020274    0.5218444639361248    0.5890993237746728 Cl
   0.5355462375483301    0.6812939997933453    0.6603196740975459 Cl
   0.7177107391011323    0.7828255953132206    0.4688056666993720 Cl
   0.2188147148990213    0.6576191002262888   -0.0594919628276920 Cl
   0.7892935930519442    0.7427739750614045    0.7181884956785090 Cl
   0.7605735759751238   -1.0300114936070854    0.8395689083661744 Cl
   0.0760989993566971    0.1624963903115430    0.3286171481391829 O
   0.3624013147076875    0.2651894399096473    0.0674953319626158 O
   0.4300470903981909    0.1517778491688133    0.1546067739677147 O
   0.5171030593816072    0.1738912948185513    0.3133607712732953 O
   0.8986580610057275    0.3284752326330870    0.0297579473889945 O
   0.7368659343578847    1.1798145265230480    0.0616140166245277 O
   0.7460723237781951    1.1193127326796715    0.2082612861971811 O
  -0.1378340400653991    0.2256207285544774    0.3068989240909953 O
   1.0394794080827978    0.6405667434496852    0.2425865508767620 O
   0.5213135257443685    0.3880330268562123    0.1988074130735613 O
   0.7668791471423457    0.3533232226373279    0.1146169258385514 O
   0.6808645981731720    0.4903533493315286    0.1708285928824007 O
   0.8592503705119743    0.6510300119678324    0.0894239548246450 O
   0.7137800487449778    0.6418103793130362    0.2190577711495962 O
   0.9058962661794479    0.6627820072402825    0.3224311415422539 O
   0.0956417274654648    0.8107128568221071    0.0058231472083618 O
   0.1891563856786768    0.9976298725389008    0.1704633855767692 O
   0.0268681318081991    0.8809688285597904    0.1263767418148769 O
   0.1068347550776994    0.8039324959133225    0.3006101809495149 O
   0.1587166028501477    0.9992909627797743    0.3254611659315584 O
   0.3476928105093148    0.6876641790489546    0.2253261077171589 O
   0.4758179851499787    0.7767463250314947    0.1072452269295049 O
   0.5186512460277367    0.8457062972905278    0.2402222030021537 O
   0.6621281655220770    0.9425731674141846    0.2444358086786878 O
   0.8197922865521166    0.8295033947176634    0.2164999126602506 O
   0.8549470524134977    0.9463258931772790    0.1055557033441077 O
   0.0811078259806374    0.2216374574295805    0.6305246688277054 O
   0.0971272700648565    0.1252025871321403    0.4786014554873585 O
   0.3470313075458016    0.3264112334633850    0.4527982575458150 O
   0.6149357491658642    0.2880650670709596    0.3654580508103485 O
  -0.2276749436228770    0.1694985693129137    0.4220370361847173 O
   0.0029731116691065    0.3462286800367492    0.3583178609640241 O
   0.1147408511190869    0.5609522300221768    0.6285607120068626 O
   0.3155219056550254    0.4823797525391182    0.4241318765486187 O
   0.1093345549033360    0.8263652141618975    0.4787320575604321 O
   0.0960384872901470    0.6676183689310921    0.4917006463876510 O
   0.3196428136015463    0.6713274583481039    0.3738704849892003 O
   0.2225218286097823    0.9284488094597164    0.6021327914334509 O
   0.2894805497201562    0.1608905727757073    0.9209911382979971 O
   0.4046899499749385    0.1827582003425139    0.7769573175367410 O
   0.4964130849797775    0.3300592319958814    0.8858904238095415 O
   0.1704036283836324    0.5564140500295974    0.7669939837401403 O
   0.0926898059791437    0.3726323057788310    0.6772120952516668 O
   0.1061704130456732    0.7562874241707179    0.7875764763985605 O
   0.2401254729242175    0.9291477182694710    0.7595033637624007 O
