Li1 Co1 H90 C51 N3 Cl6 O45
1.0
  14.2930774330000006    0.0000000000000000    0.0000000000000000
   0.0000000000000000   13.9490458307999994    0.0000000000000000
   0.0000000000000000    0.0000000000000000   14.4168217732000006
Li Co H C N Cl O
1 1 90 51 3 6 45
direct
   0.7749145184106973    0.5116634142559605    0.4520127937430664 Li
   0.5957053864370540    0.6827016364354319    0.5145868210974853 Co
   0.1768515721998328    0.0488346245085734    0.9227977633274888 H
   0.1504548775923503    0.0901743696778621    1.0727538378361452 H
   0.0493898685506408    0.0333855391292590    1.1051729110100144 H
   0.1468426394132724    0.2995191546489014    1.0674988654717901 H
   0.5817650015945310    0.2280397135391423    0.0822671532781767 H
   0.5080616298092646    0.0573441671281773    0.1094978429666476 H
   0.3970707667543076    0.2028473093946185    0.2256836449659329 H
  -0.0196603415686540    0.3050499989041874    0.9631374449264597 H
   0.0508199314671690    0.1670721025415358    1.1166789143864562 H
   0.8546832040100374    0.2816498320426466    0.2349533718240695 H
   1.0673476924134984    0.4352630630830603    0.1310178426504015 H
   0.2257017938034702    0.5781511160851551    0.3448701083232172 H
   0.4179731932191793    0.3163145686751929    0.1940116157778624 H
   0.4623788856234345    0.3610810715295453    0.0380653166997008 H
   0.6704877420921197    0.5966928861199853    0.0000104660113043 H
   1.0084849314759883    0.3673323951725904    0.2504214134984518 H
   0.8105989259423052    0.4350111462105642    0.0018055912051566 H
   0.8552317212930893    0.5142258117441871    0.1534659248346183 H
   0.7584666959524475    0.4386061591317544    0.1888912084397328 H
   0.8946682948821048    0.5778048558420827    0.3194789364159329 H
   0.1861637725026659    0.7208633864545350    0.2416108724514561 H
   0.1377529244369833    0.8622687573971635    0.1251892348391982 H
   0.2290852499014794    0.8404091977040750    0.2755226463286108 H
   0.4332652114024268    0.6556646616792617    0.1655192055599879 H
   0.4162387871672842    0.7870041111457440    0.2070200307357712 H
   0.5825166241929783    0.8580505477279343    0.2956526031641377 H
   0.7802310781478295    0.6817130383501384    0.0053951479614314 H
   0.7059790491516328    0.9848606551328615    0.0561011920188617 H
   0.7716332096638687    0.8456317771466877    0.1688694585325111 H
   0.6881942158159440    0.7739594913052796    0.2200825491578326 H
   0.2709194876856720    0.2910397216156518    0.3034781837098948 H
   0.1493578430262465    0.1855737264612271    0.5284160410973208 H
   0.2689122222710343    0.1472320358189127    0.5551165168370967 H
   0.6204180490288400    0.2762853074072215    0.5629653341270731 H
   0.7491936754555467    0.2989571090369580    0.5571214663644420 H
   0.3630347096294220    0.2901443198690734    0.5931169172456258 H
   0.6857034995816775    0.2059679529517486    0.4896062389923865 H
   0.8608218400323558    0.1662698971336725    0.6295292422544463 H
   0.8083334935921493    0.0904611276431394    0.5487122620399933 H
   0.9026763673589062    0.0250674074514777    0.6742714198402919 H
  -0.0234537863501687    0.5217663275096277    0.7231934368489998 H
   0.1806303245541229    0.4099874274391147    0.4996108018751795 H
   0.3115440489617055    0.3949292648559645    0.6050155175542514 H
   0.0503973492746137    0.6585515974946911    0.6184935228356382 H
   0.3878026437331483    0.6803100750050193    0.5823759923430333 H
   1.0133929018083982    0.4389634595564899    0.3547072279207997 H
   0.1076530385295087    0.7776493494234853    0.5434447348974182 H
   0.3406154649634578    0.7869503440272544    0.4240671753302104 H
   0.3681091941370441    0.6689006924615487    0.4287062005642135 H
   0.3996342454853054    0.8038181644397784    0.5864483184717464 H
   0.5039987538980263    0.7282581574841233    0.5856180383872515 H
   0.7869014401078002   -0.0188545931951330    0.6553789063387158 H
  -0.0718597369401098    0.6908742384458351    0.5849320342071633 H
  -0.1365749813887544    0.7882400379760892    0.7303767121664843 H
   0.0651226595506264    0.2241670472180724    0.6793044292747905 H
   0.1684565991394500    0.2049972772392850    0.9508649758078567 H
   0.2664928692547160    0.0108714543804250    0.6465170363641907 H
   0.0819783717742068    0.2086319344491747    0.8627117045811493 H
   0.2703003068240636    0.3342842565692949    0.7418383229569547 H
   0.0684480455791287    0.0210076315580644    0.8526817546882538 H
   0.5684764707732064    0.1271080787106650    0.6501038185838423 H
   0.3781826020979901    0.2994367117338843   -0.0331924137599840 H
   0.4590903006269329    0.3345064939923848   -0.1685135012153762 H
   0.6549361576945709    0.0425116113742090    0.6746376586745554 H
   0.6388430524078866    0.0864386302852121    0.5445272203609626 H
  -0.0695019521902565    0.1180350566892913    0.8885814840559370 H
   0.6361018652714103    0.2481471820643865    0.7245592025017737 H
   0.7228550509175711    0.1680614175217425    0.7768897377520921 H
   0.7546116829044678    0.2739654354681282    0.7173350027690970 H
  -0.0623369451803907    0.0484181085640082    0.9912247727973459 H
  -0.0843469008022410    0.1788198594840335    0.9942628903997582 H
   0.0791049527927090    0.3668807513772786    0.9340089721877147 H
   0.4393331838461887    0.5785941571415085    0.7067279492585744 H
   0.2989925182755427    0.7048630088869748    0.7133091501288228 H
   0.3628325138452358    0.6544287348489166    0.8709832918890869 H
  -0.1108352481700293    0.5624210078998688    0.8070981988714206 H
  -0.2336982220979198    0.5263580394286305    0.7783782766504429 H
   0.0920622743260276   -0.0298252360517293    0.9668254977328583 H
   0.2663949197398853    0.7336785999227775    0.8843392175590524 H
   0.3369248671725152    0.8268570162650698    0.7306250331942613 H
   0.3701031664032405    0.7893139465560526    0.9775241109519468 H
   0.5561773000156111    0.6312801981019066    0.7136379327186729 H
   0.4871093190557684    0.6312142437698930    0.8103090313786275 H
   0.4798418148750262    0.8166176062199306    0.8152067821527448 H
   0.5824700282094946    0.8090192370349955    0.7454105388593346 H
   0.6123554046794899    0.8649994101215166   -0.0127697433107087 H
   0.4848915321481838    0.8861743351725055    0.7045020772526061 H
   0.6714903253403511    0.7792974908289165   -0.0860355446514399 H
   0.8168683945308618   -0.0006461792949377    0.8200074241450497 H
  -0.0810439032342714    0.7841465680217558    0.8576336089265236 H
   0.0551192155288452    0.3050614692227985    0.9711093822790908 C
   0.0771263725931289    0.1037150807982561    1.0770252369675732 C
   0.2855426506105042    0.2746149422594813    0.1623652510535566 C
   0.4457404813948999    0.2955941549991685    0.0029923992457336 C
   0.4000197467901034    0.1176966822902640    0.0450176118433032 C
   0.4421401370854800    0.2160095000008465    0.0802757296168695 C
   0.3851531093569778    0.2481357117457755    0.1665180387443426 C
   0.8553408650381864    0.3656204501198849    0.1161539563257226 C
   0.3356480252827579    0.6191797288621178    0.2407889159768308 C
   1.0286919163855621    0.5151876696492186    0.2315774543877816 C
   0.9876468718351482    0.4354480219706641    0.2820483564663951 C
   0.8340802232047910    0.4460348392907368    0.1819860804187250 C
   0.8718222701872351    0.4441987280390662    0.2838122681245994 C
   0.2453798513329582    0.7744770894326051    0.2382432786250379 C
   0.2687897853774959    0.8094336022948211    0.1407287208316281 C
   0.3288223433778413    0.7238506875578112    0.2855199954161836 C
   0.6072382421689774    0.6954100325616087    0.0836252889552368 C
   0.6411812472547738    0.9128578807364713    0.1826276920128417 C
   0.6990134393683866    0.8234997973865859    0.1631122950393553 C
   0.6933029826537567    0.7643043506143929    0.0730397381035441 C
   0.2178161582202071    0.2764932069320476    0.6318321076517087 C
   0.2070319166373469    0.1752418369722860    0.5858261286339921 C
   0.1210259458614660    0.3367998408196899    0.6220830795919130 C
   0.2977282698948351    0.3265296042932835    0.5748330677157656 C
   0.2845274738532230    0.3256815176109759    0.4738438883456974 C
   0.6924809063685705    0.2466094424755870    0.5557930182292503 C
   0.8268473511739353    0.0399013969952724    0.6864779937140938 C
   0.8050934635694281    0.1166657874050922    0.6223216897415088 C
   0.8334610423431825    0.3607362450762993    0.3419651684787188 C
  -0.1573773594206204    0.5404962107696798    0.6656974080404247 C
   0.2256276320279556    0.6829382117567857    0.4364270423524444 C
   0.0116058432046976    0.8129420859999889    0.6264897373837224 C
  -0.0112366832932136    0.7005128905537182    0.6359009656096426 C
   0.3200376711763106    0.7191120121816038    0.3924409259964229 C
   0.4325193958109301    0.7390395400836365    0.6104702565554776 C
   0.1623578425624556    0.1073540393776251    0.6554045708024804 C
   0.0988466775068370    0.0344515618651773    0.9234345194825149 C
   0.0958277335318764    0.2090699572411358    0.9336031962065706 C
   0.5279383149620414    0.2720355543618119   -0.0684921495828983 C
   0.6340820063477228    0.0990638666014584    0.6250525274129010 C
  -0.0477970393431647    0.1185117918065648    0.9590019980895688 C
   0.7059335725911756    0.2186197143797831    0.7242810552052972 C
   0.4818846219707597    0.6375358231144310    0.7363246250524855 C
  -0.0811530469793685    0.5690099890470280    0.7339530898737989 C
   0.0132597907265532    0.6916269781046879    0.8122643860638331 C
   0.3411492898192851    0.7277305228280130    0.8591415695812370 C
   0.3462356681965651    0.7507084385856830    0.7546428094730578 C
   0.5073900459572218    0.8236869069589292    0.7465924914608210 C
  -0.0566586718777766    0.6724679615495984    0.7303975211911583 C
   0.7645185766902016    0.8942207636781865   -0.0330980795147949 C
   0.6798615106614179    0.8268534317905039   -0.0203019166085615 C
   0.0565968539240055    0.1175253444060109    0.9725861293967931 N
   0.7074965669921170    0.1727606636777242    0.6290554901260337 N
   0.4436030830534157    0.7370487229096988    0.7090793690467427 N
   0.0546525560546160    0.9149232549813811    0.1943057166599224 Cl
   0.6021350724462979    0.5193798560330987    0.5062203654460588 Cl
   0.3705572323684199    0.9949910971511954    0.5804121059577114 Cl
   0.6735752507274618    0.8043078036654894    0.4601730527689978 Cl
   0.3678293383803849    0.4310779739588208    0.7921649491311614 Cl
   0.7604585693004691    0.5438089821635458    0.9197249640172862 Cl
   0.2447466776835169    0.2656946188546177    0.0864532354084412 O
   0.0757082035462586    0.3216970156834478    1.0696095942078951 O
   0.2446627209565191    0.3027724237649725    0.2407604769764430 O
   0.3307358571139982    0.1138405045521976   -0.0064930478348573 O
   0.5311720482302379    0.2106542949992929    0.1299114961718975 O
   0.4574944931385233    0.0405824471628060    0.0659112598843680 O
   0.8892621813028416    0.2893836943661753    0.1409853654692748 O
   0.8266234665686080    0.2771656543606228    0.3022622430347740 O
   1.0908031030184933    0.4958635521956206    0.1646313538405615 O
   0.2815777941780356    0.5578049215538176    0.2663521091547539 O
   0.3892809817677002    0.5976965389984559    0.1695513009076643 O
   0.6132173604100002    0.6125928983996983    0.0380930620659329 O
   1.0210021798319604    0.5980442330313546    0.2612136673285735 O
   0.8515656108808545    0.3846167315296796    0.0275775682639761 O
   0.8438359948819287    0.5312327814593619    0.3302580111970944 O
   0.2019868169841741    0.8464131926020685    0.0895364392309806 O
   0.3413486870459048    0.7865409970318211    0.0976429416098374 O
   0.4131890590590912    0.7749423542312677    0.2746382627799634 O
   0.5967149660792018    0.9224994004240074    0.2644952505196723 O
   0.5375864121368047    0.7219344274548456    0.1262303797070568 O
   0.7710923884141250    0.7044694335796318    0.0695424346899909 O
   0.6337083989125829    0.9813801303293084    0.1303138039822626 O
   0.3263057404860839    0.2720104630398502    0.4200052537138346 O
   0.1858874149429650    0.6017505797325636    0.4021420932994683 O
   0.2193273793061665    0.3827994029247347    0.4472398277535779 O
   0.1136832304461217    0.4160947985835906    0.5859260119524274 O
   0.8047513399069123    0.3802658963015098    0.4189772878949361 O
  -0.1535335406029071    0.5455732605449143    0.5793124183671031 O
   0.0762126435476368    0.8353622575151944    0.5636684017073939 O
   0.1921288979558556    0.7267956918612090    0.5041774117033170 O
  -0.0366636777038721    0.8771385916866179    0.6699500790496462 O
   0.0507751545461036    0.2940614336747613    0.6631476088836969 O
   0.1989063047427485    0.0232393254228349    0.6719269363936815 O
   0.0893056951229350    0.1317026582093205    0.6960113015514351 O
   0.2388948938117741    0.2729180519999528    0.7286648230699652 O
   0.5183551443228230    0.2953826709997764   -0.1603542826406785 O
   0.5970871742355585    0.2312492520655085   -0.0404825087374619 O
   0.8173371529232659    0.0579951077093568    0.7855192402844234 O
  -0.2375252495702337    0.5173374941149025    0.7095004049793145 O
   0.0906322114094993    0.6588519764633191    0.8217331859246848 O
   0.4009495675416034    0.7838583762666520    0.9181164264099817 O
  -0.0205467846778718    0.7562098901495280    0.8787610116780936 O
   0.8303728340684489    0.8833483354246977   -0.0846663108278870 O
  -0.1448167334223663    0.7198869755827658    0.7347757399825798 O
   0.7589200622782354    0.9769124412302881    0.0098808800470023 O
