Li1 Co1 H90 C51 N3 Cl6 O45
1.0
  14.5421554433000004    0.0000000000000000    0.0000000000000000
   0.0000000000000000   14.1652465019000005    0.0000000000000000
   0.0000000000000000    0.0000000000000000   14.2118568437999997
Li Co H C N Cl O
1 1 90 51 3 6 45
direct
   1.0147470420898852    0.5503676728572496    0.4732654921185930 Li
   0.1761237687003290    0.0826469735308151    0.2244700645497787 Co
   0.4466512029131529    0.2889172985553803    0.1743823098092330 H
   0.5135706498819557    0.0798281027123902    1.0077906483661425 H
   0.3099189277182741    0.0055660699366880    0.9942892458324047 H
   0.6364468635881755    0.3185440332503049    1.0954315536812964 H
  -0.1251101176434087    0.1461707533590944    0.1319642073314423 H
  -0.1066940031241964    0.2905981729402212    0.2655174805497854 H
  -0.1125191368418413    0.0442219450692918    0.1953260895891322 H
   0.0851592617427678    0.4029124909287294    0.2368899757506858 H
   0.1910575933899872    0.5321211848794138    0.1091600091494583 H
   0.3920106097013610    0.4877624086367471    0.2033538935034231 H
   0.1779089235971542    0.6606503283543117    0.2819052054304792 H
   0.2173783132786161    0.6551071844358866    0.1122672737726075 H
   0.3708479972399608   -0.1710612834711336    0.2449958834632489 H
   0.5147296940185500   -0.1401158283432470    1.0644672676744347 H
   0.6514583934023873    0.7687748145603628    0.2429525192273736 H
   0.3955692293435299   -0.0426342914130718    1.0629558536321964 H
   0.4929957082120911    0.6657374265555561    0.2878270213427127 H
   0.3436539542700653   -0.1166887739707383    0.9733834624949081 H
   0.7835791101345969    0.6856347153152114    0.2818700235393656 H
   0.6535536811414575   -0.0457298958555443    1.0876521339182672 H
   0.2209025501223099    0.2102444706698564    0.6007291318040908 H
   0.3027913735943939    0.0597190280159638    0.3962991243862026 H
   0.3153926692355039    0.1965842777481133    0.6775143127972464 H
   0.2867889315281309    0.3491711035199122    0.5188213267372372 H
   0.5628989631981566    0.0681876416743220   -0.6996350783844082 H
   0.4380007658792153    0.2613653600876911    0.3201718447568705 H
   0.3211724176591617    0.2156245394169677    0.3357278697316398 H
   0.4916145511973479    0.1923217327940314    0.5709814355919357 H
   0.3923461858144776   -0.0171098503134055    0.4315847317147601 H
   0.3751279679941364    0.3850434054902198    0.6927248516012807 H
  -0.0233796688273363    0.1800903889923715    0.4065187601168680 H
  -0.2935858301712092    0.0928063449177300    0.4831819795662893 H
  -0.1167097123199818    0.1008393854994620    0.3786110768099518 H
  -0.0512881863495436    0.1000917811426597    0.6996831260257196 H
   0.1254868460741672    0.3666497968816402    0.6205393510523114 H
   0.2135618226478843    0.4711064330440630    0.4788478027815807 H
   0.2521957103264022    0.5966860337775481    0.3647613735541897 H
   0.3630850490002615    0.4449543996184314    0.5452848637777242 H
   0.6172812040622069    0.6322463044676795    0.5031938825235074 H
   0.7711538544216793    0.6104436482302060    0.3847503168092671 H
   0.8213348611400617    0.4854633311024710    0.6613081264746986 H
   0.9762458720134811    0.5315585402407250    0.6852838816307639 H
   0.0438435157831951   -0.0638884220743079    0.4364164719127313 H
   1.2171461989051202    0.7448846549394477    0.6208053261491298 H
   1.0756080336705913    0.8065623673522045    0.5893442718397445 H
   1.2085367461669649    0.8184929751236495    0.7230980818374348 H
   0.6588300653954404    0.8887755501474207    0.4048631003210641 H
  -0.1298790117918998    0.0291385506524462    0.5791211179199678 H
  -0.2238987742219549   -0.0479755327384417    0.5604022409340899 H
   0.7849750517526844    0.8867473468262751    0.4031469276725449 H
   0.9911040545464941    0.7770994137817164    0.3976852908960767 H
   0.7254543016565362    0.6936423415845308    0.5373130694340861 H
   0.0214596263199607    0.0671901299121296    0.9722829729408762 H
   0.2051222209341957    0.1682374360644094    0.7240451783462117 H
   0.2120145967165065    0.2657683897131645    0.8560961848140061 H
   0.0913770470189979    0.3004193927814248    0.7269293897797009 H
   0.3260073267807248    0.2826307859988883    0.8167557941708290 H
   0.3241657840944006    0.0535941787245404    0.8347844024530591 H
   0.4173156617230366    0.1382047783240066    0.9553105250298751 H
   0.5069751558113575    0.1001567288299361    0.8781207522889136 H
   0.4367101043900585    0.0336029981995833    0.7791414271056830 H
  -0.1511942838785293    0.1952577918308029    0.5827350017751521 H
  -0.3130189878693139    0.0780173329529964    0.6631016992836676 H
  -0.2542794149545191    0.2471587594490783    0.6319833165937284 H
  -0.3242277801721838    0.1788909746371238    0.7585424298586967 H
  -0.2333815500413769    0.2302201202261169    0.8306561593497945 H
  -0.0759915393979056    0.1787596673563257    0.7942654184575780 H
  -0.1509886747436484    0.2742031176216393    0.6826649416562708 H
  -0.2720759514452109    0.1051005185472988    0.8456337940346571 H
  -0.0998841460582258    0.0531628413666497    0.8094963627584582 H
   0.2769836450590129    0.4617233277107268    0.6970444841922030 H
   0.2535036319803936    0.3869360658118319    0.8405380489257698 H
   0.1339869615131719    0.4214444663493329    0.7316346158972278 H
   0.3550291593175546    0.5205975026068812    0.9225829226404019 H
   0.4926815181996260    0.5873949847313952   -0.0200848896831188 H
   0.5391251834893663    0.5159902619216417    0.7122142120025455 H
   0.6269276420023701    0.4627757626258552    0.7885624339080708 H
   0.3911689187946916    0.6598180096228008    0.7639660701927624 H
   0.6682000656358641    0.6556980671994782    0.8926740933669467 H
   0.7525534481026406    0.5814694966017858    0.8643470419179570 H
   1.1009488438026809    0.7170446875977495    0.8556120819922836 H
   1.1136271569123752    0.9722954521725152    0.8498872846702858 H
   0.3693516578503261   -0.0717026171880429    0.8063750253788636 H
   0.5597889703104904   -0.0610984953339084    0.8703589234714412 H
   0.4746582615357897   -0.1445598032498295    0.8845287819363364 H
   0.6414880695005890    0.7356726726430226    0.7150709815609663 H
   0.6042274307931651   -0.1782789481962965    0.9804416534901096 H
   0.9879098925681609    0.7104433199485909    0.8188195639035502 H
  -0.2361046676806017   -0.0139605934336176    0.7101532568211135 H
   0.8849561037823458    0.8048377238737644    0.8483962761248934 H
   0.0282928636888944    0.2413755914689791    0.2457895869267706 C
   0.0021557479441222    0.0716192798031381    0.1066008783898584 C
   0.3610268946835443    0.1874725407950933    0.2072935616703190 C
   0.3905183962475434    0.1973142332768514    0.3085899662022882 C
  -0.0723813455580242    0.1047835455952645    0.1710020337110427 C
  -0.0507470011015461    0.1698392436995223    0.2547025672214786 C
   0.1473543059043062    0.5074034646510340    0.3045700833236535 C
   0.2931160541035117    0.5738336252468120    0.2165210680715821 C
   0.2180845359592938    0.5908139157040051    0.2921171011450996 C
   0.2519577813609548    0.5849749774272228    0.1193001338062071 C
   0.3257473928242534    0.5728030042831710    0.0370089868537802 C
   0.3351737808541762   -0.0416869023225819    0.2932401071094443 C
   0.3681351944402785    0.6552024881074335    0.2281233521230102 C
   0.3656603206060435   -0.0476098490209501    0.9920692685031395 C
   0.7247838370862726    0.8812338529389979    0.2669550126206852 C
   0.7200073787221171    0.8542127912194818    0.3733647532070985 C
   0.7920854144773271    0.6828320814186057    0.3617399527453577 C
   0.0249288506860944    0.0512624155606894    0.3733584204666980 C
   0.3654767164621867    0.0237401271241481    0.3694215668510912 C
   0.4383716875091642    0.1067616262447076    0.3407849147603022 C
   0.4978073333025269    0.1321914696259494    0.4366870206553945 C
  -0.0421045408768547    0.1254185553680061    0.3535235738946981 C
   0.3041261138311959    0.3943817533955851    0.6654096313407168 C
   0.2989006161189560    0.4113048616498499    0.5620705662106946 C
   1.0541703588213904    0.6373185776533500    0.6601513458948849 C
   0.7120518868109573    0.5679300922593146    0.6741431839907456 C
   1.1962483339919781    0.7492587404868957    0.6941398672618679 C
   0.6253535974881816    0.7033795530041486    0.3841100063910003 C
  -0.2026983406822321    0.0309472025524724    0.5690372842890007 C
   0.7167169449080537    0.7553285254347586    0.4079281466748769 C
   0.8934211487669059    0.6968996092920720    0.3829623731028762 C
   0.2436240786665694    0.2198856724648044    0.6748545618290618 C
   0.2553499882585043    0.3127721605201669    0.8190116570290301 C
   0.4702659277961976    0.0830656037324995    0.9418583771436964 C
  -0.2437170192629803    0.0539577445826644    0.6694886197964223 C
  -0.2586322772414619    0.1660553349625433    0.7977688311746658 C
  -0.0998813954343478    0.1127417551460040    0.7574412366668425 C
  -0.1837644212179854    0.2128211995672394    0.6480178152876421 C
   0.1396566849817095    0.3538798108474588    0.6974117831354285 C
   1.2625865053697614    0.6752226127104161    0.7346616658086380 C
   0.5180179960991079    0.5420117999125661    0.8527961234275546 C
   0.5841038665016811    0.5272570266742772    0.7731126582444643 C
   0.6518372918415825    0.6105269506986692    0.7562246468721358 C
   0.7141327337746680    0.6386718897893180    0.8375799555209421 C
   1.0895206892455400    0.7331262997299101    0.7057871841339214 C
   1.0512299418958033    0.7502287200773079    0.8060999029903556 C
   1.0398478602886190    0.8549074490920914    0.8274370163129042 C
   0.5625491526064713   -0.1147770529148168    1.0098459744449964 C
   0.3863821455909935   -0.0029011318154250    0.8276523294865193 C
   0.5088747160318287   -0.0858499177643598    0.9212896363230676 C
   0.7730146514751496    0.7267084798926198    0.8096722722140259 C
   0.2360536740983304    0.3168229195374776    0.7137411060768738 N
  -0.1943845800109623    0.1362464643619955    0.7140647794751186 N
   0.4326785837376636   -0.0106750876011736    0.9234476935239730 N
  -0.4338745245091544    1.3471840924293375    1.2144779259178764 Cl
   0.6758309839294192    0.3053660063112777    0.0142153432391303 Cl
   0.9320859809640514    0.4278898183584033   -0.3877053953934087 Cl
   1.1245753276028041    0.8183884940615090    0.4362371849956166 Cl
   1.1190589514154652    1.1133124122185030    0.8646439770789554 Cl
   0.5099688454449021    2.2053195296326038    0.6872139601772534 Cl
   0.0818330698182903    0.0414037802039896    0.1261824153458407 O
   0.1116085732976935    0.2140121424850162    0.2484225996577091 O
   0.2945807613185493    0.1360579748782691    0.1828519982759102 O
  -0.0264693070983053    0.0744183839341310    0.0216774223443153 O
   0.3981946998350855    0.2434863913054655    0.1450969036463100 O
   0.5016043563927621    0.0763512835837296    0.2720690523129515 O
  -0.1363746100798083    0.2208958913832031    0.2678535581197254 O
   0.0069624631709358    0.3294990138063571    0.2429271882657718 O
   0.1321543583544511    0.4565941547033771    0.2256303633187037 O
   0.3309323188342926    0.4826885117588947    0.2299809559738059 O
   0.4068330341239600    0.6044056311728587    0.0478084201499970 O
   0.4334164385929384    0.6292615346654505    0.2858026553280388 O
   0.2629238311065908   -0.0363188347785543    0.2469991403432547 O
   0.3543091835174868    0.7312576418144655    0.1902359735828231 O
   0.6831277014217968    0.8212631351766169    0.2058504004968410 O
   0.3895247333716141   -0.1205199815669295    0.2935806678154235 O
   0.5861455170751303    0.7149974235422945    0.3062735904913718 O
   0.6136503805432403   -0.0343372243634983    1.0364807769314242 O
   0.7489350023911251    0.9593941588575357    0.2394462919589967 O
   0.9242054435535673    0.7825161920912014    0.3871222799081430 O
   0.1070487265639308    0.0448241230828446    0.3400531314251403 O
   0.4507347103568420    0.1706284992905563    0.5000643125813922 O
   0.5756690783797791    0.1010589369205815    0.4393619702005403 O
  -0.2271445103980007    0.0942479011940194    0.4957804247918413 O
  -0.0044821951294731   -0.0149694004457711    0.4261848039753051 O
   0.1184369970748406    0.4929615415985436    0.3845659636998320 O
   0.2264959437782329    0.4764850192896169    0.5476852538446199 O
   1.0709959250831464    0.6186630604362967    0.5766977892600662 O
   0.5893499938930060    0.6435464961006687    0.4421293073917503 O
   0.6905983958744580    0.5909776968284416    0.5917992642016484 O
   0.9488001469587481    0.6331195684802995    0.3934156165905356 O
   0.7647084550195443    0.4960402737613865    0.7042011844825222 O
   1.0400321520884455    0.8020019101803979    0.6480325916819099 O
   0.7274533175598763    0.7567863186328672    0.5050905382734391 O
   1.2409390954498627    0.5953546061883799    0.7611754425896352 O
   0.2988662333204809    0.5284505110232952   -0.0386771118609880 O
   0.4367028152367817    0.5214756941722967    0.8417229750184743 O
   0.5471029554539378    0.5786845115332443    0.9324099284662400 O
   1.0144657907983592    0.5821337278948125    0.7218681229241050 O
   1.1210201462404827    0.9001293942177253    0.8394959613109864 O
   1.3528275982474072    0.7060572331980591    0.7317809725642602 O
   0.5965442506459279    0.6872188741222600    0.7242112368722677 O
   0.9638886942415440    0.8933494204285564    0.8359573667027850 O
   0.8514906383705990    0.7445556807843297    0.8601836169235788 O
   0.7523884106699603    0.7762713307689411    0.7432826364071035 O
