Li1 Co1 H110 Cl3 O55
1.0
  12.3902310249000003    0.0000000000000000    0.0000000000000000
   0.0000000000000000   12.3926559519000001    0.0000000000000000
   0.0000000000000000    0.0000000000000000   12.3718645254999995
Li Co H Cl O
1 1 110 3 55
direct
   0.5923058656333028    0.1618122042509021    0.5638260707205802 Li
   0.5410953596528366    0.5490383177350152    0.4088688291464755 Co
   0.1332990893616796    0.1229908247284407    0.1611559647125559 H
   0.0203344806157102    0.3055683132653594    1.0047887072540997 H
   0.0529026869057343    0.0320115379334144    0.1839164790569869 H
   0.4590145656824749    1.0721360318296371    0.0996704870440832 H
   0.5282755825493437    0.2295329578373300    0.2214257808314699 H
   0.5574219317396256    0.2134379415007054    0.0466821926242083 H
   0.4300360906824175    0.2212724202740077    0.0384286266568851 H
  -0.0065762686132527    0.2824425199638790    1.2185802497130651 H
   0.7380868439193455    0.2774177698020339    0.0320130213262252 H
  -0.1028248371511122    0.2245606580947109    1.1809464719554490 H
  -0.0991130419547533    1.0062018202149974    0.1519019028236610 H
   0.1968305923996831    0.4744618908909936    0.1284745528553032 H
   0.1744436006282978    0.5971878025844285    0.1034564968167781 H
   0.1745081676245379    0.5653681505638668    0.2744331507916171 H
   0.2198511478216755    1.3685293162277934    0.3082599033508145 H
   0.6600681210999458    0.3724498601441724    0.0713010364025425 H
   0.5092331611832011    0.3561087303019490    0.3242574920402204 H
   0.3609025936331231    0.5700394655930817    1.0854232791849368 H
   0.4801578356887833    0.5322348172740771    1.0853262849123655 H
  -0.2289104603215331    0.4810714506429886    0.2617042690878599 H
  -0.1468829341230696    0.3973040964915290    0.3009740169095097 H
   0.6931748484221114    0.6463766126640419    0.1183960396495533 H
   0.9422331584567223    0.6603711914430492    0.2913166205038397 H
   0.1179765340664257   -0.2453894496630288    0.0129029510928587 H
   0.1600766368773990   -0.0482656846297984    1.0249150188126186 H
   1.2352220456457164    0.9956068355313573    0.2318534734184760 H
   0.0258993970294101   -0.2781741893973478    0.1052023937230592 H
   1.3537186254955540    0.9567289709420372    0.2131610605228010 H
   0.4173979082558503    0.9619255970930382    0.0402925332614612 H
   0.5266420375444665   -0.0852615474843391    1.1614910374488809 H
   0.6129963595784768   -0.1325379345860221    1.2567717445379654 H
   0.5265605217117133    0.7280766133684727    0.2757619723258423 H
   0.6606346964919536    0.7657182619231139    0.1328360619785870 H
  -0.1122427406401992    0.9758935471976693    0.2744169850795219 H
   0.8477474303337111    0.7346506682212995    0.1385934803412910 H
   0.9178349047524547    0.8219773885143841    0.1877178462561722 H
   1.1809292726822331    0.2020271510657204    0.5662485026780454 H
   1.2487407604835095    0.2824062081351841    0.4893199202450320 H
   0.3160648501815652    0.1109514361922710    0.4674493283514415 H
   0.3300839592402199    0.0076543701744142    0.3706247957572659 H
   1.0642486396016513    0.2393306961487357    0.6604889461938039 H
   0.5600837061596281    0.2124147548610362    0.3510489266955885 H
   0.4732459387412693    0.0742655956618319    0.4388780487943923 H
   0.5865448753937705    0.0188738698958345    0.4206099858412162 H
   1.3799731803417279    0.2128569522415872    0.6093309336973471 H
   1.4709480780441779    0.2818615307047609    0.6653127946830104 H
   0.9428384740464743    0.1723652285991613    0.5200654880788851 H
   0.9115073391209144    0.2006400392095759    0.3975528306798384 H
   0.7712662091122814    0.2381493513218622    0.5129978387508655 H
   0.8524688919337762    0.0397056109690965    0.4462730537923397 H
   0.0871111693099936    0.5890749331244653    0.3604727285614828 H
   0.2049732977130261    1.4611971030571316    0.4009928942136960 H
   0.3873766762665136    0.4043760268622389    0.3694818799121355 H
   0.4765598398232978    0.5223878562615517    0.6222853270848323 H
   0.4284275653885835    0.6448708821674941    0.6001043535190140 H
   0.9016689430688131    0.5524153178036393    0.3525515296348369 H
   0.6990633584792182    0.3458300619927178    0.5221565229383985 H
   0.7142608152192567    0.5793038234874359    0.5360258956304719 H
   0.7370319806182712    0.5039382195664455    0.4306699084780566 H
   0.2799662496711191    0.8277816325988793    1.3413749987881729 H
   0.1645067399069301    0.8609383668449391    0.6122916838675821 H
   0.2447231618608558    0.7100473869567008    1.3676119495186758 H
   1.0047097981936515   -0.2059814323747635    0.5405555281595458 H
   0.3333970532347955    0.9595855014660346    0.5648089460159682 H
   0.6248960569855467   -0.0252317199084398    0.6337290346770215 H
   0.4296575666669593    0.7287641173250959    0.3649465893838283 H
   0.5349994281203082    0.7848263531118872    0.6033277965107960 H
   0.6418771769967209    0.8415962660934654    0.4553969816988682 H
   0.6681704720406387    0.7674055515631361    0.5944730277106526 H
   0.8544704688172227    0.7175381137516915    0.5687760117641293 H
   0.9398603213448948   -0.2758405492065567    0.4425282665854876 H
   0.7279958294944545    0.9060618659697788    0.4006703882573969 H
   0.8925004296027038   -0.0807548460785410    0.4530206220208744 H
   0.3244303116319369    0.3225929124165731    0.9168714820243771 H
   0.0417229115067426    0.3212509886139156    0.8127836949858299 H
   0.3092635242151126    1.0080254809450069    0.6902225404504976 H
   0.2401502043521432    0.2542427537994338    0.9889867236810458 H
   1.0399633781408040    0.1151821676999880    0.6673609904054717 H
   0.3303494910122578    0.1566986918411362   -0.1661091772274273 H
   0.4220588382969401    0.1226139886395404   -0.2467954794369689 H
  -0.1851695487186057    0.0648370276088242   -0.0996584010889152 H
   0.6950569763625134    0.0366693772395358    0.7116178604084894 H
  -0.0911624234552250    0.2774024381410294    0.9708649604223312 H
   0.0921658773194035    0.4050481991578576    0.7231278474202689 H
   0.3073676757880095    0.4869701054820905    0.8375059184930130 H
   0.1143882232503763    0.5425990201131229    0.8004702720829191 H
   0.1954222247941936    0.5639592516105054    0.6962378019211199 H
   1.0360247913701515    0.6178928073062501    0.9502455946449090 H
   1.0053151137834035    0.4977297037891473    0.9268618920992081 H
   0.3860659662428374    0.4861462304354800    0.9368684678861343 H
   0.4511519197153239    0.4288437439663768    0.7774874791971793 H
   0.5706186186836707    0.4208301268381797    0.7365696370274243 H
   0.6952498702637810    0.3617346429610760   -0.1127243378898572 H
  -0.1145033925960594    0.5819005227038833    0.8435276462484733 H
  -0.2356536759913696    0.5475850376576934    0.8236842346516204 H
   0.7281992155326110    0.3376429550163118   -0.2313798563829901 H
   0.8224726796554825    0.6607391513071575    0.6802321303756665 H
   0.2346733088960677   -0.0982450435665758    0.9428901956415948 H
   1.0528525647652549   -0.0279798797970211    0.8476418199767007 H
   0.0714355132540512    0.8610916834549841    0.6875770216661189 H
   0.4789730313077756   -0.3163960202815804    0.9445390982753048 H
   0.4384774183533715    0.7475792930957306    0.7547213068535149 H
   0.4011609228763445    0.8542973368414085   -0.0991071503064690 H
   0.5554163194189142   -0.2372120258409415    0.8941505736745793 H
   0.3850627565387552    0.9908540206199605   -0.1150449258611226 H
   0.3665820680399023    0.8277816325988793    0.6766837565707712 H
  -0.2671228228713929    0.7468328832836690   -0.1435531591410005 H
  -0.2420207889081069   -0.0478957074418739   -0.1177300506401346 H
  -0.2903072170463448    0.7605886109228168   -0.0307062234893529 H
   0.9343963392880674   -0.0323717551311907    0.7919283098118177 H
   0.1334758415138871    0.3028521884789822    0.1466068238268796 Cl
   0.8401527374009570    0.1313473869054228    1.0648200791196096 Cl
   0.6244005052894032    0.5070150418511917    0.1920631896673609 Cl
   0.1311619217861288    0.0457006938866215    0.1695758758573387 O
   0.4884062694584697    0.1968103516765557    0.0895644921277715 O
   0.5580385465537196    0.2640800316576405    0.2841463189040156 O
  -0.0900470285951754    0.2835940083982700    1.2340508361881675 O
   0.6755617789352363    0.3190085314596250    0.0173059495162349 O
   0.2241254829727771    0.5460373468257649    0.1436654725111587 O
   0.4267092762011409    0.5726571449772194    1.0403856052877212 O
  -0.1853890765058224    0.4640169950992925    0.3262919469074007 O
   0.0804114556538740   -0.3084574475993526    0.0490156323365893 O
   1.2958908094879198    0.9548972409167620    0.2659437270848251 O
   0.4506127852967181    0.9907491197815086    0.1076514991054814 O
   0.5745394495303572   -0.1520777330715013    1.1892394822602845 O
  -0.0625979843185579    0.9719960775844185    0.2122759877855890 O
   0.7227901154225879    0.7187178447195121    0.1087944149506117 O
   0.9230083353262011    0.7450455343823543    0.1638208823514489 O
   1.2532281667222038    0.2275882576783375    0.5423289067763888 O
   1.0543618183023697    0.1718883332489685    0.6123207821493535 O
   0.3500787438009056    0.0420051987338671    0.4457024041553793 O
   0.5515148586710998    0.0882916446923749    0.4359156820529477 O
   1.4592533808501706    0.2109437223341303    0.6318659363580501 O
   0.6650639924340318    0.0458857228270601    0.6373889518953738 O
   0.8833238452620646    0.1808032906583253    0.4691152049828515 O
   0.6960900483023567    0.2675562840580306    0.5337255147993255 O
   0.1632759315411011    0.5888134879578621    0.3499294511329961 O
   0.2447514099217109    1.3913734911245068    0.3835775725735415 O
   0.4643518350091809    0.4208817703278791    0.3552649444100155 O
   0.4482076646867705    0.5738175096364025    0.5662121298258311 O
   0.9449449722988110    0.6206629963709063    0.3612300921731428 O
   0.6816795018289957    0.5239016560533649    0.4874414644995703 O
   0.1015103358502672    0.8155655264963945    0.6316323418182745 O
   0.2957528802518495    0.9494181894314676    0.6407433371551270 O
   0.2904422448110925    0.7695011475435940    1.3957968685566498 O
   0.4978742123696428    0.6895166790126146    0.3417956730922983 O
   0.6056663913303074    0.8207000190738507    0.5864176533736165 O
   0.6596799120350516    0.8745916144342146    0.3860509265241066 O
   0.7896750668278171    0.6793267729513042    0.6055651310647712 O
   0.8443980174037505   -0.0330900837957281    0.4124131615233472 O
   0.9348886626343990   -0.2135794807967859    0.4978109605230336 O
   0.3133853198375967    0.2500386509660931    0.9565906366422734 O
   0.3718918963932062    0.0953838289942013   -0.1914214492260850 O
  -0.0315807257034707    0.3169331087173308    0.9411685473034564 O
  -0.2169050344581198    0.0167747331086141   -0.1526738539051100 O
   1.0132649251954788    0.5662113919191146    0.8887754744029267 O
   0.0459708548981311    0.3423602650285402    0.7387132104512472 O
   0.1795427791563680    0.5137286955121122    0.7591191888290129 O
   0.3623747211473999    0.4405740784938768    0.8761177218323882 O
   0.4952971821322056    0.4230830740763155    0.7099940146285271 O
   0.6985129248362704    0.3946694715873338   -0.1862371053571557 O
  -0.1840533467711031    0.6062835122077330    0.8141715213692025 O
   0.1577546462751105   -0.1001986199503604    0.9663062296114859 O
   1.0147418952344736   -0.0112865252164574    0.7831972087092024 O
   0.3661801384883070    0.9243468890414682   -0.0765697227889517 O
   0.4949832251129876   -0.2845578088819080    0.8782677615410492 O
   0.4195536388428201    0.7690581432335164    0.6816668373241154 O
  -0.3045466609796692    0.8002677565320040   -0.0991750462972688 O
