Li1 Co1 H90 C51 N3 Cl6 O45
1.0
  14.7088996816000002    0.0000000000000000    0.0000000000000000
   0.0000000000000000   14.3276690015000003    0.0000000000000000
   0.0000000000000000    0.0000000000000000   14.3748137900999993
Li Co H C N Cl O
1 1 90 51 3 6 45
direct
   0.9619557986720100    0.6845213970795402    0.4040883575967067 Li
   0.2076818393575249    0.1296439777890970    0.2483381661373970 Co
   0.0045374801817086    0.3107592729378283    0.1119871824919689 H
   0.1166661937973959    0.3251733412680207    0.1414206072429310 H
   0.4649838865483394    0.1064008389390067    0.9977941352588624 H
   0.5362165431494773    0.1945254319811696    0.1522235297897920 H
   0.7170646050427544    0.2013109042020746    1.1139820751089258 H
  -0.0821814469720083    0.1923638800918317    0.2160935745365499 H
  -0.0734146457298114    0.2335073487145564    0.3373097534341187 H
   0.1668099853770370    0.5723883627505226    0.0522361476235009 H
   0.0024013584676347    0.4925319674164166    0.1867596293350889 H
   0.1706906291529548    0.6917744959603924    0.0302142971409565 H
   0.3041792001883661    0.5570682852154386    0.2061184888002217 H
   0.4546668673772975    0.5539006380569755    1.0221325374885282 H
   0.6834713376538880    0.6000512714873525    0.3769019184743339 H
   0.0080367222130066    0.3889331894264587    0.3306418409728100 H
   0.1367146002984539    0.7063818965067121    0.2852130785877455 H
   0.0917465867612203    0.7456932457527782    0.1898914959914073 H
   0.4083970569406021   -0.1110441620359483    0.9459284199260162 H
   0.5877993274789622   -0.0601014720614950    1.0563437632602797 H
   0.3414783872027629   -0.1470632800059385    0.3053072519257635 H
   0.4735175636225681   -0.0322037030693335    1.0915254363855551 H
   0.3694077367049489    0.8063227870905251    0.1098167195937651 H
   0.5217322510126216   -0.1692238980357631    1.1579805580969686 H
   0.3338408342632638    0.1611717859728782    0.6337490716905227 H
   0.2237170292837331    0.1959415730155469    0.5810109972312830 H
   0.2119268883653789    0.3187040405052590    0.4508253108407687 H
   0.5300980025415364    0.0045761806608692   -0.6904879082076061 H
   0.5148441762964182    0.2427810135365235    0.3048425502539686 H
   0.3155328706610057    0.1210228964403397    0.3863830847690836 H
   0.3999552290209156    0.2491232873558368    0.3488090328274867 H
   0.5187520144926298    0.1742339246906562    0.5679047404998218 H
  -0.0470367379053836    0.2244018899001224    0.6355285730025757 H
  -0.1634975226738649    0.2230115730245780    0.5971746848722332 H
  -0.0834799805410347    0.1445507989878307    0.5448005107790352 H
  -0.0147290867359042    0.0272141966539832    0.6564742356314275 H
  -0.2646492085379810    0.0881640971513059    0.6387425276787622 H
   0.3291443578785337    0.4038030192625399    0.6979384249213434 H
   0.2148217344056483    0.4209007062606380    0.5733830723342302 H
   0.3250203240409869    0.4361404497232446    0.5341979386535469 H
   0.3844210962886196    0.3211336052862681    0.6368343290474245 H
   0.5669571158495297    0.5400693581761203    0.5839717312360122 H
   0.6999069654189218    0.5701262362317842    0.4878574705454473 H
   0.6194427549327668    0.6665282399251552    0.6132368059801265 H
   1.2214782702798090    0.8330270611744631    0.5678003913220235 H
   1.1428714386997170    0.7845446457915229    0.4845343944557313 H
   1.0276575181017040    0.8302561987267165    0.5681224824508275 H
   0.4911376443634960    0.6568776819742754    0.3194883051885468 H
   0.3287010888277456    0.6377391884781392    0.4584695142095578 H
   0.3732822617363006    0.0297365888167430    0.4498028280305827 H
   0.5065401289071498    0.7785701917480189    0.4584581053661186 H
   0.6230704905999527    0.8179471483165252    0.4410444537073823 H
  -0.0410342494860462    0.0034057181105239    0.3647584568233579 H
  -0.1777154454639435    0.0268072916648053    0.5685252702771287 H
   0.8341080302660292    0.8053672932137076    0.4819111396052254 H
   0.2202504205567876    0.1388757655967406    0.6993860958479978 H
   0.0841267101949122    0.1327833579628916    0.9751886250418331 H
   0.2679344768208593    0.1893264006528913    0.8199316573629165 H
   0.1412778240237448    0.2547459744790224    0.7835833604298564 H
  -0.0235359997480343   -0.0429221248854658    0.8346226302745406 H
   0.4340767480239879    0.1401188149719136    0.8817856759946120 H
   0.6034898281279472    0.0843232769875906    0.8350775926897410 H
   0.3639001867349577    0.0555991349127762    0.9545400097391137 H
   0.4401784960773976    0.0472425767044965    0.7635865796577835 H
   0.3759683906008155    0.2204640546532241    0.7782462478160682 H
   0.6188757512696421    0.0486112571226403    0.9501608225775134 H
  -0.1829435727654164    0.1040641015397483    0.8199198311227660 H
  -0.1375132540831891    0.2131900172652101    0.7815144640647097 H
  -0.0096872412134434    0.1053469340785287    0.7567649260745187 H
  -0.1357734910448966   -0.0208054777206810    0.8307742325973408 H
  -0.2419962564332892    0.1875124279824395    0.7343041133840363 H
   0.1689454272306035    0.3821539987577022    0.7347938588585028 H
   0.1303171129243498    0.2839335555123517    0.6658378351858578 H
   0.3161053132081891    0.3171322565676455    0.8311575419104531 H
   0.3858066520025861    0.6383652498422774   -0.0925274667360228 H
   0.5759534379990057    0.4552929022241552    0.8084184647458420 H
   0.5452513454036690    0.6472690010377192    0.7783053790168205 H
   0.6505001426292413    0.4591345599281571    0.9120796336318171 H
   0.7843864320614485    0.5729930668373557    0.8917809359053145 H
   0.8397277572197321    0.4614972610762961    0.7019892600034718 H
   1.0061453719283351    0.5535455209755112    0.6521027007428657 H
   1.2019730723241187    0.7007962007461790    0.7355284770702025 H
   1.1467881150825239    0.9509366806543057    0.8340507967802061 H
   1.0984038024958882    0.7404725779670993    0.7792765220315298 H
   0.6276949017709045   -0.0331515194935249    0.8644080595852754 H
   0.6980672628860497    0.6371759426354864    0.9402657378774972 H
   0.3877123010046704   -0.0576160712613877    0.8132025267172994 H
   0.4974227711915514   -0.0552723543597421    0.7561562225373623 H
   0.5266202441022705   -0.1453526039708184    0.9220721108977783 H
   0.8793003977706862    0.7780879081330583    0.7894644800905664 H
  -0.0437006623958482   -0.1355889780812648    0.7042960724939985 H
  -0.2083023696893360   -0.0249198943779773    0.6750386500229228 H
   0.0872533886681859    0.1951619625988887    0.0942596485064155 C
   0.1094848272583245    0.2910770762057237    0.3208072787959168 C
   0.0569370489247161    0.2792091303464078    0.1491528813177819 C
   0.0282251799785774    0.2817894523789820    0.2523528268378887 C
  -0.0015057998680694    0.1109026179787966    0.3038707115780742 C
   0.4144015849414616    0.1961244359780934    0.2089213077158830 C
  -0.0358795471193664    0.2064115245466923    0.2773952381871000 C
   0.0528048567610811    0.6060920308035356    0.2322767406906891 C
   0.2152745215035392    0.6535079782217008    0.1683865217695568 C
   0.2131207234162744    0.6316286341380832    0.0631775067462409 C
   0.1235436626896846    0.6781386421463808    0.2145951203433669 C
   0.2760322953238300    0.7406226372684256    0.1865404960617125 C
   0.3344527087198732   -0.0104018314622146    0.3211258916187941 C
   0.5123090444505843   -0.0823940026864390    1.0517823128681254 C
   0.5601266933043491    0.7652051426266333    0.3156983430509140 C
   0.4477753253725067    0.2121689160659523    0.3100384436471365 C
   0.3673069677372570    0.0636067180016924    0.3829826928952310 C
   0.4585880308394529    0.1142758114825647    0.3513308046242780 C
   0.5237548360219690    0.1180866197860147    0.4423525750002612 C
  -0.1033006337721326    0.1762900860939463    0.6124340129722652 C
  -0.2021768265181694    0.0429369216817889    0.6394096667554856 C
   0.3154614853077345    0.3475154263599143    0.6498035405253775 C
   0.2761961417060999    0.3858384780679427    0.5603269032081122 C
   1.0583117485173237    0.6660417686087623    0.6064318482653094 C
   0.5184016823731956    0.5923849860651739    0.4716614763990507 C
   0.5909933121424628    0.6670775267630333    0.4764256424606080 C
   0.6809361378220035    0.6323168130734682    0.4476576871995247 C
   0.7651171457018063    0.6937189853254860    0.4410182272806957 C
   1.1165458801343546    0.7518324160526217    0.6303918108101600 C
   1.2499780227476565    0.6876189002390112    0.5401136326751672 C
   1.1822102072361449    0.7683898895659451    0.5532118197368787 C
   0.5715425030273598    0.7615269448685414    0.4241345303129375 C
   0.2582437451491824    0.1812902016041873    0.6486515256024846 C
   0.4319222700762159    0.0836769750665293    0.9334906935936490 C
   0.5892385921730088    0.0281808577346202    0.8840215310442361 C
   0.3094834718666615    0.2490416271779057    0.7921420799928696 C
  -0.1835758430372460    0.1550528562299576    0.7646029406495387 C
  -0.0514163992936917    0.0511559836930394    0.7204395859605744 C
  -0.0784102607377729   -0.0339848720785651    0.7868919250272466 C
   0.1697503820712984    0.3039368093542708    0.7274212416164633 C
   0.3080319696834827    0.6249401770003614    0.0172798687222697 C
   0.6070876499328099    0.5032801917077425    0.8630619551916779 C
   0.5253943196354284    0.5431938720098300    0.9118876311446683 C
   0.6627546282741111    0.5775067808262280    0.8052010317637290 C
   0.7155655126240615    0.5159609424970705    0.7275513302581185 C
   1.1838547898034093    0.8485690170904385    0.7586536461926673 C
   1.1511120279092300    0.7545160347205275    0.7308522425824699 C
   0.4484636161501414   -0.0189545136875767    0.7982325936703613 C
   0.4828039822505278   -0.0915518077687775    0.9500898651366106 C
   0.7338721165053051    0.6273522930254022    0.8705660523977433 C
   0.7700828468474447    0.7216062850640667    0.8449747643733131 C
   0.2635541355720439    0.2739026146813656    0.7024539616752666 N
   0.4867732118505524    0.0013146591952974    0.8898115190896687 N
  -0.1369673260957921    0.1034359463248939    0.6830923195653924 N
  -0.3247760718074568    1.1810766985214682    1.2083332103517403 Cl
   0.9550960061529121    0.8702759674650905    0.4411043501354385 Cl
   1.1370402751282300    1.0960175029277948    0.8395959120884056 Cl
   0.5641467764703230    2.1918363690920168    0.6815465604116077 Cl
   0.7662552321910997    0.2265062098698847    0.0137765189929895 Cl
   0.9450966178109012    0.4407846106117347   -0.3708385501641281 Cl
   0.1564176376617814    0.1473802892556305    0.1139760778208037 O
   0.1831511125315499    0.2414618875853293    0.3121129053017659 O
   0.0764898371159206    0.0812048353209578    0.2863588325599704 O
   0.3397059908601178    0.1639929008378132    0.1901989782353195 O
   0.4705792065098287    0.2055502539521031    0.1346852156466460 O
   0.5009727988027479    0.0577467277973395    0.2795935275327167 O
  -0.0654371625366406    0.0658569095713486    0.3492132119761587 O
   0.0476481148128793    0.5393739205582527    0.1680706915914208 O
   0.2462591641257278    0.5798502185477781    0.2293987903670132 O
  -0.0034835140839322    0.6194535901737275    0.2970351447711029 O
   0.3676584556195536    0.5794139298535498    0.0601952072447667 O
  -0.0185900145571090    0.3650751564160498    0.2682159888467799 O
   0.2617117135971426    0.0015352114707352    0.2795552661675240 O
   0.2924869591830693    0.7692085851959720    0.2662166586001653 O
   0.3010735973908201    0.7869860757265904    0.1095662815670493 O
   0.5101452524138615    0.7026213406204505    0.2722501280604606 O
   0.4951890011128078   -0.1713177487519445    1.0928103225948445 O
   0.5851492312213364    0.8319438424039587    0.2713624643879901 O
   0.3728219961728290   -0.0927355313736587    0.3368833131275165 O
   0.2611827821224291    0.3106001402833985    0.4979122512271659 O
   0.4841027877637572    0.1685414425435978    0.5029289422989950 O
   0.5962302776305312    0.0790363039292327    0.4478803683449462 O
   0.0952104760461364    0.3443732543851648    0.3875671001065011 O
   1.2817275084406066    0.6412359191741620    0.6048979153516749 O
   1.0254806047571896    0.6519445696869520    0.5252064482671451 O
   0.5226039681551377    0.5279404487225444    0.5360390059805008 O
   0.4651465091816960    0.5882412554978510    0.4045947989396210 O
   0.8267961305095478    0.6652419176351811    0.3847705421415078 O
   1.2713460384934685    0.6712512691906216    0.4535774160560199 O
   1.0522575906994280    0.8328379166597680    0.6355306599861318 O
   0.5795165869179940    0.6990010727321728    0.5691868440643697 O
   0.7771058058883050    0.7679794948255736    0.4971795808667850 O
   0.0536540025347534    0.1882459736833417    0.0095135072493380 O
   0.3201294075511564    0.6531959944649899   -0.0676631446502538 O
   1.0416048564098599    0.6083722342334571    0.6735151520270682 O
   0.4743040942435141    0.5999661215582277    0.8689653360103181 O
   0.6064730560341712    0.6404353702503420    0.7499356202182155 O
   0.5133960054297254    0.5228271256835818    1.0020418424564368 O
   0.7927357989521363    0.4788908789756146    0.7559433502146539 O
   0.6834074307661977    0.5094822822216075    0.6476553387851040 O
   1.1292150806887042    0.8818298357169791    0.8291310808776109 O
   1.2502295711353735    0.8880255399861597    0.7235930181136379 O
   0.7340230455379354    0.7983961662293013    0.8551008085868561 O
   0.8506905079006492    0.7134479447235854    0.8052476410631455 O
  -0.0988856196374427   -0.1196659413349444    0.7402763646600233 O
