Li1 Co1 H110 Cl3 O55
1.0
  12.4257140534000001    0.0000000000000000    0.0000000000000000
   0.0000000000000000   12.4281459248000008    0.0000000000000000
   0.0000000000000000    0.0000000000000000   12.4072949560999994
Li Co H Cl O
1 1 110 3 55
direct
   0.7957480740508797    0.2363633304818371    0.6498237534150081 Li
   0.4846287304553143    0.5422416186031745    0.4474210533191791 Co
   0.2036283802947859    0.1031624483859311    0.1165286215259335 H
   0.1068106042836906    0.0315679398096795    0.1649638366253009 H
   0.2590465234325299    0.2957438691772641    0.2472235075375505 H
   0.3330430757472367    0.2274360133525296    0.3221705450094712 H
   0.3736427545932151    1.0402483235010815    0.2973214541245624 H
   0.5925162928311105    0.0655704372503265    0.1603947504384582 H
   0.4881416070443307    1.0921305595080888    0.3021597367810480 H
   0.6656823093749433    0.1387405629876967    0.3156219781955539 H
  -0.3571498550689480    0.1102222303140558    0.0069890317274489 H
  -0.4827796573717668    0.0784989948141198    0.0046894168556374 H
   0.9812174957755334    0.2843447432853399    0.1507399465167455 H
  -0.0641461705842090    1.0916960618740352    0.1668691673266056 H
  -0.0467204517024235    1.0315020470526297    0.2763789359592913 H
   0.8778029157781456    0.2494803312787700    0.0959479066397723 H
   0.7201838049903760    0.2517308680981186    0.3331012112408985 H
   0.1149702963194378    0.5618624052816930    0.2207269987366235 H
   0.0988907374996105    0.6242441961530837    0.0725000881564236 H
   0.3106210242818109    0.6120315941351812    1.0512222869085213 H
   0.1595785979122409    0.5244577913664054    0.0345955326780530 H
   0.0345971285716469    0.5917188297431697    0.3221366939564024 H
   0.5140668777060883    0.4519610564992937    0.2488757613182927 H
   0.4381927672969543    0.5784795259085032    1.0597656479211395 H
   0.4192787637242024    0.3832211169162502    0.3075888009113307 H
  -0.1599563586252130    0.3593840939369141    1.2260226771365068 H
  -0.2699637186952747    0.4216773760309975    1.2445682183535207 H
   1.2775867816108486    0.9626341720551150    0.1908050857561091 H
   0.1474207453050772   -0.0421338822917326    1.0236417384319365 H
   0.2634559279757649    0.8022924757105681    1.3051857826704094 H
   0.1906158484350367    0.6936825504516062    1.3223772817646686 H
   0.6104388040882454   -0.0228219107834916    0.2643199012922353 H
   1.3758748956581714    0.8903466397525477    0.2130516754419854 H
   0.4638806270552159    0.7641612851961127    0.0988962527643250 H
   0.5079843298802497    0.7950355605966226    0.2133305436410766 H
   0.6147468060082921    0.8229995064742208    0.0630161514549633 H
   0.6445092806967233    0.9362263714076277    0.0285614212730371 H
   0.6655913689271635   -0.1903793254292736    1.3249725291666150 H
  -0.0344153238568200   -0.2366782668386906    0.0682560526767874 H
   0.7818889107657823    0.8504372274394650    0.0880991369970289 H
   0.8350528574944005    0.7767641304594153    0.2593784535216350 H
   0.8907196784937726    0.9118703651431719    0.1346316811206900 H
   1.1860427467882584    0.0614583194566322    0.6350888736006037 H
   1.0077592300036569    0.2347661493640656    0.6109071320476239 H
   1.2935456230221190    0.0183366146389746    0.5895680729749747 H
   0.4010303154639629    0.0690733732685726    0.4587869473757775 H
   0.4429433997150444    0.1109520254142164    0.5743391289812556 H
   0.5930353776879067    0.2709734809099608    0.5812125047091432 H
   0.4199676577357025    0.2693127343975777    0.5849449862987126 H
   0.6776389663011783    0.2489251398574792    0.4945272115968666 H
   0.8251218386837564    0.1156268981065352    0.3881784865388496 H
   0.9483099302028237    0.1824470018472598    0.5146516626463068 H
   0.8549068472884516    0.0117086058838130    0.4501895858737399 H
   1.1676454137241317    0.4846642450890705    0.3812091994939336 H
   1.2174614643220951    0.3752521084576056    0.4010612301639148 H
   0.2896765538971259    0.4578372346872461    0.5265575615970989 H
   1.0593216591120818    0.4447331078942852    0.5113914838447935 H
   0.3211781640515053    0.5469905168183320    0.6058907283737998 H
   0.6146494272987227    0.5374540983761010    0.6036073942465594 H
   0.6351496576199169    0.4314849531818880    0.5384570127282590 H
  -0.1267276847457411    0.4969500680045635    0.3486622179456741 H
   0.9547884311287301    0.3842244846008150    0.5453295824786926 H
  -0.0681008728885450    0.5323688668071761    0.4514001640096788 H
   0.0380985772459865    0.8574294208467370    0.6362454512471233 H
   0.2170803235216834    0.6940727936970063    0.6552608773198311 H
   0.1943983272364976    0.8886408342262627    0.6035163187942550 H
   0.1877323119359656    0.8163146799117795    0.4971732355784162 H
   0.3656488477985532    0.6947768407892230    0.3800195767717992 H
   0.5711855267390423   -0.1366802456117231    1.3958985451204269 H
   0.5566503459660244    0.8677205777718242    0.5878465051331868 H
   0.4534932964402253    0.9279789626130893    0.5339677183093643 H
   0.4672140370968437    0.7461481397635930    0.4480529396431313 H
   0.8204380032317347    0.6933896668612439    0.3551962771654190 H
   0.7004312178195131    0.9083702453132947    0.6160839252347982 H
   0.8649988226438386   -0.1097542663043644    0.5615522966732189 H
   0.8310772308392480   -0.1400974890410308    0.4473049925658002 H
   0.2024550070836093    0.2648414318930656    0.9378293189023642 H
   1.1448298235068091    0.2240565873098896    0.7612509424108088 H
   1.0627902726512939    0.1336577452945164    0.7360738187021137 H
   0.4694473091551531    0.3165265347142522    0.8528309366013526 H
   0.4634959409132801    0.2408861290022371    0.7028965627848101 H
   0.3900973421622936    0.0388273492618945   -0.0959745880236816 H
   0.4029360409537203    0.1664317409061389   -0.0794689757427939 H
   0.3457047223394461    0.2832874657091425    0.8303280460850977 H
   0.8104409922377459    0.2828183691894142    0.8287966889224586 H
   0.9414853727057199    0.0535770151500466    0.8581423280233483 H
   0.7638320007937871    0.1027609403870555    0.7929113487596458 H
   0.7342208252574144    0.0283309324359793    0.7078098013445195 H
   0.1708326795206726    0.5357772593587531    0.8138304935787503 H
   0.0682937836049592    0.4705068638461534    0.8354701822417491 H
   0.2015898656556155    0.3630628405719023    0.8642435773502841 H
   0.3169417877938691    0.6663252920111867    0.7227896983049462 H
   0.6079528302546895    0.4236454893882113   -0.0619497662157299 H
   0.6062925634956653    0.5279788314527369    0.7780934532674773 H
   0.6446179263644249    0.6521534275138011    0.7602249331118407 H
   0.6627263424307378    0.3605395357933977   -0.1572369343037867 H
   0.3895251416457322   -0.3340540143816191    0.8866013919248154 H
   0.8545688385444912    0.3915143893499386    0.7615161089931817 H
  -0.0711188081024765    0.5632970520993186    0.7616208860622043 H
  -0.0161445026368612    0.4973395066247154    0.6770174327136629 H
   0.0762637883527267   -0.2090924948277688   -0.0022175681320829 H
   0.1910954989383709   -0.0823076944613894    0.9012863011370705 H
   1.0494630707465722   -0.0049412066668334    0.8596092069896658 H
   0.3049963978257662    0.9408207815751216   -0.2512864434134495 H
   0.4680848120039034   -0.3225100559450103    0.7865973213848484 H
   0.3814950196285031    0.8487314219131801   -0.1948696335869162 H
   0.6812138111599207    0.8634962952185241    0.7346117756005203 H
  -0.0327251191804735    0.9251547279917401    0.7119436597061911 H
  -0.3139587758526071    0.7907348386447390   -0.1142533507034146 H
   0.9597619883612893    0.7264951680751446    0.8933393634404275 H
   0.9390468810528632    0.7581925751046117    0.7717213955159904 H
  -0.2132474610241782    0.7348286717712453   -0.1777732398322314 H
   0.1646189521108685    0.2702388580583107    0.1023055373948321 Cl
   0.6129964035842119    0.5056891028257811    0.1408030504861256 Cl
   0.7901532245556125    0.1912367280591169    0.9540455852772585 Cl
   0.1818702745764249    0.0302704011343554    0.1365055787012878 O
   0.3014062620952732    0.3029050338866681    0.3165641658393040 O
   0.5997480703864143    0.0546095102685980    0.2427164816146673 O
  -0.4119362437685757    0.0629327147615212    0.0436235279337739 O
   0.4087674965697597    1.1044252333013127    0.3307058462475493 O
  -0.0262265791647466    1.0300617678582664    0.2002551714045005 O
   0.9130765425585775    0.2469039212338811    0.1648268204581174 O
   0.1581637898839498    0.5764132482710032    0.0920605161835402 O
   0.1125108803157645    0.5829862319239381    0.2985618534263000 O
   0.3838280847445531    0.6335593426520466    1.0359490141548309 O
   0.4795481371205010    0.4378696545267329    0.3217256454548518 O
  -0.2036472079129810    0.3957748800394098    1.2843190263858162 O
   0.0193574731935976   -0.2632477971610757    0.0148416620021970 O
   1.3215601096346408    0.9257823356853734    0.2497035001635718 O
   0.4846094156699451    0.8243432306387944    0.1415977442557899 O
   0.5977618666242854   -0.1500861068727769    1.3215874238597283 O
   0.6750024980982877    0.8600927304184367    0.0337124231816827 O
   0.8558645387296725    0.8427691488236652    0.1282370560004906 O
   0.8014225970357948    0.7653473028120297    0.3298184650706726 O
   1.2358266060772733    0.0029305225992980    0.6432115143822232 O
   0.4066074597393085    0.0555945324975027    0.5378331861788470 O
   0.4769688084909942    0.2257817038421325    0.6232127958156103 O
   0.6571483933726686    0.3057292685080172    0.5506167945770676 O
   0.7013832757816680    0.1840747587244647    0.3739094616928691 O
   0.8926511570306888    0.0715998965480702    0.4051999243903104 O
   0.9378155634855790    0.2409263602646494    0.5663897733522505 O
   1.1788801805471942    0.4341192962446507    0.4410433537255142 O
   0.3572509400765863    0.4965147657452615    0.5562957117180967 O
   0.6255518188568908    0.5119458687561547    0.5272370005908383 O
  -0.0951464011017139    0.5620329858343216    0.3794674822157951 O
   0.9843078614345993    0.4578243606832742    0.5372947932395613 O
   0.2537309335423919    0.7361852699397907    1.3473867621629274 O
   0.1587206995287607    0.8211705932849539    0.5732881343812128 O
   0.4404944458867794    0.6846039637756280    0.4075122737058955 O
   0.5016740285435998    0.8620399235191959    0.5268170863372935 O
   0.8099701943443727   -0.0917016942346805    0.5059011654280052 O
   1.0995286039888874    0.1930020758537722    0.6994993678161133 O
   0.2226743682342269    0.2850922401409620    0.8599074186476533 O
   0.4243287753155146    0.2653386902964826    0.8133009663914588 O
   0.3878705083657740    0.0968733365205780   -0.0424634075166379 O
   0.8037379569319230    0.3300225140031098    0.7659828360433637 O
   0.7887858987080206    0.0857061840877235    0.7213518345269736 O
   0.9952690021315986    0.0276514264138342    0.8111868875295627 O
   0.1412416235523928    0.4848010313812726    0.8650737341279254 O
   0.2526106759909805    0.6330813952545875    0.6874516168334135 O
   0.5932446211960727    0.3979063323220178   -0.1369359741919161 O
   0.6092372634817388    0.5888543638594081    0.7255920819125758 O
  -0.0453079775440312    0.4890462341910271    0.7514075397648554 O
   0.1261438996554979   -0.0656479286964222    0.9473398528598072 O
   0.3240029514117452    0.9034781238039490   -0.1843427620599533 O
   0.4052240382372422   -0.2893522540899736    0.8250650133103432 O
   0.6536403454799946    0.9183958759064601    0.6811037384055473 O
   0.9143722427437588    0.7064390791373242    0.8264593543057989 O
  -0.2935124659739017    0.7464724037386368   -0.1782930952900747 O
  -0.0404484580234224    0.8599559441262346    0.6683636527898439 O
