Li1 Co1 H110 Cl3 O55
1.0
  12.4805376966000008    0.0000000000000000    0.0000000000000000
   0.0000000000000000   12.4829802976999993    0.0000000000000000
   0.0000000000000000    0.0000000000000000   12.4620373322999995
Li Co H Cl O
1 1 110 3 55
direct
   0.7712359901787085    0.2174300595027046    0.6776786123333928 Li
   0.4499886130651215    0.5499700380176785    0.4683613128867725 Co
   0.1652516821420167    0.1089591681203411    0.1162391130417718 H
   0.0996783054258076    0.0076412160097357    0.1686679400929113 H
   0.2412684390369105    0.3272499877014687    0.2173574106682665 H
   0.3024965702742510    0.2386765882702672    0.2954497782362577 H
   0.3555736103909169    1.0628611783793798    0.2763485676033036 H
   0.6180022075892777    0.0531092842485822    0.1859652723229549 H
   0.4694116544350488    1.1235678351174045    0.2777391909450491 H
  -0.0770960494644495    1.0931904740260097    0.1668584446309170 H
  -0.0732099989449104    1.0301366214019674    0.2816542811264549 H
   0.8903574604343542    0.2984219361129947    0.0448343357752469 H
   0.7365732207919494    0.2718177124356418    0.3106896619676081 H
   0.6685360880463526    0.1536480153904745    0.3211526381666961 H
  -0.2802371369426500    0.0762459866315231    0.0369950878742000 H
   0.1122010831938342    0.5825952597425769    0.2369288493902356 H
   0.0160968904773013    0.5940620726819815    0.3310250207249734 H
   0.2005538470575577    0.4869378148437803    0.0735229033398263 H
   0.3305081839161247    0.6085634173675414    1.0485280871637692 H
   0.1480048290630312    0.6063492025453733    0.0538116800903720 H
   0.4825913750527600    0.4538495626676471    0.2829181194203090 H
   0.4501648875216779    0.5923974061116251    1.0675939905681966 H
   0.3718477489687229    0.4005353713344587    0.3249056360716837 H
   0.9938065290070749    0.3649180756729475    0.0762225421791999 H
  -0.1594074069534669    0.3711874118517780    1.1832893589541538 H
  -0.2701702629782192    0.4282218686097671    1.2151140108489178 H
  -0.1500023634486524    0.4879872437211466    0.3257650461115045 H
   1.2606620188075912    0.9636621112921587    0.1883782004179513 H
   0.1676402010283561   -0.0370215157020755    1.0050761229655476 H
   0.2618324568892758    0.8203221430051236    1.3017290619210513 H
   0.5911323716773716   -0.0270637174010638    0.2826228225999037 H
   1.3798876512421108    0.8983011173194029    0.1890795303664138 H
   0.4552496043458006    0.7549154868598412    0.0788978671771107 H
   0.5207908510360646    0.7795450218481043    0.1855969537344603 H
   0.6088159046600992    0.8159377733518219    0.0336935410321472 H
   0.6815435404451563    0.9131132852144421    0.0173733283272103 H
  -0.0142321713950185   -0.2544780793802342    0.0320682851081014 H
   0.8305042699581536    0.8038613303546496    0.0858993708376599 H
   0.8393660676377624    0.7957086298317823    0.2775458036251641 H
   0.9212295277576207    0.8773205506795392    0.1373456137676411 H
   1.3213164568135936    0.0356223544614527    0.5937998714720798 H
   0.3916465754301274    0.1003266142405713    0.4268183463400296 H
   0.4257356515855484    0.1389143543885512    0.5504883337509532 H
   0.5925081136860415    0.2756204902072887    0.5794924195486395 H
   0.4151127118354350    0.3154130708373745    0.6133352005285102 H
   0.6747064952733568    0.2809757818448407    0.4799003571189134 H
   0.8315138418457040    0.1213928975902657    0.3835910645051599 H
   0.9080890682688697    0.1599485941084023    0.5384630126895580 H
   0.9845441075625652    0.1883632828718985    0.6347394053858206 H
   0.8709352203119566    0.0152980253389638    0.4665189175072875 H
   1.1194261167294137    0.4838239751137632    0.4024724073968340 H
   1.1814106256348871    0.3695323583703745    0.3929538995608358 H
   0.2487560972029090    0.4492320756072358    0.5125250387146122 H
   1.0300549672553119    0.4141162627527713    0.5261664679181166 H
   0.3034716885180198    0.5164524012016458    0.6107144412474134 H
   0.6020878291523528    0.5571414023765964    0.6201238176497835 H
   0.6180382637281189    0.4507661643859810    0.5378515556864362 H
   0.9390252353945203    0.3371122158764729    0.5613814161884574 H
  -0.1042663532000312    0.5100516861404580    0.4395811070154260 H
   0.2211851697024263    0.7060329295339732    0.6292025900032218 H
   0.2018430543330089    0.7092717394203791    1.3356400500469394 H
   0.0537735524474102    0.8427294522637578    0.6384811691726406 H
   0.2135428707631760    0.8964265649735731    0.5781090181400017 H
   0.1757360060694743    0.8189851225499144    0.4910630583924399 H
   0.6626148688011166   -0.2107633584573354    1.3387294325430275 H
   0.3409195943183703    0.7176527508058794    0.4140507710425614 H
   0.5571843150871959   -0.1606847726475684    1.3929661501821371 H
   0.5565393108257054    0.8853635017701933    0.5766421632821190 H
   0.4681128321892400    0.9562520218909086    0.5157877476052857 H
   0.4391164853332398    0.7636658010792849    0.4901057510371586 H
   0.8228523560485458    0.6842264383349000    0.3443952262184318 H
   0.7443893904451668    0.8806771209056189    0.6047467171893861 H
   0.9017111379316468   -0.1293613233850518    0.5654971156228559 H
   0.8391817807059080   -0.1614866644843956    0.4617259612347855 H
   1.2266009863157132    0.0600351944029008    0.6767084659859199 H
   0.1728515149621875    0.3101691308135277    0.9265576613441999 H
   1.1536073363507620    0.2067387024055064    0.7560526352925857 H
   1.0876566521727693    0.0996822969534983    0.7628332280437394 H
   0.3417560967394835    0.2882480836377648    0.8492669283511676 H
   0.4609440705401026    0.3311024330993726    0.8544346227082600 H
   0.6403882623244125    0.0783792912883370    0.7763703404356878 H
   0.4644703609187607    0.0105372391658934   -0.1250288209104918 H
  -0.3979428028131357    0.0538630305315699   -0.0131789714170025 H
   0.4501576762939097    0.2517712176057086    0.7124698738614129 H
   0.4803791306229770    0.1410300350489513   -0.1264948733313626 H
   0.9585676626463883    0.0511772936962584    0.8839964022292660 H
   0.8118087613452863    0.2682144062597690    0.8704913873177965 H
   0.6925983526138328    0.0166781204435899    0.6881038739929181 H
   0.1821267563671740    0.5740580356615907    0.7817980243846585 H
   0.0758433547825321    0.5128923539260615    0.8093922283523122 H
   0.1991973349896031    0.3699048655673022    0.8257956457510202 H
   0.6142651891102818    0.4493538414006401   -0.0522442532018830 H
   0.5919368241972928    0.5394957765126683    0.8042855192081296 H
   0.6351921720936473    0.6595576499000790    0.7671286733688194 H
   0.6708885507938509    0.3868655588433310   -0.1440521951532848 H
   0.8357203913771638    0.3832510373970131    0.7998408205988231 H
  -0.0699441140134379    0.5613839789678419    0.7601426567426012 H
  -0.0708727599004783    0.4687706789041535    0.6814163639351530 H
   0.3214436706114761    0.6730319962491630    0.7119547092997276 H
   0.0968599973644825   -0.2140221956123932   -0.0071610950457271 H
   0.2288515060675707   -0.0655063800149284    0.8983359516331851 H
   1.0705580298867972   -0.0125395416292407    0.8715425798034784 H
   0.4697417684173272   -0.3292454808934742    0.7741138875580256 H
   0.3478071180845473    0.9451328823353032   -0.2228787925872293 H
   0.3927563032589030   -0.3231732130381796    0.8712617268492886 H
   0.3965782539760579    0.8484572510982376   -0.1508552561407736 H
  -0.0193718537996856    0.9150519248199583    0.7152543302929518 H
  -0.2998028003728821    0.7671241098301170   -0.1165133593394572 H
   0.9872202743121035    0.6926314824427828    0.8681803687233205 H
   0.6898709060223873    0.8271802808823240    0.7012108801464499 H
   0.9526304184505563    0.7541031808433151    0.7584992657420848 H
  -0.2017445251806684    0.7202490859139282   -0.1925699442080783 H
   0.1629480954938362    0.2853313122312836    0.0915762917225489 Cl
   0.5607915314663640    0.5266478831270198    0.1722845237058639 Cl
   0.8510322316716779    0.1438330515694891    0.9787642133430235 Cl
   0.1679366626143828    0.0273631889784313    0.1355858694003890 O
   0.2726821496903230    0.3155708857143525    0.2880047676391922 O
   0.5941426586468374    0.0543764495907332    0.2625795509148958 O
  -0.3532484143532570    0.0427702468615104    0.0525231267365492 O
   0.3927466882885454    1.1332530222375248    0.2897251925928577 O
  -0.0451941386911287    1.0298161851035350    0.2083115382323192 O
   0.2062819656481114    0.5637263683093829    0.0889572978028784 O
   0.0942686026035972    0.5895182859702096    0.3103125165719818 O
   0.4003328999007095    0.6374371311285419    1.0233877355787224 O
   0.9133853144408601    0.3730699751050686    0.0642976862317034 O
  -0.2039800057888156    0.3974239348766797    1.2447881315515998 O
   1.3151548633094170    0.9218211416243436    0.2341267393444334 O
   0.4938617228069532    0.8116383193176048    0.1169861818999167 O
   0.5935569467025522   -0.1757132350440496    1.3252163932614380 O
   0.6820555376166997    0.8330362542361767    0.0027531747245751 O
   0.8986183224666114    0.8010446952914285    0.1282580146070712 O
   1.2797317100168759    0.0018285816652459    0.6544480608368366 O
   0.4127346091669831    0.0766543826938752    0.5029623968429556 O
   0.4520093593352819    0.2496507304008320    0.6310297390794793 O
   0.6648775918252772    0.3077562454863315    0.5556126965093990 O
   0.7254374826227630    0.2036945575703983    0.3520793630450645 O
   0.8904856600391224    0.0821132553648956    0.4216987982036556 O
   0.9230163097490788    0.2169421952383412    0.5976042253458336 O
   1.1451141125348618    0.4189844912167061    0.4436069335044837 O
   0.3225606096680199    0.4627056208655735    0.5519640154159675 O
   0.4317762567127247    0.4457000665077643    0.3519630096783288 O
   0.5867944175510243    0.5244312650326135    0.5422360715198449 O
  -0.1117660300789768    0.5439794814184842    0.3687957308784414 O
   0.9538082523193651    0.4149918549382380    0.5524888092217964 O
   0.2400946114057507    0.7706216720275070    1.3621044227017383 O
   0.1742905555257117    0.8275888371628254    0.5710676333599576 O
   0.4037045495061158    0.6962179657129878    0.4579689511447380 O
   0.4990121419285197    0.8784340668165919    0.5228676493619044 O
   0.8114265662735709    0.7649715789953971    0.3429676907741356 O
  -0.0180655799518496    0.8598487615075107    0.6641190317051094 O
   0.6776022038460608    0.8871739668563364    0.6503251394693305 O
   0.8391096684282259   -0.1078504346712825    0.5180650638452590 O
   1.0055928801704606    0.0185775466570854    0.8284196147801649 O
   0.2114387947499163    0.3033686714700454    0.8588480262740996 O
   1.1306756320478322    0.1464438063109673    0.7111298040514216 O
   0.4211076458534127    0.2665937996804470    0.8439547953319205 O
   0.5206706639065943    0.0691098702654327   -0.1204733859935333 O
   0.7876174959255081    0.3231588172612326    0.8151184188697361 O
   0.6874879958687565    0.0888968116936356    0.7149967480121091 O
   0.1543795544101350    0.5152331410861105    0.8269591794183780 O
   0.2491022361357834    0.6447030241954974    0.6734995203750486 O
   0.6046430075248910    0.4294203003659044   -0.1256555242168411 O
   0.5927284567567370    0.5947213703660063    0.7443330427327515 O
  -0.0721972220672408    0.4819982893034443    0.7585040803641566 O
   0.0510570829471229   -0.2753649184028064   -0.0058860226337054 O
   0.1591573934303436   -0.0717324572934706    0.9356492726898297 O
   0.3641141078110751    0.9244887738087936   -0.1473598405166286 O
   0.4062196655021640   -0.2892518264861221    0.8006368381146982 O
   0.9351471973502792    0.6947575772828819    0.8069480052138489 O
  -0.2830142608809433    0.7403412429163879   -0.1876052664150147 O
