Li1 Co1 H90 C51 N3 Cl6 O45
1.0
  14.2902870748000002    0.0000000000000000    0.0000000000000000
   0.0000000000000000   13.9463226359999997    0.0000000000000000
   0.0000000000000000    0.0000000000000000   14.4140072570999997
Li Co H C N Cl O
1 1 90 51 3 6 45
direct
   0.6689087480094434    0.2339559253833399    0.3736624751556856 Li
   0.9135798299617234    0.7393307244580799    0.3775198341127246 Co
   0.2178513293403219    0.2480549825421377    0.2709804122428230 H
   0.0756253551970806    0.2036447092274196    1.0613782382455936 H
   0.0187965458282271    0.3195397764925191    1.0403910141791572 H
  -0.0490677311400207    0.2156041342567431    1.0563477149007214 H
   0.3770209798934640    0.3054063016587163    0.1840753637260079 H
   0.6298605471525121    1.0364326995195436    0.0680722307890255 H
   0.5602595660949695    0.9779118964876927    0.2095942907973687 H
   0.7967004424968376    0.9791667075555816    0.2449827841498153 H
   0.3020756695302718    0.6037379915667110    0.0923500040520873 H
   0.4818703081229999    0.5149783929034294    0.2364064043967728 H
   0.3526106935098448    0.4117636575520279    0.2496643413876029 H
   0.6459630928043615    0.4347956788513809    0.1765264567455148 H
   0.9469815382340312    0.3911522026543772    0.2343139952934581 H
   0.9203004787140749    0.4618136971372444    0.0532234801132151 H
   0.7762641840458094    0.5725441054538931    0.2619995648149687 H
   0.8458988943067947    0.4023918680551598    0.3089878858223959 H
   0.9337060876425214    0.5687696337616838    0.1241010634096138 H
   0.1879058147568796    0.6590220990783050    0.2593424272600299 H
   0.1878736250606480    0.7828755366534028    0.2435917761086528 H
   0.0499848625966107    0.7647790099497594    0.1617228010934827 H
   0.4041414987445819    0.8180281724266858    0.1495457571341394 H
   0.7148868306442316    0.7455804006110618    0.0700834688495392 H
   0.7081360915236636    0.9063389072451112    0.2794201193853373 H
   0.8469926442026636    0.9172643679544944    0.0897372677513302 H
   0.2160522052313781    0.2396427291430116    0.3928493671189717 H
   0.0591176392383162    0.0053444065468270    0.6177382507015222 H
   0.0427015939362114    0.2327513067581667    0.6179637258204138 H
  -0.0240129510557647    0.1232392841366932    0.3999216543866076 H
   0.4480735762958502    0.2791348601065018    0.6795857289287087 H
   0.4666794306505095    0.1839499117407339    0.4492472851649457 H
   0.6229033741104589   -0.0371348917931343    0.5853308853056217 H
   0.7204976346525983   -0.0484174358806939    0.6649423340534888 H
  -0.1506633108789477    0.2412209229489677    0.5888420532339625 H
  -0.1834128279145633    0.1378474360716059    0.5211506761868619 H
  -0.0105576580309610    0.2861245162720901    0.4811214192489072 H
  -0.0764786570332280    0.0160404160895106    0.4666520217885121 H
   1.0580877736573824    0.4702507384327230    0.3147711491795681 H
   0.2919890981937042    0.4113997623423402    0.4319807474450200 H
   0.4347685951569278    0.3161496355045317    0.4527521397899574 H
   0.5062216733669952    0.3929476580338020    0.5926522358584335 H
   0.1809206506746250    0.0125943463796401    0.3836541448857711 H
   0.0913290285260603    0.7335155714520356    0.6082925776439527 H
   0.3710742834026807   -0.0644876219684209    0.6767204604947931 H
   0.4358665437088269    0.7816795224469808    0.3066873458401042 H
   0.3782301928301637    1.0169479932573675    0.2719405893645032 H
   0.3392729628538868    0.7404041256972967    0.3629992364561011 H
   0.4688245240163424    0.0025709155693449    0.6371013601423421 H
   0.4025082215488314   -0.1821516143217956    0.5838587062216583 H
   0.5808867234401711   -0.2236851436340168    0.5752157939643029 H
   0.6170917343886472   -0.2819384926496835    0.6877652724725017 H
   0.7020410425198128   -0.2111649973160710    0.6254939010217990 H
   0.2057955883255871    0.3064388319088648    0.7778283601929934 H
   0.1554886913236554    0.2250446156966421    0.9241929319855331 H
   0.0832039293316045    0.1026238138436252    0.9223343232362691 H
   0.1515867403195829    0.1930741807915249    0.7676084402656299 H
   0.0043601668443650    0.1010642629449635    0.8340743426973142 H
  -0.0407991778645328    0.0785923893063161    0.9415919796984075 H
   0.4678085192346328    0.2611982321846523    0.8092595917664920 H
   0.6222007990014042    0.3333340938205440    0.8027416264065314 H
   0.6187250115843977    0.0134820355808094    0.7077569371678321 H
   0.6766132818248735    1.1346614610185617   -0.0558724827201197 H
  -0.0870914599255815    0.2538988169440195    0.8118549838273343 H
  -0.1237023409569776    0.2560520727365166    0.9362333033343482 H
  -0.0574608445444048    0.3572794741703407    0.8815913161373429 H
   0.1117463930249525    0.3442638567393028    0.9149512271893609 H
   0.0730221884583522    0.3844823440523766    0.7147237714567863 H
   0.2562151492643294    0.4955278175022997    0.8044371993005968 H
   0.1598923817233377    0.6354839945494002    0.6464665559267072 H
   0.4765849699345747    0.4248315468269797    0.8856970446099609 H
   0.3771581359904508    0.3374154564482141    0.7617308242433215 H
   0.5381729559136680    0.5202815829937751    0.8175071247307510 H
   0.3870074832613117    0.5604706718761157    0.8783951196058538 H
   0.5227725585075103    0.5107616540874066    0.6455542489071917 H
   0.3864098745530122    0.5731686428482536    0.7524918945255358 H
   0.6077497247214364    0.3095392907988939    0.6801136875917134 H
   0.4108999354012053    0.4487619411474513    0.6461307714419577 H
   0.6561063459973369    0.4178794632899385    0.7210294433201906 H
  -0.1230151609200337    0.5238043037340212    0.7704348576021365 H
   0.7780717054668136    0.5676159246141220   -0.1007753323201981 H
  -0.0595650709915436    0.6521421492517950    0.8044947821771137 H
  -0.0562257398955189    0.6657435841928129    0.6827958008521294 H
   0.1378641328608559    0.7008704067098422    0.9564546057661496 H
   0.0277389833965633    0.8110213074235951    0.8197167808958894 H
   0.1326668964714646    0.8611621236266371    0.7218779235368199 H
   0.6802563157070832    0.9636414679887662   -0.0174293218338885 H
   0.4898392872907325   -0.0862840487350962    0.7867890883025467 H
   0.4783052992653516   -0.2050027994203934    0.7300241661399767 H
   0.6351263615903968   -0.0842247245139668    0.8348853593557276 H
   0.6218026264545395   -0.2073668634722958    0.8296571116758272 H
   0.7238894489490006   -0.1486237796227045    0.7960349557162982 H
   0.0182584180803556    0.2451660489464099    1.0254631737693354 C
   0.6628962725741868    1.0463421217813851    0.2533982093564490 C
   0.3884504213836928    0.3373430359237245    0.2530860130379836 C
   0.3740287376959364    0.6341338178403518    0.2099772516146862 C
   0.4925745717392115    0.3699838984565422    0.2646997160848960 C
   0.8231953615994546    0.5755413113189073    0.0274208012768491 C
   0.7713832464106937    0.3800940904892457    0.1383559473107434 C
   0.8895831111970797    0.4425520604311939    0.2542411394163055 C
   0.8209819700955304    0.4710683331706051    0.1741967784401665 C
   0.8793761783876463    0.5171752444175994    0.0953602703316902 C
   0.9324073033771773    0.5319367701167529    0.3050909819983512 C
   0.2115575439510414    0.7194559512125143    0.2147150041897976 C
   0.1653317406104710    0.6978825222984752    0.1230506962403769 C
   0.3249863359351020    0.7295288574306291    0.2199397830217150 C
   0.6353579874480633    0.8448424093951242    0.1176628815532609 C
   0.6954610487444732    0.9930205387799691    0.0517249377845812 C
   0.7178622782176384    0.9184302666952870    0.1214702890993454 C
   0.7228600784455950    0.9592955194844955    0.2248287773688830 C
   0.0740928457460550    0.0273451882588442    0.4625415756826372 C
   0.2449410580472183    0.2801401430306047    0.3358894956997600 C
   0.3530060669526893    0.2830749668596725    0.3417941687363354 C
   0.3876204870417219    0.1768706262131537    0.3380124306653247 C
   0.6453675834240771   -0.0385431483287535    0.6601629553025820 C
  -0.0202971404690314    0.0738484864348007    0.4657267412775403 C
  -0.0502650478846348    0.0895931386797726    0.6378957263304375 C
  -0.0411672600431810    0.1400308073297323    0.5451285328533180 C
  -0.1322487053064642    0.1950194964642004    0.5285824748594506 C
  -0.1345460699309926    0.2676493951433923    0.4477912709125828 C
   0.1975564256423107    0.3734536303179785    0.3502227755653043 C
   0.4439440581349404   -0.0754797669231263    0.6493644315316626 C
   0.3590801226763889    0.7845985715083380    0.3059727631556168 C
   0.3316230115668495    0.8875095708778209    0.3083648807246583 C
   0.6253539896800898   -0.2217950396483284    0.6398889263814397 C
   0.1354268130353207    0.2723079708622912    0.7852052123135322 C
   0.1075344412506497    0.2747172081126376    0.8870623831760497 C
   0.0107022367779928    0.1242094323508952    0.9035012537672438 C
  -0.0716285095423337    0.2798784252935879    0.8813214397642695 C
   0.7746987851225473    1.0642299913303108    0.0239977420872753 C
   0.1308208873701835    0.6858047865113222    0.8295155826781230 C
   0.4474094888670724    0.3062660264989441    0.7470492720402891 C
   0.3901788681161282    0.5208236613751032    0.8119264420957831 C
   0.4817435087108877    0.4655166589392820    0.8179941509875571 C
   0.4849655573484686    0.4423937391261712    0.6478665829726253 C
   0.6114494404600538    0.3606732003328078    0.7339744902229588 C
  -0.0128445260154138    0.6398579074146123    0.7434680333826928 C
   0.0055938719412408    0.5323391701003525    0.7388260210119109 C
   0.1361111939682445    0.7078263622353215    0.6622900528857263 C
   0.0722349404526883    0.7089105189979774    0.7473517555844023 C
   0.2186945594263885    0.7750175512288355    0.6646474819749382 C
   0.5017531837092468   -0.1287683663193291    0.7218189531211097 C
   0.6502450221791677   -0.1459621460889886    0.7937364970427965 C
   0.6053082062398709   -0.1339216961164242    0.7034638909041347 N
   0.0154782080123534    0.2327333808857683    0.9225327413408938 N
   0.5087736864797556    0.3947036764939503    0.7369729624194197 N
  -0.0119921988412817    0.8468106701844696    0.2854579961844579 Cl
   0.5651255985011782    1.2364187512404827    0.5225692962579687 Cl
   0.9635445364971933    0.7106708396675012    0.5252294170221727 Cl
   0.7710025682639549    0.7754262611195194    0.4105737927726466 Cl
   0.5650244108908501    0.1332519594235493    0.8684277318116489 Cl
   0.7478777704015841    0.5866316900543560    0.7562271500335749 Cl
   0.5717838972114810    1.0399841733591169    0.2380554947278666 O
   0.5511316878852992    0.3152554929892990    0.2997454872566272 O
   0.3629386875681493    0.1281165554988527    0.2713529665161917 O
   0.6989571296656257    1.1162114361112216    0.2952963428336972 O
   0.1206706364171578    0.3887307758107999    0.3116873433227266 O
   0.3522831983394887    0.5784065827630692    0.1374637596095289 O
   0.4274818276165033    0.5994974471921432    0.2672867829105791 O
   0.5193634177572232    0.4540424012315958    0.2178772060110537 O
   0.8196789871741562    0.3093091225972983    0.1162253909491269 O
   0.6762130099499937    0.3796323200162627    0.1373492876260916 O
   0.7511569207611759    0.5242529524684086    0.2161594324898975 O
   0.8072684597248689    0.6611301816723580    0.0364516001156579 O
   0.1996277626172129    0.6471107153870091    0.0602541412050556 O
   0.0794832203128359    0.7247146851393119    0.1083587374933957 O
   0.3454715787064827    0.7824517690299044    0.1393036365796849 O
   0.5559389391070849    0.8764686675501918    0.1349530074394706 O
   0.6505256323571865    0.7547864116399895    0.0931492266273586 O
   0.7950272780688001    0.8695786792351388    0.0896332023118418 O
   0.0400368469090400    0.2077784154024931    0.5498174440488294 O
   0.1048584978073977   -0.0355186951376936    0.5152779026763378 O
   0.1205369792001962    0.0480194554133790    0.3814340821766839 O
   0.4352507408243966    0.1380274118304859    0.4056459473280696 O
  -0.1161202679424286    0.1132137022217102    0.6890695593140905 O
  -0.2048217750125894    0.2812092420604459    0.3996705097926421 O
  -0.0543335455779055    0.3140135885495371    0.4359248276016326 O
   1.0202326908890349    0.5323760256940036    0.3229042101603897 O
   0.2300743168202599    0.4403886227431746    0.4070903756281695 O
   0.3731477197055980    0.3243123607598719    0.4291466986429509 O
   0.8841689442461276    0.6069675167380087    0.3242258412418931 O
   0.2700651159559727    0.9203096151575365    0.3592605121000789 O
   0.4440672187118265   -0.1299356991299136    0.5654738119120301 O
   0.3866925840590461    0.9428503241461937    0.2551867473764573 O
   0.0709312577553090    0.3074950243105791    0.7209635352085146 O
   0.7426112561876943    1.1386223617837146   -0.0209245330615076 O
   0.0161968779695239    0.0322568772960087    0.6664304698381739 O
   0.0743552617479429    0.4937808336818403    0.7053113993398531 O
   0.1855720617800895    0.6166747351591959    0.8384943487971875 O
   0.3123182909159621    0.4551591830820169    0.8030676981169285 O
  -0.0691771941966978    0.4805750585964000    0.7672962439471644 O
   0.7944660577127624    0.5226042024286924   -0.0459057886955114 O
   0.1102964571425210    0.7380572704828969    0.9044170296347422 O
   0.0373287137695564    0.8049107360404250    0.7546252360350492 O
   0.2912606313724633    0.7561243987558068    0.6279318073842154 O
   0.1989825691405710    0.8634810144800955    0.6997050472298114 O
   0.8611582098725774    1.0526369711328107    0.0345825848224451 O
