Li1 Co1 H90 C51 N3 Cl6 O45
1.0
  15.2572243306999997    0.0000000000000000    0.0000000000000000
   0.0000000000000000   14.8617819702999991    0.0000000000000000
   0.0000000000000000    0.0000000000000000   14.9106842425000004
Li Co H C N Cl O
1 1 90 51 3 6 45
direct
   0.9356743635586978    0.7831525525310242    0.4267120823915468 Li
   0.2176971114343976    0.0967705277922987    0.3198880779330540 Co
   0.0611548762131357    0.1136170944086266    0.1535670721584593 H
   0.2719061852523516    0.1477334608721675    1.0206614180469256 H
   0.1005912761085808    0.2674411785304752    0.0922345413954936 H
   0.2917807045900435   -0.0133764251956649    1.0546122409445824 H
   0.5095574723678006    0.1179160405328316    0.2375404150068802 H
   0.4533168363647360    0.0013808899391077    1.0627580777167007 H
   0.5407849086086979    0.0769734401625667    0.9385270250115417 H
  -0.0460264802744617    0.1495999934357212    0.1925646118114421 H
  -0.0434670370131192   -0.0038297907285778    0.3621262468699883 H
   0.1691345430444756    0.3236168108784949    0.1713006647756460 H
   0.1987605084365216    0.5924176860348782    0.1352258615505317 H
   0.0400651948251163    0.6379546210640993    0.1666932303425444 H
   0.2416824702433160    0.6571562215565765    0.2252384980044956 H
   0.0135479206977431    0.3519942962192711    0.2371246057858434 H
   0.5059416442981436    0.5903836096327071    0.2922226808733925 H
   0.4122619900556589    0.6162378443918949    0.0503632234971191 H
   0.6423287390210622    0.6250443253550494    1.0776916646922281 H
   0.2256094287329702   -0.1678222382608169    0.3018506763204968 H
   0.2339084480863935    0.8306461842779144    0.1502714487517255 H
   0.0169712170239893    0.7522740212137776    0.1605741281929638 H
   0.5502818522767833    0.7406589941366097    0.3563793610392391 H
   0.5001416574799684   -0.0572998255863129   -0.7198864721717347 H
   0.4207464953099682   -0.1150768809701140    1.0516438996344066 H
   0.6638936051374998    0.7579658016590194    0.3389945116396961 H
   0.5908351001408141   -0.0558746936578318    1.0342067387522171 H
   0.5585983715367566   -0.1672570301305411    0.9946243835496471 H
   0.6252994292089754   -0.0965669875704030    0.9238006719864987 H
   0.1786880500809231    0.2836417929979165    0.5172512540381494 H
   0.1945782273992294    0.1988942167976329    0.6076897596136591 H
   0.2832463868676517    0.2265571175737032    0.5323393610854944 H
   0.5382803901476885    0.0491752931553232    0.3489276574022387 H
   0.4846809947219753    0.0990898997268948    0.4439730608828228 H
   0.3888999425249829    0.2698628262219784    0.6175028572301281 H
  -0.3649639157166751    0.1990193700264797    0.5610668153748880 H
  -0.3036224829819661    0.2670953249840922    0.4801250570778425 H
  -0.1571541640031711    0.2305997014388188    0.4416518394393864 H
  -0.1330927756377057    0.2765067132200062    0.5498436550370803 H
  -0.0956580504465218    0.1637981562416139    0.5129892765885253 H
  -0.2763239396183522    0.1342169121567146    0.4195676081160901 H
  -0.2872564655080300    0.2953658245002090    0.5955575195998587 H
   0.1309047846456071    0.6879580460561427    0.3920906665259631 H
   0.3268696557908703    0.3643804286741724    0.4552129877214788 H
   0.2129629606849286    0.4273102981789880    0.5526135480432161 H
   0.2932914643128077    0.6069193117773833    0.5316548854548651 H
   0.6007182870647022    0.5694622288305016    0.5670517855176825 H
   0.2915132902877060    0.4586590961179605    0.6362565237589229 H
   0.4080194097148984    0.3975359413162444    0.5435436088103452 H
   0.3950399846433583    0.5238800098641762    0.4580113167130532 H
   0.7048270007842653    0.5318052371508757    0.4585906328503622 H
   0.8774462100791428    0.6361614309841171    0.5357009103735636 H
   0.7134491457530131    0.5560972770099905    0.3433323407391577 H
   1.0383916053080100    0.8614836707190340    0.5283025912752641 H
   0.3239838097781454    0.0144970828956153    0.4698729454031626 H
   1.2164639690034942    0.8042240499211639    0.6349413594323855 H
   0.3511669979525158   -0.0993304516073587    0.4910988324820332 H
   0.6312559517080996    0.7667076874072852    0.4869917465828195 H
   0.5249006956780172   -0.0706905482060973    0.6063035053235249 H
   0.6518527518329872    0.7068407076751072    0.6059607980461865 H
  -0.2109450752601170    0.0495359497717850    0.4703106852073090 H
  -0.3190971194481108    0.0614941389280489    0.5099443459024747 H
   0.1889389316705251    0.2702510703781321    0.7404925182124820 H
   0.3119580312994998    0.0819284314379847    0.8996381322840556 H
   0.3258648858754700    0.2212663657542286    0.7144467651347624 H
   0.4658314324578014    0.0475079291710096    0.8510253397246131 H
   0.5777475295793582    0.0106974039531540    0.8399882875462212 H
   0.3679282380350536    0.3375754330958421    0.7190736487088479 H
  -0.1016755276763259    0.1791247167075930    0.7037296177925552 H
  -0.2007793992080245    0.1677142411442392    0.7813511394596215 H
  -0.2827143549315632    0.0938018393747072    0.6529754077447730 H
  -0.1548208431298346    0.3134484474681044    0.7208944907009689 H
   0.1337984957848714    0.3563544732242559    0.6596062235002426 H
   0.2050906244462643    0.3884535849561696    0.7435413387267293 H
   1.1838499109537119    0.7083438921549121    0.7017183083507980 H
   0.5520262718004869    0.5647044548205405    0.8269298660255631 H
   0.6443264811620537    0.5153080095310676    0.8721444241930804 H
   0.9638315165695227    0.6218165832110815    0.6954576969340579 H
   0.9924933485332883    0.3463570179865916    0.8800193143114907 H
   0.8910423921568092    0.4996056664024737    0.8207544284331323 H
   1.0039672572997571    0.8832529310033355    0.7132583555546377 H
   1.1909481876554633    1.0066116240364962    0.7630461444935261 H
   1.0342571704571655    0.7899794593045699    0.7773318738762769 H
   0.2952433265489864   -0.0516652388209205    0.9366760033178939 H
   0.1592919926077076    0.8289074964104947   -0.0458147906487666 H
   0.3943694826058798   -0.0897279691940657    0.8381111101112501 H
   0.6206465514337461    0.7747942008711598    0.7904687626209049 H
   0.5038204000076681   -0.1226385583130183    0.8077603902757315 H
   0.4348873374004837   -0.1858887124249902    0.8961299096465659 H
   0.7511316224301862    0.6781247703229872    0.9116503241517824 H
   0.7642735934502058    0.7279835289483531    0.7922185146494292 H
  -0.1737692438175196    0.0671199784247584    0.6206918456914671 H
   0.1352207728340680    0.2584543692590898    0.1515027805740216 C
   0.0643795780942636    0.2330913272797847    0.2252740429862939 C
   0.2076507231348184    0.1926991319697170    0.1293280772121481 C
   0.0291628185871726    0.0717964028359690    0.2831097523323467 C
   0.0209129562746202    0.1394127897543215    0.2106945645086817 C
   0.1026820889136211    0.2556498603460070    0.3208256606604886 C
   0.4210178421755753    0.1187705813964628    0.3269896970323426 C
   0.4206252412758201   -0.0482013204225159    1.0217056357197551 C
   0.2260603626545588    0.6542938460968225    0.1538085097706743 C
   0.5972314142989296    0.6734416172435591    0.2509958672676251 C
   0.0634554257258916    0.7019799177547351    0.1866031147698351 C
   0.0649996122364480    0.7164956737004972    0.2848997439629068 C
   0.1567620435708876    0.7256358966072430    0.1431316020305029 C
   0.1464003947825233    0.7378020016114298    0.0413944868633684 C
   0.3133436044248462    0.6773873082863416    0.1025660592181908 C
   0.6145969582705731    0.7088808398786741    0.3424524347746410 C
   0.5748144928073972   -0.0965017194886926    0.9754663090203923 C
   0.2231450224173114    0.2474752013284822    0.5647856252630319 C
   0.4774839451394343    0.0572113416075661    0.3840769497805291 C
   0.3464879030888221    0.2821056380438454    0.6756323156710424 C
  -0.3047104921532410    0.2382676917395606    0.5478868702560817 C
  -0.1479926024392672    0.2142281787986512    0.5126294674803218 C
  -0.2608689659685559    0.0969979567780525    0.4827642988027683 C
   1.2011335265239040    0.6835083777638643    0.5643778639624022 C
   0.2761985780611945    0.4054131931985526    0.5846646593287618 C
   0.3416580599664579    0.4086052734009674    0.5072788075976185 C
   0.5517076686329226    0.5887021154451365    0.4509643564065299 C
   0.6301928487708659    0.6456724035096512    0.4208550741832262 C
   0.8003011164180602    0.6330904668096187    0.4352196731859671 C
   0.7130729305335480    0.5848062165471640    0.4073736673791682 C
   1.0816589772553236    0.7889735234060433    0.6378929342417131 C
   1.0132448294801162    0.7166760020087279    0.6251986811194792 C
   0.2880060992783736   -0.0764603812026629    0.3604744112064178 C
   1.1715606507359986    0.7467430559389358    0.6382812464013587 C
   0.3458331313044223   -0.0499588485609450    0.4378567755053847 C
   0.5110943836363082   -0.0697579547911422    0.4710460639345136 C
   0.4415697455364676   -0.0383047952081152    0.4029258500341420 C
   0.3295791918836717   -0.0134430390110189    0.9892939775999686 C
   0.5224844632624119    0.0262359174679865    0.8891671171743009 C
  -0.2181744374041905    0.1212561514360329    0.6389894633971892 C
  -0.1781016176862708    0.1823887936599357    0.7094731503231347 C
   0.1884591589516256    0.3338363121673389    0.6975528388800565 C
   0.6119136392662361    0.5792729635251282    0.8672720790465762 C
   0.5887213473833675    0.6081614239303467    0.9609123156240695 C
   0.6550230532555514    0.6352786297139721    0.7147049692478256 C
   0.6581972872413854    0.6494808297207953    0.8150162611828240 C
   0.8309803533391656    0.6171361215989403    0.8034654834184414 C
   1.0562670716502871    0.8383161931791215    0.7280202535614789 C
   1.1317578670292625    0.8897427314991808    0.7741495920152773 C
   0.4548477832456179   -0.1189297163914941    0.8627880460597178 C
   0.7545621284557600    0.6716215124907067    0.8413557633554052 C
   0.2596234793067543    0.3186685482712945    0.6314673404566262 N
  -0.2303195036353494    0.1676281141910543    0.5487689893987103 N
   0.4906611126007175   -0.0583252746226705    0.9363212241599448 N
   0.6058148890621923    0.0379054467577167    0.2011430243054454 Cl
   0.9125692434949734    0.9427928974601396    0.4732968660743873 Cl
   1.2801977110605847    1.0869297179491539    0.7824463272950298 Cl
   0.0393048992596471    1.2909059306306543    0.9380884133493513 Cl
   0.9664119335016367    0.4091260723210073   -0.2275482346631149 Cl
   0.6146310404855769    1.9236429751379880    0.7057644003354999 Cl
   0.2491327113577026    0.1436390662617767    0.1809494506838022 O
   0.2261475344737031    0.1955413214248182    0.0400719452764577 O
   0.0981465326092703    0.0455000945748870    0.3216244167608997 O
   0.4526755008381743    0.1503919576849291    0.2514861197524282 O
  -0.0429780883132571    0.0329605484846251    0.3020035868082329 O
  -0.0064314669938066    0.2969840692065344    0.2081386791193731 O
   0.1384900437655856    0.6836833231375211    0.3247476805389134 O
   0.5268865090437573    0.6147333141784463    0.2339121442233170 O
   0.3525676459037293    0.6020309343173194    0.0783290762519814 O
   0.2650078138501418   -0.0271789423103646    0.2957986401743092 O
   0.1833992608779857    0.8096446650372375    0.1873026131852245 O
   0.0092221011011080    0.7599527773836675    0.3260702221258240 O
   0.4501569562348364   -0.0854276773362173    0.3140593715781652 O
   0.3386411285114107    0.7570358997113513    0.0912205034241909 O
   0.6394586232614160    0.6953017145487977    0.1836153243186754 O
   0.1709684283825643    0.2196312993773593    0.3514298899888330 O
   0.3427382040111934    0.1374715689735528    0.3507411221339864 O
   0.0623077726783601    0.3169083286655784    0.3585603474695806 O
   1.1531372472448143    0.6569664731128410    0.5041167126036402 O
   1.2870207083334591    0.6607190513777794    0.5700375639887406 O
   0.4856526655631892    0.5767608152460988    0.4010298941182209 O
   0.5507816810683581    0.5504003154902212    0.5319309291248309 O
   0.6391879318230205    0.5638875272122454    0.6732937241327273 O
   0.3351090312680370    0.5040606503426441    0.4779745186130414 O
   0.8260095933663050    0.5981478198889602    0.5148584731690927 O
   1.0889879643355620    0.8538197176192226    0.5672516422077939 O
   0.2665755957403163   -0.1625200477053725    0.3553311194062058 O
   0.5810561261435724   -0.1026295176344329    0.4478889106889354 O
   0.4834082206197473   -0.0507622515461227    0.5548719286414733 O
   0.6530875766996630    0.7058300617088282    0.4932891612066474 O
   0.6586836142324010    0.7153787147763806    0.6727612200657866 O
   0.8378079386025213    0.6949578796028800    0.3982010500951026 O
   0.9595561648681816    0.7141184352192299    0.5628427231447356 O
   0.3329998665010715    0.0806580588785076    0.9640899028648314 O
  -0.2000256579146714    0.2749645024645393    0.6954925712558223 O
   1.0199105242222040    0.6537138348964681    0.6873836207855704 O
   0.5101382464200095    0.6219874913838077    0.9801455040771244 O
   0.6557761391216930    0.6045669693685212    1.0178862268265219 O
   0.8645441254185728    0.6276563943571096    0.7297907960510552 O
   0.8495171457379587    0.5438428918787891    0.8551532522334546 O
   0.1504935377190364    0.8275146620894577    0.0170039227493889 O
   0.1414152154110072    0.6800195632930548   -0.0169153791266732 O
   1.1326721879894606    0.9746558329376166    0.7475767001508885 O
   1.1816149041621171    0.8563887231446905    0.8299055845961121 O
   0.6061720968925204    0.7267494911972509    0.8296353086024382 O
