Li1 Co1 H90 C51 N3 Cl6 O45
1.0
  14.4234053592000002    0.0000000000000000    0.0000000000000000
   0.0000000000000000   14.0762367890999993    0.0000000000000000
   0.0000000000000000    0.0000000000000000   14.5482780319000007
Li Co H C N Cl O
1 1 90 51 3 6 45
direct
   0.5660035179620579    0.6324056655109143    0.3566758213323969 Li
   0.6279104655769259    0.6744822523767047    0.5995684847975661 Co
   0.1877883278495218    0.2327441590807077    0.1521787672153019 H
   0.3526876661658319    0.1139965118903486    0.1569752111550584 H
   0.3947020160997377    0.0774519433591957    0.0494745161194860 H
   0.5415682343918575    0.0745186309534274    0.1048267714334319 H
   0.7030473679249377    1.0480771327975984    0.1395594043190579 H
   0.8300104501094053    1.0960175028063319    0.2461438397140893 H
   0.7230364060764656    0.3572561310132331    0.2595887298633638 H
   0.0925403634619912    0.4549666924798492    0.2705350425232410 H
   0.2253065135014860    0.3930817573901990    1.0548587937589593 H
   0.0162317544622476    0.5666863959461723    1.0238915549550165 H
   0.3605422606377080    0.3161187156176354    0.1006668289393925 H
   0.2601110542807409    0.5594934223185616    0.2876710911644176 H
   0.3071464098784586    0.5943450667850630    0.1336178076702680 H
   0.6120709329346379    0.3874204431345517    0.1098431726762441 H
   0.6472339188848665    0.6077804758957172    0.1820427826711062 H
   0.8557138114701487    0.4545203373855057    0.2238092376885075 H
   0.6966217009141381    0.4225448877860409    0.0345297921100009 H
   0.8164512388739493    0.5733906025756798    0.2342737063813785 H
   0.7775644443873587    0.6178620056487467    0.0812253528155642 H
   0.0638598965612853    0.7404288554289364    0.1874111155988073 H
   0.1597893920959476    0.7955280990421570    0.1011184287772286 H
   0.2373854917775055    0.7579754485774162    0.3304651592070320 H
   0.2973789522988144    0.8193135755879383    0.2483344769792088 H
   0.3675052487461951    0.7099008097276340    0.1341065253029947 H
   0.6153080325541268    0.9450382295927926   -0.0162232934703665 H
   0.8831268938978569    1.0106658553453902    0.1123170049690477 H
   0.9338895246196638    0.8458533394180896    0.1433935350579461 H
   0.6537524904467500    0.9360741860142058    0.1415568915774317 H
   0.0572851662782241    0.2050663069788100    0.3650238883499296 H
   0.2190021770611321    0.1270383499007858    0.4226444533516366 H
   0.2734380041384867    0.2366187742081140    0.4040972411380438 H
   0.0925701761164436    0.3093889339707854    0.6465712983608352 H
   0.0151092733562393    0.3016091557785914    0.4268490746728592 H
   0.3497632527593200    0.0633181941916584    0.4897185082920452 H
   0.5526621470993678    0.2399911244115972    0.4694022207319704 H
   0.5822290204818721    1.0739505253425448    0.6225251535708520 H
   0.5216564110153613    0.2526962246936901    0.6418532142102922 H
   0.6686082054921104    0.2685491833603699    0.4877384801446014 H
   0.4717750076932886    0.9780207665418379    0.6105134227242991 H
   0.6382804161035258    0.0983822533855332    0.4797310032635189 H
   0.2228126502906697    0.3268417520556756    0.5544135187899357 H
   0.5560314623747651    0.3590527759815518    0.5788841811748162 H
   0.7067801895893900    0.4222767053125177    0.6130896726363381 H
   0.7494233785369767    0.3095686695093321    0.5825183569778954 H
   0.2382493654390782    0.9387609836694772    0.3453232750284389 H
   0.3542178179885374    0.8839984777846011    0.6297246310464911 H
   0.3824510950724581    0.7113053044300326    0.7373071227041373 H
   0.5619410931365207    0.8922421583747042    0.6448446335318486 H
   0.4489076617520182    0.7810334579632295    0.6500390627168213 H
   0.6958216124667426    0.8930129609807247    0.2914564188766904 H
   0.8101593821494127    0.9066316577156678    0.3337617692865780 H
   0.0384283156783401    0.0087169529994703    0.6488279228168714 H
   0.0241196281763030   -0.1193371588350073    0.6172248699337836 H
  -0.0586604067922368    0.1032280087548105    0.8781066039560419 H
   0.3231551120018251    0.9639417194947278    0.7242987103281138 H
  -0.0075018917520045    0.1676088524119555    0.7161472301501870 H
   0.0549001539220361    0.0872876687788767    0.8186920122012876 H
   0.2462599563586701    0.0779598916203060   -0.0821987991553267 H
   0.2636296408236636    0.2653963520557441   -0.0943005750228179 H
   0.3889440138851617    0.2767289264071165   -0.0556918820374087 H
   0.6228631138463886    0.1780725865908274    0.7646113850456320 H
   0.5361741545568639    0.3331708584308246    0.7781614422804299 H
   0.7136163005870684    0.1753786847640719    0.6805320185860504 H
  -0.1294793274674756    0.0290611688783729    0.6527692827409992 H
   0.7919500901369356    0.3188204320330234   -0.0062825981053967 H
   0.7225594036052279    0.2436582977316690    0.7924029902867091 H
   0.2467522118159066    0.5787556728804418    0.9049599538262725 H
   0.2000330090188928    0.5150235111215063    0.8008954042843721 H
   0.5536092188663889    0.4312271799235700    0.6991802736857344 H
   0.6345552209320729    0.4030607029069987    0.7959353671004679 H
  -0.1052125200608083    0.3876087036788792    0.7960267868545503 H
   0.7871107336700194    0.3543398686190264    0.6868427310840304 H
  -0.0073611482902876    0.5692929164636739    0.8249525469395081 H
  -0.0388481646147868    0.4792708445856816    0.9008006986988053 H
   0.2645794858608663    0.8507133031303350    0.7131468750631940 H
   0.0759915669707555    0.6738315102687646    0.9084380286808394 H
   0.3203943215360284    0.7940447480362853    0.8690924787301939 H
  -0.0041954603779753   -0.0719573079563662    0.8558991647462892 H
   0.4984116438018996    0.7481567731692969    0.7667745276478696 H
   0.3479876665255416    0.9250549056252804    0.8763215129684312 H
   0.4443782182278972    1.0018545514537107    0.7861926333082482 H
   0.5283447968436406    0.9109936190068805    0.8113213804492082 H
   0.4342523154772793    0.8467236004248869    0.9040560667840284 H
   0.0857451581994917   -0.0910135375452086    0.7137600060454615 H
  -0.2119335031896758   -0.0511619771882259    0.7096303076805923 H
  -0.1482571398671836   -0.0921850154229301    0.6093160301557901 H
  -0.1189984461336112   -0.0281309636540519    0.8507377291567748 H
  -0.1391081215380393   -0.1897636524250874    0.7791670595753374 H
  -0.0867425406512595   -0.2152463155384104    0.6704146700120641 H
  -0.0138970527908062   -0.2083233004271940    0.7764890794106353 H
   0.2097297482089059    0.1562180238544137    0.0444533033106695 C
   0.3046657197010050    0.2025429052676719    0.0410315925150105 C
   0.1058832596232813    0.3267422936548987    0.3152021844746883 C
   0.3793283928479608    0.1409561322552077    0.0882969801088023 C
   0.4717533761858720    0.1936783200898619    0.1023570633400606 C
   0.7540880189824514    0.3208159938028958    0.1188641715678125 C
   0.1516956030709073    0.6395616974468079    0.2070478038290975 C
   0.3725359608556428    0.6291128820280525    0.2672343082442627 C
   0.6739883496444414    0.4754527715591170    0.2632029032991964 C
   0.3237478985031451    0.6620165626736246    0.1774147435415016 C
   0.6907742607362052    0.4040039947966522    0.1046164372623850 C
   0.7099514240420656    0.4869559952137080    0.1670444440690013 C
   0.8693395811899632    0.5322694557327806    0.1051395232237141 C
   0.8157662411390907    0.5087843435573455    0.1871698499320182 C
   0.2310513426826993    0.7869917265869107    0.2595000595755695 C
   0.1602851141409110    0.8701233204590835    0.2577280285528277 C
   0.2277109387489453    0.7097544637950624    0.1905778133962361 C
   0.7417164607022716    0.9716490351377844    0.0216299836523610 C
   0.7187662633143255    0.9724432815097025    0.1236317461115430 C
   0.7954478771534963    0.9324638460660065    0.1854225641058701 C
   0.8069403087861043    0.8274613498630067    0.1663708248283935 C
   0.7592185688184372    0.9387034398804565    0.2873995813684584 C
   0.2326965852179417    0.1944327831014691    0.4549207130553890 C
   0.1471425867502426    0.2524767057948327    0.4793015366293029 C
   0.0929695270225960    0.1953115691140473    0.5604233022026728 C
   0.2960054902413701    0.1817781224369131    0.5364875484841606 C
   0.0755901361119669    0.2678906266637975    0.3988498847270233 C
   0.6081606219785622    0.2333288323938458    0.5191212457886790 C
   0.5778989057520546    0.2872871460667265    0.6042941299804016 C
   0.7408324808318821    1.0375942173557196    0.3254164517353335 C
   0.7268045869357335    0.3532145678559513    0.6387641888355050 C
   0.4363766404363956    0.7659719039998741    0.7255366575243737 C
   0.5180943603955173    0.9542828879449999    0.6692502710390134 C
  -0.0209619585784677    0.0778298852821477    0.8139416218218584 C
   0.3252413044959442    0.2334673637377850   -0.0595651926709038 C
   0.3572503889321322    0.1495216318135388   -0.1172428090980908 C
   0.6797186191572012    0.2201818526454445    0.7308252559297171 C
   0.1834474666977507    0.5658473932939049    0.8574697973634208 C
   0.1367372770288271    0.4295291408554499    0.9675433054781718 C
   0.1012324855287147    0.5201010756063085    0.9113483387468941 C
   0.0258300425608134    0.4222172433971961    0.7714108151763387 C
   0.5875579977993524    0.3744127051472378    0.7415983522134381 C
   0.0151300728826014    0.4984064277700010    0.8513934768665093 C
   0.3297229091094322    0.8917164496848838    0.7040887583767349 C
   0.1603717788340865    0.6576744930625671    0.8106608211734694 C
   0.3699484997761970    0.8515650932912737    0.8676751288586293 C
   0.4774585476034883    0.9354682001866155    0.7638374102855050 C
   0.0273269151413395   -0.0663194374666162    0.6718904460422528 C
  -0.1406805657310143   -0.0460938612514975    0.6716539919414680 C
  -0.0549726507682356   -0.0226557786912869    0.8171523110798983 C
  -0.0731750096052587   -0.1841129944266661    0.7396434816825311 C
   0.6455574770600808    0.3066559592008676    0.6781997838070888 N
   0.4037955690252497    0.8605447660471255    0.7671065257021690 N
  -0.0610599788168782   -0.0781940601022224    0.7261690347706586 N
   0.4982069764624965   -0.0482208501938250    1.0279676387272658 Cl
   0.5078352158790238    1.5872460963288844    0.5965585065785644 Cl
   0.3515651850598236    0.9534708811443718    0.4113317743088574 Cl
   0.6522299651170440    0.7230087165328730    0.4603573014836946 Cl
   0.7875981359044381    0.3938184599730961    0.8811447642044976 Cl
   0.7098321734242562    0.6877627905490064    0.7214598863855523 Cl
   0.1626195143162846    0.1727004121145813    0.1231340927133797 O
   0.2966904879762287    0.2915830385631375    0.0924081195762262 O
   0.1672279960405816    0.2979171178583254    0.2631760960028866 O
   0.5467934220727909    0.1457592625955807    0.1200402557725880 O
   0.4719804376819917    0.2832811037668651    0.0981819987814361 O
   0.7621457554951306    0.2836505206840361    0.1974425433512875 O
   0.7984582619356382    0.2791748926490784    0.0505935488987814 O
   0.8775616339609033    0.9868860621367963    0.1792836932509023 O
   0.7878622898892367    1.1161350956148928    0.2982647847728338 O
   0.1678970474718959    0.5537433059193635    0.2323078379853189 O
   0.0622583330314033    0.4104890377358763    0.3170656352515127 O
   0.0712361019268330    0.6723225842455505    0.2089188156382143 O
   0.6450998874801145    0.5500889201079631    0.2953159821787444 O
   0.3174830811628792    0.5797474152196166    0.3191029897710653 O
   0.6777461307405284    0.3961088448595570    0.3032110746252970 O
   0.4538813138274792    0.6503472505939076    0.2857945804227244 O
   0.6675571360932787    0.5686322285156563    0.1262856684462235 O
   0.9494052779682485    0.5004709710449837    0.0932020279669426 O
   0.8359223688190608    0.6008766420475077    0.0555212798537993 O
   0.0877543924460710    0.8612367123496729    0.2084273485391994 O
   0.2102961886435006    0.7451083731854867    0.0969248053211589 O
   0.8206721560903657    0.9932002497518289    0.0031741911928507 O
   0.7363078905305791    0.7764789736247988    0.1625504414209462 O
   0.8920928763950149    0.7899030160610785    0.1560403926170720 O
   0.0687061862036557    0.1126921860058751    0.5508231969741532 O
   0.0774544669915568    0.2398994805994528    0.6399237762425513 O
   0.3033324700611941    0.2455174594090475    0.5957020478297915 O
   0.3554748026983539    0.1107761909566242    0.5404038882650658 O
   0.5802382284820006    1.0324287742696596    0.6826669791588340 O
   0.6205405000692870    0.1365813834553236    0.5400906553181832 O
   0.6820010205166696    1.0454656393600579    0.3830205199393114 O
   0.1719834610845040    0.3400540901817302    0.5131532803834523 O
   0.1742922085106977    0.9370495887589673    0.3154104565460192 O
   0.1768942292585969    0.1035413027172575   -0.0148272519625354 O
   0.3019548480984773    0.0714538913752039   -0.1286799014904108 O
   0.4323755048818722    0.1533358614833306   -0.1548287006242914 O
  -0.0563169934887730    0.1256565885471362    0.7408965509433761 O
   0.0696615777812217    0.5898729908358472    0.9807324952626443 O
   0.2167211623367546    0.4525298195773870    1.0177746798303542 O
   0.1096861063598194    0.3488320044674347    0.9608861602278792 O
   0.0982179408413004    0.4040773808880825    0.7318803636178119 O
  -0.0499592715974231    0.3708975610969250    0.7490885857490538 O
   0.2051836650636953    0.6815324321574858    0.7430933745076441 O
   0.1047385923558201    0.7171797438302018    0.8567899918236644 O
   0.6812737304115414    0.9627723728684515   -0.0436045408679306 O
