Li1 Co1 H90 C51 N3 Cl6 O45
1.0
  13.3203371967000006    0.0000000000000000    0.0000000000000000
   0.0000000000000000   12.9750957904999993    0.0000000000000000
   0.0000000000000000    0.0000000000000000   13.0177899753999995
Li Co H C N Cl O
1 1 90 51 3 6 45
direct
   0.7326338631065354    0.7479859537457803    0.6151176968465382 Li
   0.1926145007001495    0.3614600982933684    0.6799451369569375 Co
   0.2483097874668985    0.2556312071490445    0.2264887506459717 H
   0.0613032602885084    1.0325287470793876    0.0318658534577605 H
   0.0728637784440209    0.2415565519057507    0.2929985039632506 H
   0.0244603491254500    0.0345106816188480    0.3164978844708548 H
   0.5424194591778040    0.1315835680419442    1.0569699629277673 H
   0.3839189671239653    0.1805966936687796    0.1487320805880883 H
   0.4673953824413998   -0.0261570785819163    1.1759686564792358 H
   0.6109582646538529    0.1327165076546723    1.2073457182364062 H
  -0.0338752611917203    0.2433507583128467    0.2032851192637778 H
   0.7372388516360447    0.0819538766394744    1.2150958816812500 H
   0.2811422896432209    0.5770749226593158    0.0104067578257144 H
   0.1320199385594882    0.3865319748523209    0.1957070280373545 H
   0.2999150876818433    0.4682482887138574    0.0906838249757311 H
   0.0700770622031441    0.5106115674807434    0.2254939581332278 H
   0.5786490225044409    0.5165107069734971    1.0372016304776126 H
   0.5222070579431940    0.6336523084337996    0.3029110928315493 H
   0.6411872291353043    0.5481071981762955    0.3045188926224163 H
   0.0145642032506551    0.4226958697149358    0.1295813644933358 H
   0.7804637333712190   -0.5021913290976101    1.0447482263426286 H
   0.2403880660838887    0.9337934451837372    0.1908467560465202 H
   0.2362620444082801    0.8622278848986353    0.3091602334424923 H
  -0.0053669738719310    0.7737599445817364    0.2177722173316052 H
   0.6104447641396396   -0.2647749701173969    0.9898648704619353 H
   0.5093744999173846   -0.1243575096672039    1.0902851416808088 H
   0.3466488895974751    0.7061326981884990    0.1375043683361467 H
   0.5536360671205079   -0.1201240149102543    1.2150290500607028 H
   0.6443433053951767    0.0222271499537721    1.2866356746691443 H
   0.7763579814527504   -0.0300422136756324    1.0733805825800817 H
   0.7180396379657364   -0.1311774978529397    1.1474668907646910 H
  -0.0614451338291022    0.8676320839220706    0.2945725038540707 H
   0.2468150805607601    0.1166118095951024    0.4660766534999786 H
   0.3013835189768743    0.2270556955700496    0.4643028501091085 H
   0.3287732159952341    0.0447395078366223   -0.3136205930511298 H
  -0.0386394048513659    0.2189355243049449    0.4436615584222879 H
   0.4770846266470176    0.0942620709355756    0.6368210735743778 H
   0.4794542363298580    0.2278194664246167    0.5875945918742603 H
   0.4820482397315556    0.1110126216451227    0.3699001901858568 H
   0.6232950394346528    0.1086943343287374    0.5817287728570310 H
   0.7686464649585998    0.2223158461698604    0.6339688229181477 H
   0.9159295232648139   -0.0225278182850884    0.6086565386807554 H
  -0.1478611143708841    0.2352313577549615    0.3661998693102683 H
   0.8793959135810770    0.0614245484325082    0.3616983371676590 H
   0.7625715436705677    0.1517683901217747    0.4717991302138273 H
   0.1087817880960986    0.3672373196110625    0.4054838031397727 H
  -0.0126137874153535    0.3851023129600687    0.4562410362222413 H
   0.0534791340324689    0.4873865674602706    0.4067697357006478 H
   0.0126716085191759    0.6347852480465278    0.5162599028252871 H
   0.3416129810458043    0.5778756874604210    0.3284738036011071 H
   0.5644782100683440    0.3307427913512636    0.3128666997544530 H
   0.6630740624560273    0.5039675625815181    0.5810619930106513 H
   0.3816412470068262    0.5139257087167167    0.4930914540663239 H
   0.6318511291429700    0.4017349454650256    0.4566672990526054 H
   0.4718534527682314    0.5895464298152382    0.5516351854861867 H
  -0.1557385425808843    0.3938968530422736    0.2237632496149174 H
  -0.1130031379440537    0.5149002710786578    0.2688692162274997 H
   0.9266769989394887    0.4602819506097734    0.7061554230842120 H
  -0.1467395211424708    0.4246118478627197    0.3568058016358708 H
   0.2095352435215729    0.7026205853890417    0.7112999215072587 H
   0.2713339793826993    0.8227283691898383    0.6746293344950167 H
   0.0738232136153142    0.9030792210705106    0.4341369770429366 H
   0.3909585787055123   -0.1415327200547191    0.4525219717657176 H
   0.6552341708333234    0.8169935367692190    0.4058148885243230 H
   0.6194009938685353    0.0060299670278569    0.6684554754796326 H
   0.3511675439762030    0.2856749159812687   -0.1123967290196692 H
   0.8804191609507740    0.0886451567195465    0.6923512366332412 H
   0.9283376175614769    0.1693829036244293    0.9435805164249909 H
   0.6651753606128737    0.1257369830744912    1.0329420748921572 H
   0.9139333275523971   -0.0044346955990976    0.8585845223206996 H
   0.0693068114318241    0.4604190594241302   -0.0420168871470208 H
   0.3343376396960366    0.4688675519647603   -0.2127732140043910 H
   0.2824245394652622    0.6658624752601592    0.8508627815190770 H
   0.4416702078501070    0.3396251920564964   -0.0480478647667521 H
   0.9773588991069448    0.5636089719780170    0.7799997547116673 H
   0.7202550473479636    0.4508059512040487    0.8705366278850099 H
   0.8025953052411139    0.3793096774979837    0.7949984603574771 H
   0.0927566682475649    0.7096355625013219    0.8200664634990760 H
   0.1245313893938776    0.7361925918723337    0.9460125728692743 H
   0.0519183627326890    0.8332701025387471    0.8635677030389772 H
   0.1725046494220330    0.9765214534351997    0.8124914449908387 H
   0.2307741953455619    0.9241634584755477    0.9346150929375519 H
   0.3094020847551087    0.9387860865519366    0.8156294584383744 H
   0.1345941977162681    0.8163939265524146    0.6898515803888640 H
   0.3154927714098053    0.7536953528281547    0.9426517873532478 H
   0.5758616306049927    0.0449052098888241    0.9671244513462932 H
   0.4555052179762512    0.7010776295355168    0.8121565187085560 H
   0.5090304996167665    0.8502772987524019    0.8784227591095878 H
   0.3852807945110749    0.7717368381304361    0.7221266440359168 H
   0.6926926820280409   -0.0769913853685318    0.9168002410741982 H
   0.7994925309352022    0.7026637449933361    0.8217871856832815 H
   0.7448647847111598   -0.1897551000743034    0.9797871229911348 H
   0.3226712683643486    0.1700649795137249    0.3248718097074731 C
   0.3281433520604022    0.2812425787616771    0.0541983692342003 C
  -0.0063406729463969    0.2634284520891607    0.2838909672597052 C
   0.6590568968835779    0.0623779132630828    1.2129242381032370 C
   0.0568611805478649    0.4283466950486249    0.2021028909416830 C
   0.3251561904433632    0.5105212714229017    0.0225532128152942 C
   0.4306626036254688    0.5483755584301403    0.0422063183334710 C
   0.0419396363658422    0.9573917295389236    0.1493151288638972 C
   0.2163969316793354    0.7800712660025738    0.1695996779693137 C
   0.0840692004837106    0.9061928782374642    0.2473402162567202 C
   0.1955753867060812    0.8725869606365124    0.2319466663239988 C
   0.0106664040258079    0.8259090778848922    0.2836920087571565 C
   0.5350515526037637   -0.0688812332972811    1.1521489451007325 C
   0.7075984608433993   -0.0762129710767934    1.0835182480555110 C
   0.3508732571318001    0.1889704276091140    0.6697068399609142 C
   0.3190001901267710    0.1500204261478512    0.4353818119980729 C
   0.4302560823850499    0.1569336699071517    0.5993185481132540 C
   0.4118597012438346    0.1043660425837841    0.4961639417985413 C
   0.6691167022789847    0.0729080860036985    0.6474042831867887 C
   0.3950080257430365   -0.0123013041889727    0.5187868294435658 C
   0.8529934288086100    0.0148507111555262    0.6608067117349293 C
  -0.0712226640880409    0.2097379043469190    0.3654716351001670 C
   0.7649235862305533    0.0457329494426132    0.5877328641926340 C
   0.0375388468712247    0.4094782408997739    0.3962902303270171 C
   0.6242259467996010    0.6730277402802501    0.4122598381016741 C
   0.4588233772200689    0.4437769472203729    0.3314128585460940 C
   0.5804928196724348    0.5904258838234587    0.3470514577541554 C
   0.5240312610126193    0.5079979914002625    0.4120745531950534 C
   0.4465254903437080    0.5666497202420019    0.4756743655721586 C
  -0.1086331284510192    0.4319859745393069    0.2810602256307777 C
   0.9256905374253422    0.6171044537229924    0.6382944419446038 C
   0.0427827081165170    0.7654116439796470    0.3832741960907762 C
   0.3913992582403708    0.6592128133699423    0.4413942764907330 C
   0.7614537041008839   -0.0336522062919717    0.4975064891919950 C
   0.6872003285748473    0.1508366050933472    0.7340388042638079 C
   0.3603504946923684    0.3320113754346314   -0.0452862592970114 C
   0.6011431978076180    0.0775700939747139    1.0374520570097783 C
   0.2036765329763673    0.4224076252148268   -0.0933090036477314 C
   0.3141819937814188    0.4371181139142435   -0.0650261691039450 C
   0.7934281198916130    0.4510685311537470    0.8440444198641623 C
   0.8084405026148928    0.5488118557871237    0.7836017486053012 C
   0.8750927192134299    0.4444668843233077    0.9315853928060754 C
   0.7162558993374164    0.5622116797889856    0.7069243708102788 C
   0.9146607866141993    0.5422611527038962    0.7316528385923157 C
   0.1138184473795153    0.7744258356194215    0.8688320374712811 C
   0.2339100018482943    0.9242366756614044    0.8470664382001735 C
   0.2079999971011544    0.7888449969898511    0.7120627237969536 C
   0.3077925158918436    0.7458896301086233    0.8603659306890804 C
   0.4047382599019818    0.7687333920958771    0.8048910765575664 C
   0.8264573137853679   -0.0650014931541017    0.7437309256022552 C
   0.6866380304971488   -0.1324160243547452    0.9834160031688970 C
   0.6243032721694314   -0.0035067641067678    1.1213126817443124 N
  -0.0042221079593941    0.3843292936188670    0.2898021088701794 N
   0.2151056730763429    0.8091908968785660    0.8245403411780104 N
   0.8645689615990410    0.2101525448310331    0.0094841741903434 Cl
   1.6894782591446165    1.5924059238875028    1.0893717761999961 Cl
   0.6982893871939184    1.2758695324562277    0.3691896241053255 Cl
   0.0790355441272776    1.2471498986271783    0.5927644402223423 Cl
   0.2764517176946760    0.5099990864533727    0.6318471110106584 Cl
   1.0365908831287507    1.0801599946615825   -0.1230529156889996 Cl
   0.2544177409517515    0.3016424281557600    0.1118963349733442 O
   0.2471866927749934    0.2311165519098216    0.3000680603298774 O
   0.1030184204826257    1.0107154206446629    0.0913229503584360 O
   0.3808176942815455    0.1279034410686265    0.2599260699469097 O
   0.3986745995901385    0.2139282394995742    0.0812528846831007 O
  -0.0683068219868648    0.1052747063956252    0.3253880263627348 O
   0.5097824325334859    0.4895944124320953    0.0093320746401324 O
   0.4449858896791631    0.6273926243966716    0.0944179457513665 O
   0.8519859468055774    0.4774009764409839    1.0238199427772281 O
   0.1626077528154922    0.7206165989653702    0.1235987821850353 O
   0.0887822943846333    0.9871888120608940    0.3257498389291459 O
  -0.0467698296597432    0.9455852656427447    0.1209808262904939 O
   0.3174536827301637    0.7723850029020718    0.1674326434685798 O
   0.2972026938838132    0.1113794782816251    0.7144471531093528 O
   0.5018873546201389    0.1124908380922061    0.4428959138682710 O
   0.8006659246540844    0.1382139622516724    0.5411473069554990 O
   1.0053108942030029    0.5923485671240526    0.5806825123146702 O
   0.3308602502489080    0.6488321578299180    0.3584581558404361 O
   0.3739920412475874    0.4683130281202991    0.3048591961615248 O
   0.5003430093309599    0.3597545232165198    0.2939425966259241 O
   0.5802007850232697    0.4497960164635595    0.4840000798604374 O
   0.6707029984581261    0.6658809722334281    0.4934230771765567 O
   0.0432346486275643    0.6696065709326989    0.3928234360335708 O
   0.0676274245161880    0.8299545200802733    0.4591278549580648 O
   0.3774191316677391   -0.0429423111163427    0.6055246706695919 O
   0.6051866389911748    0.7654023954930124    0.3683369448086879 O
   0.3951964594112639    0.7464992595192819    0.4846701244698897 O
   0.4064574356001521   -0.0669845228299858    0.4334721176454233 O
   0.7122042001046545   -0.1138889935041517    0.5169370530955448 O
   0.8700523062712837    0.6918923408930036    0.6250318220739299 O
   0.7996704543589866   -0.0117194202382178    0.4142173900400720 O
   0.3230143527722366    0.2807562625061454    0.6839027979806103 O
   0.6496307090817327    0.1474763216161398    0.8191653888910075 O
   0.7354033125172560    0.2384976149513846    0.6999439232710485 O
   0.1731360148203567    0.3797983058751739   -0.1732703490041283 O
   0.1423785351897735    0.4716800167503165   -0.0260164753725483 O
   0.3692842024688863    0.4817288057616056   -0.1460568203890981 O
   0.9622504227201866    0.4141525801863020    0.9155596311065678 O
   0.7226438757634998    0.4940356127847118    0.6309537181980553 O
   0.8029458969664612    0.6348977713005810    0.8570873403845315 O
   0.4483458646812291    0.8625739324402101    0.8376808205007877 O
   0.5996657577316359   -0.1899601081947018    0.9718380010437422 O
   0.6519812501782266    0.6273070758953023    0.7165258469622368 O
   0.7809306885171848   -0.1448151621027526    0.7190454758748236 O
   0.8493396174011887   -0.0494439972204073    0.8401228632791758 O
