Li1 Co1 H90 C51 N3 Cl6 O45
1.0
  13.4322310604999995    0.0000000000000000    0.0000000000000000
   0.0000000000000000   13.0840895478999997    0.0000000000000000
   0.0000000000000000    0.0000000000000000   13.1271423736999999
Li Co H C N Cl O
1 1 90 51 3 6 45
direct
   0.7395626970275048    0.7364819878236475    0.6464216617167867 Li
   0.1834317038697728    0.4216989083497650    0.6209522952330466 Co
   0.0863540111077290    0.3016859724667308    0.1887295129641914 H
   0.2744031883905665    0.2667511764057116    0.1513192384337734 H
   0.1054349812641834    0.2246114464702425    0.3266848994790985 H
   0.1347331669659823    0.4109369826166444    0.3114904272686337 H
   0.7182133025219783   -0.0299702718683195    0.9931734429056289 H
   0.3438681935559309    0.1462108824688565    0.0445061971728526 H
   0.7000614408616322    0.0880830320581973    1.1083234090573211 H
   0.7576267102883790   -0.1163668068248868    1.0855743604450123 H
  -0.0386393717813756    0.2596448355587152    0.1726010979616865 H
  -0.0550312875404396    0.1222214410292434    0.2949780749356328 H
   0.7524362099399281    0.0205964869098020    1.2041424353307042 H
   0.0415543052889698    0.6117595152338815    0.1093999856112797 H
   0.0368015579819544    0.4899780191529609    0.2983984690108853 H
   0.3451673075989669    0.4933234563604756    0.0646568127805541 H
   0.6124021387921091    0.5044677548969683    1.0836958099350853 H
   0.5709921155804257    0.3392942445745121    0.3503937914176475 H
   0.3933104639433849    0.6222363619031251    0.3407283214784929 H
  -0.0093158738288814    0.3887627228840238    0.1582377281868788 H
   0.8680536373803246   -0.4554068282004655    1.0810143428649541 H
  -0.1209287543136960    0.4350219599355728    0.2947381141040728 H
   0.7077585985068754    0.5152886339104967    0.3879076680848660 H
   0.0725372446179266    0.9800572085780415    0.0609012353215352 H
   0.2221177566676657    0.8265623862866165    0.2468617384155491 H
   0.1721498848393042    0.7331902035659562    0.3202227161961659 H
   0.6249480814014173    0.5931147330266890    0.3096667249487774 H
   0.6068840681405431   -0.2281888785589363    1.0286015647893192 H
   0.5285307405913351    0.0247083511555367    1.0218818997252206 H
   0.4762803737804269   -0.0847696522436302    1.1024051369925914 H
   0.4899441500491154    0.0384479391751595    1.1449978037042883 H
   0.6362008657913825    0.0782428364887116    1.2332378766024628 H
  -0.0531090454435233    0.8830814124896044    0.3653787740132584 H
   0.5947915126098646   -0.1944983417901207    1.1748237923965741 H
   0.5713514006447060   -0.1034786345617227    1.2719926935700345 H
   0.6964254104970546   -0.1319957123938510    1.2427951737223109 H
  -0.0370231101266872    0.7691269799292353    0.2800616525776106 H
   0.2902032441701385    0.0127075161394540    0.3274680097484436 H
   0.2265838799594554    0.1203649878223867    0.3796400652121008 H
   0.0513918370738855    0.2729098013298993    0.4447805181497633 H
   0.3307155014078981    0.1230575710450118   -0.4023244863848764 H
   0.5323208778939691    0.1385320906330022    0.3595831485957703 H
   0.3951627251119084    0.2762015855875905    0.4052328401235004 H
   0.4584044156526591    0.2104836006370818    0.5008856459097519 H
  -0.1630006928810604    0.3026642598709205    0.3242799587005747 H
  -0.0970875920706099    0.1774167220884372    0.4197065157027839 H
   0.9632530122451880    0.0334303947935150    0.4650128727962788 H
   0.7362274357594238    0.1380597612456669    0.5299862672883505 H
   0.0616045857514602    0.4470405264108565    0.4209866115166045 H
   0.4052384898445442    0.5433698885254937    0.5169180004015911 H
   0.5170494759149472    0.5972090186706296    0.5718768771671404 H
   0.6257558399897807    0.3960295640082701    0.4894174683190516 H
  -0.0289068113890491    0.5974704048364365    0.5023254870771540 H
  -0.1116004454545320    0.3932246305915701    0.4223773940251097 H
   0.0806870448638379   -0.0257773931969254    0.3721106275640393 H
   0.0630116490989319    0.8691369955447293    0.7025999203968700 H
   0.2300576141283987    0.7944768522902996    0.6514867397137477 H
   0.3069703768218617    0.9070884325310115    0.6610836494153136 H
   0.4443328888043885   -0.1424679733408874    0.4601263561292154 H
   0.7206075436465651    0.8024835232639642    0.4382163324689073 H
  -0.0427250668347748    0.7503813118334858    0.5853520109749673 H
   0.4027705454017566    0.3133925569745222   -0.1529091980613779 H
   0.6031251989122973   -0.0670825216906952    0.8783396156272618 H
   0.5918902819934111    0.0090098954664309    0.6027190809365724 H
   0.8089599546983612    0.0856327278255161    0.7787703443577834 H
   0.9259770007066133    0.1779081586516356    0.9769871325913826 H
   0.6461776149551220    0.1970038702091968    0.6634238388583372 H
   0.9044988115137256    0.0349933617791149    0.6909980046360468 H
   0.1345247131367273    0.4886003917732328   -0.0747589067949898 H
   0.2955560407142239    0.6395604561146617    0.7030417530391075 H
   0.4807622800050031    0.3528358822521935   -0.0408787227199661 H
   0.4199836203524933    0.5749518337947633   -0.1911528603687060 H
   0.5799689563939064    0.4981723990223043    0.8394987174724955 H
   0.3412915553307460    0.6064538346402218   -0.0020583926364763 H
   0.9519436475301393    0.5139806827582711    0.7563968534913765 H
   0.7807092494885690    0.4919682225908591    0.9649708082833574 H
   0.8387569406344489    0.4033881195766591    0.8951338267147936 H
   0.8517384028513080    0.4499459635725963    0.6881405662894383 H
   0.1396578886821331    0.9704608205725687    0.6621615687062897 H
   0.0756670299685990    0.9737999906264003    0.7896653278910265 H
   0.2095651137567029    1.0125057789157568    0.9005257085109266 H
   0.2252088291643336    0.7771848581342130    0.9075538946441737 H
   0.1247288721176626    0.8630754350739260    0.9180024748526734 H
   0.1115449118952416    0.7588626050555893    0.8283607259860216 H
   0.2807431627117669    1.0346991458242403    0.7902077155483940 H
   0.3194694173195875    0.9350032521799354    0.8801800771163064 H
   0.6490140759889141   -0.0717859441011507    0.6959625276178777 H
   0.3800944911686140    0.7929253496102175    0.8240917085255060 H
   0.7197968071463552   -0.2065266911394463    0.9601190288033388 H
   0.4170042195500691    0.7908350245707967    0.6979309682170877 H
   0.9173708354702257   -0.0164576770979499    0.8992657237001320 H
   0.8488371722348544    0.7107866577229788    0.8089726525763886 H
   0.2951257324524045    0.1450124803987241    0.2339594634817958 C
   0.3533952780308487    0.2909714325297507   -0.0028102699086977 C
   0.6798845991456655    0.0412834440732405    1.1715481366006752 C
   0.0106800597424104    0.3192431742237970    0.1995445095535812 C
   0.0608236283697154    0.4276741043856671    0.3417582486031569 C
   0.3808032341880812    0.5338026198560362    0.0064263176553194 C
   0.4821956234245201    0.5564284967973565    0.0563465502044005 C
   0.4907883136098022    0.4704160160756370    0.3496076340266318 C
   0.1241839142497529    0.7166265749537701    0.1581394585130019 C
   0.0809602682757543    0.8593426571973148    0.2853445997740195 C
   0.1556008842303372    0.7811285792323526    0.2504512477435201 C
   0.0357175980698281    0.9213011142250042    0.1858667421546593 C
   0.5239751310485582   -0.0172777570859933    1.0937833062256184 C
   0.6923307817081159   -0.0901808044480542    1.0445174430552995 C
   0.6189036648309822   -0.1254083224432959    1.2093423484615891 C
  -0.0110728418183169    0.8150705664355262    0.3420941937673409 C
   0.2919088431802219    0.0932121623468823    0.3335995803301157 C
   0.0397102333780242    0.2430131854004567    0.3695700898711736 C
   0.3125197155478161    0.2455383897625212    0.5353969650607995 C
   0.3895515947151392    0.2093952558999208    0.4595398613856659 C
   0.3894600239258593    0.1073033224023858    0.3970147529778825 C
   0.3898106730457848    0.0087064735137252    0.4618108811667668 C
  -0.0316241559489811    0.1539187172120225    0.3745787961172282 C
   0.7518942299838648    0.0325033146206384    0.6265559519852867 C
   0.5443752417052162    0.5210806418085292    0.4391461616466920 C
   0.4735861080373052    0.5863317620239994    0.5008769616129908 C
   0.6479606396732146    0.5729896032623286    0.3873561390624868 C
  -0.1086143443504532    0.3705398271198880    0.3426860971518557 C
   0.9041347617904909    0.5969720896899274    0.6401552560011905 C
   0.6803528757835278    0.6598675626219420    0.4507939365886577 C
   0.4481601011095115    0.6882592973804085    0.4626211108189803 C
  -0.0009122065980559    0.7514558994040252    0.4381239285042462 C
   0.7875227117933631   -0.0342212363543373    0.5334045283784336 C
   0.6190138475693027    0.0827093299184650    0.7473446167884308 C
   0.6464188258146887    0.0071824851668860    0.6629347758302053 C
   0.8261425060526713    0.0196946282090647    0.7211241348128870 C
   0.2703882187435216    0.4631741671374197   -0.1364951154022540 C
   0.4059576555554741    0.3586077779369125   -0.0794210029510133 C
   0.3772163393689709    0.4673383850450191   -0.0916155838767689 C
   0.7038895465403091    0.5703863651940392    0.8015270107742688 C
   0.8410960903898754    0.4847260679378280    0.9115044878901114 C
   0.8148547311985097    0.5608671701790532    0.8233124071582490 C
   0.9422319325207382    0.5048991184992531    0.9516998316274611 C
   0.8764342257943397    0.5241936975431972    0.7245186283539393 C
   0.1102018736524697    0.9270195098173065    0.7290931197619329 C
   0.2561262544326673    0.9752261502328204    0.8429526298861246 C
   0.1629898279994675    0.8131369202381826    0.8621647320192802 C
   0.2747009795752166    0.8412473973679446    0.7060477385671580 C
   0.3557679292945484    0.7737944808490683    0.7498653481904376 C
   0.6479174599514402   -0.1758428595644448    0.9821611451880675 C
   0.8332090908644179   -0.0799164295744081    0.7800227113644014 C
  -0.0058131050194348    0.3389923511958755    0.3125150219303742 N
   0.6270251749143516   -0.0439727746278183    1.1289897500077724 N
   0.2013922346939812    0.8871130265967141    0.7828892910760218 N
   0.8404305270921826    0.2295571478706419   -0.0110123596655450 Cl
   1.7440637318316032    1.5635720165476477    1.1481751898263104 Cl
   0.0681641810713401    1.3017043499089764    0.6321900799542327 Cl
   0.6616895577635452    1.2547251544709066    0.4111565970072373 Cl
   0.2259868086342320    0.5704122745245096    0.5652783351894484 Cl
   1.0274366907507830    1.0767127683990132   -0.0469470655269732 Cl
   0.2507101772618439    0.2331447112106936    0.2212773430887437 O
   0.3358516548651505    0.1043447672917467    0.1561100754803799 O
   0.3712776386690865    0.1932642137492750   -0.0120430485706266 O
   0.2891632084577481    0.3225670585369382    0.0610040756779181 O
   0.0574779444101717    0.6435439201385963    0.1807628133563982 O
   0.5007239899243989    0.6456785738260196    0.0735406960111989 O
   0.5468523432269318    0.4807320567528168    0.0548229893690987 O
   0.5052335013917921    0.3737712327018520    0.3223876961431298 O
   0.4249195092380685    0.5192991422311481    0.3038490078991776 O
   0.9419296744683183    0.5298075386691767    1.0506307309069480 O
   0.1618358871589484    0.7235716512364823    0.0747313588039873 O
   0.1028255860086870    0.9317359251073489    0.1077202597903595 O
   0.3930655306940102    0.6892780919974278    0.3804117487751811 O
  -0.0417066209832715    0.9673815081104747    0.1862651533130907 O
   0.4731685303486297    0.1156157081898597    0.3309577258417025 O
   0.2876645743209965    0.1861907372447631    0.6142067296347480 O
   0.3701944232349219    0.0175477459290891    0.5546131046301687 O
   0.0232044124908314    0.0729998274318827    0.4327976360020729 O
   0.7680754584797891    0.1399720074060439    0.5971070445997382 O
   0.2811570924584305    0.3319677890615731    0.5280963662502004 O
   0.5705469922071700    0.4434723759614816    0.5069344871380672 O
   0.0161921745702835    0.6552826047018376    0.4340650862609605 O
   0.9237376109980446    0.5529496915023174    0.5540118313465169 O
   0.1351441188007994    0.9258730792655218    0.3475195939018507 O
   0.4104662140910765   -0.0752542786638169    0.4162222844285323 O
   0.4723551881755541    0.7684276572926466    0.5061721734741239 O
   0.6947756473340931    0.7421101975458760    0.3963916165962441 O
   0.7505288574022443   -0.1245102851777311    0.5356890316729268 O
   0.9025006326647236    0.6935061278724099    0.6576160249541667 O
  -0.0183441580695105    0.7987171167578341    0.5226411805013605 O
   0.8442459766455118    0.0009611887058675    0.4631485675801618 O
   0.6985598288130342    0.6532213225697286    0.5392457844429389 O
   0.6000564607544782    0.0516754548816519    0.8339072492069379 O
   0.6185880061752531    0.1824564307940829    0.7333728021482957 O
   0.2458867045484741    0.4567578246251908   -0.2281936713965633 O
   0.2070539895921410    0.4858746384933094   -0.0622809435538681 O
   1.0215903053181401    0.4906679410590249    0.9046149457928766 O
   0.3330606069870176    0.6688204209443465    0.7655732604023993 O
   0.4463528064098701    0.5065038155569379   -0.1660285804141617 O
   0.6556250402881462    0.4961765398603505    0.8472117442012108 O
   0.6608244743721366    0.6316172209648625    0.7467557605255868 O
   0.8555404518013280    0.6574119083800191    0.8625189599134879 O
   0.5839407463191770   -0.1400077333767573    0.9042546236553277 O
   0.8837665892383865   -0.0850348598446098    0.8687800331661607 O
   0.8022194512338064   -0.1614933704912725    0.7479448997575397 O
