Li1 Co1 H110 Cl3 O55
1.0
  12.6493434365000006    0.0000000000000000    0.0000000000000000
   0.0000000000000000   11.7050988316000009    0.0000000000000000
   0.0000000000000000    0.0000000000000000   12.9075652050999992
Li Co H Cl O
1 1 110 3 55
direct
   0.1136710949005468    0.6803934362604070    0.5401821328661638 Li
   0.5452576849402392    0.3608865227516051    0.7414524699684332 Co
   1.1318928757113125    0.0859949523093782    0.2478001119325138 H
   0.2477125974110632    0.0816598329968432    0.0962685125238826 H
   0.2824653893015517    0.3384945717078075    0.0460045014814550 H
   0.0678612073827536    1.1124957254222523    0.0590568469333636 H
   0.1124930890953598    0.3698227992841546    0.0642249013990999 H
   0.0262728037916215    0.4930981360206971    1.1806243749656842 H
   0.2347554031643593    0.3787043987901187    0.3306321552351156 H
   0.3334783136670985    0.1603431498359635    0.0624549316459374 H
   0.3702035399471858    0.3112679754539049    0.1978418130780395 H
   0.3851260535896985    0.4229577628541277    0.0322538911084102 H
   0.4287188299869986    0.3085990530937056    0.3079338387560140 H
   0.6514845422269755    0.0619703794248824    0.0586074205769731 H
   0.4100538296108741    1.0094209870233899    0.1500651805217817 H
   0.8483050343337872    0.3320486628705143    0.0138710980541286 H
   0.8023382216751784    0.4543654429847317    0.0323120120621362 H
   0.6879583720598114    0.0836103504874229    0.2909848637538532 H
   0.9219373145130432    0.4454009736103491    0.3124955046522851 H
   0.7838953672162794    0.2842045559512181    0.3118331024204047 H
  -0.0231391679156580    0.4548874377229141    1.0786144312561030 H
   0.8110596229521545    0.3662602492707004    0.2217378767506932 H
   1.1521547969158896   -0.0372990942221990    0.2124131127005032 H
   0.2513768192129835    0.7706404316252130    0.2146141474850321 H
   0.1343320091457776    0.7696810206743474    0.1560252511298003 H
   1.0611935540833237    0.6328235688025782    0.0735195280845880 H
   1.0361408703933881    0.7695708122926362    0.0434006796555757 H
   0.6146873754541212    0.5676810175973294    0.0007710286519465 H
   0.5830999652453779    0.9836031785326014    0.1938054205305577 H
   0.4151639762619232    0.5040070571530226    0.2447065772987145 H
   0.4003339575386822   -0.2716344073589838    0.1152894507177871 H
   0.4251281297875764   -0.3156246382325505    0.2265637288002640 H
   0.4214196369131842    0.8926940785489881    0.2137162244595943 H
   0.6124414090810348    0.5872673537144643    0.2089972864544673 H
  -0.0581530800782444    0.9348722785883734    1.0141561088087943 H
   0.6964955740531095    0.9242871479728582    0.1838368479953471 H
   0.7108022454553425    0.5526653391713170    0.2659623289172766 H
   0.7509956359306885    0.7303118528757864    0.1763187763483677 H
   0.8231408824078061    0.8145153281458262    0.1064296078130374 H
   0.8585348142942723    0.8435317426918597    0.3109576468390891 H
   1.0490111036048790    0.4439383631491899    0.3423562873696724 H
   0.1452993767958401    0.2886752572031140    0.3760597777714186 H
   1.1235920496228200    1.1082155394348647    0.4075599091702783 H
   0.2200558259939376    0.0639880471387373    0.5485144556777120 H
   0.1888905720834090    0.4691282401627868    0.5064701203304403 H
   0.2919615343467870    0.0467024177808908    0.4478719271017786 H
   1.0062974242180935    1.1353746437340759    0.3572320595969654 H
   0.5209876505672184    0.1728103662259726    0.6477368868372281 H
   0.6039287142885694    0.2238530792005141    0.3964733876051222 H
   0.5041172097359395    0.1857551522700635    0.4443460878534888 H
  -0.4247294184690548    0.3423074399835980    0.5321782995824721 H
  -0.3605561272563524    0.4489549803383994    0.5545279833079525 H
   0.4380118024317823    0.0332104778774314    0.3374839509529521 H
   0.4610635917569585    0.4920063041460702    0.5198490959355193 H
   0.4641973512440809    0.0033152574239901    0.4607891579931726 H
   0.6015641646856474    0.0105360422474231    0.5970495581579590 H
   0.7681222165384124    0.1015322837421569    0.6486657994407656 H
   0.7693270221535422    0.1273301863779540    0.3834934028180764 H
   0.8682823557867592    0.0821113456304428    0.5151580485506821 H
   0.7873477203142265    0.4760175455125458    0.4601561958604868 H
   0.8609618177315743    0.0101679120793661    0.6540889756082073 H
   0.0985981386671159    0.7502997234069076    0.3416210596292578 H
   0.0052955094891893    0.6525038810591566    0.3469830313799528 H
   0.1983266349588610    0.5061556934321203    0.6213523600431710 H
   0.2177134119272515    0.8774964281438712    0.4904880201649891 H
   0.2772769777188111    0.7872203856086918    0.5610745316815072 H
   0.4133962955825071    0.7244981471583869    0.6642225676467988 H
   0.3412494679956585    0.5338393554551352    0.5191913421403539 H
   0.4348092646713553    0.5512480081227987    0.3518646646701030 H
   0.4229675433399716    0.6799201382490272    0.5485679126999339 H
   0.5200634919293663    0.8302144694041559    0.5592167064744322 H
   0.6291015623180720    0.8475359805606991    0.5130437845848322 H
   0.9371317790293123    0.5467516770146910    0.6659169228293981 H
   0.8010915166521733    0.5254344712747124    0.5728381755281411 H
  -0.0310574445047008    0.7325134575243889    0.6473293738852174 H
   0.8704800983130456   -0.0112342993503819    0.4249876731540789 H
   0.7280442470734397    0.6795604659335203    0.4935660600097386 H
   0.9434878401485007    0.7952237353751280    0.3919675029494305 H
   0.8197248948336751    0.7860226169950556    0.6156835914692892 H
   0.7859832226162514    0.7936099087623187    0.4538211513574623 H
   0.3224840671516065    1.0205358013339509    0.8241899950578311 H
   0.3322956435882046    1.0090707123218272    0.9436238290539504 H
   0.0355365098952818    1.0801166737412171   -0.0595607215756106 H
   0.0461974742905464    0.2577178082132991    0.8101749583622563 H
   0.1410430293996074    0.3104649066259320   -0.0363150516733236 H
   0.1677795949532088    0.4019404264318283    0.7872047083353302 H
   0.1681693385019351    0.2243989951378276    0.7929656709040583 H
   0.5468846468535837    0.2074183610689027   -0.0511067646700212 H
   0.6422682536041521    0.0397908144562274   -0.0682625951059973 H
   0.6054434174110029    0.0355906192500773    0.7117187445212546 H
   0.3545552969380791    0.4679791682759532    0.7672543926942166 H
   0.4033325321437919    0.2141863517659254    0.6997350746701130 H
   0.4440239721844475    0.2875748820430831   -0.0619523422654524 H
  -0.1328407510030372    0.2785471923567111    0.8150325747293793 H
   0.8879197386475356    0.4262682859481649    0.7015572618623734 H
   0.8956987985247514    0.1554529732707328    0.9740633421423490 H
   0.7718836765887980    0.1771785480530209    0.9667033173436780 H
   0.7317614360513532    0.4743610024727166    0.7509190113384292 H
  -0.1111329049493311    0.2303442674504483    0.7073654835377037 H
   0.6731394211046884    0.4891195280080696    0.8643214986969007 H
   0.2147836155954465    0.6988392437761123    0.8259564010095122 H
   0.1221574642159887    0.6753973229561672    0.9101938216789338 H
   0.0532185501626529    0.6855749388579130    0.7176919856999655 H
   0.1726541562543178    0.5358128543834516    0.7925705537832877 H
   0.3597358029721640    0.8286160207050737    0.8446508639981366 H
   0.5007067560458675    0.9730778509149141    0.8488344570415918 H
   0.3853711255980254    0.7014526347811858    0.8667231909996250 H
   0.6090957808899395    0.8959661568587074    0.8345560089321699 H
   0.4419479751074588    0.5184281229149190    0.8515382977307878 H
   0.7084400675170173    0.6379478313878776   -0.0693565272129155 H
   0.8376483547458942    0.8116550361925778    0.7260126874197262 H
  -0.1379848915133058    0.8488755677120411    0.9627521461359703 H
   0.2544244082197586    0.1342434129268442    0.7016440326810525 Cl
   0.4155932475539281    0.5898311936641948   -0.0177904115726852 Cl
   0.7450625216645804    0.7878585690283681    0.8596498197983758 Cl
   0.0066181868347756    1.0982626119392431    0.0089422056573764 O
   1.1460438078050281    0.0419153159540589    0.1821122779741006 O
   0.1647233098429124    0.3179377183687819    0.0384511172102310 O
   0.0422223430710945    0.4932664387431552    1.1056915751206877 O
   0.3214215614122795    0.0805557842240885    0.0669729022370879 O
   0.3609295408191758    0.3425423803322070    0.0421306492711060 O
   0.3669780760956573    0.3377256760214505    0.2668308118435198 O
   0.6633966229413949    1.0004163642076085    0.1909016970626189 O
   0.9902807826416312    0.4884856162310953    0.3168774309955781 O
   0.8515858370259057    0.3982164083242391    0.0668656008229178 O
   0.7995815568589333    0.3667318386249994    0.2960841988301536 O
   1.0895902848546237    0.7095422717302021    0.0526618375967161 O
   0.1762069098201925    0.7933621534856037    0.2186389189407265 O
   0.4497317783138681    0.9725225373636561    0.2054396828886255 O
   0.3874494943396108   -0.2499797418455485    0.1871008253086946 O
   0.4595892069326692    0.5616443321308863    0.2800703343471503 O
  -0.0820444386706568    0.8529720730632433    1.0167902229472658 O
   0.6876073656994980    0.5874689752499979    0.1980525422091172 O
   0.7853547314981228    0.8082112378462388    0.1700573320933299 O
   1.0799059877513826    1.1497102766419327    0.3548350157309562 O
   0.1699876146927478    0.3674007778721300    0.3742918223408325 O
   0.2189632791697188    0.0310150235399914    0.4785578073360695 O
   0.6218458497618641    0.0789503300309750    0.6432674149358034 O
   0.5375450316717314    0.2554256447394147    0.4217500369821161 O
  -0.4178587061323797    0.4033936392790431    0.5835148599229292 O
   0.4264278019865747    0.0539384950851968    0.4114684697080989 O
   0.7065806824731951    0.1483740069850056    0.3401660989374784 O
   0.8477042126359535    0.0922350534012897    0.6415622134008692 O
   0.8752945774443713    0.0718740121637231    0.4340769164107114 O
   0.2065389189024096    0.5346099597985730    0.5495154190503312 O
   0.0532361004806686    0.7057883521236991    0.3891056154119261 O
   0.2061468036890865    0.8016901480973907    0.5309913987412548 O
   0.0123065453145031    0.6665302470353898    0.6549078752094912 O
   0.4346606403566280    0.7469473382143911    0.5934601902745650 O
   0.4118918696733260    0.5447781780863746    0.4887394332207153 O
   0.5673260240126456    0.8921045918561143    0.5371296594233465 O
   0.7588371496422844    0.5293208118049770    0.5082892085648908 O
   0.8683930334679391    0.8287450243146736    0.6579154137640639 O
   0.8729545350422819    0.8374796793116894    0.3847283375053481 O
   0.7386519122596676    0.7622500710299769    0.5074122035046701 O
   0.1187098544472348    0.2741593609732336    0.8347651885843427 O
   0.2026952411460047    0.4701918791955806    0.7581209892887919 O
   0.4743219874074450    0.2398187709634477    0.6707915834644759 O
   0.4281393532705353    0.4631957827782721    0.7901130802399839 O
   0.6515983821276178    0.0973740104374840   -0.0103503561885717 O
   0.5003850002155801    0.2464799705929208   -0.1018165607934125 O
  -0.0923501118982366    0.2989126761026878    0.7523468561493714 O
   0.8415378846845020    0.2167493373871155    0.9505267575756514 O
   0.6712926849387152    0.4479733568454836    0.7945848763597660 O
   0.1388476585379175    0.6741713615006978    0.8357878446616317 O
   0.3516650283495527    0.7525141429836161    0.8122667548839839 O
   0.5794428584372479    0.9718219879605309    0.8401883647517846 O
   0.3605611422518198    0.9742311944444495    0.8811953239721698 O
   0.6877496655753006    0.5658074751082394   -0.0254392592392452 O
   0.8716896472573689    0.5062940946556646    0.6823135086019324 O
