Li1 Co1 H90 C51 N3 Cl6 O45
1.0
  14.2099225831999991    0.0000000000000000    0.0000000000000000
   0.0000000000000000   13.8678925021000001    0.0000000000000000
   0.0000000000000000    0.0000000000000000   14.3329469985000006
Li Co H C N Cl O
1 1 90 51 3 6 45
direct
   0.6648386530317407    0.2306291132928582    0.3926257105317517 Li
   0.8606588613198408    0.7206934831292168    0.3813181964512934 Co
   0.0513912574557847    0.1609350339759294    1.0350330257170801 H
   0.2375555369943348    0.2388827105847804    0.3029170134902735 H
  -0.0567071499075358    0.1029759749568112    0.9914404553918437 H
   0.3807899556256044    0.9949197218618956    0.3575526721640936 H
   0.4291258980614938    0.2346037619275843    0.2200059415296804 H
   0.6264359103844890    1.0747970355800585    0.0996999081521441 H
  -0.0542827876495225    0.2384954852007368    1.0076443805179398 H
   0.2999464469242852    0.6387113074072867    0.0794765723629073 H
   1.0549512639585514    0.4752894825224446    0.3207040045414984 H
   0.1891091083829713    0.6421833562418670    0.2560829604465937 H
   0.3731861140587442    0.3541886231275735    0.2317655608192543 H
   0.4656499534855257    0.4767471877935909    0.2827690285692226 H
   0.9877615945982984    0.4339976496132058    0.1898509426976027 H
   0.7178100887023277    0.4010466442653635    0.1131332934859593 H
   0.9437951340956466    0.5797787767523049    0.0472550062015078 H
   0.7624457998602393    0.5526751631395600    0.2253523647047623 H
   0.8830755914698417    0.3946093287189326    0.2575655585474744 H
   0.8813549628135739    0.6570767511804795    0.1297097867936416 H
   0.1330623568727565    0.7194503237957139    0.9782540534593046 H
   0.1859387885071078    0.7676451017620698    0.2874100838948972 H
   0.0446987509031850    0.7773690017691963    0.1938857026116700 H
   0.5305642409912550    0.9972149516522317    0.2085407487806109 H
   0.4039702367334992    0.8242787971762121    0.1617708835135339 H
   0.6749393414175938    0.7508393758765607    0.1157370845977178 H
   0.4348676605181352    0.7577438135901859    0.3311066105105014 H
   0.7842692825839689    0.9950855725850427    0.2323669723782939 H
   0.7180894709422206    0.9091691292740223    0.2848662944003978 H
   0.8046416666208992    0.8983318661515081    0.0840590214577706 H
   0.0645820400869023    0.2513027664781988    0.5757349483092068 H
   0.2321607152033538    0.2588129198763613    0.4232363030390648 H
   0.1059826878775898    0.0596521606202767    0.5771405210781642 H
  -0.0075823221040896    0.1291472190694289    0.3660708087352242 H
   0.4718969966682204    0.3112751090583029    0.6762994030686396 H
   0.5205024127748903    0.1915640570907018    0.4745400579526185 H
   0.4695434300105428    0.3211071725805254    0.4713954848229811 H
   0.6915178976075143    0.0095234190040052    0.5571893554155878 H
  -0.1280277355100348    0.2490176319492715    0.5759315582597142 H
  -0.1781617172983840    0.1613280280807780    0.5000256751141295 H
  -0.0489224488050271    0.0302345688745790    0.4353301173829077 H
  -0.0025119215035133    0.3015973588176174    0.4226327984003533 H
   0.3260978912987496    0.4494941643119935    0.4040525301535043 H
   0.6182880827434797    0.3198661765173245    0.7369094088190909 H
   0.5816494594890835    0.4320895009888929    0.6248501093485711 H
   0.1968325846621281   -0.0081180503081454    0.3561405410788312 H
   0.0939136566076545    0.6911482584357059    0.6128462974306169 H
   0.4983774365015009   -0.1495656422694301    0.7833108920639256 H
   0.5726076086804166   -0.0175304393917955    0.5574925031213914 H
   0.4032742442013729   -0.2769433241870327    0.6832198221569388 H
   0.3227734537641039    0.7197654401696935    0.3719907357403879 H
   0.4705364684959659   -0.1294912149577211    0.6610129445320294 H
   0.6392136013913819   -0.2139654780674621    0.7376775690586531 H
   0.6062922397681260   -0.2250169049498663    0.6152519436667754 H
   0.6416900399359243   -0.1006086720666981    0.5114698393894294 H
   0.7817196557448450   -0.1710526850882922    0.6072794031967689 H
   0.1641765306067301    0.3384731854742316    0.7998218022085571 H
   0.1551553695659546    0.2185486908368411    0.7657729774936486 H
   0.0609416261650728    0.0872627005737713    0.7763618675534446 H
   0.0155050661683748    0.0280345229775272    0.8832973079873206 H
   0.1323558083366040    0.2665653595483389    0.9291818005532129 H
   0.0286029559640620    0.3277029837310769    0.8942580685354787 H
   0.1246956680816043    0.0893920796409603    0.8967425541059429 H
   0.5783163660311363    0.3322386404641007    0.8545209509657560 H
   0.4105635168482528    0.3205382324911207    0.7927597513957972 H
   0.6705051159929954    1.1290532969323916   -0.0751175945053502 H
   0.5698678330221011   -0.0025757517946286    0.7578841602105153 H
   0.6839865406016339    0.0451964673727524    0.7151134725030845 H
  -0.1193626636717425    0.1309355225190154    0.8457230394118239 H
  -0.0605600913770923    0.2141868168180715    0.7715805758897574 H
  -0.1234633193691135    0.2479302280775068    0.8855759740567214 H
   0.0455073408115906    0.3739133217404722    0.7060281113408876 H
   0.2691172852990185    0.5279373740380040    0.8256190091638815 H
   0.1455831851150123    0.5839091808487691    0.6650093313187799 H
   0.4866410601051107    0.4546408727962994    0.8994719299980113 H
   0.3990433977876790    0.6139923387573574    0.8755605878270072 H
   0.5562450987062322    0.5419188063263376    0.8377316612247709 H
   0.6619378631253459    0.4174907434654018    0.7980671037503383 H
   0.5868698960935520    0.5460223858710581    0.6975281147935795 H
   0.4186860100795993    0.6026798772585216    0.7595153669680961 H
   0.4823805865067833    0.5073589768549580    0.6385618742787398 H
   0.3748877419077649    0.3988486174205935    0.7015517116160638 H
  -0.0507556748375741    0.6550706785204998    0.8215172707003155 H
  -0.1667225276020109    0.5472929466283852    0.7262744710065145 H
   0.7786253390979700    0.5896252620765402   -0.1220088583933934 H
  -0.0631484235643123    0.6763933127964161    0.6991028084000209 H
   0.1514079881366598    0.8323622172043833    0.6833670354271909 H
   0.0475193151789810    0.8045569829237159    0.8200200210417319 H
   0.6765241494887246   -0.0419227542261351    0.7993634177604259 H
   0.6060888607572215    0.9832157084384123    0.0178486321987218 H
   0.8064221126333154   -0.0618017661205707    0.6722611546884524 H
   0.7706689269966354   -0.1630702176742106    0.7310920427178470 H
  -0.0121579979826389    0.1686557456834788    0.9955470777079771 C
   0.6479764922003169    1.0455416891070046    0.2776458672258028 C
   0.4214509794008574    0.3002352196175090    0.2687174870389932 C
   0.3677040293011468    0.6294525105150728    0.1991030525403223 C
   0.5190873733978445    0.3400393931728211    0.2867716945949886 C
   0.8003657812566936    0.6039410638445404    0.0082260472540880 C
   0.8420838129017683    0.4073661336893497    0.0693349036596593 C
   0.9185993599523528    0.4576690906739359    0.2161218833519849 C
   0.8506799188470896    0.4940379188807903    0.1427726970255425 C
   0.8749249488944254    0.5873242635653989    0.0847581100681623 C
   0.9332039433893770    0.5277565246407636    0.2956519339493460 C
   0.2115511729426352    0.7141885293313460    0.2317885846956444 C
   0.1611237342423582    0.7245441042666328    0.1388286372305879 C
   0.3215679581043138    0.7251815479155984    0.2279526673504010 C
   0.3592930052930846    0.7671641346649432    0.3216856589075874 C
   0.6584037129773799    1.0058002503904482    0.0680155657731814 C
   0.5967700204029076    0.8607493711962668    0.1525069128860073 C
   0.3347052569816988    0.8698661133386548    0.3404968636115619 C
   0.7105236309898547    0.9665873707176607    0.2382680616664111 C
   0.6795333143697884    0.9284229560512032    0.1395354004664430 C
   0.2689962431195183    0.2834554529756229    0.3582866454356825 C
   0.0961276025187459    0.0450097050366867    0.4316386225350207 C
  -0.0012121255410894    0.0900749519662661    0.4334449502918113 C
   0.3766294825720850    0.2725107474281133    0.3632674773614178 C
   0.4033938789136696    0.1647676278608294    0.3871704472137346 C
  -0.0264585685037091    0.0930076254055679    0.6084745516893847 C
  -0.0246260462047638    0.1548317273641149    0.5173921873900802 C
  -0.1197989785048247    0.2114668649584585    0.5092081202884383 C
  -0.1341889231933166    0.2718927732118651    0.4228462925268801 C
   0.2184463547725376    0.3799106281074927    0.3407529170247492 C
   0.5018975823507921   -0.1782866609779098    0.7114526761570512 C
   0.6026743453215523   -0.1846884988913891    0.6808260367055874 C
   0.6407843347904779   -0.0474823589020673    0.5693040307868267 C
   0.7625281366916435   -0.1272731418081533    0.6699469062646306 C
   0.0732231849827352    0.2675193617514853    0.8775085473082584 C
   0.0575411854014386    0.0877919807076408    0.8571624175116075 C
   0.1137378321688252    0.2815762921733558    0.7805431430445403 C
  -0.0802435202179139    0.1949546227439097    0.8426399330552160 C
   0.7478834404393198    1.0451746542457792    0.0121582462642356 C
   0.1327745298296426    0.6685254987083362    0.8481475233650287 C
   0.1386746323466768    0.6610016445982614    0.6712515925934057 C
   0.5995997332155262    0.3712460094582060    0.7955093603913600 C
   0.4348528821124986    0.3532122671313074    0.7293157157696859 C
   0.4059350609495727    0.5586717484164799    0.8207763204964871 C
   0.4901534648847826    0.4995266403998296    0.8341273780298769 C
   0.5445100594036852    0.4829052972530540    0.6731604812541161 C
  -0.0204465723439973    0.6443992661211326    0.7539714966106381 C
  -0.0280926379269621    0.5329621461862917    0.7350333117399059 C
   0.0788544612639027    0.6845034131583109    0.7585288287494395 C
   0.2276779321602350    0.7196601610150001    0.6543681142671881 C
   0.6424282564841554   -0.0194665663120132    0.7342065452695323 C
   0.6574656360862531   -0.0903771246287212    0.6607778219155604 N
   0.0106767499267990    0.1794908455356911    0.8948252931265452 N
   0.5139469442665585    0.4263996674407852    0.7577069461316336 N
   0.5958009792333041    1.2768255701663871    0.5329999824948420 Cl
  -0.0446148954287429    0.8222907517687484    0.2970256919072915 Cl
   0.9008624582539592    0.7336658940397252    0.5303084913448338 Cl
   0.7030696846801665    0.7488174392343668    0.3980132976070461 Cl
   0.5371743403390903    0.1497538108754100    0.9118804039858529 Cl
   0.7326546452975472    0.6349075571264122    0.7642673555163777 Cl
   0.5601974073603552    1.0540988653312962    0.2455415135260259 O
   0.5857986024316147    0.2857997168928026    0.2980547894126087 O
   0.3486208852226142    0.1035477994066185    0.3583766478615713 O
   0.6747049981282125    1.1038987898616759    0.3383961093142668 O
   1.0117293536065464    0.5266407098190337    0.3453939723504239 O
   0.3514900071169306    0.6013004318959977    0.1155173112321755 O
   0.4110849834471462    0.5804378531042895    0.2589128041629100 O
   0.5209989601669459    0.4350916154048863    0.2739187900234947 O
   0.9039265143559591    0.3741137847884501    0.0227373686188964 O
   0.7587652731231104    0.3599075887157471    0.0758464745187273 O
   0.7610348139887395    0.5010056683052517    0.1825684208260766 O
   0.8753169285105977    0.5938695984089055    0.3124914576024552 O
   0.7301071296592285    0.6522678012993133    0.0240957773259152 O
   0.2000789077669801    0.7015961329038747    0.0597339472049677 O
   0.0752830132350443    0.7557658634441311    0.1338861784321695 O
   0.3403119025868052    0.7954553836734415    0.1473111914472974 O
   0.5156891212457116    0.8937255425886215    0.1742895930307587 O
   0.6038263572276097    0.7674655503270105    0.1374234830775649 O
   0.4063354853689659    0.9282931598330880    0.3525578863738794 O
   0.7476779502276100    0.8621115103963753    0.0979075342598323 O
   0.1267688672723465    0.0186005011908579    0.3483675408708726 O
   0.1470539883426605    0.0359362283003372    0.5009532582553629 O
   0.0539472178973243    0.2253348697739614    0.5127295391568177 O
   0.4809617188189440    0.1395986989881009    0.4344314885104680 O
  -0.2105813168635955    0.2775511672315849    0.3865027547984203 O
   0.1394536654438091    0.3827978728704541    0.3133028748219018 O
   0.2586232098297897    0.4627463581815501    0.3843929304892140 O
   0.4099174894018504    0.3388250774433438    0.4373918008596618 O
  -0.0562222774559331    0.3091926008476555    0.3790227857445181 O
   0.3001850126152770    0.6835025400986231    0.6187550613441974 O
   0.2507202814821877    0.8942793397859128    0.3577466308803500 O
   0.4685985972768393   -0.2753569259656253    0.7047876127887154 O
   0.0561949430212994    0.3043778822456841    0.7023959204170358 O
   0.0547712899449683    0.0626280994656168    0.6406556516437955 O
   0.7405836117884137    1.1062351217877486   -0.0582906293302721 O
  -0.1028720741820403    0.0743277863484961    0.6429908308643355 O
   0.8284771237120192    1.0236126180564504    0.0370847320760781 O
   0.2085736760736500    0.6258802301565036    0.8554879537741423 O
   0.0392807059033464    0.4788057558128971    0.7401313561272637 O
   0.3286242949290160    0.4923419870730957    0.8222868263263255 O
  -0.1130156903175999    0.5026889810361850    0.7160176829213158 O
   0.8244637309812646    0.5646640071527960   -0.0752564354569151 O
   0.0965181746677146    0.7250193026429544    0.9195850302578651 O
   0.0603631571444380    0.7901683510555512    0.7549908264108200 O
   0.2155406387309304    0.8174046452468138    0.6560802534387464 O
