Li1 Co1 H110 Cl3 O55
1.0
  12.5113721948999999    0.0000000000000000    0.0000000000000000
   0.0000000000000000   12.5138208309000003    0.0000000000000000
   0.0000000000000000    0.0000000000000000   12.4928261235000004
Li Co H Cl O
1 1 110 3 55
direct
   0.5902891371587903    0.1518157756349598    0.6144030570842196 Li
   0.5110116618708026    0.5394471845825922    0.3827228934937317 Co
   0.1270202079231408    0.1417876633824548    1.2086769168664002 H
   0.0587679022049809    0.0362398840232863    1.2176420620539503 H
   0.1141223420866677    0.0508001052748236    0.0584785663930561 H
   0.2795062798168120    0.3141546829480426    1.1865282054968000 H
   0.5514780465417325    0.1636802574751814    0.1802170733541947 H
   0.6387370604207234    0.1394350645720815    0.0963456587005463 H
   0.5601789306897058    1.2864172847872095    0.3046733000421880 H
   0.5009648022584542    0.1992521268518652    0.0195204679461014 H
   0.3782244684183358    0.3049568526805844    1.0972369603475816 H
  -0.1346217566036898    0.2197918168053384    1.2681030221095915 H
  -0.2582277029306955    0.2423308961010514    1.3063729856289470 H
  -0.1250089021440466    1.0216220599892143    0.1580507518779764 H
   0.0561155952091482    0.3573365382184713    1.0081858530158867 H
   0.1462155444744661    0.4682770749865811    0.2663457034466266 H
   0.1103457779125749    0.5761953533644627    0.3233768341897151 H
   0.2518602315167706    0.6336062760321425    1.2359165499675018 H
   0.4359463544552952    0.3910704397745510    0.2414217993658447 H
   0.5544009873215542    0.4463645029827610    0.2132696425581529 H
   0.7963137010392194    0.3663146114639006    0.0352137744935452 H
  -0.2067577290566469    0.5185806560036290    0.2569266977839564 H
   0.7255452844173464    0.6435480837087234    0.0969484846684699 H
  -0.1395332882121131    0.4291978835383183    0.3169571498679156 H
   1.2361999033091366    0.9766557776999121    0.2278043841934690 H
   0.0683244878566122   -0.2332872288846764    0.0318537661507540 H
   0.2540997940174707    0.7655987363941634    1.2375815055023327 H
   0.3102559045587586    0.7141668029585533    1.0551488055295994 H
   1.3627647576938124    0.9377308157252913    0.2141205308915785 H
   0.5207444072566075    0.9971690968107418    0.1094356511797008 H
   0.4914518569039457    0.8950500064650883    0.0520764921778750 H
   0.5827336109920814   -0.1410396239685545    1.2000719784051352 H
   0.5222374489237409    0.7316235016720740    0.3095304876313001 H
   0.6298091827858839   -0.1563682755923930    1.3167389347520522 H
   0.3974869438883117    0.6953212398658108    0.2942136971702486 H
   0.9857797294710390    0.6907622805542688    0.2835835964478675 H
   0.9629285189446236    0.8312405584323748    0.1561992893048689 H
   0.7055083135643662    0.7629145042596377    0.1282400432105878 H
  -0.1110152332424558    0.9607213958117180    0.2763658541124976 H
   0.8937274763641042    0.7342374115595506    0.1308807587439564 H
   1.1756949492395443    0.1583125923225735    0.5740719106311190 H
   0.3207575504176803    0.0728717014509481    0.4720557625313211 H
   1.2467822757250073    0.2479734573103061    0.5262276523270943 H
   0.5643487371016089    1.1716321988082621    0.3667129051994286 H
   0.4728759568044557    0.0544334480095804    0.4651718117623092 H
   0.5979965251653039    0.0216637451713061    0.4405584859255245 H
   1.3978128717750757    0.2258259450720262    0.6230968465379683 H
   0.6396913921929703    0.3230888047890662    0.5457020288688724 H
   0.9363047406083208    0.1764485400132740    0.5708156418254979 H
   0.8734898880280134    0.2236787191876942    0.4601985575613939 H
   0.7441363707008171    0.2549289668366271    0.5662810393712593 H
   0.8641943448862781    0.0248495659161228    0.4648492266274357 H
   0.2020439531509121    0.4519950774453597    0.4192166376228041 H
   0.1951750023546892    0.4626265226128889    0.5538795220149452 H
   0.3527740226127353    0.4870275432225183    0.5121555762202072 H
   0.4041680655668814    0.5943440869182630    0.5533648266260527 H
   0.9388544209713591    0.5851206849246051    0.3354629705456815 H
   0.6867038214323279    0.5769936706917599    0.4857612282367887 H
   0.7164543551229271    0.4947637895143743    0.3955566589215885 H
   0.7456653796457988    0.6212367525994765    0.6443714562517820 H
   0.3001195263882094    0.9172734347655234    0.5703177560838323 H
   0.3347959785983715   -0.0304057880915524    0.3977507181143631 H
   0.3675845483579077    0.7677323772989517    0.6142373619901282 H
   0.5290176804346042    0.7870662005388198    0.6357937334098365 H
   0.6248904577218910    0.8740172616658268    0.5281439521109332 H
   0.6503824657152276    0.7733765367410939    0.6442177680485669 H
   0.9879617443271815   -0.2012722267990835    0.5460910521332607 H
   0.7983606387852197    0.6994646586266077    0.5520216557667037 H
   0.7284594331959162    0.8986620127907972    0.4537324465948732 H
   0.9517147209843015   -0.2718701690213761    0.4443654707926665 H
   0.8994902335482754   -0.0949082299042780    0.4515752085341189 H
   1.0125473769187356    0.0014134304653240    0.8692741301723602 H
   0.1759333079785813    0.0722406391953259   -0.0550360207772886 H
   1.0863042746933989    0.2145088579957671    0.6915009043189778 H
   0.1939864836400064    0.2905799487412413    0.8137622713548047 H
   1.0164078647411419    0.1117257018853647    0.7106935191548615 H
   0.3115083651007275    0.1082775144306226   -0.1790675237120217 H
   0.4676215371472100    1.0173787516729500   -0.2417018701973292 H
   0.4774022389034795    0.2937700215846551   -0.0629608889393265 H
   0.3336170511577816    0.2015168228534270   -0.0973358170584483 H
   1.4572388075092129    0.2944836325689158    0.7111729943305171 H
   0.6377323744594886    0.0176362054868998    0.7851482494780757 H
   0.8954938693428863    0.0050916835442191    0.8368475202127470 H
  -0.2398204494006728    0.0340575769270742   -0.0672113283094955 H
   0.8356443190029776    0.2608136603283354   -0.0160967131145552 H
   0.3017020866135435    0.5627134598421094    0.7760462257345369 H
   0.1154507335485390    0.5491588467233758    0.7378747187203658 H
   0.1717778884778176    0.4369549068577115    0.7360048455812481 H
   0.0943508896714934    0.3459515262444942    0.8496388612928413 H
   0.3665287089348438    0.6067319900291349    0.8771666597749714 H
   0.4529460885121798    0.4280831160992997    0.8201443340851922 H
   0.5684434118664508    0.3800002796794079    0.8325010257155686 H
  -0.0514402331234575    0.3695294569170704    0.9566522773753068 H
  -0.2643053736142513    0.5359358669287946    0.7813524710424183 H
  -0.1544844859773152    0.5929855889639034    0.7805936355390435 H
   0.7728702293375652    0.3452754737330894   -0.1505479560435187 H
   0.7068127268410050    0.3526377335292746   -0.2631613860306362 H
   1.0022767209108856    0.6676158727613127    0.8743410381221096 H
   1.0086149545406329    0.6985784384904989    0.7678831408575154 H
   0.1176447374972977   -0.1368154944469399   -0.0280811911277699 H
   0.0161064505524137    0.8930602065201733    0.7061941369138596 H
   0.2298778305686068    0.7420080198584873    0.9564041349638657 H
   0.3206248711260614    0.8782046318310294    0.6853597798655058 H
   0.1288561376390966    0.8481738358752451    0.6786807467007808 H
   0.4167286382644197    0.6805511706361472    0.7087427996171776 H
   0.4064915517158947    0.9392411458039617   -0.1745249166638655 H
   0.5273479994695925   -0.2194057771404527    0.8958093590087258 H
   0.4092370539249970   -0.2094967332380651    0.9358323285960044 H
   0.5863934813313768   -0.0531077273184998    0.6984905157277002 H
  -0.2821331543344925    0.7155268991458004   -0.1598172757999324 H
  -0.2580814360007782   -0.0865638559987352   -0.1173609096617473 H
  -0.3018368284127434    0.7574221769418061   -0.0455685873214179 H
   0.1154483357300158    0.3171218023036526    0.2097556258283899 Cl
   0.8011245242696668    0.1223979019915248    1.0545724747675427 Cl
   0.6837872748352347    0.4884507696088209    0.1089729856512719 Cl
   0.1290263827542461    0.0664993071936248    1.1934281654536469 O
   0.5590351712541235    0.1218592975084434    0.1116265085349085 O
   0.5936468823641582    1.2104293021518844    0.3003212023292673 O
   0.3581858990196734    0.3283565803862064    1.1737448690106234 O
  -0.1809979646615493    0.2492584365518415    1.3215496956964432 O
   0.1727785780748470    0.5332636215409249    0.3033549434239831 O
   0.5041411125288975    0.4223023077452778    0.2731840280303089 O
  -0.1633204472354307    0.5016753476362896    0.3185716764610664 O
   1.2936436423974009    0.9266630529794795    0.2511121607623166 O
   0.2863440589722329    0.6990611048225184    1.2135277007803782 O
   0.5025425668467418    0.9208694587623576    0.1258154517129905 O
   0.6124913381382504   -0.1941137416960522    1.2516455770153023 O
   0.9692427743891384    0.7519746001448242    0.1373300600632505 O
  -0.0765737672475707    0.9697673939548652    0.2009105495496013 O
   0.7515887906710268    0.7188040756815820    0.0747101218469944 O
   1.2467982611818287    0.1710345261069292    0.5405230566042786 O
   1.0445582542039034    0.1560087396152684    0.6524480915144948 O
   0.5484567952024583    0.0828385214722181    0.4658938261336636 O
   1.4686444309513937    0.2513497242851115    0.6440552747920426 O
   0.6803280219790500    0.2862047862117598    0.6061535225928897 O
   0.8679669126961654    0.1763031008205131    0.5250077522140741 O
   0.2253003950077540    0.4205698232952475    0.4933543860268872 O
   0.4203029864097198    0.5264167918509526    0.5198103693834701 O
   0.6546729623261334    0.5204617761121951    0.4409555137838304 O
   0.9839493946649708    0.6485273782696731    0.3492548858654577 O
   0.7336299292048488    0.6579177956000729    0.5726230791320595 O
   0.2841076935628971    0.8554378043488502    0.6194203365516808 O
   0.3407593532656532   -0.0038896660786296    0.4697936642902480 O
   0.4655258437579038    0.6789825050570839    0.3398510889312306 O
   0.4287113366978587    0.7115049460844522    0.6349924735586991 O
   0.5981579782792016    0.8307530974016928    0.6432460103469877 O
   0.6526843714975318    0.8858282027043178    0.4489521031073686 O
   0.8658248614820769   -0.0330724396643159    0.4110599564209168 O
   0.9286077431487411   -0.2207858512387933    0.5009339360073261 O
   0.1227912553209979    0.0216574681116406   -0.0188566970972939 O
   0.1310549372249017    0.3256252003814999    0.7793825404793324 O
   0.2781730927178941    0.1670884891077364   -0.1372755388689854 O
   0.4522523196861242    0.2517093266847950   -0.0065724470418705 O
   0.5921706254266874    0.0284341146008249    0.7214140717885098 O
   0.9666291521988140    0.0084286339899925    0.8056151956656183 O
   0.1830995882716852    0.5180188771436791    0.7136440124728355 O
   0.0266584745785085    0.3907140338406425    0.9436368076655237 O
   0.3778623978213276    0.5865766750851011    0.8016529216764777 O
   0.4923438453945886    0.3604043462459927    0.8249286798696555 O
   0.7162001863594644    0.3886938674708654   -0.1976029613872821 O
  -0.2300749156494107    0.6044049629449614    0.7601731159962222 O
   0.8336781078139262    0.3358506943956088   -0.0314095813245871 O
   0.9813277797462354    0.6371943088645393    0.8088058268011161 O
   0.1068825286921846   -0.2126052962042174   -0.0340526181901918 O
   0.3083016824623233    0.7180249371489346    0.9695796965519978 O
   0.0514984357880938    0.8261901425079321    0.6784638222056177 O
   0.4686126354701465   -0.1666784759495385    0.9101615959027239 O
   0.3898778664412507    0.9950754117281406   -0.2276217894965246 O
  -0.2475062570404773   -0.0094714944381600   -0.1336326481771513 O
  -0.3234619544009454    0.7703047331313538   -0.1184319243279029 O
