Li1 Co1 H90 C51 N3 Cl6 O45
1.0
  14.3505741432999994    0.0000000000000000    0.0000000000000000
   0.0000000000000000   14.0051586064000002    0.0000000000000000
   0.0000000000000000    0.0000000000000000   14.4748162693999998
Li Co H C N Cl O
1 1 90 51 3 6 45
direct
   0.6846110456763079    0.2565442423164074    0.2893866185752720 Li
   0.9058231009084061    0.7446308247044315    0.3669523699536513 Co
   0.0250179237927996    0.3150933828898876    1.0481513445371622 H
   0.1180441669709010    0.2274563889440194    1.0558695772194089 H
   0.2281568345353381    0.2449777899432100    0.3482771760880504 H
   0.3786846098305542    0.2936112984340561    0.2310487451070513 H
   0.6529746807848054    0.9630496292299382    0.0072552309297362 H
   0.0015394206586720    0.1885878537636152    1.0757316600706972 H
   0.7860697040868339    0.9863560414722702    0.1932700272413172 H
   0.2967519994514114    0.6253304978065642    0.0792464728636965 H
   1.0683963872942503    0.4891735963682188    0.2985943347576015 H
   0.3576687259370999    0.4119952487052329    0.2677683821724019 H
   0.4930744581814240    0.4977128784542745    0.2403987774308544 H
   0.6629373483807043    0.4139178974060976    0.1827932103216724 H
   0.9455831825819601    0.4141570235805395    0.2101455436868276 H
   0.9025633010193654    0.5116016179870858    0.0581968101716650 H
   0.7706668360348125    0.5849775096053638    0.2602000650372414 H
   0.8647766595522594    0.6135905379374298    0.1193678802232991 H
   0.8774068162407721    0.4290353984605482    0.3073239792413887 H
   0.1945755997228624    0.6806922414176423    0.2784158402908039 H
   0.1929777542449722    0.8010264730649627    0.2584321669497128 H
   0.0407239156053453    0.7895671240843192    0.1865217550572691 H
   0.3954895123795294    0.8282435871807435    0.1412362061563315 H
   0.5389357591599128    0.9800040962712105    0.1612039898311416 H
   0.6783980538399063    0.7244332669366291    0.1534519052511657 H
   0.7035587196358860    0.9460044813163038    0.2633738531631134 H
   0.8121251076035336    0.8273217839821636    0.1052170961174577 H
   0.2476459502464734    0.2879933684832989    0.4608153920959225 H
   0.0348495861772536    0.2672353029611313    0.6155710697023820 H
   0.1284249363054542    0.0858035840201665    0.6287125145718501 H
   0.3935962083396569    1.0061530325519212    0.3152791752077395 H
   0.4866356914061490    0.2375019731429523    0.4833709806383624 H
   0.4702183691689062    0.3699231796512816    0.4608214025349072 H
   0.5537256203794440   -0.0608952187382063    0.5356829399687717 H
   0.0142030254862772    0.1439678664030699    0.4020623147392279 H
  -0.0137498630876817    0.2971885517453542    0.4716971882492170 H
  -0.1474058395557379    0.2226874318849056    0.5863195757891159 H
  -0.1627034853368646    0.1192905307360490    0.5087701285900510 H
  -0.0278510410600263    0.0343404038980481    0.4583687980016773 H
   0.1322317526359008    0.6156654876625061    0.6762675223307523 H
   0.2936434130245172    0.4590913236970994    0.4139236051904895 H
   0.4902503203040610    0.4673121516959616    0.6231476770982108 H
   0.0583301798200745    0.7055859259376219    0.6229010418433271 H
   0.1322115443851992    0.8600418704073606    0.7235572417482667 H
   0.2099059968068504    0.0092532192488544    0.3858997607111969 H
   0.3212088606539898    0.7351207574682680    0.3581322234575679 H
   0.4400347684519809    0.7586192417945795    0.3126269826489187 H
   0.4819492587011970   -0.3154471377982923    0.5751872755926257 H
   0.3839380581767444   -0.2612171200351998    0.6890220883690300 H
   0.4871417338771669   -0.0641404515325875    0.6484150099052725 H
   0.4661582528684582   -0.1839698691896708    0.5642656861881231 H
   0.6302752405570369   -0.2359621400710051    0.5517034541973515 H
   0.6394309717973331   -0.2827806030693722    0.6649768781554963 H
   0.7304454487762766   -0.0868128116910006    0.5608292349700752 H
   0.1308304149751781    0.2154293919828406    0.7621028087258245 H
   0.1733778415730935    0.3358900056333745    0.7614057359746262 H
   0.1810263160455414    0.2620950541411642    0.9105896675568894 H
   0.1083358445993501    0.3634341421077532    0.9105309448771551 H
   0.1455420214859579    0.1128086334186908    0.9366708276195621 H
   0.4288212798212748    0.2637051751425569    0.7528633132109330 H
   0.7340871149199549    1.0480840107367482   -0.0885739647010486 H
   0.5916551829575466    0.3079260238601849    0.7859013836844744 H
   0.5910231524959477    0.3571136139018428    0.6695468843489319 H
   0.5876100486360670    0.0169211081330921    0.6333951301393642 H
   0.4327723412515571    0.3124215102569779    0.6398007382157866 H
   0.7469130825894040   -0.0485383433279616    0.6785141829718788 H
   0.0323214643308577    0.0665192611795397    0.9553066427469883 H
  -0.0671721159079934    0.2088468174764818    0.8251557679491771 H
  -0.1002662621949369    0.1856982042325127    0.9416477474408032 H
  -0.0869511154912622    0.3049449794341030    0.9014420557644055 H
   0.0663528553486178    0.1185972147749171    0.8388333163418661 H
   0.0364773956130807    0.3899329494708064    0.7194010577331936 H
   0.2428558979939583    0.5060218882463394    0.8173691406164164 H
   0.4368941275584567    0.3553185610426404    0.8870342735778449 H
   0.3399237913123838    0.3391816498978624    0.7132655739835486 H
   0.3951571214972993    0.5203152643962191    0.6932045248762196 H
   0.5149070202009915    0.5524245044725508    0.7139937352122533 H
   0.3879992197315391    0.5642080197213238    0.8519098208360987 H
   0.5157213959105137    0.4595881406340258    0.8768890670849346 H
   0.3589223343168315    0.4773047482764850    0.9378010664906824 H
   0.6252064538120855    0.4349341535065815    0.7674762793490357 H
  -0.1679841102960674    0.5339891545235674    0.7357563603217641 H
   0.7713476450325877    0.6095163248846819   -0.1047980048290367 H
   0.1084347953441649    0.6942201139198089    0.9790492584461267 H
   0.0075510268242886    0.8249712215269154    0.8342854175102128 H
   0.6558616732902127   -0.1921061569106772    0.7860554443618947 H
   0.5369393930414620   -0.1443430419899853    0.7744552971216867 H
   0.6815205769914222    0.8441641494725629   -0.0222947123675910 H
   0.6424865986706644   -0.0620890645538730    0.7905156046014745 H
  -0.0762316837483992    0.6559106584485356    0.8372180972216465 H
   0.7733524428694346   -0.1653838604684950    0.6496854923526992 H
  -0.0835303464328396    0.6827586228713143    0.7157871949368427 H
   0.0454414968898271    0.2391128081669620    1.0358361623143078 C
   0.6479212244369381    1.0606700874070580    0.1875262583082525 C
   0.3949348307395815    0.3470066237578457    0.2821298770702309 C
   0.7946714505234134    0.9520529669051274   -0.0004443486660067 C
   0.3612678850706816    0.6297945672082081    0.1930717518403322 C
   0.5013829759319606    0.3542061138053146    0.2628336045095583 C
   0.7849714901866354    0.3859122881143353    0.1512397873628239 C
   0.9001863926351161    0.4688486355448604    0.2408533600575030 C
   0.8167026248055662    0.4873923241455251    0.1787123295076703 C
   0.8446771153026889    0.5471364529708593    0.0944984799283189 C
   0.9480604353834864    0.5550421113865665    0.2764247960202852 C
   0.2143093049511104    0.7313707106836496    0.2240220583355573 C
   0.1578084296618415    0.7157257611220023    0.1367283769179087 C
   0.3203524489259798    0.7338983507479201    0.2127438495513039 C
   0.7013365088949388    0.9024269669766158    0.0228388484210932 C
   0.5985761604047362    0.8304891883112889    0.1479547715729847 C
   0.7089139060718155    0.9720070429605241    0.1940057878756345 C
   0.6923515025312597    0.8805243231993561    0.1292298361433736 C
   0.2568142245389294    0.3065658107747511    0.3862327528480429 C
   0.1185835182137650    0.0693889180773655    0.4643757136254570 C
   0.3644336120685251    0.3096846615659188    0.3780785906256514 C
   0.3976936053784682    0.2047726044237339    0.3881636927287159 C
   0.0179046195458292    0.0961012182029093    0.4623563442976547 C
  -0.0087228865165958    0.1070221941303155    0.6461110082945231 C
  -0.0144634233883182    0.1557199646566939    0.5433333997700546 C
  -0.1185832993653782    0.1834333244913076    0.5247409012546206 C
  -0.1319953063051744    0.2479188491027384    0.4372945408696629 C
   0.1092542747519272    0.6930726795742487    0.6764029299216688 C
   0.2017132932379210    0.3912638876289420    0.3558724365703830 C
   0.3649039765245112    0.7744783981413347    0.3068293270215096 C
   0.1972298489270856    0.7551298132651756    0.6717548571069395 C
   0.3453361183192626    0.8809377422946141    0.3208806279993306 C
   0.4946341867174735   -0.2462297853038329    0.6106501091406523 C
   0.6009558561339098   -0.2278401328023392    0.6195013441142421 C
   0.5585237559322397   -0.0551973182543422    0.6152401501307032 C
   0.7240018041473840   -0.1059857470033714    0.6322262033851250 C
   0.1165243671508929    0.2893921387900520    0.7845293455438600 C
   0.1113301498843454    0.2880826213104271    0.8906253381573579 C
   0.0704119263947192    0.1187250248233647    0.9124418499612130 C
  -0.0591891600446221    0.2344024009624442    0.8985839883989872 C
  -0.0381474932106175    0.6482470537000001    0.7705250227098264 C
  -0.0334361834522156    0.5390845627231853    0.7454138231453524 C
   0.4161646433559805    0.3258894048593143    0.7120434513900207 C
   0.4689380719615239    0.4909577960836423    0.6920342164118689 C
   0.5771687939166553    0.3739774000707528    0.7464086544255560 C
   0.3687024308201847    0.4873716174896314    0.8638692127052693 C
   0.4502123403415481    0.4239656950751432    0.8491754165256500 C
   0.7733726511201363    0.5537325939069416    0.0109423243619910 C
   0.1141509429477991    0.6683482184145042    0.8492348300604399 C
   0.0540878408451963    0.7065884136919258    0.7668738537404679 C
   0.6135386279587084   -0.1301896856753044    0.7643563779175080 C
   0.6237521565977999   -0.1325202554972759    0.6548917760524318 N
   0.0415252772710992    0.2206617497204041    0.9352317765385453 N
   0.4757233753945201    0.4045588459534348    0.7532861165050195 N
  -0.0066755816696523    0.8554928323142906    0.2858722389069415 Cl
   0.6038755999421784    1.3735233811925165    0.5096904926038011 Cl
   0.7593794827636107    0.7963103536795086    0.3832821109051610 Cl
   0.9268522246902512    0.7081585494267651    0.5131794377524010 Cl
   0.6196247956010518    0.0995635138728663    0.8422813739248497 Cl
   0.7164000177024192    0.5977963576488239    0.7671584860234151 Cl
   0.5590904231553625    1.0500140138705683    0.1640537669358916 O
   0.8685813853740127    0.9218141090740943    0.0286565388451175 O
   0.6791464559520973    1.1408998107239028    0.2085710850148941 O
   0.8401985488454712    0.3326204960700144    0.1136130576093432 O
   0.1398488694779496    0.3950639159967521    0.2959041451707174 O
   0.3434205155199953    0.5863227282158400    0.1131114968389072 O
   1.0364499302799124    0.5516619283175674    0.2969514814351540 O
   0.5603555990165301    0.2928865654777751    0.2750569030100051 O
   0.3963654355220100    0.5812860126753415    0.2526151673807442 O
   0.5324930901017436    0.4385523917160970    0.2312601467540946 O
   0.6973882348095809    0.3566359327710527    0.1767572097000479 O
   0.7427132506246225    0.5299485719360814    0.2246383010452390 O
   0.9026894283771928    0.6313739852370688    0.2861948682179520 O
   0.1876176899554251    0.6783852343420326    0.0666874188061810 O
   0.0713415059269937    0.7496089903903339    0.1355988289018441 O
   0.3377573274699239    0.7943317970077308    0.1314758059294445 O
   0.5220734024636842    0.8683188205839210    0.1462041448618486 O
   0.6065605099405695    0.7342175188577306    0.1476459593630882 O
   0.7595404519329926    0.8123701503816479    0.1517358212928143 O
   0.1507007001047198    0.0383874840913490    0.3816143868007085 O
   0.0390849567898208    0.2409564145641220    0.5488987899277383 O
   0.0796930881566117    0.0942511856021961    0.6802979707256884 O
   0.1697076051439406    0.0746412684482056    0.5332614239130482 O
   0.3616567196876300    0.1392310403617222    0.3454888850832573 O
   0.4598514668753518    0.1804672745401833    0.4565912970288745 O
   0.4008042823140556    0.3653063094095942    0.4519624299846935 O
  -0.2064668911580327    0.2464758093937297    0.3900794337981637 O
   0.2288606391287394    0.4750125428897263    0.3977645054377369 O
  -0.0672188039354764    0.3110048893847991    0.4246214957279574 O
   0.2723892111400301    0.7227253248367039    0.6478498904697123 O
   0.1924892720469779    0.8508466871453052    0.6904915370724976 O
   0.2700276331528648    0.9112394341159454    0.3442833430110661 O
   0.4486098957445327   -0.2464511323151108    0.6941468511721902 O
   0.4171409109157381    0.9382844687810232    0.3103195267628908 O
   0.0346140555311450    0.3125107630841061    0.7332658278459765 O
   0.7976302171606230    1.0240378710631779   -0.0627719100808775 O
  -0.0790880154596386    0.0894101122587627    0.6920687591646537 O
   0.0429022256637338    0.5026861887863810    0.7313542319068629 O
   0.1909896804776714    0.6267121315705088    0.8417134910690669 O
   0.2915152751747673    0.4582921181818627    0.8044916023782245 O
  -0.1096477683741065    0.4911553661417734    0.7340672197105850 O
   0.7040485955063426    0.5045171569832198    0.0098708081706050 O
   0.7987089196463509    0.6247878406176248   -0.0437395441514812 O
   0.0674078654024886    0.6922879687181377    0.9256800145384787 O
   0.0377379723551231    0.8091463382657775    0.7753015945649154 O
