Li1 Co1 H90 C51 N3 Cl6 O45
1.0
  14.5397511537999993    0.0000000000000000    0.0000000000000000
   0.0000000000000000   14.1629045275000003    0.0000000000000000
   0.0000000000000000    0.0000000000000000   14.2095071632999996
Li Co H C N Cl O
1 1 90 51 3 6 45
direct
   0.9462106284607492    0.5668824321035796    0.4205099102685781 Li
   0.2355994294995016    0.0815958168718934    0.2672943923072648 Co
   0.2312382819578927    0.2832783174107999    0.1920567371434586 H
   0.1471742572664827    0.3291657975345340    0.1075400831738008 H
   0.5525602186664846    0.2015733254896080    0.1979000080638216 H
   0.5837635725066518    0.0720080942591809    1.1067534856393793 H
   0.6679782187580069    0.3563035925577024    1.1190171059041323 H
   0.7928311120983141    0.1647630794706704    1.0618750818586318 H
   0.6836724350885500    0.1766250530985936    1.0069949237336475 H
   0.0126423812179178    0.1495585711311644    0.1376832820249373 H
  -0.0426137226521974    0.1908064662126912    0.2432541496673036 H
   0.7300611244729431    0.0940798380454238    1.1821762281513795 H
   0.8192779196077743    0.0179824529428609    1.1631467152419956 H
   0.0143955061325308    0.3347373947903639    0.2972180198556007 H
   0.1201332167534032    0.6098024418247283    0.0317352021444264 H
   0.0114016447149904    0.4487965552445894    0.1780780679526638 H
   0.2776173425667642    0.5929690303209593    0.2413462720971357 H
   0.5222625199410929    0.6512847520993782    0.1850030090409899 H
   0.6692051998673321    0.6079828997985879    0.2770829091362819 H
   0.0746324380260385    0.7053732336331319    0.2770350538523382 H
   0.1564708400325965    0.7264232943336841    0.0402337375694900 H
   0.0378250680553267    0.7042046880168098    0.1583560609344473 H
   0.2269486624630158    0.8689526742416289    0.2198705096732171 H
   0.3606758479858462   -0.1983474668169544    0.3268509969293961 H
   0.5494993684821010    0.8286643280982181    0.2715978490913211 H
   0.6660572780414459    0.8374421885828813    0.2719546524583721 H
   0.7027669847175813   -0.0300182942682765    1.1903306277845538 H
  -0.0461323523356655   -0.0166213247673112    0.3260839048779453 H
   0.2600413883914267    0.2934146563038039    0.4608948436378456 H
   0.3334621772830578    0.0723575988392894    0.4255808109811730 H
   0.2009812304205957    0.3970650055065126    0.5750700209578746 H
   0.3587734770506482    0.2976235387321401    0.6604635526303835 H
   0.5450104333339268    0.1898412687157048    0.3524409062641231 H
   0.4297740044379549    0.2064755685192908    0.3913261394850955 H
   0.5210854021335761    0.1583724411786267    0.6161284470732323 H
   0.0368759458967681    0.1048438730429054    0.6819013123288175 H
   0.0045982270392934    0.2201344899378727    0.6375077951750879 H
  -0.0287868010031664    0.1184004143319605    0.5774585626300066 H
  -0.1974843236811216    0.1555396889051013    0.5786753535996931 H
  -0.2483448915256221    0.2068752040593744    0.6808879063158917 H
  -0.1586948014923185    0.2659464205867146    0.6212264423215895 H
   0.3293032340274027    0.4166506773199033    0.7166132832882275 H
   0.3153167498125851    0.4336104753283983    0.5583312278902084 H
   0.6686886848375657    0.5914580408231167    0.4054434482484920 H
   0.9643374861498588    0.5033517489550132    0.6137962057351518 H
   0.7735914430667785    0.4937161548058737    0.6185043211702028 H
   1.1910813942901555    0.7889599017280391    0.6687122553230939 H
   1.1846445578539595    0.7113141054251169    0.5637346524507946 H
   0.5989481515042296    0.0180918937709756   -0.6283953634128924 H
   0.5176981364590100    0.7045358347805893    0.4862890030448633 H
   0.3860235995464827   -0.0174890846237825    0.4948326850040485 H
  -0.2420105327717634    0.0013813384226387    0.6406732814571297 H
   1.0295855079326839    0.7897365785727246    0.5577682245496941 H
   0.6797562745299754    0.7925410880518978    0.4411933158661404 H
  -0.1581280792759038   -0.0879647415105404    0.6705335711296577 H
  -0.0947184658480259   -0.0437795958163851    0.5218945665725502 H
   0.8566134966928144    0.7941057388590096    0.4024004151930122 H
   0.1450855007479736    0.1386053094115232    0.9664502381665090 H
   0.1495168007969542    0.3102798409512190    0.8545849931771927 H
   0.1111316871800588    0.3619867488512236    0.7481252840109893 H
   0.1592961978785087    0.2431664887320903    0.6357793749197089 H
   0.2833842913345281    0.2155923425361804    0.8690584015534645 H
   0.1788818150591421    0.1643231979486349    0.7365745667261625 H
   0.2653406537767124    0.1784304737275579    0.6469008021573937 H
   0.3606270163385580    0.2135341488977639    0.7715398891888041 H
   0.5757173550189869    0.0788364958636836    0.8258640815150304 H
   0.4962332298936432    0.0152711446850498    0.9697628090712601 H
   0.5450931720264446    0.1332850730254278    0.9691998057307458 H
  -0.0407134150260398    0.1661603917212454    0.8319839278264211 H
   0.7708183557165551    0.1202439627333003    0.9441102656149010 H
  -0.0862417045406091    0.0174041817284996    0.7667846222239851 H
  -0.1615153449504699    0.1907287985282227    0.8328945857297030 H
  -0.0876475057667641    0.2708211268919041    0.7843411776437484 H
   0.7260995711154811   -0.0630221176783965    0.9341373651918655 H
   0.8351977243933951   -0.0374468552527634    0.9875241569561355 H
  -0.1972848704738882    0.0473133009474776    0.7763324551249322 H
   0.2011923757123910    0.4188218421357285    0.8122330668870033 H
   0.3163243323939535    0.5718986348084736    0.8994359505450900 H
   0.3611552234528863    0.6467913235179436    0.7415395524353232 H
   0.3533462865048611    0.3152385695696062    0.8371241483253168 H
   0.5326221195247923    0.4347260657053101    0.7912590811903181 H
   0.5978319013134030    0.4502536010052193    0.8860646212078750 H
   0.4402422028541444    0.6109215625509341   -0.0042238212142230 H
   0.7268499278364864    0.5877419951562263    0.8896108384989396 H
   0.9686284811840958    0.6736064446156381    0.7649351562503957 H
   1.0787397192008192    0.6612064457553055    0.8039175075476068 H
   1.0950728735641893    0.9074899671352035    0.8453594796886900 H
   0.6319198299689404    0.6663861742394986    0.9010285462445699 H
   0.6150440253279599    0.6686265339014869    0.6828204152822070 H
   0.6009736332121682   -0.0491838545156782    1.0586413314215526 H
   0.8526264958571881    0.7769708355255309    0.8107509605930993 H
   0.7559013191245418   -0.1160331366076138    1.0487458439578379 H
   0.1718349269166844    0.1815562449924875    0.0948788417998095 C
   0.1654427955096960    0.2694527635055400    0.1529350425194701 C
   0.0890116387282017    0.2519817709192702    0.2265308391915014 C
   0.0339515492169193    0.0695107251685878    0.2676793458413415 C
   0.1260996187284004    0.2406917138769790    0.3335289203020715 C
   0.6101388519693800    0.0245559633283350    1.0532062379230624 C
   0.4395416406579793    0.1507440624240980    0.2528646166898829 C
   0.4766583694308068    0.1569016976627360    0.3497694554133826 C
   0.7444547683383888    0.1277946738033605    1.0138086716622221 C
   0.0237443593943333    0.1649953764542172    0.2114557209950550 C
   0.7464534270288029    0.0291242353148031    1.1544856126023584 C
   0.2656845386167699    0.6272557826645280    0.0134214072316713 C
   0.0349921447429332    0.5720238209944397    0.2317505839122448 C
   0.1737902561172512    0.6541393925385267    0.0627306473022664 C
   0.1798983386463520    0.6539007409262506    0.1739702548294362 C
   0.0760733155058793    0.6645864021694048    0.2108005258575315 C
   0.2343800138566578    0.7339175198150399    0.2156873948531957 C
   0.6098403599282101    0.7872321487835434    0.2641718350299374 C
   0.6131691651799666    0.7439980791891982    0.1640670260697894 C
   0.3088833522247899    0.3520255152832032    0.6752036838392239 C
   0.2755196450424137    0.3741600992868798    0.5794354081093874 C
   0.3851975881606646    0.0143348960522745    0.4242550788650969 C
   0.4800654428721602    0.0622953972814599    0.4044546736317138 C
   0.5346745618041913    0.0920788360655706    0.4949633017790478 C
  -0.0191834729597214    0.1458792410969318    0.6490022121258634 C
  -0.1814317793472386    0.1984595574122781    0.6397745873748336 C
   1.2377809555699606    0.6428316837497654    0.6887425066702419 C
   1.0180901254992427    0.6261105373535464    0.6048634539837165 C
   0.5128333351806529    0.6638831565900352    0.3631337472088412 C
   0.6814275548526548    0.6481053195251796    0.3464751821171982 C
   0.7782710279702807    0.6915229672828139    0.3512487466905840 C
   1.1726629222566771    0.7191797236522041    0.6423116211780262 C
   0.3530629253966537   -0.0654220491284746    0.3584150754611556 C
   0.6044626887993914    0.7191599536961576    0.3562418825667703 C
  -0.1688813582245010   -0.0168063150703181    0.6405881272018770 C
   0.1715047974702292    0.3492781974625931    0.7952979264043327 C
   0.2096106765969980    0.2163111216524438    0.6875447170632978 C
   0.5601745167950373    0.0551167850269899    0.9658731597424819 C
   0.3133407875216149    0.2589746868008745    0.8091386597767014 C
  -0.0972322640288460    0.1997820262578198    0.7919529828075020 C
  -0.1397543122716329    0.0465401544520861    0.7248781723269776 C
   0.4818874135317527    0.5441781909378193    0.8813881747107281 C
   0.5605666830666388    0.4953265589398361    0.8333703235524376 C
   0.6256191719294073    0.5660350776660278    0.7857029419736175 C
   0.7092836024366705    0.5132149376624399    0.7392474250852543 C
   0.6797562745299754    0.6314816107694757    0.8502850551640146 C
   1.0290786216784391    0.8063652298174401    0.8031363404126431 C
   1.0359810781880729    0.7091111674656454    0.7627478882724975 C
   1.0662381297253698    0.7107252431628736    0.6605261867520157 C
   0.7622198591757580   -0.0523717599281826    1.0051412352350040 C
   0.7378872556629711    0.7024042098768570    0.7958327795778213 C
   0.7190850081479886    0.0320861983724899    1.0547713872096924 N
  -0.1058734022898102    0.1504383341752354    0.7004163809358063 N
   0.2464785702995599    0.2988146785839442    0.7424755454889282 N
  -0.3534017101631807    1.2783270358877308    1.2367009904176640 Cl
   0.6888485897010952    0.3982434361008581    0.0350590331159878 Cl
   0.8723737389126485    0.4318431824718095   -0.4597477127618290 Cl
   0.9689751171028739    0.8791165498591264    0.4176183251116966 Cl
   1.0965247553589119    1.0539556865059860    0.8728150413430462 Cl
   0.5442870371843819    2.1890512432673037    0.7405198126348166 Cl
   0.1506392409149018    0.2009131501716253    0.0081411396518227 O
   0.1901804953640705    0.0993308795853563    0.1227390621051604 O
   0.1055655671588885    0.0330309198435709    0.2951243511830631 O
   0.2021862029001571    0.1908636578712544    0.3476891580701822 O
   0.3548153625415867    0.1269127925497131    0.2367331634757965 O
   0.4899096966345496    0.1719296885375407    0.1781505546327550 O
  -0.0485388584463877    0.0373315913535519    0.2816045297147875 O
   0.0263826438872543    0.5184734211786841    0.1547479132759262 O
   0.2231336040474181    0.5684076842125702    0.2071698580653898 O
   0.5566591196290657    0.6795000097270831    0.1345431308932187 O
   0.4780518595796877    0.6283741973208751    0.2931629882955464 O
   0.0382177845426723    0.3382698622939651    0.2296984367360701 O
   0.2855617701417720   -0.0532727050680177    0.3036566668085576 O
   0.2189148248295930    0.8181438872020244    0.1729659976207938 O
   0.3441349871790816    0.6538407249882523    0.0412028070693502 O
   0.2912372455420806    0.7217717061038771    0.2798542930799636 O
   0.6708929866623341    0.7763184269759951    0.1070038224919609 O
   0.2986101365129128    0.2973234590421481    0.5194150294855076 O
   0.0864517599788139    0.2875486279168523    0.3940581131949413 O
   0.5353831709056137   -0.0025338189444347    0.3581624277120998 O
   0.4866359129572024    0.1456208195286092    0.5546573495916822 O
   0.6166685373123914    0.0779870938235413    0.5001637636353786 O
   1.2283310001651813    0.5579114615125332    0.7028239239706807 O
   0.0194024694037677    0.5367009111330748    0.3109841552853514 O
   0.7122891559387728    0.5237633106822480    0.6441575683807376 O
   0.9886535831903227    0.6448835227594525    0.5262099168021749 O
   0.8431325231928812    0.6375538115551983    0.3315858550231215 O
   1.0317684888973688    0.7950384571424910    0.6254306697668801 O
   0.4790594421610561    0.6594059676153530    0.4486479023470553 O
   0.3883324423626285   -0.1472823764186036    0.3735169363162765 O
   0.6106388605268236    0.7822416470215099    0.4332351932725529 O
   0.7924604042407322    0.7810017883494484    0.3768661024381610 O
  -0.1277038997063389    0.0064452714499879    0.5524638885770384 O
   0.6006070519726669    0.0354647426468716    0.8756244280122126 O
   0.2558198580948811    0.5783105258032673   -0.0683731255865998 O
   1.0025279609472817    0.5467387532807754    0.6513541585808619 O
   1.3178167132449372    0.6902280351617657    0.7066037876480585 O
   0.4901352850896272    0.5659029013884596    0.9696635797324944 O
   0.4091732392094717    0.5526740471208758    0.8360058829402202 O
   0.5725343569394150    0.6229000377055602    0.7193304781603846 O
   0.7595478739685113    0.4644773077038593    0.7834551511366140 O
   1.1094802728232371    0.8363760230960858    0.8345272954171946 O
   0.8127406687982817    0.7275247633134199    0.8432017693861689 O
   0.9552726817659437    0.8543109035795906    0.8098030037185083 O
   0.7167699754047218    0.7363428697800349    0.7185880175050814 O
