Li1 Co1 H90 C51 N3 Cl6 O45
1.0
  12.1706533562000008    0.0000000000000000    0.0000000000000000
   0.0000000000000000   13.8807409100000001    0.0000000000000000
   0.0000000000000000    0.0000000000000000   13.8682864143000000
Li Co H C N Cl O
1 1 90 51 3 6 45
direct
   0.2113421196726204    0.3707038398283885    0.6219180185308671 Li
   1.0577280694254663    0.6479469657502598    0.7578692055539371 Co
   0.0743009969665543    0.2760727240603758    0.3043604004924246 H
   0.1160555343054328    0.2918932052165218    1.0862003247688434 H
   0.3701939038305447    1.1783005000271272    0.1947289756299939 H
   0.3259415548204043    1.0974431446973820    0.1131089422542169 H
   0.4918943546321821    1.0591512405802841    0.2710340048446226 H
   0.3652722288598674    1.0042535946303459    0.2442945801657649 H
   0.4912674367686384    1.2207514040401466    0.1080217960926512 H
   0.6824844513272244    0.9834722831808840    0.2229364980529972 H
   0.7113653987761909    0.2832546173502493    1.0462119669117280 H
  -0.1514617389838761    0.1697059235003040    0.2103617649684410 H
   0.7639139334589407    0.3554589763609384    0.9540837859792541 H
   0.2766738629019141    0.3620119406868175    1.1132440408268904 H
   0.1428519593169021    0.4691983660834715    1.0932920444710403 H
   0.4830259728911955    0.3846079967643456    0.2070931563858219 H
   0.4143172540142418    0.5584797674175449    0.1916391923128700 H
   0.6248084187054910    0.6090859277482185    0.2038613223537684 H
   0.6368001331787039    0.4649988063929651    0.3108810330564273 H
  -0.1370303033937296    0.4971181437461180    1.1362555355758694 H
   0.6213390075930227    0.4261605337463215    1.0369195427325506 H
   1.1990458729699924    0.6977533849091923    0.1967551812591930 H
   1.1288688680875962    0.9930330120252926    0.2832099864299094 H
   1.1660024538346401    0.8196280032000107    0.1074305190051269 H
   1.1016838032996445    0.7191982056093287    0.0529407300416688 H
   0.6381713824873121    1.0612109289056675    0.1235428196401639 H
   0.5100094872834366    0.8850834429269671    0.3063159412989684 H
   0.4444019166271552    0.8306749639490245    0.2142670780245770 H
   0.3813888656795396    0.8985207659927428    0.0938419620363522 H
   0.5165238458539739    0.8693061871291711    0.0520307401825766 H
   0.4540332812358832    0.9810977701621837    0.0177849807706361 H
   0.5933672964583386    0.8344744729480006    0.2097409240265405 H
   0.6692148268236451    0.9307848938879156    0.1016540302878622 H
   0.9232324140080744    0.9895418439158807    0.0433267088124477 H
   0.8157887163093105    0.6660072408915815    0.0469969531728119 H
   0.9373959921624210    0.9352608797450713    0.1662734052580779 H
   0.1118634832703083    0.0085625079936745    0.5324374610251880 H
   0.1591321042032128    0.2498082759042003    0.4927718827722913 H
   0.3480669076768984    0.0840635210011999    0.4654220438182229 H
   0.4121111275874857    0.0957667867744965    0.5829218524694022 H
  -0.2434576218038913    0.2370971388587066    0.4254452951819723 H
   0.6193509466983564    0.1743231121947366    0.6737297549296114 H
  -0.1186533113412806    0.2039015044910885    0.4923277471512063 H
   0.3267130828333368    0.5827458352149302    0.3976242660747166 H
  -0.0025042469790230    0.4376965173828030    0.6246883680068041 H
   0.3188688038775677    0.4630740532278979    0.3497712018839091 H
   0.4806456569663120    0.5918923210418168    0.5024595324203016 H
   0.5762474760261959    0.4466110991621412    0.4268989715337393 H
  -0.0222016282932214    0.4272663824974456    0.3520663664809699 H
   0.8348074158996726    0.5903239609563464    0.5302710073551066 H
  -0.1443101097777366    0.4061896977659243    0.4171926533932949 H
  -0.3030205703805763    0.6187511178753067    0.6429689249859698 H
   0.6519537157023608    0.7062630171230536    0.4931951001637311 H
   0.1461870308871824   -0.1176108721850641    0.5436321389660701 H
   0.2996865962205671   -0.1494902943909210    0.4481404566891257 H
   0.9498300000641341    0.6515058535877535    0.5627386811937224 H
   0.9018637994901435    0.8393819919660183    0.6300350992311853 H
  -0.1009048804495273   -0.2524264423432712    0.3333784051671076 H
   0.8091719803261945    0.9797491389816597    0.4289825021976435 H
   0.7735239352046905    0.8896855027459770    0.5951533564153467 H
   1.0417379664865094    1.0739299906001920   -0.0058250017620564 H
   0.1366887733477783    0.2942489872466037    0.8410042061990902 H
   0.2675280926016454   -0.0077384950627970    0.7239017790149044 H
   0.6064232923321389    0.1745615720883014    0.9468990482962150 H
   0.4564522146438421    0.2073271141403359    0.8444444293510152 H
   0.5906257838194134    0.1006843917094624    0.7827432231286174 H
   0.4907820889547519    0.3325214399524442    0.8643517193904915 H
   0.7211216539684818    0.1365535144910359    0.7549748321035438 H
   0.7420120690151384    0.1969818450418725    0.8970031938749732 H
   0.7636641522918144    0.3091703809490671    0.7447659284387036 H
   0.0099774165401022    0.3461489545949604    0.8815593247766863 H
   0.1199805495533336    0.5279314701220801    0.9822278542757914 H
   0.2650992994107735    0.5967630985052368    0.8262439110995510 H
   0.4757757458559272    0.2863841332947983    0.7441645563765142 H
   0.4687087464531233    0.5734178028829731    0.9845287874298037 H
   0.4219388662058950    0.5939592135935919    0.7198984004905936 H
   0.5659166173351997    0.5666765200792153    0.8884181389919681 H
   0.4308028110445707    0.5087059834041668    0.8908214640318686 H
   0.5472762622646620    0.6636183194200979    0.7409190220217011 H
   0.6316654047322507    0.3532472788586903    0.7011296793794110 H
   0.6745276065165332    0.3970151154561100    0.8115924975124703 H
   0.2854416748571892    0.6392802814010596    0.9441135563582805 H
   0.0949983245978335    0.7916583146569227    0.8935975820647570 H
   0.2616746681457012    0.7658347651559185    0.7700682613670297 H
   0.2694137760837329    0.8165806154363270    0.8795554723056740 H
   0.4458365150409788    0.7386820358856478    0.9881132245055150 H
   0.4198518788226696    0.7205381917181827    0.7172535171283507 H
   0.4422631653836372   -0.0499177997408497    0.7038127794314571 H
   0.5597316330293527    0.7578496006233720    0.8964198485532572 H
   0.4246938538814679    0.8077965021969422    0.8815038024160284 H
   0.8117158043177164    0.8232020199129271    0.8623615672422391 H
   1.0144994945411130    0.9261511354727823   -0.0808890701625030 H
   0.4370374804398128    1.0386458510016237    0.2131984528493197 C
   0.4035511927219571    1.1177424934012403    0.1504149211289051 C
  -0.1578204773141051    0.2983618800936181    0.2514504750640467 C
   0.0964937250062864    0.4709517307026805    1.0284448115012419 C
   0.5385694987985891    0.3351444987816576    0.3228659311926971 C
   0.5349326357063170    0.6195450236236705    0.3355560354162825 C
   0.4734250092797823    0.5229542141925910    0.3293036407505225 C
  -0.0251045127124874    0.4751416367298221    1.0397720941450457 C
   1.0775749907805099    1.0084197987526591    0.1078148491120177 C
   1.0845253160855117    0.7846543657589240    0.0996047504308573 C
   1.0555901398305243    0.7604215094452044    0.1997901632852780 C
   0.6336364575013923    0.9863698230356207    0.1532126712503614 C
   0.5196717458786249    0.8674863995426308    0.2306396847920484 C
   0.4600797931072044    0.9242830795694177    0.0700106111306476 C
   1.0007270211089769    0.8480169777190949    0.0472832178115279 C
   0.9751901833646277    0.9479006949492872    0.0918518098880997 C
   0.8919152785310515    0.7876686140812061    0.0311024155626924 C
   0.2709387558409245    0.1778121190362309    0.5616122983419887 C
   0.3317169226616215    0.0871289193308630    0.5458399099253163 C
  -0.0819954601197830    0.2794053991891705    0.3531450866308923 C
  -0.1551969534107040    0.2108391745062836    0.4180586580056322 C
  -0.1686079014693678    0.1088136407698427    0.3808269493016941 C
   0.0001989768362572    0.3864443540715868    0.4960265602898726 C
   0.3860254285943196    0.4823860627047754    0.5000169602821122 C
   0.5613428037221744    0.4411184528765907    0.3474169095780960 C
   0.3747310472676200    0.5103527254727789    0.3914764265037018 C
  -0.0608404742316310    0.3762734272518023    0.4026602162933381 C
   0.1725019698330729   -0.0650697286878471    0.4110080392717145 C
   0.1734033183210250   -0.0488241981745915    0.5152175253485094 C
   0.2720520896615034   -0.0090662339867851    0.5779572881430550 C
   0.3691159008987370   -0.0940343208956272    0.5719067929705960 C
   0.8637269808317144    0.6507522915071829    0.5770105237333971 C
   0.7934842440632325    0.7338278281429287    0.5546175625035381 C
   0.8252171337197483    0.7692661381862793    0.4537279530592683 C
   0.8106714889775277    0.8173385000527325    0.6254757760306778 C
   0.5015598998216746    0.2730109278439086    0.8184477063796575 C
   0.6900764841701391    0.3146254211728529    0.9781091046124516 C
   0.6358263152863421    0.1573341055178588    0.7491918537597086 C
   0.6624822383913029    0.2288259665384101    0.9144155830329447 C
   0.6807696707489599    0.3304531065553907    0.7681083941427723 C
   0.0942670573651286    0.3587513078219396    0.8719647724271763 C
   0.2718902248920170    0.3843399995425749    0.9700100506526066 C
   0.1425775286924937    0.3763072871158432    0.9747179141946141 C
   0.1034399420684077    0.4398539670603217    0.7935311456974601 C
   0.3029805853620439    0.6538227327953203    0.8702688166834480 C
   0.4750674847833524    0.5716459234019375    0.9080355590446337 C
   0.4580766138787384    0.6567598958952113    0.7550916453818108 C
   0.8460220973144932    0.6120180478896353    0.6776415576123180 C
   0.2452039007897415    0.7490345092105030    0.8432849494037723 C
   0.4706568752269923    0.7488623281997416    0.9123980302391727 C
   0.7596775134007082    0.8071538852028036    0.7243827324507320 C
   0.5115556655738909    0.9595463269114503    0.1655162821581992 N
   0.6206409349627910    0.2474546551420359    0.8146058474499874 N
   0.4246355168325667    0.6596768871612056    0.8604291006635011 N
   0.1785632713787635    0.3444401120948521    0.2284505174289707 Cl
   0.6684013947333328    0.5590074770007361    0.0930978181896143 Cl
   1.3378979091377237    0.6874318897578213    0.1391792143267057 Cl
   0.1236828980371186   -0.3032162384046688   -0.3804011999175516 Cl
   0.4332751516099744   -0.0073537893734809    0.8063200364588391 Cl
  -0.0415120131280894    0.0640962871339985   -0.1188108424917591 Cl
   1.1039154008322587    1.0697155181610547    0.0402239462421830 O
   0.0941068358927943    0.2913658558446503    1.0189274136009576 O
   0.4905268849070237    1.1540330634267275    0.0889632049946579 O
   0.0179104335420871    0.2313604133830058    0.3393726569092899 O
  -0.1523409029602742    0.2334834989006361    0.1783419474701438 O
  -0.1632540393476760    0.0866700101097125    0.2936597273474729 O
   0.3218341335886153    0.3668149984221555    1.0541711333655002 O
   0.5078275994896747    0.3212266538155563    0.2250456266883735 O
   0.4421341665571937    0.5058219226570090    0.2331338646039345 O
   0.6055423207288734    0.6513005331355904    0.2722374700386202 O
  -0.2125143364289815    0.3724609506453211    0.2481176912853427 O
  -0.0583048667258697    0.4922140683483156    1.1251611584189807 O
   1.1429091989555320    1.0053399919702126    0.1794783531895808 O
   1.1315564805799312    0.7034173476983370    0.2368408835148642 O
   0.8073906462132682    0.8268999493197802   -0.0068554102475103 O
   0.9692118683251204    0.7909450962441457    0.2386925902962817 O
   0.8895251028232550    0.6951425732648445    0.0610484368369410 O
   0.2217786998858999   -0.0040268776257996    0.6662068355952933 O
   0.2061287594574371    0.1921607767405552    0.4848871018604082 O
   0.2687211263341034    0.2293914983101576    0.6345352947229403 O
   0.5462646485378009    0.2716068241201687    0.3792824181779416 O
  -0.1854640220075057    0.0484854489658506    0.4545862422266832 O
   0.0899624404750820    0.3503425347775619    0.5126739522677266 O
   0.3296439033041892    0.4212400471207988    0.5404556830807505 O
   0.4612498206795324    0.5335823212191920    0.5423152495210144 O
  -0.0470614276108866    0.4436489373966710    0.5630943848367416 O
   0.2463517438505155   -0.1268798298606094    0.3805471742895485 O
   0.1184489966075335   -0.0060721574983997    0.3583807731339579 O
   0.3666624582505829   -0.1566822735977427    0.5096830275953583 O
   0.5286564730579834    0.6585306947422881    0.4190465233835692 O
   0.4465176617105432   -0.1000750647250572    0.6340572255655884 O
   0.6823521659064766    0.7057788931095322    0.5561639684082998 O
   0.8820497440781427    0.7101179986652456    0.3926063425965683 O
   0.8042133311695937    0.8519699367402140    0.4309283085643317 O
   0.3194431362322428    0.4102463976470835    0.8966880864514999 O
   0.1005239112719246    0.4091945805938971    0.7073150145706102 O
   0.1162584815037228    0.5269884368874082    0.8098143398321840 O
  -0.0892851262867028    0.4731792775029903    0.9662525568683517 O
   0.5944457102144344    0.3722426625856530    0.9936741134067190 O
   0.7416842312332852    0.5882851648874988    0.6926253842937261 O
   0.9141170447051203    0.5971355570096870    0.7431204475683008 O
   1.0472799861321218    0.8665203127835055   -0.0481972157793612 O
   0.1277106193570285    0.7372548786374545    0.8508785335607459 O
   0.6607124073584416    0.8022715809771570    0.7481073650528347 O
   0.8382435502448099    0.8121154359187589    0.7926189926295110 O
