Li1 Co1 H110 Cl3 O55
1.0
  12.7151502576999995    0.0000000000000000    0.0000000000000000
   0.0000000000000000   11.7659933239000001    0.0000000000000000
   0.0000000000000000    0.0000000000000000   12.9747153967000006
Li Co H Cl O
1 1 110 3 55
direct
   0.4931349611856031    0.8401712791915243    0.6871203664835297 Li
   0.6576528754535224    0.5032375507023807    0.5832683775341064 Co
   0.2162062636369721    0.3233870321999121    0.2226338775133897 H
   0.2094442515287839    0.4491231225812407    0.1912451350594641 H
   0.0285016788205501    0.3767042475620624    0.2017047093815734 H
   1.3085181686094831    0.1510029466267866    0.1682218940197434 H
   1.3012433823800411    0.1579900320123451    0.2848679979015235 H
   0.4889643459018485    0.4036012541545413    0.2640120491021514 H
   0.5290283632099811    0.3175677190220847    0.0848757113146458 H
   0.4202014935344118    0.2660064115064936    0.1253862723504343 H
   0.6613272323469226    0.1722404225560331    0.1009355626199776 H
   0.4077273979252034    0.0190532712137977    0.0984243707360857 H
   0.5699236723067106    1.0000447338346632    0.1541468261345204 H
   0.7062162024677715    0.2738094076048773    0.0286375991333501 H
   0.7057191576140411    0.1140647988618055    0.2738758492771094 H
  -0.0814056342411822    0.3513889178826751    0.2541135660855092 H
   0.8757509666121892    0.3246576431537389    0.0817499394761117 H
   0.7249938020368694    0.0203791261221387    0.1918570945327347 H
   1.2220150618660983    0.9846274209902367    0.0501195732251202 H
   0.1178081342682425    0.7943689414572913    0.0556826239582683 H
   0.1850772567453464    0.6105391584158146    1.0748953462167774 H
   0.0431307548621294    0.6888597875910953    0.1046927933961069 H
   0.0570816006173794    0.6331237369282152    0.3200972870246018 H
   0.3111339660657387    0.5887849390351123    1.0974391933114422 H
   0.0298808209969770   -0.0328431546289465    1.0018841108226710 H
   0.5781013184919793    0.8956506579426616    1.0077879012071200 H
   0.4500430598792703    0.5728304849714092    0.1881259914973407 H
   0.4847929441547177    0.6229316522738402    0.0842879527575726 H
   0.4345741117336604    0.7454780417122177    0.2254855778296379 H
   0.4902195414501933    0.8958461365509426    0.1718404705021178 H
   0.3851220811043551    0.8176648921224363    0.3060168240306724 H
   0.6211059223635588    0.7235733887938383    0.0076229956015186 H
   0.5686771278555035    0.7937893048883884    0.3301753500881860 H
  -0.1409495629133198    0.9515235436313385    1.0717276466762962 H
   0.9379051672297880    0.5469550665839470    0.2125303803659038 H
  -0.2512015042264836    0.9154534908685237    1.0388020689708575 H
   0.8695850937431271    0.6484603086083517    0.2385849017688149 H
   0.7250763806913656    0.6792745365293841    0.1427700833323204 H
   0.7872353000892215    0.7928331595217963    0.1655782907535998 H
   0.6771721099863351    0.7406837163673770    0.3005677642371927 H
   0.3204228850015158    0.2231337031754985    0.5212415834662621 H
   0.2953276251317579    0.2769022191506804    0.6293318156694824 H
   0.1126382386187443    0.2852151594445798    0.5208408039623570 H
   0.3078976692728573    0.4007413171246904    0.4690369701633549 H
   0.0924023000112407    0.1475684724699880    0.5203436832315516 H
   0.3220201921184883    0.0036622204954403    0.4001106027898203 H
   0.0064359545220823    0.2833564128519248    0.6634558782375607 H
   0.1919595977500865    1.0104730926329606    0.6462709155479968 H
   0.2695772412696622    0.4694528978424691    0.3728259966018465 H
   0.4592085040649909    1.0666179485592457    0.6317611560469998 H
   0.4317216090683430    0.4788095239231908    0.3463491152602046 H
   0.4102818309709577    0.0893557078401871    0.4294492039353080 H
   0.5925101140065312    0.4169813399378823    0.4016767257743112 H
   0.5814382825970087    0.3226799095821302    0.4767743267781700 H
   0.5553623028971845    0.3189343694660670    0.6424295981490289 H
   0.7140910602532203    0.1530104269431337    0.4499583243178392 H
   0.8588341393910762    0.2681192802899139    0.4121185733106709 H
   0.9592104600898508    0.3192224879365334    0.4486704347966362 H
   0.8360896185526483    0.4241316074660058    0.4912363010306245 H
   0.7861790797750441    0.0699689893778659    0.4254969014429510 H
   0.2146624360295781    0.5549977364542230    0.6540175209205943 H
   0.1635415301160700    0.7009471648388039    0.3737547260291652 H
   0.1732653632988613    0.9913161890214184    0.5036134511329570 H
   0.2850910178277130    0.5382783660972462    0.5486934380241348 H
   0.0667643804119353    0.9351968303049090    0.5442686781550589 H
   0.0521604633337592    0.6210899038210358    0.4547306833335713 H
   0.0192691493088434    0.5949960593364942    0.5747448765077851 H
   0.3432012237651184    0.6934883810723934    0.6193901717831889 H
   0.3619717451638307    0.7706922324594945    0.5289157402362307 H
   0.5130175417981998    0.6704762993427522    0.5495936504482910 H
   0.6010353770040608    0.6705213444133560    0.4606529712335851 H
   0.8566870943741708    0.5433667592615010    0.5262998832434342 H
   0.7362237125849991   -0.0681906164667155    0.5361868053128483 H
   0.9860052673154814   -0.2445021222523048    0.5329104328684238 H
   0.7619961174216271   -0.1393711769977830    0.4329020735074140 H
   0.9185109803737842   -0.1218749916496372    0.5435665432934096 H
   0.2696527417537732    0.4465751014176469   -0.0123624138715826 H
   0.0519102106874664    0.4748982519435848    0.7084071532495998 H
   0.2410215425448185    0.3069421818015213    0.8402158247858531 H
   0.2303578856275210    1.0958207528224484    0.7313448432798332 H
   0.1530194366064806    0.2881209914520271    0.7582887868894875 H
   0.3550083984313466    0.3541672638412434   -0.0193899283265964 H
   0.5071261446474161    0.4349900192025214    0.7128349960379365 H
   0.4496466823376877    0.0734141723627704   -0.1796154081493557 H
   0.3663381898282482    1.0087052860885060    0.6910241129975289 H
   0.3450454803822039    0.0547967897100839   -0.0032879181003731 H
   0.4575349100005312    0.1861313024418824   -0.1087352406942834 H
   0.3813926717746239    0.4678516730685496   -0.1795822667673020 H
   0.9421520694610298    0.1180603816150700    0.8878777565579585 H
  -0.0252483741594471    0.2736555744392300    0.7839748994407320 H
   0.8270610189943788    0.1617406715703635    0.8474915142413622 H
   0.7918321785228526    0.4534415000102667    0.9435090346192548 H
   0.8895062110611555    0.2729238045186649   -0.0361311047885669 H
   0.6712626241778997    0.0994402792600075    0.8039021188127854 H
   0.6693758985385019    0.1735042342539196    0.8946370570372820 H
   0.0612928760576813    0.6049323219861188    0.7414699208621446 H
   0.2301864366115190    0.8932794174335134    0.7922332694106237 H
   0.0483557108125923    0.6939022857777537    0.9239710338038786 H
   1.2141032403019703    0.9051866143988063   -0.0478136731814391 H
   0.1620724165294109    0.7842805454560045    0.8526862331958251 H
   0.3782916466824413    0.7607576696238549    0.8162769567256722 H
   0.6335650751686203    0.8790698224254667    0.8935888644886070 H
   0.4507052620419936    0.6575041689158238    0.8072131740988940 H
   0.3751898351268825    0.5287577079669670   -0.2913265290243959 H
  -0.0208832664827692    0.7525288701222157    0.8332021834675130 H
  -0.0652398795442982   -0.0666828814619739    0.9262832232494851 H
   0.8258970531976682    0.8684255872510677    0.7557291931732010 H
   0.9399657012753165    0.8473563929063415    0.7038821985045476 H
   0.8515043007253035    0.5584016139592908    0.8957777371637813 H
   0.7245345074251942    0.5648702560794082    0.7759300216296512 H
   0.6705823333575250    0.6725186258457928    0.7262271973068903 H
   0.6755032347021322    0.5924063927302666   -0.0166714101224151 H
   0.5380876348399207    0.1554216130809307    0.5254551633659726 Cl
   0.2679925175667081    0.8355163385934580    0.4102480120491752 Cl
   0.6729716090942864    0.8426844541684246    0.7228059276572076 Cl
   0.1867477049563015    0.3962172622034731    0.2439044789533406 O
   1.2995210275862599    0.2062452013270090    0.2222161419535501 O
   0.3424116145354579    0.0566409179024674    0.0741695805246533 O
   0.4536796665306151    0.3415240474204226    0.1000213999861662 O
   0.6379629783680839    0.2330716656391082    0.0531396009330086 O
   0.4969823400217577    0.4701540711113032    0.3059967850554771 O
   0.6861865532038337    0.0892896700668678    0.2043452297284562 O
   0.8458103058819350    0.3218860964511107    0.0087870288414185 O
  -0.0502121373527117    0.3833539198715880    0.1953423347570791 O
   0.2389452792317670    0.5494673916538546    1.0852462476349432 O
   1.1703129595176112    0.9325706176980028    0.0135193869797417 O
   0.0910846592708292    0.7133065123241209    0.0471185825436673 O
   0.5162318176165488    0.9518975027080502    0.1205545671389316 O
   0.4282894828947988    0.6291487219241698    0.1366766934133317 O
   0.4456451566798067    0.8173589256051268    0.2609221932730056 O
   0.6273402175463464    0.6400921243599380    0.0278198393848242 O
   0.9399892951766011    0.6187263124748201    0.2542469023435392 O
  -0.2056959468187284    0.9251849259329494    1.1004989906777951 O
   0.7615407551268328    0.7196723156981427    0.1958047726462004 O
   0.3034234791259065    0.2927342866074597    0.5529417007655295 O
   0.3150175222171964    0.4687568240155900    0.4316550326664167 O
   0.0597943487407539    0.2260582331367814    0.5276656164759725 O
   0.1119669921271952    1.0042772706574439    0.5484352435360421 O
   0.3395952891854437    0.0865248376294806    0.3943894753715742 O
   0.6336838311384198    0.3802203127901436    0.4555892763477066 O
   0.9033558311152604    0.3337907436954261    0.3964511776272401 O
   0.7767006231656135    0.1471826146953811    0.4034794628120692 O
   0.8096361364322692    0.4798982547806169    0.5387279015135701 O
   0.2852687585507243    0.5631687422803705    0.6213948400325299 O
   0.1258833042755982    0.6303827868773180    0.3537627653526347 O
   0.4054089038922959    0.7393527620170810    0.5896808495965890 O
   0.5757773192154387    0.6270749488624057    0.5170965985201046 O
   0.6365638600219025    0.7796893478823775    0.3595054732057065 O
  -0.0065892946211361    0.6253479378535923    0.5093430565791702 O
   0.7880382791962767   -0.0804377762290190    0.4803034986019810 O
   0.9824268589539722   -0.1602686901300189    0.5646544817671576 O
   0.2994722871240993    0.3888944635558667   -0.0634910883524675 O
   0.0093139386007871    0.3232663454069734    0.7315968719294041 O
   0.2467666575076372    1.0221168184305705    0.7009480300980727 O
   0.2255525943992086    0.2625175433021733    0.7749126582735842 O
   0.5703129716779077    0.3961807162027944    0.6709311867152070 O
   0.4433471106946792    1.0086287944591785    0.6855195606573546 O
   0.4502459674303185    0.1028505310675192   -0.1071575567625645 O
   0.9037176042682921    0.1807598902491164    0.8562932487309716 O
   0.6941259009861273    0.1733232040645115    0.8243079614000793 O
   0.2309540248666472    0.8255231321753341    0.8377649039735102 O
   0.0845016462270540    0.5480573959532535    0.6860667788261482 O
   0.0319235888348381    0.6885087760031819    0.8459808838035657 O
   0.4496812867262386    0.7395609892302499    0.8055946414869695 O
   0.6342807568409221    0.8571957661588181    0.9659603941360956 O
   0.4234409361807979    0.5073901962678641   -0.2334963588003277 O
  -0.0447753160333461   -0.0123747595372371    0.9799414329838638 O
   0.7795845843659771    0.5265530492283539    0.9001863117067380 O
   0.8988415313361258    0.8514206481446021    0.7754406081969978 O
   0.6747317141301233    0.5883319386080957    0.7201538463630969 O
