Li1 Co1 H90 C51 N3 Cl6 O45
1.0
  13.8559093977999996    0.0000000000000000    0.0000000000000000
   0.0000000000000000   13.5224003453999995    0.0000000000000000
   0.0000000000000000    0.0000000000000000   13.9758688938999995
Li Co H C N Cl O
1 1 90 51 3 6 45
direct
   0.7792573469709875    0.4634752789900933    0.3172278217946857 Li
   0.5735708836593473    0.5456186390169883    0.4684867536041191 Co
   0.2974116731633873    0.0954182423048082    0.0620980672821565 H
   0.1376004376517301    0.0298559177651723    0.9980176941261885 H
   0.5352237795649482    1.2410025767657895    0.1383952913113124 H
   0.4180800430262468    0.1288671854248709    0.0925763154135422 H
   0.5600738987534202    1.0939998295297033    0.2235706753276558 H
   0.6241451895299720    1.1734280355112965    0.3002750296785968 H
   0.0137789005195367    0.0495550830905516    0.9979454267052741 H
   0.9983717993563396    0.2644865986323677    0.1473077962114097 H
   0.8047749791847301    1.1013994033808086    0.1968582037930275 H
   0.2865866889856029    0.3387537386628452   -0.0067677762161380 H
   1.1771980264095718    0.5362556563537018    0.0961989882065089 H
   1.0677992163797749    0.4191244548256532    0.1329938382372249 H
   1.0284484971778602    0.4835948134699722    0.2293313189492584 H
   0.3592921297529878    0.3066862070912400    0.2709051205075715 H
   0.7108150691836794    0.5526358842971341    1.0164201277746792 H
   0.3535018205284818    0.4884679867466690    0.0596960699355262 H
   0.4371246248305921    0.3725199331502999    0.2020578805037699 H
   0.8749537001970364    0.4599760038028965   -0.0074818641970546 H
   0.8132666628860310    0.3560827626537459    0.0437485820410684 H
   0.8692810303098850    0.5678698660413646    0.1190662605332756 H
   0.0524050191404464   -0.0741093520161088    1.0286161494527586 H
   0.1264066577599082    0.8104133432514369    0.1925035550436705 H
   0.2391361766356599    0.7238776713211156    0.3473196896558360 H
   0.0250578426310385   -0.0534525164791384    0.3172213821235151 H
   0.2322791745239771    0.8524931504946508    0.3201600187343612 H
   0.5791430909958256    0.5765613702860218    1.0178998211058770 H
   0.6647509689015758    0.6358038109428329    1.0975213464970957 H
   0.4025725801935209    0.6877206291162290    0.2030846502959696 H
   0.4761728016385255    0.8906609303870404    0.2737593258741811 H
   0.8141132330867471    0.8982453826573719    0.2369129584741003 H
   0.1913168685716794    0.1102632398549871    0.3792482948386426 H
   0.1050987817105110    0.2040165652718954    0.3792125188876949 H
   0.2464745618026518    0.2246830144866656    0.6161208660635289 H
   0.2928309561438261    0.1746652674355600    0.5004248751898777 H
   0.1890911034403849    0.0155174870836730    0.5580804675625064 H
   0.5292726003508943    0.1278488750917735    0.7149068528584246 H
   0.6174599552851012    0.1099955359039477    0.6266926595685817 H
   0.5231237509643988    0.2090733597945676    0.6100675751631739 H
   0.6776985131478225    0.3126555614912123    0.5946159419488514 H
  -0.0478771031012464    0.1177278909096600    0.5215682475442773 H
   0.7653196114925307    0.2098099154167644    0.6343608768947170 H
   0.6993044569660993    1.1064251383290509    0.4199012234195613 H
   0.2873264455548561    0.4279318408634815    0.3482269677718703 H
   0.1476474144327780    0.3543914948746655    0.5706967135604177 H
   0.0506938358958616    0.5644473967446511    0.5491017056012540 H
   0.0378033070339769    0.6175008474394491    0.4350265799612404 H
  -0.1464083478434190    0.5131171608197755    0.6428462169404983 H
   0.1773156222853258    0.8086503426456969    0.5256522870006658 H
   0.3513987467306244    0.7637626019712771    0.4847070689005042 H
   0.4227957205125888    1.0119559636728992    0.4231439556134631 H
   0.4582414632566905    0.8372636058324817    0.4672196409734525 H
  -0.1201285859349140    0.7732143262757921    0.4880647850007520 H
  -0.2720608726987299    0.8016264417424590    0.5758748531486896 H
   0.7573858125015056    0.9936958919627757    0.4209723553909362 H
  -0.1236924083143993    0.6798470269982280    0.4015760658251176 H
   0.6545639796576644    0.9584684184497581    0.5552462251765258 H
   0.1819223209990265    0.0717515861028369    0.8704342133754310 H
   0.0661168582226337    0.1111114620423964    0.8051123355780181 H
   0.1498407024463980    0.0201106065309262    0.7562981970669044 H
   0.3790901806873823    0.2500623843643475   -0.0373712401758408 H
   0.4718119186199345    0.0817719964248915    0.8981577132838419 H
   0.5869758500651966    0.2105849257501602    0.9349368218961410 H
   0.6393957222762059    0.0929541827333628    0.9290359365468234 H
   0.7017503447838546    0.1079840587027677    0.7703903441452131 H
   0.7444498156748766    0.2189576996000718    0.8265492853858949 H
  -0.0699853596728893    0.0216029451309193    0.8408675364741932 H
   0.7609474697398126    0.3306331389767581    0.6889463918127176 H
   0.5098860778002597    0.2982246916001000    0.7963787104326595 H
   0.5808106827313539    0.6426827671653975    0.8259625597903522 H
   0.6878032270269585    0.5696580101121195    0.8399065944317374 H
   0.6191155665727761    0.3713012146107614    0.7900163153161162 H
   0.6897771140678439    0.6972485233294651    0.8013909211604358 H
   0.5401351136424360    0.3605634760221096    0.6871940857352981 H
   0.9214493852873482    0.3730412902925175   -0.1271259459134930 H
   0.8242958920483020    0.6742947583120297    0.9237339406163704 H
  -0.0640752459698506    0.6874995145268346    0.6641393474255651 H
   0.2032684478759071   -0.1125426173185071    0.8573359222144499 H
   0.1008623221382999   -0.1527248324667842    0.7803188860522259 H
   0.1430544282798731   -0.2790086250170399    0.9025431293510141 H
   0.1419054600279208   -0.1865479695073605    0.9917340061017300 H
  -0.0227463094446938   -0.0509492626828170    0.7534146554205178 H
   0.0030751642477372   -0.2607685201761931    0.9962002758180440 H
   0.5651630630930193    0.8227018420205573    0.8238653735457965 H
   0.5280837213298887    0.7254269524742302    0.9685154139366566 H
   0.5401905412566006    0.9036919008877726    0.9306093628695042 H
   0.6122044359316359    0.7971989733588324    1.0404071873661098 H
   0.6902426194211788    0.9139496951001135    0.8013558607285071 H
   0.7765242170902441    0.7986587733570416    0.9273566134093371 H
  -0.0715139493447706   -0.1123643945223731    0.8483983741486893 H
   0.7842581013791393    0.7291134281535987    1.0429930731006112 H
   0.2512032301360637    0.2108770336525375    0.1447963244548794 C
   0.3451104550351090    0.2626673949871829    0.1201753150126551 C
   0.6293039992441398    1.1205387568527712    0.2390044205665043 C
   0.9544432499897680    0.3184829292652189   -0.0022356787500803 C
   0.6677338117315501    1.1810982713681490    0.1550225222737770 C
   0.2865354473110497    0.4262519615950255    0.2028306410442407 C
   1.0377102494249106    0.5614168696966968    0.0970597575863111 C
   1.0164391807755446    0.4739012607979726    0.1524759900853180 C
   0.3552310466162191    0.3052663408315836    0.0154075892192997 C
   0.4334352242627653    0.3827836434720560   -0.0020897128702135 C
   0.3600860148516986    0.3431760304507335    0.1994526757557565 C
   0.6505678507562448    0.6099223112785329    1.0243044318445389 C
   0.9030117647266535    0.3475214128162238    0.2118211375174040 C
   0.8884179914711712    0.3943518559198714    0.0410374804782498 C
   0.9126899457936639    0.4339346212816499    0.1400996576144620 C
   0.2595491276646922    0.7603194262916103    0.1996165296110971 C
   0.2707645589682972    0.7816359080283793    0.3068778391855089 C
   0.4405412176099529    0.7012862680053632    0.3334550776255548 C
   0.3783482589769508    0.8005430542057941    0.3358534973770902 C
   0.7021855381606933    1.0366875195696126    0.2762593493264081 C
   0.6793389684472494    0.9327562674174692    0.2393829301275312 C
   0.1283372419772276    0.1383514483311697    0.4179156581419626 C
   0.1405067788267376    0.1595902811318639    0.5231561273511411 C
   0.2365452243589583    0.2163657041625219    0.5340373112799898 C
   0.0499461404756213    0.0598476344457069    0.3950855928041814 C
   0.0501207951973377    0.2113310950501568    0.5721022791212520 C
   0.2480565582902646    0.3164322578391631    0.4876046347196623 C
   0.5695033050990438    0.1655796024011126    0.6566271132455620 C
   0.6970368324386909    1.0309866086343566    0.3910887035643016 C
   0.7153726913640054    0.2715386010553280    0.6547603241251096 C
   0.0211093468355416    0.6315834063887394    0.5108489283278966 C
  -0.0916273891774711    0.6299978890654566    0.5332068799065912 C
  -0.1274438762626708    0.5271316105594230    0.5109169813417894 C
   0.0749621816497239    0.7149524807545564    0.5562461630055147 C
   0.3275186829614042    0.9173107847616440    0.4704552179771647 C
   0.3831794106594689    0.8291755447481783    0.4453840039682143 C
   0.5988989216772433    0.9961961877043896    0.4263008255250903 C
  -0.1511218601885827    0.6982823634497775    0.4716409760953761 C
  -0.2575327753923227    0.6896123051017504    0.4812975492232842 C
   0.1163762803945606    0.0487882074076017    0.8226497067325929 C
   0.6013433660675462    0.1517610498344771    0.8832226848012047 C
   0.6748195970944069    0.1744619011744113    0.7989932169279192 C
   0.5715967079329715    0.3214602113284361    0.7500996558057016 C
   0.6560362756589099    0.6435871923922517    0.8479204074440277 C
   0.1220410114307250   -0.1281056826489601    0.8530921789130308 C
   0.1073577456732062   -0.2100807737338121    0.9262811883238484 C
   0.0645976508291917   -0.0064519852298027    0.9846897213601230 C
   0.6009175549691470    0.7692054226332935    0.9656061136055876 C
   0.5908597524822076    0.8550267243517252    0.8916987230997397 C
   0.7756112492267268    0.7233415239053598    0.9657556570805491 C
  -0.0296740395015345   -0.0462992006824422    0.8288589807790800 C
   0.6361819310538795    0.2343484582438060    0.7152603192537882 N
   0.0661594393324736   -0.0343360879311598    0.8769296950295000 N
   0.6698022432705547    0.6844453230412194    0.9475900602273324 N
   0.4153743382670952    0.0182189305454048    1.0055406610914761 Cl
  -0.0308157906162258    0.8450950556708992    0.2571091983031099 Cl
   0.6252133258446010    0.4181824623040125    0.3759690711747741 Cl
   0.5028634351712996    0.5155698318805967    0.6077378452374580 Cl
   0.7539692197221449    0.9090415428264991    0.6570957782029770 Cl
   0.8283194460713134    0.4575989849912228    0.8104400901931532 Cl
   0.1915131747051788    0.2469645615717950    0.2017967160618515 O
   0.2417134163515655    0.1167162361996548    0.1068738164502910 O
   0.4242456433883250    0.1932610783549979    0.1313188082138524 O
   0.6017273177698319    1.2457132788876704    0.1200143232333904 O
   1.0047640178284134    0.2585993302505318    0.0409845320708472 O
   0.9619728892941766    0.2715045834261904    0.2094298729560580 O
   0.7467549693160422    1.1807758434050186    0.1203391688679957 O
   0.8006453332439819    1.0640199450679990    0.2579950108485756 O
   1.1256979783424781    0.5839239684532821    0.0731907586330080 O
   0.2518693719052546    0.4580431369055715    0.1250608788740764 O
   0.2702947233326056    0.4661333129989909    0.2873871011091884 O
   0.4145544714742448    0.4772879893986813    0.0244166891869558 O
   0.8406232216738782    0.3493835082546690    0.2759244864255374 O
   0.9715291007414760    0.6197460109625309    0.0665979663923613 O
   0.8456932605997356    0.5114688587853233    0.1646348047744117 O
   0.1751591416717369    0.7788205794604044    0.1533668112639163 O
   0.0726093949026356    0.0019451925714467    0.3248359355232289 O
   0.3194224983820066    0.7213973424487782    0.1476240556177875 O
   0.4571793893373606    0.6686803704769715    0.2496799643293054 O
   0.4048430915758338    0.8808106082106738    0.2763394874565310 O
   0.6001070704547358    0.8969615869142659    0.2331822423092715 O
   0.7533766927530162    0.8693703316289628    0.2220552060455101 O
   0.1428494615816605    0.0690967320027502    0.5817584944896504 O
   0.0611146603870297    0.2939303356783161    0.6089964431917990 O
  -0.0384399744187536    0.1709188911483623    0.5742942716358190 O
   0.3033008571683691    0.3371904067498694    0.4223840744153334 O
   0.1951433947474654    0.3889097747715319    0.5257582553673730 O
  -0.3029069173522739    0.6186493121796817    0.4448188154951421 O
  -0.1530473924098193    0.4717907331349080    0.5840725545488513 O
  -0.1281396082946318    0.4891480435239503    0.4282405975854759 O
   0.2457304749510420    0.9068156066590168    0.5083079771877854 O
   0.0518341435831007    0.7551894199149244    0.6319252501541958 O
   0.1422641517497929    0.7498530892223824    0.5008447417502001 O
   0.3508451923027052    1.0084491898170185    0.4499782800370192 O
   0.5935964909315814    0.9623922780194127    0.5128660673132448 O
   0.5271685161538204    1.0050474269032583    0.3772849106506314 O
   0.4772338651586387    0.6608718455625381    0.4055743861030354 O
  -0.3046101617458716    0.7569982703686327    0.5231391695503920 O
  -0.0255415067058819    0.0501918043663662    0.4412100953230452 O
   0.5105768949617461    0.1198591693264985    0.8494380232832303 O
   0.9623452935768446    0.3206208633051496   -0.0970591212180060 O
   0.5129197076251396    0.3650856021563800   -0.0407814038201780 O
  -0.1136014069960593    0.6477166367640858    0.6363650456668084 O
   0.0060890407679337   -0.2290988469627624    0.9342899927030062 O
   0.6815199873275257    0.9054726498217585    0.8709078869659789 O
