Li1 Co1 H90 C51 N3 Cl6 O45
1.0
  13.4673387693999995    0.0000000000000000    0.0000000000000000
   0.0000000000000000   13.1182873223000005    0.0000000000000000
   0.0000000000000000    0.0000000000000000   13.1614526748999996
Li Co H C N Cl O
1 1 90 51 3 6 45
direct
   0.8212254161029571    0.7597215184529622    0.4876278702608155 Li
   0.1923892261912287    0.3442922885461033    0.6137669250451017 Co
   0.2891507335917036    0.2608271247561070    0.2096679147479415 H
   0.0988740914222450    0.3335820489738108    0.2072608856165436 H
   0.0039993710429547    0.2576277741877860    0.2147965279540452 H
  -0.0036947994070707    1.0284540071831996    0.1709031968552887 H
   0.3595105883651657    0.1086418622328302    0.1793034853896119 H
   0.6206475553798213    0.0787896421694462    1.0029010219041259 H
   0.0085726576480220    0.3378966365879870    0.1026014658682242 H
   0.7434476147172816    0.0554359838394283    1.0504664400584525 H
  -0.1612626779861392    0.3951426765282323    0.1710012103521164 H
  -0.1517856757227079    0.2926003272908204    0.2654345552647397 H
   0.2864412153546699    0.5567681957677562    0.0244885078692462 H
   0.3347677638394227    0.4774992352356673    0.1206655812719447 H
   0.0623464590203821    0.5254455855897106    0.2074645105556896 H
   0.4709787132638223    0.3131845692246719   -0.0126540486611798 H
   0.5912118957600654    0.5160601378574671    1.0519427208672614 H
   0.4901609737254792    0.6353485755592292    0.3269254879140986 H
   0.5223065971045877    0.3473940654015949    0.3265790215997307 H
  -0.0536868588278790    0.5163558776826960    0.1446287415545080 H
  -0.0595410221002204    0.5590978443910218    0.2732657576818227 H
  -0.1822148501139494    0.4216697674091011    0.3037935428681986 H
   0.8223273413054120   -0.4801834783182335    1.0375620894373467 H
   0.2288210712944954    0.9856572619826555    0.9760331670605353 H
   0.0652883914005211    0.7597436249972751    0.1894064735083615 H
   0.4172250346495394    0.0185264400778035    0.9690301407019195 H
   0.3698095793072477    0.7563178729234045    0.1327060454907779 H
   0.5600990673702388   -0.1374382792283507    1.1292199048622817 H
   0.6858193027479246   -0.1135891293878708    1.1824473119961469 H
   0.7543985533195761    0.0439497283322893    0.3520526534458101 H
   0.7680820288120555   -0.2172528140281897    1.0311228306341278 H
   0.5968863650303892   -0.0148277615225991    1.1655327657451424 H
  -0.0247746879330091    0.8672972991420359    0.2079560976289265 H
   0.8098660820415317   -0.0937488870143437    1.0778046077279066 H
   0.2367179543996895    0.1027401771959129    0.4703899706456255 H
   0.4340997122596671   -0.0218995688188381    0.3642131652033936 H
   0.6197193838817966    0.0850313106120036    0.5949772058470361 H
   0.4519099867398038    0.2176210273384584    0.4838217706426834 H
   0.5067910150302155    0.1391389835544462    0.5670175262364572 H
   0.9166258528187285    0.0035694571135365    0.5144313097225375 H
   0.9280052353845112    0.1167595377634596    0.5796126404760986 H
   0.7300737772365435    0.1773802560372664    0.4518069915443571 H
  -0.0255060870734526    0.2874319696893867    0.3724235051004537 H
   0.1518236765043592    0.3199522209629503    0.3778985846209252 H
   0.1314031610106176    0.4476165233870241    0.3365262518359246 H
   0.0760032031737182    0.4868544961005042    0.5057369806977309 H
   0.5927437500004054    0.5580450392754850    0.3148158823913016 H
   0.3298915220574002    0.5825880296895378    0.4487101449418745 H
   0.4332552247039044    0.4913941130898933    0.5821655501609146 H
   0.5382351338164891    0.5802595245082194    0.6049039216304055 H
   0.6248220995093372    0.4115868963185165    0.4135635686918091 H
   0.6901408692427276    0.4495322460253962    0.5454357140295338 H
   0.0312920683080712    0.6822845806087090    0.4578050376529414 H
  -0.0427804724574897    0.4231935943774293    0.4092917757986718 H
   0.0704935771614436    0.6477030846516237    0.7331534425377034 H
   0.2680559943217968    0.9066637185009204    0.2990835764586229 H
   0.0244785469753715    0.9977754597392913    0.3382243926530567 H
   0.0489585133328739    0.7684147264303588    0.6630525180584830 H
   0.1947519795566004    0.8059104747635917    0.3481655445328581 H
   0.1764424973179661    0.7086637863310705    0.6813856007325679 H
   0.2713513744083836   -0.0062176436600338    0.4060702469106897 H
   0.3786487421172364   -0.1809027945260711    0.5638286685140843 H
   0.6166579030127118    0.8271922162852473    0.4669981717992008 H
   0.6988827596797232    0.0100611581952193    0.6704202458006440 H
   0.1666380361500317    1.0407764999010718    0.7901319553602402 H
   1.0792845664301629    0.2769656643991678    0.9110904877748315 H
   0.1051217994097488    0.9758976038158185    0.8903693708330748 H
   0.3825708235992895    0.2670253424046701   -0.0863541199192615 H
   0.6485528458336340    0.3164647230239299    0.7018499071167451 H
   0.5525886748768223   -0.0077521427532028    0.8701368017863587 H
   0.3874277594141531    0.0904687582183496   -0.2937529585904449 H
   0.8734762736813582    0.1115027539847743    0.7609064580309401 H
   0.7105836608524219    0.0349256844848304    0.9193008276718916 H
   0.1002693188180757    0.4600099857350873   -0.0564242930429898 H
   0.3348724615843999    0.4559580848509192   -0.1884545516263725 H
   0.9640888305417192    0.5487233956038963    0.7443892843290902 H
   0.8159192452830496    0.3791215302584194    0.8424118986914370 H
   0.7597871457685083    0.4803404597861192    0.8945338047564309 H
   0.9374659018295772    0.4331933753531825    0.6688603875914394 H
  -0.0047811313283588    0.7196354929619607    0.8760973900236746 H
   0.0953700583829022    0.9116742811136376    0.7218097099203513 H
   0.2252086278241834    0.8734848446657582    0.7147048710921624 H
   0.0559146018076702    0.8158386000439858    0.9462393434085440 H
   0.2069837948261690    0.7921838353345334    0.9430337702060920 H
   0.1834943730913585    0.6607268884304577    0.8955640861649459 H
   0.2678829831545650    0.7500784913647416    0.8340587174191550 H
   0.5829073597329389   -0.2054745996771938    0.9824967392893239 H
   0.6489441629372013   -0.1467939212405034    0.8805968933431629 H
   0.4731180371861894   -0.1069891824685179    0.8688519892039110 H
   0.8121360182571009    0.6689528097987572    0.7187150667220609 H
  -0.0227319681001564    0.8518798902203550    0.8392883833002827 H
   0.7981057778929597   -0.1227656321616257    0.9450274711028054 H
   0.0241451477732811    0.3286515272973988    0.1846030523692523 C
   0.3048516826522892    0.1243070169097420    0.3194681044151493 C
   0.3615146962637006    0.2636011149200624    0.0812421215052634 C
   0.6878211830348642    0.0284202620997810    0.9972291555954499 C
   0.3493586197883708    0.5008684443761674    0.0434279065934751 C
   0.4495996565006407    0.5562316165766574    0.0382430685907416 C
  -0.0167396929089090    0.5100480496890725    0.2214439704637045 C
  -0.1408124610044608    0.3745630083621697    0.2452635295764969 C
   0.2476718631507777    0.7697426436783970    0.2130360839838908 C
   0.1190072450201982    0.9577534669973341    0.1513969913974667 C
   0.1140255629560001    0.9025473274909290    0.2560678080640219 C
   0.2076290596515957    0.8509575137162644    0.2814213923713510 C
   0.0323739450061688    0.8216137441720776    0.2400049915025053 C
   0.6246342375981370   -0.0860596210666060    1.1321846231926842 C
   0.3769891714787682    0.2082455656658872    0.6185536307041316 C
   0.3004543773632475    0.0716705726060555    0.4204196507846382 C
   0.3974661197995898    0.0586932687997419    0.4816284565220429 C
   0.4349542983213285    0.1539762862615708    0.5341203217488614 C
   0.6932469023437174    0.0835196803577789    0.6298722901013651 C
   0.8844918130199153    0.0440709331786946    0.5801999616625161 C
   0.7740483152013581    0.0699424506764906    0.5484428288957734 C
   0.1064479708461265    0.3873009516541987    0.3875115052555360 C
  -0.0031638853102006    0.3680278564864926    0.3637162595683133 C
   0.4305232075897586    0.4562267174790526    0.3864287980231364 C
   0.5180759171628714    0.5153948337834234    0.4491712642536944 C
   0.4771058332103027    0.5567975441110681    0.5541589912266593 C
   0.5507823046342265    0.6013487104059630    0.3703393886524030 C
   0.9313072983058839    0.5857139712848474    0.5899192535339943 C
   0.1033085235712078    0.7183304445528671    0.7097578487832823 C
   0.4014587423154928    0.6496781900417881    0.5545677606940494 C
   0.6169541753548814    0.6860350701955901    0.4095264003554192 C
   0.3847642784834214   -0.0290315973909639    0.5634989176797955 C
   0.7325612768512497   -0.0254998863633176    0.4828737749838308 C
   0.9089131189387425   -0.0092713959537422    0.6822479675457425 C
  -0.0046749485089848    0.7758196564805546    0.3365824766325544 C
   0.1698361438636256    0.9741862523681460    0.8429642693285981 C
   0.3878636287496255    0.3130900446903684   -0.0178715578295226 C
   0.7064558965664064    0.1866017341942787    0.6869328607351994 C
   0.2289064630723137    0.3979082814512414   -0.0548925472321002 C
   0.3380586887028190    0.4176120730857336   -0.0415452363888969 C
   0.8273966427590237    0.4619475099999197    0.8510454441523192 C
   0.8263110533749339    0.5231527557971454    0.7465638163284781 C
   0.9172414161562186    0.4893005471139970    0.9129595823655002 C
   0.7425112753100742    0.4650867155218171    0.6865476448988299 C
   0.9200489493034435    0.5170813077457975    0.6845334295492920 C
   0.1574966607002861    0.8859354028817191    0.7676823058193892 C
   0.0283612739859084    0.7940445965299758    0.8695935486837861 C
   0.2015528777569269    0.7400665136748847    0.8778471968701422 C
   0.5221543769789118   -0.0652726087607809    0.9171338936179941 C
   0.6029692297598438   -0.1302307834877083    0.9476973891481755 C
   0.7651274732995432   -0.1339126665577562    1.0230849640997026 C
  -0.0314322764540406    0.3996440263271210    0.2543537115613597 N
   0.6693535403729666   -0.0834967865155706    1.0265405097087927 N
   0.1197980471365152    0.7836331764532234    0.8076049506047981 N
   0.6416034401936235    1.2826076110863838    0.3198768738825396 Cl
   0.8728220984095505    1.0707293428558113    0.2728638263653739 Cl
   1.7167252773971793    1.5725692430087048    1.0935650260589003 Cl
   0.1079300750941723    1.2047834275693390    0.6095713395452343 Cl
   0.9889541737052013    0.2324850103576847   -0.0777175352801830 Cl
   0.2287601832442250    0.4728992445114651    0.7027859740011776 Cl
   0.2721028220531844    0.2131128168878863    0.3124194903835903 O
   0.3009088101286804    0.3025558951779478    0.1449091057431083 O
   0.3362669464430321    0.0690749593858665    0.2445645185913687 O
   0.3983126122057883    0.1777736000671100    0.1008850899819148 O
   0.5239753752043163    0.4876086341794273    0.0428185513651351 O
   0.4464924353401334    0.3716053051920277    0.3339801803020500 O
   0.4628358275847918    0.6496858129881030    0.0430107793860453 O
   0.8982651355134033    0.5100868199940295    1.0088205812357931 O
   0.2028478626309709    0.6923308615569824    0.1838151454218850 O
   0.0579142544830146    1.0325589637737187    0.1292854504309441 O
   0.1790072208013079    0.9397724612299865    0.0855083678981926 O
   0.3477510267537920    0.7838382337090914    0.2004949151572320 O
   0.3675686020424169    0.1622266010580777    0.7111908213027952 O
   0.3398697369297648    0.2914904263073856    0.5925952499357569 O
   0.6355747806796536    0.2511154911510532    0.6626460279747399 O
   0.4748536436337758    0.0167762116039256    0.4146651948084801 O
   0.3937207621707606   -0.0169156865182226    0.6588288201603006 O
   0.7874533392444298    0.1532178031032483    0.4871899702704146 O
   0.1160163051849634    0.4201596617441394    0.4914367583249425 O
   0.3459221576340842    0.4897048681865339    0.3905742370827662 O
   0.3240574072894162    0.6469514621449846    0.4945508294698522 O
   0.6030984312323688    0.4535077649874901    0.4744506926130360 O
   0.7073461986673116    0.6753698060065549    0.4199250245332051 O
   1.0035108729430222    0.5737199513236797    0.5266542006125980 O
   0.7582285601890252    0.4563867231222002    0.5869545352035919 O
   0.0472774091156516    0.7038415104923288    0.3845961735708220 O
   0.0906527195613415    0.9698419352633423    0.3381689276509758 O
   0.5691163648541285    0.7699713320678409    0.4389312091982957 O
   0.3645873151907615   -0.1178823727523656    0.5218686346453917 O
   0.4160874676615604    0.7215823934507603    0.6145396361014879 O
   0.7187374618282690   -0.1110788931664075    0.5186314539896990 O
  -0.0854748762922287    0.8018253378334910    0.3783939706669074 O
   0.8723966245948559    0.6640924192284414    0.5870244363021048 O
   0.9480708180974082   -0.0956119350936805    0.6823163490551571 O
   0.7054839153736749    0.0006574916212834    0.3917086103445014 O
   0.2043210564326357    0.3140756916488718   -0.0940219665082982 O
   0.7681228683579684    0.2020702168562686    0.7508536163524279 O
   0.1675966516731916    0.4645695748438211   -0.0188767660179189 O
   0.3867928901095042    0.4600269086759062   -0.1286959505488530 O
   0.6727365398489670    0.4198120553921845    0.7276570887698585 O
   1.0046016600875007    0.4845360532083213    0.8827509108897265 O
   0.7992849269640502    0.6275830801483435    0.7791567230991785 O
   0.2565191938699491    0.9708961887386790    0.9021401079869943 O
   0.4670345784269762   -0.0294157938852298    0.9989037427815612 O
   0.8853130591613676    0.0356834053485214    0.7676154438990727 O
