Li1 Co1 H90 C51 N3 Cl6 O45
1.0
  13.5807540353000000    0.0000000000000000    0.0000000000000000
   0.0000000000000000   13.2287630494999995    0.0000000000000000
   0.0000000000000000    0.0000000000000000   13.2722919193000006
Li Co H C N Cl O
1 1 90 51 3 6 45
direct
   0.7901010864131278    0.7439201224087205    0.4993152652152877 Li
   0.1681952645385306    0.3560879433302756    0.6429789226750284 Co
   0.2657038414966249    0.2216573852088785    0.1573996392184674 H
   0.1062406780838313    0.2324860620446477    0.3621329299358488 H
   0.1405340611161315    1.0169335543135656    0.1690411854517384 H
   0.5154778224687402    0.0756089608194928    0.9455543952774877 H
   0.4182461815327713    0.2018966563318215    0.1346530027041672 H
   0.5093928878778330    0.0302895308957208    1.1158226514114431 H
   0.1146518458071466    0.2976992642746632    0.2464754376704918 H
   0.0182197922852326    0.2004286430393214    0.2706355452050248 H
   0.6304015590995040    0.1726255900536606    1.0805114931842426 H
   0.7491924595021386    0.1221582865346643    1.0691758473956487 H
   0.2769631574081381    0.5931456325689175    0.0529421718549014 H
   0.0961823264161006    0.4606202412348984    0.2906893536669198 H
   0.2916596904195756    0.4835121774550006    0.1273159127281402 H
   0.1869622637299985    0.4864071571183825    0.4411955369354802 H
  -0.0040182954685840    0.4934431135151915    0.3743644270267116 H
   0.5720429438164394    0.5191213419881733    1.0772754281352555 H
   0.6167653501291742    0.5769334592011206    0.2976097861407140 H
   0.5056284945409744    0.6458021052408903    0.2970236025299778 H
  -0.1102561373623260    0.2924380013932005    0.2293450127685664 H
  -0.0287510900635625    0.3845048103187737    0.1757612003928130 H
  -0.1249916961891654    0.4304221797453097    0.2447289420282213 H
   0.2242503258422886    0.8890349750080766    0.3130208395777294 H
   0.0124270358745417    0.7181966289326724    0.2079990386351899 H
   0.3608171169924112    0.7355618201557992    0.1815431708668355 H
   0.5637333904803968   -0.0948536887541747    1.1094846353015295 H
   0.6308882772878180   -0.1834711955923752    0.9625198147671366 H
   0.7887889354122571    0.0067741047870222    0.3522981552945385 H
   0.6287344940793179   -0.0102819116489611    1.1805838852078538 H
  -0.0702554129115353    0.8265884713622785    0.2234432438445349 H
   0.7779728938568181   -0.0302845376699934    1.0581295261655674 H
   0.7010191402372817   -0.2731961377928376    1.0931264960050084 H
   0.2662848107108152    0.1172953980121859    0.4147831431958398 H
   0.1679169294777398    0.3549865553966131    0.4387389906058604 H
   0.6465251115495991    0.3097510335446575    0.7113808238327209 H
   0.6201878405063055    0.0787755456198445    0.6003299210224295 H
   0.4991739118445973    0.2114757832332432    0.5215850436226021 H
   0.4131227546730297    0.2606753945320940    0.4309001033486633 H
   0.5101455927698758    0.1345063798060283    0.3348512816567401 H
   0.7160543878729621    0.1770659145027572    0.4672438639389925 H
   0.9307574884829121    0.0595704242453557    0.5345484414325768 H
   0.8901058428846634    0.1398689371165307    0.6354391548181685 H
   0.0318368565159312    0.4705387800664605    0.5520768382923311 H
   0.3417511653282420    0.5889564275924103    0.3918866456016226 H
   0.5613274857776778    0.3807115607298110    0.2787562225270230 H
   0.4156638506909901    0.5138220332215347    0.5408327366023292 H
   0.5223189742750763    0.5870460448978654    0.5717470656793858 H
   0.6349057272657931    0.4187944864058471    0.4205307563785389 H
  -0.0179041223902579    0.2999738533566059    0.4840512248195665 H
  -0.1154797059370611    0.2518007930625003    0.4136390303257846 H
  -0.1107134021050537    0.3834298798852335    0.4467745281489214 H
  -0.0212839052712889    0.6497782895449843    0.4593449267669168 H
   0.6578624790919160    0.4642555773445597    0.5590084971617550 H
   0.2702654438818073    0.8263677402184011    0.6614640495462387 H
  -0.0038702919045127    0.9850605818805205    0.2813593901042640 H
   0.1499665270651528    0.8025023191795133    0.3838367925205103 H
   0.3086823092961933    0.0066486206435850    0.3513533297831462 H
   0.6492576549638707    0.8375441441986348    0.3738920142710155 H
   0.4109505630610381   -0.1414838988268629    0.4944034534199788 H
   0.6859389760970822    0.0067793962870466    0.6880193726315819 H
   1.1062646800427178    0.2637474882605803    0.9574385522082615 H
   0.3851824798537002    0.1236172286842653   -0.3408903351289927 H
   0.3703592970262415    0.3244591358269305   -0.1167285989277510 H
   0.6104019332102484    0.0438735673870836    0.8656360204821311 H
   0.8364821635140568    0.0733653648091219    0.7756349862023637 H
   0.6847763013325621    0.1573429820544462    0.9521289944899350 H
   0.0755781685561855    0.4749481870368427   -0.0585788833629727 H
   0.3259331923761051    0.5140705522998263   -0.1776638168175828 H
   0.4635164955670258    0.3836868956007072   -0.0523990916209956 H
   0.7420109731320524    0.4419706517701203    0.8857109255264178 H
   0.8228150284258614    0.3614852733552245    0.8176578714275566 H
   0.9486364662899522    0.5580155906851025    0.7459400395875376 H
   0.8131344171977753   -0.4555487879214659    0.9987953881893787 H
   0.7769950394633520    0.6660473843344730    0.7409273409214351 H
   0.9241783250750663    0.4405970539566281    0.6775886195377107 H
   0.1496351758023066    0.6601534092357998    0.8494700107752473 H
   0.1797395425360915    0.7271672333312813    0.6652011584270248 H
   0.1477045024441229    0.9452639661251346    0.8257416297303697 H
   0.2440121151584347    0.9160684927044659    0.9155814258447161 H
   0.1703740831757791    0.7562236158941641    0.9420146901319368 H
   0.1459836848857417    0.8584962165097701    0.6780293874198194 H
   0.0160660090767324    0.8473130091723622    0.8662787127957018 H
   0.3336787122291694    0.6835766120583578    0.7859625167323906 H
   0.2732726406761713    0.9602623449801779    0.8014911082713018 H
   0.3348502230273656    0.7536882314538730    0.9035774704639336 H
   0.3627544173758518    0.8156970524547908    0.7866730194893626 H
   0.5280174060262770   -0.0584504363716172    0.9247539184888066 H
  -0.0006385125875530    0.7203857980856488    0.9060638533886499 H
  -0.0337117866364396    0.8027147351090664    0.7241269268440629 H
   0.7572015876932006   -0.0241040656414246    0.9286567862312403 H
   0.7446743009491960   -0.1918060640594740    0.9385314936892204 H
   0.3397939838690306    0.1486452678713844    0.2735898201892106 C
   0.3645761129853662    0.2853058152888038    0.0372463145556003 C
   0.5768971661835219   -0.0156822653882096    1.1173333174005511 C
   0.0619883487626542    0.2637512679034549    0.3035221033559413 C
   0.6800851037867998    0.1242144122584543    1.0320390813422091 C
   0.0508468466334864    0.4407999451861374    0.3571255054153440 C
   0.3234480579047587    0.5229061856513828    0.0579887757427047 C
   0.4280401885263647    0.5626543463851162    0.0898529030970031 C
  -0.0767970231762585    0.3660178210904616    0.2423156436925041 C
   0.2405800524114879    0.7445823158403529    0.2586376174192110 C
   0.0826771852786300    0.8631247671740225    0.2508446905736527 C
   0.0986335894250227    0.8783348060300443    0.1406075130841776 C
   0.1739254323773505    0.8242783536373145    0.3074739453074983 C
  -0.0062847381064519    0.7876203533250080    0.2529890074838779 C
   0.3274662442188734    0.0867876325854513    0.3738076279414494 C
   0.3431590400272684    0.2271030946626224    0.5658294743185607 C
   0.4222120879809703    0.2003961381105997    0.4889277751843066 C
   0.4176850933943518    0.0957423624839868    0.4442450479201764 C
   0.6955680437953923    0.1670196237420331    0.7049508868995299 C
   0.6906618360968498    0.0733487343804736    0.6374026438793234 C
   0.8777744215538080    0.0648740191270141    0.5993429023462542 C
   0.7734260181944288    0.0657055405594291    0.5559386430440385 C
   0.1288270528317062    0.4256416874374978    0.4428126653207284 C
   0.4539819734290479    0.4703180489225831    0.3455058092138357 C
   0.5658815039006216    0.6136108868778026    0.3484653583436195 C
   0.5205056728975541    0.5251184862187519    0.4213990314338248 C
   0.4662119276398585    0.5728213589392556    0.5107618940962484 C
   0.4042145600554451    0.6680755407009907    0.4912768645646164 C
  -0.0687208883964876    0.3165075231473176    0.4230527774585097 C
   0.8958890269255387    0.5885679558977575    0.6064306005804384 C
   0.4140210847634127    0.0099346421587744    0.5127731518475327 C
   0.6174523517474754    0.6989385925579391    0.4006485083384493 C
  -0.0458237797976770    0.7564330081094177    0.3521090395023858 C
   0.9029961433455195   -0.0131279827335454    0.6812051765191165 C
   0.7505775077808357   -0.0333127875411342    0.4995748285236407 C
   0.5698382061470749    0.0174160672647854    0.9301621780747504 C
   0.2100684917924721    0.4297909793852491   -0.0615135686635093 C
   0.3866485251077597    0.3592575518449269   -0.0442060831593692 C
   0.3234613119552726    0.4551771019383092   -0.0388596064218577 C
   0.8117191791373523    0.4391667615000167    0.8460169523073759 C
   0.7973915505318836    0.5090917496896692    0.7557145382791579 C
   0.8994742475895345    0.4796577732443268    0.9047227135080453 C
   0.8964994495853155    0.5181917917381622    0.6936054462691115 C
   0.7077124357467746    0.4696272813908186    0.6900160134650662 C
   0.1438026572400742    0.7403188786777883    0.8656330066846467 C
   0.2197093408690166    0.9107724571085567    0.8403713561695272 C
   0.0383276595870180    0.7680259287344340    0.8510786251826018 C
   0.2037676634454171    0.8038093196855548    0.6941471763669512 C
   0.3200101044686947    0.7567875386110565    0.8221672659137470 C
   0.7266546829394812   -0.0501639473333134    1.0039881612551806 C
   0.6985715589090580   -0.1612272413466967    0.9968642974511823 C
   0.6393679242721216    0.0208903149951306    1.0229261111984376 N
  -0.0088243614521329    0.3486163452957386    0.3276430315231757 N
   0.2209736300208097    0.7996176957376078    0.8040769465130069 N
   0.6684782372173680    1.3109580209583902    0.3203315588257669 Cl
   0.8696666243200317    1.0688529966249887    0.2525844051715831 Cl
   1.6994070032938478    1.5710352471605815    1.0921718756517915 Cl
   0.0726983579139824    1.2195239242500273    0.6587448507658442 Cl
   1.0657242212015574    0.1776895555770685   -0.0037187277525315 Cl
   0.2504329662962540    0.4984773710456050    0.6664842827060526 Cl
   0.2585363455131922    0.1731864890562533    0.2313582294882157 O
   0.2900493232821432    0.3003298957153945    0.0933926082425540 O
   0.1343024483662044    0.9695867239518507    0.1115816295109117 O
   0.4228836265403385    0.1692465893237556    0.2377384387629124 O
   0.4253039634313949    0.2178195358339954    0.0555671894639051 O
   0.2213653608471078    0.6534369838476106    0.2629450874739396 O
   0.4993276809206421    0.4977861499566956    0.0711221517308056 O
   0.4383445500983552    0.6463357908147858    0.1330571969361219 O
   0.4899731266985581    0.4089182795744806    0.2753114520022339 O
   0.0902327304076625    0.8133899584441264    0.0763623921069884 O
   0.3193731737078904    0.7859769646031258    0.2180364911573332 O
   0.7127268848578467   -0.2001379088122732    1.0942107096500591 O
   0.2794578642493000    0.2899011050957596    0.5432946324224840 O
   0.5124461056809256    0.0894167521690328    0.3957880064453141 O
   0.6352584322766894    0.2419540674455559    0.6802995303750227 O
   0.7797180105078080    0.1499840173775727    0.4967482632078608 O
   0.0014666724357297    0.6767286550981321    0.3831684829283213 O
   0.0812162943775482    0.4136193993819255    0.5362301404289306 O
   0.3246468131401222    0.6571281830789587    0.4322655796439553 O
   0.3637249084079213    0.4862192332746568    0.3506254976906383 O
   0.5890658572275129    0.4564480446513269    0.4662802775382592 O
   0.6659187327959162    0.6859109194977194    0.4766140616980665 O
   0.9636481511691635    0.5765489939279148    0.5360716146812455 O
   0.7245148901176346    0.4791820673921278    0.5927411789564464 O
   0.0596166100568152    0.9558046341738581    0.2993864197578296 O
   0.4249777665215264    0.0203974495642810    0.6036126999324265 O
   0.4290607504159309    0.7528347880927853    0.5250676373058216 O
   0.6112582921406707    0.7801532908619205    0.3453716952257753 O
   0.3857457770005387   -0.0741034493725437    0.4671004825236672 O
   0.7322088664409229   -0.1095134116076527    0.5488219370090659 O
  -0.1111434224106141    0.7955772575046454    0.4047367246261801 O
   0.8409090163856817    0.6664631450506804    0.6079224303352684 O
   0.9394528819561355   -0.0944938667525115    0.6621685247082417 O
   0.7443076055516462   -0.0374469609173870    0.3967637233809226 O
   0.1949787552824571    0.3547741394670598   -0.1140854985338402 O
   0.3565404766932765    0.1939163183663614    0.6596369348212577 O
   0.7492491573848924    0.1664730873823639    0.7830376262736787 O
   0.8788229642166812    0.0154045413269158    0.7774470319399222 O
   0.1399111207419807    0.4820771982412247   -0.0198078856235605 O
   0.3675825734435905    0.5215378793379151   -0.1152578657553126 O
   0.6388966691427405    0.4239075872866250    0.7315265531178934 O
   0.9866306747601745    0.4506094791171956    0.8849612434021472 O
   0.7674756858498512    0.6084683047826027    0.7956315325120532 O
   0.8871111638046736    0.5384794481876550    0.9806515738832886 O
   0.0030291777240844    0.7416236113981051    0.7531076034550613 O
