Li1 Co1 H90 C51 N3 Cl6 O45
1.0
  13.1423518893000004    0.0000000000000000    0.0000000000000000
   0.0000000000000000   12.8260180278000000    0.0000000000000000
   0.0000000000000000    0.0000000000000000   13.2561336602999997
Li Co H C N Cl O
1 1 90 51 3 6 45
direct
   0.7833506917343959    0.5584806210605847    0.3244563566133101 Li
   0.3693456456185745    0.7166201149864254    0.5092898655977502 Co
   0.1011942500628657    0.1443770396927806    0.2850934463280352 H
   1.1679530857788931    0.2758285935846936    0.0930140613995662 H
   1.0198152169713264    0.3137655432245080    0.1573284400749473 H
   0.3783737100776154    0.1044597404273111    0.1512263591761817 H
   0.5142910112613035    0.2923995978932270    0.2525402139106251 H
   0.3832244400334845    0.0672104555000273    0.2870683811522370 H
   0.6445695956746444    0.1910088157205108    0.1435302991775161 H
   0.6142896272677724    0.0592719043628538    0.1334247885186134 H
   0.8691230108364102    1.0939305155730121    0.0909063578476869 H
   1.0375829652379143    0.4333496570683809    0.2087567084879086 H
   0.3030530971205138    0.4822118213536354    0.2614259118839914 H
   0.1541725910679387    0.6326041719506089    0.2334675335590996 H
   1.0178726422925288    0.5437501724061002    0.0407031826946583 H
   0.5632109462482402    0.5350575290807639    0.2570588768582832 H
   0.5938001439341813    0.6636831864300835    0.1179904239261120 H
   0.7072699408595038    0.3917938913705041    0.2107180646922343 H
   0.8974117070402220    0.6563519944891247    0.0481442663867616 H
   0.1866698186264033   -0.0582501509416754    1.0810661085229039 H
   0.2465647298744331    0.7292148267395093    0.2043210259950490 H
   0.4066030561737319   -0.1686546425719503    1.0004370180663875 H
   0.5126280973335618   -0.0601291440904270    0.2930920078028296 H
   0.7193294262039068    0.8346232237236433   -0.0237288773529824 H
   0.6935699576664963    0.8857443120129964    0.0951677813854699 H
   0.9527884011152400    0.8470588837745093    0.1472470691847132 H
   0.9231704146788159    0.7290277070898411    0.2149251737505129 H
   0.2341072944489447    0.2543238678465753    0.4693793069418392 H
   0.0297580255645423    0.2305721469820247    0.6365458471100717 H
   0.1737459522263349    0.0148941404484184    0.5860700434446418 H
  -0.0281844193200742    0.1600093270921451    0.5373988383607456 H
   0.2894626833570977    0.1420817053235173    0.5166571494908269 H
   0.6041148882921047    1.0852130788940946    0.5466780900001875 H
   0.5006017567416102    1.0137279150643921    0.6059019195207955 H
   0.7133746320651411    0.1365453026889593    0.3643805165201303 H
  -0.1166982568583231    0.2553046866769195    0.4451956340689492 H
   0.7916688375975427    1.0185883479645237    0.5937648964548740 H
   0.1740700951222094    0.3705158143080464    0.5920260787429622 H
   0.1226523575899973    0.4713881347114444    0.4484431118858729 H
   0.4073335190376746    0.5257483265097708    0.3368445841469395 H
  -0.1286070842370380    0.4948353807193765    0.6136560658378201 H
  -0.2690256345501275    0.6410035052250904    0.5620647031127913 H
   0.1661613128223972    0.9257910357028198    0.3330455880527148 H
   0.0040358410691456    0.6919889317684342    0.4053607913062029 H
   0.6855949771696392    0.8205432497513179    0.5904766073415449 H
   0.4323115444904297    0.6946093865289960    0.3403704991081004 H
   0.5509181693266655    0.8517501293247325    0.5770877863966011 H
  -0.1197448957200172    0.7944002956970490    0.5823369790935933 H
   0.6389229655566044    0.9137795135245351    0.5039239948376337 H
   0.8929140341352585    0.9940780128536099    0.3443105619754823 H
  -0.0166309316887148    0.6996202948140691    0.6020636963024844 H
   0.1819514850646238    0.1027468159676400    0.9792423011753358 H
   0.1632280478843775    0.1161024809627081    0.8504098645264321 H
   0.0537423171628088    0.0934617830180624    0.9351336632433638 H
   0.5278690984638905    0.0964712907168927   -0.1061692048274164 H
   0.4117870598112748    1.1361088439386391    0.7468600637190574 H
   0.6159111026459616    1.1726977524356355    0.7369378644284822 H
   0.5300531063371974    1.2075667194860982    0.6510674266997908 H
   0.7866461445091204    0.2573583248320280   -0.1244550795938990 H
   0.7425627106701824    1.0846026010370520    0.7027974422211098 H
   0.1606371874138310    0.5881780687933426    0.8068285296663154 H
   0.2844962967811043    0.4726466858818085    0.8256160590004427 H
   0.2813728071389329    0.5311723014214864    0.9464620040588864 H
   0.5483343091252317    0.3832625607764858    0.9037670513295706 H
   0.4202809733010578    0.6427281246628656    0.9148939759502644 H
   0.3933223282286749    0.4097292318246807    0.7421875097461369 H
   0.4650647384108009    0.5081827032967302    0.6663833555522617 H
   0.6475781895955081    0.5255131794833544    0.8190726729557039 H
   0.5308462672636284    0.3998408159714438    0.7199970273975044 H
   0.5176269476575657    0.4980177401945879    0.9799310389501625 H
   0.5921553850522038    0.6036879487552158    0.7345993243387091 H
   0.3859370443146882    0.6489935142659227    0.7804762003256579 H
   0.4133560331711182    0.4185325876094041    0.9266643762795312 H
   0.9372995448043896    0.3737545435777202   -0.0538356950893817 H
  -0.0648300672266797    0.3705579162292217    0.7526211703853786 H
   0.8199491639143719    0.4236680863945479   -0.0273204223102111 H
  -0.1764965339566439    0.4987554594134048    0.7259738832463015 H
   0.1061933552879731   -0.1810669126666078    0.8356378348367761 H
   0.0052395829970177   -0.0861442330507559    0.8646862745906103 H
   0.1095116350271959   -0.0620401035126635    0.7711673020328198 H
   0.2494538626810895   -0.2188471495998251    0.9498030989161781 H
   0.2689648301365240   -0.0230498261782585    0.8248624455973190 H
   0.2969415578255270   -0.0166417578423295    0.9578288176307246 H
   0.0563369821274384   -0.0348835846893585    1.0558905929048419 H
   0.1100488295917204   -0.1642682461176448    1.0263186219180067 H
   0.5921811034322051    0.6470903514957557    0.8617819586726666 H
   0.2942966735390014   -0.2103877821044084    0.8262452017213687 H
   0.5414161409947601    0.8886696158694760    0.7513704286212356 H
   0.6725638240364293    0.8645498930272446    0.7774210108535352 H
   0.6158799057944807    0.9901601951886818    0.8072208009071804 H
  -0.1599005698676305    0.6803040893118618    0.9133724161563702 H
   0.7934348837508872    0.9622606554231528    0.7231336885888837 H
   0.5290223928002217    0.1585287428641454    0.0254747605036111 C
   0.5804908061936198    0.1392468426310440    0.1294952868000240 C
   0.5036968648579221    0.1430765581275866    0.2206100892719738 C
   0.4200245503998613    0.0631421624501578    0.2123497621806791 C
   0.5709774404693470    0.1054694068703124    0.3136545645018717 C
   0.8558240213197545    0.2624448606421754    0.0140800353242497 C
   1.1175716924348995    0.4142086423381754    0.0670140218079165 C
   1.0246864911952438    0.3938341192840530    0.1383704236245977 C
   0.3572077876960609    0.5444660609991225    0.2740449759555145 C
   0.2918123389027798    0.6305248048436710    0.3267420909591203 C
   0.4244864610604442    0.5680736217669080    0.1822851890394498 C
   0.8446045682688855    0.4273976149119973    0.1747301958139415 C
   0.9228668160509896    0.4355462858224441    0.0942753643125018 C
   0.2122611285253436    0.6849914365360503    0.2675649568035308 C
   0.1599204207285873    0.7715389524988362    0.3275507732095193 C
   0.4286455339920176   -0.0456655748362818    0.1836377704526637 C
   0.7262482791433135    0.7052767658904975    0.1440734439725601 C
   0.7559058323182012    0.8573044642590503    0.0462259091453769 C
   0.8096039836037842    0.7687313780886061    0.0944435883254112 C
   0.8845943664744785    0.8040595679459630    0.1811423218665447 C
   0.8249794659909602    0.9520790074855816    0.0235926129152293 C
   0.8399402585230853    0.8794157695281763    0.2562916848352835 C
   0.1271911190310575    0.1461312864084200    0.5370629938291434 C
   0.1332661351828471    0.0936956825801476    0.4243527543062427 C
   0.0338912279363510    0.2143761616380347    0.5525824511062017 C
   0.2326623475962082    0.2032027795572221    0.5377082800203665 C
   0.0117277672062249    0.3185667215689114    0.5027133854389022 C
   0.2600531831964238    0.2598579314855125    0.6328154984829985 C
   0.5738085927861779    1.0531095843326863    0.6198403728236132 C
   0.2373555714970396    0.5791058844452626    0.4192539825427668 C
  -0.1243346373817901    0.5463310201741490    0.6802818273632218 C
  -0.1633976608287558    0.6565866737164170    0.6600368594957263 C
  -0.1314353451383659    0.6682450075559530    0.4728767822380374 C
   0.6305934062112086    0.8810998463751902    0.5785821889507430 C
  -0.0972603356892829    0.7138211168934717    0.5756800606993349 C
   0.1372319398150023    0.0773133572516964    0.9151580046700775 C
   0.5549882170966959    1.1411712101273710    0.6958889421752582 C
   0.7473464815301899    1.0074024912403998    0.6662151315393522 C
   0.2984603118634744    0.5448249408938820    0.8656330061430830 C
   0.4021867994421454    0.5957868215479759    0.8435202236748527 C
   0.4940054488105632    0.4486094983983849    0.9141818527745401 C
   0.5842590054031023    0.5797436505845482    0.8100142247628028 C
   0.4642753819784529    0.4504774982677184    0.7317802519788763 C
  -0.0209216401155612    0.5189617307158670    0.7216966179853297 C
   0.8770416848208383    0.3777370734548252    0.0045931062374806 C
   0.2587246538626282   -0.0615520330931123    0.8980678028204627 C
   0.0852070050271379   -0.0939510207679548    0.8418470359590087 C
   0.1217712367603665   -0.0803060999811080    1.0311850484080471 C
   0.2962141385568508   -0.1676590101026741    0.8985551244004606 C
   0.6180119442786133    0.9240196363526275    0.7573631261932214 C
  -0.1435427671082150    0.7151231577890796    0.7618010717893938 C
   0.4858964740321017    0.5187478685496005    0.8217023990050421 N
   0.1477711493238247   -0.0417898590925291    0.9212683836143229 N
   0.6418364471253923    0.9670064775378625    0.6567825169320874 N
   0.1458506407107089    0.1510665671684189    0.1554063109947081 Cl
   0.6227295169415762    1.4298937109045813    0.3236959539002484 Cl
   0.8225795911233819    1.1086225267327938    0.4366610188561573 Cl
   0.5193977988869372    0.6580485459794497    0.5195082447625341 Cl
   0.2851643659420852    0.8266706386127446    0.6155849842279973 Cl
   0.7714639304213627    0.2991171933163155    0.7596850701920347 Cl
   1.1878795039881949    0.3448313033954646    0.0596038671944199 O
   0.4581989201189118    0.2390034465299912    0.2442610276250580 O
   0.4642419024305223    0.2232448533671006    0.0075457016927616 O
   0.6500746986127954    0.1673335020462414    0.3287758664694519 O
   0.8906130761138392    0.2114118745212076    0.0830805465924275 O
   0.8347395151115770    1.0150814138636588    0.1059778715423881 O
   1.1224650327244985    0.4982836060301581    0.0138733385550246 O
   0.3872435075828023    0.5668690390221689    0.0970423852961428 O
   0.5211761183381937    0.5895838051614749    0.2114135917769990 O
   0.9432855357946361    0.5437842437756440    0.0693872628151506 O
   0.8684693987529449    0.4555681663034626    0.2581202723119317 O
   0.7535432414926366    0.3938157971516897    0.1501151754496541 O
   0.7371496764888407    0.6466116370586878    0.2147886331839810 O
   0.1876955102311894    0.8613743166393338    0.2944257300217711 O
   0.6415282831046666    0.7093403809491253    0.0837526882762945 O
   0.3905952668699557   -0.0910888697932382    0.1122572288673138 O
   0.4827886589055524   -0.1099489711493792    0.2448743286227952 O
   0.8690590953358153    0.7174948993486242    0.0161598272686059 O
   0.9189322082703153    0.9309765889942500    0.3077101464672232 O
   0.0739913564703520    0.1494744908158252    0.3608327248936135 O
   0.1187542729525201    0.0647077301857151    0.6093576782792632 O
   0.1942765240960226    0.0219773988535669    0.4100363627502069 O
   0.5453493030676828    0.0330236955056465    0.3645389337520182 O
  -0.0758280987219160    0.3242356672886510    0.4500335454572498 O
   0.0719217116891812    0.3961913590707483    0.5128678922845245 O
   0.1614102606115036    0.5197672028411680    0.3920409195755188 O
   0.2580832161602286    0.5939600659680900    0.5090629894906537 O
  -0.2183885792037541    0.6328435291691428    0.4563663874571320 O
  -0.0650020303592329    0.6591291619562838    0.3960187008314455 O
   0.1009203264888872    0.7607055044482541    0.4009303893877395 O
   0.3624732075069808    0.7164649616102421    0.3616791255325572 O
   0.7490569820699223    0.8915216311965023    0.2715133177163926 O
  -0.2668266369701335    0.6586707188145966    0.6347006635424638 O
   0.3159891379016478    0.2186113030421917    0.6971019655508565 O
   0.5679265405742798    0.0884781630152326   -0.0414504850268359 O
   0.4765320922961204    1.1142556078530137    0.7716402906251706 O
   0.7940702342627540    0.2163385789639300   -0.0502298171445060 O
   0.2314631710612357    0.3562019407736358    0.6414635706085330 O
   0.2261254658627382    0.6178879911694116    0.8252562255737260 O
   0.0491495319057695    0.5807845036358277    0.7166680024245470 O
  -0.0035259713702939    0.4187935415541705    0.7530579493247266 O
  -0.1803177678136438    0.6590254664837591    0.8391901526699183 O
   0.4012052399687225   -0.1729147332627297    0.9278404356343557 O
  -0.0972595747904663    0.7962839668370423    0.7653307585894091 O
   0.8720593193696963    0.9582960578458076   -0.0554507964868668 O
