Li1 Co1 H110 Cl3 O55
1.0
  12.6904742806000002    0.0000000000000000    0.0000000000000000
   0.0000000000000000   11.7431593520999993    0.0000000000000000
   0.0000000000000000    0.0000000000000000   12.9495356879999992
Li Co H Cl O
1 1 110 3 55
direct
   0.4058703423065822    0.7899818437225786    0.6388345917040110 Li
   0.5654979460673633    0.3677521990985944    0.7709003306775550 Co
   0.2610365118791587    0.0933868512909082    0.2705225444682368 H
   0.1017827318144118    0.0385990569070275    0.2616627673484813 H
   1.0642838747915913    0.2324683327755249    0.2405145187472763 H
   0.0260644427455048    0.3849196404962067    1.1188332688581260 H
   0.0971797517595766    0.4732204093872096    1.0571244926322334 H
   0.3332749467658221    0.0015532171158640    0.1254123223510591 H
   0.2720455566879548    0.4940112368536135    0.0964041780399007 H
   0.4087023877609386    0.3018236038384484    0.1604838500831969 H
   0.3926604341271636    0.1585401866974636    0.0292068189248269 H
   0.4340473821944164    0.3912501345115763    0.2454436530064413 H
   0.6025154750905409    0.3466326696292401    0.1980960094482115 H
   0.3901806213712204    0.0869952152967515    0.2881795482025007 H
   0.4885220995859333    0.1813296245289568    0.3202610073381343 H
   0.5615414351529716    0.0873425664547915    0.2929820369942518 H
   0.6503537186877927    0.0178224334546370    0.1504703636444389 H
   0.9885656645219456    0.3363296501118933    0.2818457303748851 H
   0.7333797724587463    0.1003910992563665    0.1870855760677989 H
   0.7220586825748457    0.3087604082841304    0.1758033182695222 H
   0.9099082418024532    0.2269595937675311    0.1815324812130824 H
   0.8679712748906983    0.1689087763034819    0.0828779787830181 H
   0.7195528660626439    0.3747145503320705    0.3263106450925285 H
   0.6729486188987597    0.4907855291148162    0.0885146287570894 H
   1.0688463520260718   -0.0383408170152681    0.0387862434685929 H
   0.1555376967523925    0.8923154631488618    0.1896223465583765 H
   0.0306947976637468    0.8614660137683410    0.1771856072126375 H
   0.3170241750893636   -0.0785408165082137    0.3161458018756417 H
   0.0935740551568933    0.6217341055492327    0.3270288175601806 H
   0.4882912177500607    0.9507409668338906    0.0389678098240707 H
   0.3448174625742285   -0.2092424406606209    0.3251855082265402 H
   0.5466657105877685    0.7843785815997468    0.0709436512732517 H
   0.5089011645666137    0.7051230787070297    0.1764890571418610 H
   0.6356742042834505    0.6148160354145996    0.0597641770829799 H
   0.4085794609131702    0.6331637384082978    0.3084466841310272 H
  -0.0039287625188460    0.7039181218827429    0.3282234549875546 H
   0.8176997101017236    0.5789892202122014    0.0349194252902081 H
   0.9336819789638146    0.5509115973073367    0.0583406511401090 H
   0.9163855410887107    0.7068798461476683    0.1462122959168758 H
   0.8775611450018607    0.7981542611379004    0.2240536968973061 H
   0.7384174092394086    0.9174875647219481    0.2708885807582014 H
   0.1147557694140921    0.1197398957077548    0.3652263260977546 H
   1.1465660635350234    1.1154155609544401    0.5284870059350347 H
   1.0781604247223693    1.2186671616221234    0.4996867455252655 H
   0.1364690634886278    0.4028568917660136    0.5585768878727383 H
   0.0303053401942529    0.3907221675638323    0.4985577475169780 H
   0.2559405636450677    1.1021142001096631    0.6613126177130623 H
   0.3441035412660352    1.0847083220259726    0.5796803472232726 H
   0.5021890434814140    0.1141639686478627    0.4945483373534836 H
   0.5245223301445663    0.0108092441134507    0.5712198122172548 H
   0.5993627166423272    0.4979684342829144    0.5821954953169747 H
   0.4738378572259079    0.4986454241594571    0.6184616604764864 H
  -0.0388911280057112    0.3894286485418594    0.6454564507471474 H
   0.7334514797866111    0.3098759513511379    0.4404707227677397 H
   0.7070088116419707    0.1867480982200782    0.5700004634791660 H
   0.7655739986922423    0.1299056438186882    0.4738140032067534 H
   0.8708868475621281    0.4266503183578135    0.3944976458680269 H
   0.9309870442242767    1.0657355742909131    0.4748850840805529 H
   0.7017867845896558    0.4874874388106022    0.4698045930432591 H
   0.2273774073764226    0.5344526534912132    0.4516873411469299 H
   0.1534566082590828    0.5978555229981192    0.5394565112070758 H
   0.2740903975210252    0.9313083769185379    0.5626681542529759 H
   0.0471973014606418    0.7286874357682761    0.5004064624498373 H
   0.1318309389632127    0.8028122921123517    0.5531998611068656 H
   0.2869480730020305    0.8416502220360771    0.4689752196773899 H
   0.3009704015663801    0.5871633407467095    0.5817707696640622 H
   0.5095150108128418    0.7124737411149755    0.3448510781848505 H
   0.6166607305026588    0.8689733631414237    0.6288218774937130 H
   0.5829614383766138    0.8140656521356379    0.5289132760448669 H
   0.6477470391210116    0.6655136357919236    0.4441758749180568 H
   0.9934354588758473    0.7635605042263626    0.6567394807738840 H
  -0.1591999491136812    0.8776805599812346    0.6647389953893765 H
   0.9726876133518618    0.5149664153214927    0.3844887928000280 H
   0.8503281202654784    0.9763558793954076    0.5270885001942627 H
   0.6746364990777333    0.7698450140237028    0.3652896488314616 H
   0.7409051019214907    0.5652203531507930    0.5776262195200956 H
   0.8212905924432656    0.9273315936185950    0.3641768676208308 H
   0.0534294562447151    0.3777367353281085   -0.0890532822013564 H
   0.1087515020939587    0.2966912541706205   -0.1677302343753346 H
   0.2810247325233446    0.0717327978649426    0.8437654914627700 H
   0.3402660172363424    0.2688801694184071   -0.0355470394530488 H
   0.4941822505315767    0.1762892432971875    0.6681514729534138 H
   0.5333265716196702    0.2917436929345030    0.9528273168461111 H
   0.6413422351552328    0.2175898835642608    0.9146406195069748 H
   0.3538675577448693    0.4119064155622649    0.8190001247556699 H
   0.4305258432028976    0.1944964389580184    0.7751313704090238 H
   0.7744767392440839    0.3377474968344639    0.6726666927581041 H
  -0.0416913385584660    0.3840169873274831    0.7634228425009149 H
   0.7404654020429345    0.2221031494078792    0.7395270050395956 H
  -0.0266875651935041    0.2061721725394996    0.9178067561923229 H
   0.8019603456316862    1.1607611092889072    0.8895972505543320 H
   0.7228206714324870    1.0606858259036194    0.8554493080601641 H
  -0.0296988001682614    0.0754817038177625    0.9325099860676951 H
   0.0370779160727910    0.6679865648503891    0.9049877637589626 H
   1.0307311492917315   -0.1129148710447226   -0.0505044097145547 H
   0.2079218697392330   -0.0311315134997826    0.8698127574132062 H
   0.3208979467792957   -0.0107323182902617   -0.0010232533674763 H
   0.2984370053126917    0.5605776502490181   -0.0119261925462790 H
   0.3907188203265141    0.8908252338608746    0.8382517802595055 H
   0.4096070032816957    0.7129659425598078   -0.1251426070435646 H
   0.5063803761947477    0.8426754997862123    0.8081425926103057 H
   0.3446181004429118    0.5915105524696663    0.6845906724065086 H
   0.5907152856973893    0.9353362537940689   -0.0254874509752384 H
   0.4257750357336947    0.5234998940043039    0.8598123988582655 H
   0.6551218619945012    0.5032276663301194    0.9026633560948413 H
   0.4536731262362084    0.6747658307713411   -0.0197816093311654 H
   0.8700909750220892    0.5405004297216617    0.6812337952915799 H
   0.9656902389404303    0.7693604766152086    0.7781067666647911 H
   0.7098700128230414    0.5380198366268578    0.7933204395521181 H
   0.8312823387875169    0.6714975450528869    0.6931654972245829 H
  -0.2581379377371164    0.9416888883588600    0.6844887382498096 H
  -0.0631003098855136    0.6904796599434712    0.9427883468681785 H
   0.3041814714680223    0.4950586551531702    0.3094127419342883 Cl
   0.2652987639277435    0.2457092328891893    0.7998982815730435 Cl
   0.6811673818617360    0.8923580411285187    0.8405916324928235 Cl
   0.1246680861028623    0.1125939482259987    0.2864180950856035 O
   0.0242005250165859    0.4403246623043839    1.0564140424491797 O
   0.3272475912621015    0.0521122687473848    0.2590673074949558 O
   1.0142305839566668    0.2985842711461608    0.2194218705951799 O
   0.4561245712580511    0.3151275193620047    0.2195485160625938 O
   0.3964569825409335    0.2421343857172063    0.0119596059450622 O
   0.6856289960416374    0.0421396628677705    0.2172766199337417 O
   0.6767089196522902    0.3694459511293410    0.2002196377127742 O
   0.8456238043604959    0.1926315234490515    0.1491660697757675 O
   0.2535553100027926    0.5121681904984493    0.0256660047130487 O
   0.0848819450307472    0.9245214469612476    0.1791787288674871 O
   0.3684635449321380   -0.0012548006425004    0.0559946983019581 O
   0.5595099901943376    0.9161335849688627    0.0406667356025746 O
   0.5436831585441573    0.7087013321173852    0.1051816356058372 O
   0.4489057709221137    0.7093927985070112    0.2963412307945600 O
   0.6881505724061173    0.5525772478715099    0.0368750320864786 O
   0.8889870379034097    0.6186506082624889    0.0469699731831806 O
   0.9425862955008840    0.7602615623625554    0.2028197309370588 O
   0.7815040573748435    0.8722901877566868    0.3198131148314265 O
   0.0704833499932604    0.3557622400272461    0.5558771771771343 O
   1.0803668040412890    1.1371047837916022    0.4899898727550424 O
   0.2670528354862848    1.0724118015010957    0.5894158314164878 O
   0.5050699444778322    0.1020426990872529    0.3442124452485620 O
   0.5419117511481102    0.4542553256884881    0.6223598697417637 O
   0.4864551949596738    0.0837753833191467    0.5623994187489512 O
   0.9486695984801915    0.4323625801085667    0.3904179629146870 O
   0.7379918932279026    0.3868577901301832    0.4003063483429507 O
   0.7210847237040654    0.1947783051833462    0.4958171087130023 O
   0.8649453832533225    1.0282158586173615    0.4639202121792709 O
   0.2034224319138643    0.5320129352568799    0.5223925789299697 O
   0.2913899873665845   -0.1529466875180240    0.3463067288316508 O
   0.0476203746950447    0.6595510155207885    0.3695322719898280 O
   0.0864200278138185    0.7404628018221543    0.5672436078775337 O
   0.2721952752845958    0.8485001674032594    0.5461795321784514 O
   0.3637292853078272    0.6187170299107534    0.6187960353995976 O
   0.5545314528597177    0.8479798644918535    0.5925109230835304 O
   0.6164046329031413    0.7307967488804729    0.4014693244034712 O
  -0.2143696759906579    0.9173683463789092    0.6290280624924905 O
   0.6859197653161666    0.5483407388956605    0.5219176584271675 O
   0.0391457938699288    0.3249434467920780   -0.1452159136286710 O
   0.6022191898677145    0.2907345948166374    0.9130421065951040 O
   0.6469456506326754    0.4970019141447055    0.8274405818217319 O
   0.4210195003088086    0.4578744539593141    0.8096870495299877 O
   0.4929317062533175    0.2150156189142121    0.7361654945539079 O
   0.7317620236224096    1.1426654679347770    0.8610325198248143 O
  -0.0831870296064370    0.4045063626979171    0.7014739032240118 O
   0.7134293754600275    0.2877345503700209    0.6915059782643846 O
  -0.0689314552283732    0.1493314212572960    0.9490047859698982 O
   1.0602493526084236   -0.0364779452493248   -0.0342835964699030 O
   0.2802800795032092   -0.0093422324104272    0.8626001435982914 O
   0.4238003262432615    0.6408005248395372   -0.0835804991064634 O
   0.4301476067482256    0.8375874312172273    0.7936818424713237 O
  -0.0065742113222309    0.7349523596949743    0.9073121714230840 O
   0.9351397652995296    0.7686204713287738    0.7085552382007536 O
   0.8046355805558765    0.5901982991366446    0.6877135642981055 O
