Li1 Co1 H110 Cl3 O55
1.0
  12.4634709029999993    0.0000000000000000    0.0000000000000000
   0.0000000000000000   12.4659101638000003    0.0000000000000000
   0.0000000000000000    0.0000000000000000   12.4449958373000005
Li Co H Cl O
1 1 110 3 55
direct
   0.7832831261434686    0.2613166659390554    0.7116744380222726 Li
   0.4477345432047181    0.6002225255583868    0.3837522712853016 Co
   0.2514152338371292    0.1414698211945412    0.1062375139361108 H
   0.3293341384150059    0.2460502315191568    0.2976252838589610 H
   0.2485324092788954    0.3177674176894986    0.2252813464426405 H
   0.3794373564399053    1.0936257283073685    0.2277538261768463 H
   0.3426338043981070    0.0724141334277694    0.0470490650503128 H
   0.5952873408413172    0.2857079856264831    0.2152009895152398 H
   0.6161346635511940    0.1527461739159176    0.1988024303941243 H
   0.4650491421378336    1.1503885310792681    0.2967293414138392 H
  -0.3130631570344350    0.0788736697906926    0.0596505156293452 H
  -0.0642881549398198    1.0345125155280963    0.1855280185614691 H
  -0.0780186800344633    1.0302930081428476    0.3183701682586982 H
   0.9831857070048154    0.3092971175980841    0.0468832956095697 H
   0.8936841541322930    0.2123415015124016    0.0356337137028895 H
   0.1296193062167893    0.5860775495652141    0.2500286427878048 H
   0.1925768889083914    0.4843785975158481    0.1264906344108127 H
   0.1317399032965031    0.5851614511937400    0.0658247242031803 H
   0.3048024487773781    0.6462600785696831    0.1079578841379095 H
   0.0278364232724682    0.5925897094422955    0.3271295122894352 H
   0.5106816954150353    0.4631647433708102    0.2535722357770306 H
   0.5554276577830111    0.6327793140052149    0.1960479095852658 H
   0.3940665076144881    0.4198466067161664    0.3021933850253438 H
  -0.0632836193576020    0.6501194036705257    0.0263982746957090 H
  -0.1649190313434473    0.6029908753657049    0.0826968069860987 H
  -0.1199845179676270    0.3805370020775090    1.1583350936521890 H
  -0.2206081732688264    0.4063249305781910    1.2145665307011728 H
  -0.0999379352825533    0.4758056173968078    0.3206763160770832 H
   1.2265689526197949    0.9634146182743728    0.1773464167890662 H
   0.1785623337849100   -0.1128613875451776    1.0411233228271639 H
   1.0997182532997967    0.9487907362148514    0.2073199101414697 H
   0.1868778344032052    0.8410569259793209    1.3146951298819940 H
   0.3786486515858158    0.6978912865234392    0.0106233557992642 H
   0.4599349969293221    0.7091564086167942    0.1724376164327895 H
  -0.3918140930809698   -0.0151967177374759    0.1053078229863298 H
   0.6012696230306271   -0.1902941611907848    1.1787207975380525 H
   0.7293559332105419   -0.1564594877126448    1.1566476684192246 H
   0.8838714782772419    0.7792740324817775    0.1436597843883153 H
   0.9160455013179245    0.8895571952782053    0.2189390381741691 H
   0.8335002771177891    0.7526510265689198    0.3185348931028686 H
   1.3348293249110497    0.0505286075082697    0.6209616716413942 H
   0.3971346738017093    0.1098371529963456    0.4386691237242235 H
   0.4164607509334032    0.1881539375047939    0.5371617239648941 H
   0.5902879309269408    0.3166251023821613    0.6152605849614493 H
   0.7895478336721881    0.2714755711722852    0.3598752042388519 H
   0.6771602001709267    0.2171939350054375    0.3558197589289603 H
   0.7032299846257362    0.2997230072096920    0.5582368615887974 H
   0.9163905095450440    0.1907562344549358    0.5508764734297706 H
   0.8108027474968944    0.1110917745838986    0.4304891290234710 H
   0.9825679015748572    0.2026775460998369    0.6643759087422736 H
   0.2156170197222628    0.6633988191183214    0.6537330767372180 H
   1.1500413137763956    0.4985404194510533    0.3834244286686114 H
   1.2073447732668086    0.3770595183294000    0.3813890724233260 H
   1.0894321940633491    0.4052379662232457    0.5333280545427636 H
   0.3038292046390153    0.4713943871474766    0.5147462885845219 H
   0.3315670637547121    0.5369507716602691    0.6178688622501175 H
   0.4207982264585386    0.3793658080124019    0.6089697029857920 H
   0.6242656248852158    0.5714865572020416    0.6527857079992821 H
   0.6368142962157963    0.5743928832964819    0.4920335449488178 H
   0.9832338476876692    0.3628527738821086    0.5884787359068248 H
   0.6807362505622565    0.4604645795193373    0.6149745262076706 H
  -0.0384480817766948    0.4964138198163966    0.4324650236176901 H
   0.8407614967815841    0.6458589847117698    0.3833143442605561 H
   0.1713283938413989    0.7224157693716943    1.3478088412393621 H
   0.2153458272088526    0.8732808065240808    0.6224249103791221 H
   0.1668585314384153    0.8197099086734556    0.5236920529267102 H
   0.0292233563454888    0.8184633089630609    0.6414084442499743 H
   0.3217271081793771    0.7686450452470732    0.4149334789830127 H
   0.6615634212709808    0.6672509245297213    0.3909069542730718 H
   0.4642467974236021    0.9767068687256217    0.5012798316896389 H
   0.5360622657603199    0.9082160815483351    0.5632260155275962 H
   0.4405110337424920    0.7884719168314467    0.4647920734021666 H
   0.6909597269109941   -0.0818528213898952    0.6121589366760952 H
   0.8363004601704569   -0.0081768532550477    0.4648531421248834 H
   0.8531978398521720   -0.1125998743498181    0.5740142875170168 H
   0.7979708484821904   -0.1820725392912766    0.4719162220285784 H
   1.2109793948222771    0.0622743202621763    0.6674944312799573 H
   0.2026599549321385    0.2846924159782465    0.9113683577704349 H
   1.0575791089083590    0.0852225844676033    0.7786531667335908 H
   1.1339382553617696    0.1925194430543230    0.7665768268163404 H
   0.5170290444493205    0.0784429752060652   -0.0056906070701720 H
   0.4882569629969794    0.3204098240254318    0.8575635989136193 H
   0.4469883626204828    0.2931322329364596    0.7001766438991817 H
   0.3535464948563695    0.2926581399964059    0.8505487311594379 H
   0.4569887871386641    0.1445237498286936   -0.0963788656083812 H
   0.7009761983234599    0.0503938399720108    0.7416294500506959 H
   0.7642105899414720    0.0888047537126276    0.8393394063976012 H
   0.0563598580978691    0.4608512339983658    0.7274213295891336 H
   0.0736361049536443   -0.3924927946543558   -0.1011462436594189 H
   0.1545585869692466    0.5279285664203658    0.7645221857112496 H
   0.1767859425876015    0.3634078877814607    0.8171361044750873 H
   0.2994251345025987    0.6412335703423129    0.7491891150943776 H
   0.5651512733747824    0.5400977540694573    0.8093353786838394 H
   0.6000885716112784    0.4511319276334091   -0.0686295594201902 H
   0.6198350773732295    0.6558646720912766    0.8172156545217842 H
   0.6583371931750560    0.3939062625494772   -0.1580317588701328 H
   0.8437301722242404    0.4230128416305345    0.7802200615927722 H
   0.8491379755981607    0.3454870142098914    0.8877202984341733 H
  -0.1937296253420716    0.5961626535285878    0.6800303936892341 H
   0.0986576260393104   -0.2766015375365832   -0.0361742653180084 H
   0.2477340762882350   -0.1267344219026851    0.9264909020010991 H
   1.0815130517338842   -0.0741839068265916    0.8869810454749696 H
   0.3128066396465514    0.9523043184101725   -0.2246175585629177 H
   0.4469675016579128    0.6668153366000275    0.8200561536639414 H
   0.3936701493256577    0.9801161665178854   -0.1333961540046742 H
   0.3797534802573125    0.7811086357878732    0.8398617046839950 H
   0.6621812267009390   -0.1313165181354874    0.7265551179695451 H
   0.9712468176570508   -0.0221434227002206    0.9133611266169837 H
  -0.1068140294835171    0.6669525106994338    0.7403116512973331 H
   0.6856770893124939    0.8154430722129733    0.9330236482601478 H
  -0.0332992752765285    0.8997850886549961    0.7260392479697531 H
   0.7610108392211168    0.7178312665757445    0.9255668358020945 H
   0.1620797663204526    0.2873195807475790    0.0730176554962310 Cl
   0.8581402832918380    0.0391782128607225    1.0091506323416100 Cl
   0.6121173235670369    0.4498588557283921    0.1329767755919987 Cl
   0.3103723257835731    0.0869367793975535    0.1161081480131288 O
   0.2893083700008539    0.3218994866137221    0.2970451309931512 O
   0.5990294765884928    0.2118160685585351    0.2528265545312253 O
  -0.3889713857584476    0.0638041724550295    0.0903516910250690 O
   0.3920470059687674    1.1137927274832524    0.3049543341208040 O
   0.9072116860142357    0.2884314129217149    0.0463424356456132 O
   0.1679786046594825    0.5609089099811503    0.1304552801724544 O
   0.1054286130827099    0.6081601730064924    0.3218350147370523 O
   0.4633040423843801    0.4562546983866786    0.3208506833511562 O
  -0.1473821829244896    0.3987530807285025    1.2318264802269256 O
   1.1708140184278488    0.9128045952828641    0.1849631328763385 O
   0.5235208155321674    0.6953066377030457    0.2201869293107377 O
   0.3694481647477233    0.6870513239194725    0.0876840324389170 O
   0.6521430919811889   -0.1460759699189836    1.1361012573683169 O
  -0.1351833338893141    0.6703128750410321    0.0531078055260636 O
  -0.0390286584119127    0.9997376780470073    0.2502841671802252 O
   0.8747407954292874    0.8176859890664249    0.2111543830994255 O
   1.2737869390523180    0.0133133866456013    0.6619387845843775 O
   0.4119892838409910    0.1113990124790602    0.5206016541429093 O
   0.4621037346918898    0.3104450482194321    0.6231127370455115 O
   0.7360073708915209    0.2427147349967493    0.4107502714769108 O
   0.9186771919806038    0.2316830495287000    0.6188949774989251 O
   0.8681374984311623    0.0565437318766249    0.4343452974487079 O
   0.6703956318852410    0.3278260494582500    0.6216398558778808 O
   1.1823116181827862    0.4340830321089434    0.4285011813918737 O
   1.0273307131818319    0.4255164694916297    0.5848427362976986 O
   0.3667089598933370    0.4864787249558825    0.5606844317124213 O
   0.6053792326569208    0.6167098896817738    0.4274831015013184 O
   0.6750059046132151    0.5423888021858584    0.6004144570546613 O
  -0.0723396841471328    0.5297022034600586    0.3698213706834407 O
   0.1986955696991208    0.7883002486602598    1.3747112206677701 O
   0.1808730865618967    0.8053956710722433    0.6031987086890530 O
   0.3901663099586088    0.7284153312983624    0.4340897730562875 O
   0.5017179002676411    0.9060501747156030    0.4924562047928842 O
  -0.0399634702384638    0.8471214651109710    0.6654172911717604 O
   0.8053965488124026    0.7173363167550794    0.3871480136826868 O
   0.7963140066473022   -0.1146430464620288    0.5157290128987675 O
   0.2143926416883456    0.2953831716670694    0.8324611397337072 O
   1.0870171364735122    0.1423409970539291    0.7269030489818659 O
   0.4512873255993351    0.0737044523686767   -0.0560621787601472 O
   0.4313177680068276    0.2702201473970163    0.8389938859927560 O
   0.7374122764861403    0.1179159854824366    0.7715266074997034 O
   0.0993455563972925    0.4827533652035831    0.7958263343902195 O
   0.2488124275841622    0.6073355240346225    0.6987696526692192 O
   0.0594652530798306   -0.3464777028991027   -0.0351905767607725 O
   0.5609389636250672    0.6144284678179626    0.7770999319834381 O
   0.5874203509182775    0.4247744458544900   -0.1427010988607364 O
  -0.1432332584071986    0.5963399370137855    0.7422738857825234 O
   0.8114309834081377    0.3697178963541538    0.8259524995494150 O
   0.1783344678860683   -0.1417168818711811    0.9640722725466974 O
   1.0252205465834030   -0.0249514005807005    0.8549360367651457 O
   0.3429459164919430    0.9192381407637944   -0.1588240451938009 O
   0.3758765505981461    0.7012500464896059    0.8434133330314729 O
   0.6438195679157515   -0.0723573253976541    0.6745639394702541 O
   0.7120493577245687    0.7612183913739493    0.8843534833264962 O
