Li1 Co1 H90 C51 N3 Cl6 O45
1.0
  13.5781545753999993    0.0000000000000000    0.0000000000000000
   0.0000000000000000   12.8549828623000000    0.0000000000000000
   0.0000000000000000    0.0000000000000000   13.5666735507999991
Li Co H C N Cl O
1 1 90 51 3 6 45
direct
   0.6109708607036985    0.6263515492279226    0.7076728307385167 Li
   0.3465822075870253    0.4695977813244572    0.7840607526649560 Co
   0.1110914431945597    0.2149017591615619    0.2241548942718296 H
   0.1019849037665861    0.1688060150950482    0.9706842451901890 H
   0.2016825462173918    0.0806860998735258    1.0714480761234830 H
   0.2491175637246237    0.1995792961050255    1.1180401900733852 H
   0.0134640378915125    0.2379185148561752    0.3071737710644818 H
   0.6398731682905482    0.1031124230423782    0.1816293630250060 H
   0.4307949033293195    0.0216109530503329    0.3002951504762761 H
   0.3310646349426740    0.0950276203543251    1.0790453695656856 H
   0.9326544868360315   -0.0072432277738051    0.1862841518178178 H
   0.3095160512691537    0.3514939288134970    1.0541380111970551 H
   0.1840034132640148    0.5949449729357030    0.2426664327900679 H
   0.1599883677591735    0.4193539959442222    0.1698188039074726 H
   0.0857514753742372    0.5829437122842830    0.1598450988947194 H
   0.0342650973014346    0.4151556239527450    0.2664452905028325 H
   0.5357123272759410    0.6097470930192731    0.3095236470219615 H
   0.4187378156675982    0.5801576331129886    0.2778497073203122 H
   0.6456633513057303    0.3986670761055426    0.2408996032197797 H
   0.4579445426969461    0.6965367847637850    0.1537949791146087 H
   0.6672612789454192    0.6682333631336372    0.9872505758502753 H
   0.4326722571227564    0.3691119997534592    0.9954139623713191 H
   0.6678121638214504    0.4982027980669072    0.3175786797896333 H
   0.8224509984539647    0.4632768082924120    1.0310652956321154 H
   0.0974504142188276    0.8514899279407964    0.2166740626869924 H
   0.1322187619628798    0.8600928176672642    0.0549689850358362 H
   0.3433365529765053    0.8827315098473587    0.1441301191539835 H
   0.7332142768308937   -0.1677132977923130    0.1703215063550890 H
   0.7950024966763202    0.6966931443654687    0.9986586781695704 H
   0.6806541151360945    0.0108555905981995    0.2715784574312792 H
   0.9426956157127797    0.7567515674897968    0.2444325252599930 H
   0.2205407790190652    0.3194145394889578    0.3652867636892295 H
   0.2024860427411216    0.1757675179580702    0.3567695689939104 H
   0.2670124844703497    0.3065541567275902    0.5391663069071686 H
   0.1786904674141643    0.2602001470503353    0.6239198019842428 H
   0.2395521990589932    0.1717644009915811    0.5499074808179544 H
   0.1395901613267769    0.0856639361480232    0.4701855802392954 H
   0.4669711007111003    0.2039589207691012    0.2729737884185782 H
   0.4892892293137180   -0.0319674925514817    0.6777893078187740 H
   0.4576260899958822    0.0823220413777089    0.6139062935518836 H
   0.5807436308013677    0.2368978989486677    0.6559062722398356 H
   0.0625207779883439    0.1335830976590473    0.5655228782996390 H
   0.0185111155057384    0.1412649437616668    0.4371715183675414 H
   0.6135662060287433    0.1324037884244578    0.5084281898264780 H
   0.7231083379687299    0.0526642811081019    0.5473900619479480 H
   0.7180642062629320    0.2559535447339606    0.5881380019591825 H
   0.0986081562310213    0.4125014002664525    0.4972890922846867 H
   0.0109769547011958    0.3111088107965357    0.5522696663514974 H
   0.1293479741998195    0.6950758726644717    0.5333110764630546 H
   0.0698649276992823    0.7127483971970601    0.6823667010734630 H
   0.3098614590323336    0.4990118228716388    0.5992490528321588 H
   0.3564318524159552    0.5855128327843854    0.5152309627873235 H
   0.5232948077180570    0.4141311185029070    0.4680889719665680 H
   0.8206230622744072    0.3942073268694598    0.3617051930250534 H
   0.8207114395272462    0.5903036598636353    0.4319013981916355 H
   0.8954292514630493    0.6316918908476171    0.5344404616393565 H
   0.9879536068917391    0.6463795805958257    0.3678902021716066 H
  -0.0000908232627013    0.3270613797106034    0.4359101185162130 H
   0.2299367539500871    0.8164334829165384    0.6706785006161999 H
   0.2957505576623398    0.9175592497825870    0.4329001691836006 H
   0.4545795787950933    0.7517340578835289    0.5425745852759861 H
   0.6852953938643670    0.7542109184395532    0.4263620889631350 H
   0.5959990175956293   -0.0019767874583890    0.5232580594512347 H
   0.8248393937119444    0.8854565232040652    0.4997504893157984 H
   0.9318716116712974    0.9052690739268618    0.4322786461574568 H
   0.1519681320640152    0.2895024031509401    0.9734387892469963 H
   0.1430700156573208    0.2276859068932529    0.8569157525511821 H
   0.3211111468416580    0.1038094290279931    0.8344872627035689 H
   0.2069107971999380    0.0377494420877957    0.8812216370235446 H
   0.3283764935021480    0.0202223864383658    0.9386284875004675 H
   0.3531464280416576    0.2524731822566826    0.8546720190459851 H
   0.6378434373836742   -0.0153210292856634    0.7944708210926490 H
   0.4105224135390866    0.1895131605538461    0.9539970300705587 H
   0.6177309840687910    0.1934112598774133    0.7793912218648827 H
   0.4710287949797912    0.0807794488894563    0.7400875563050553 H
   0.7379638176938941    0.1467367519121301   -0.0170243445259564 H
   0.7530512877077612    0.2897443326838934    0.7175816709193195 H
   0.8701054861390807    0.1773964582860586    0.6851249306320856 H
   0.9689834295698027    0.3453033332403683    0.7598705929495962 H
   0.2740981307167333    0.4707014778561429    0.9661621344627306 H
   0.5984883102172671    0.4644982801658635    1.0092618668923887 H
   0.9042529836819374    0.5958913763755457    0.8994501290023625 H
   0.8381460620811013    0.5732902571743633    0.7881568193825579 H
   0.1717970416927060    0.7490813900141685   -0.0102916698096393 H
   0.0170830863952782    0.8540648049635478   -0.0807459338133336 H
   0.3424571993107551    0.7575675934707231    0.6912996203735557 H
   0.6589354052508587   -0.0845463257743732    0.6809470457741826 H
   0.5801478208218100   -0.0798788749778448    0.0122746578058687 H
   0.9741976874873161    0.9186366530081189    0.6973777499674633 H
   0.7443387635320291    0.0137704136206315    0.7173605408103972 H
   0.8630448801143349    0.8063307856674528    0.8920953415796110 H
   0.6957541052607804   -0.0517683746472870   -0.0271226195000691 H
   0.0897358165230716    0.2630752967409967    0.2868909803737769 C
   0.2626540129511626    0.1362007596474336    1.0622439038897789 C
   0.6433817452282647    0.0162885033253585    0.1988775115209356 C
   0.8061291928087766    0.0170936385877596    0.1086129381592667 C
   0.2192791937347854    0.5468779310252756    0.0980989385803804 C
   0.1587172082725029    0.6120497020788938    0.1671836701094833 C
   0.6303505192971233    0.4182089146821406    0.3179759768853301 C
   0.4613622383596598    0.3522469442086702    0.2831914736515088 C
   0.4963661409416127    0.5481365091325595    0.2709121187030604 C
   0.5243343451545782    0.5604234955635736    0.1640362515591577 C
   0.1237816802251632    0.7767959349354876    0.0515038762290257 C
   0.1624364176628197    0.7294532035978348    0.1524460854501834 C
   0.2695525940123700    0.7605617631566961    0.1617858841506930 C
   0.0198338283898986    0.7466550935084399    0.0190648263505057 C
   0.5447229037368733   -0.0207026000540606    0.2195833978200451 C
   0.6986344672262318   -0.0276306528530408    0.1123168674837132 C
   0.8208550525631101    0.7676391743811652    0.3190971065375655 C
   0.1719229792780018    0.2515490269989700    0.3640019977563917 C
   0.2066530302124903    0.2483105940546455    0.5515125168585479 C
   0.0832820676344883    0.1411280318716353    0.4858660636830395 C
   0.5008432294636521    0.0488486400819400    0.6712851342150097 C
   0.6414823707693287    0.0625203813734376    0.5489984149401753 C
   0.0594769181051402    0.3336502644183692    0.4906760858123146 C
   0.2482595678949764    0.6523772548693645    0.6148615756224274 C
   0.3307383755842759    0.5809177274752032    0.5919348059293762 C
   0.5187109742041300    0.4433330244113864    0.3276688466597522 C
   0.4282425682673231    0.5993505019516995    0.6439932561718348 C
   0.6780786546929385    0.3537280819281019    0.4023083665249801 C
   0.2824740848545694    0.7603330580676662    0.6367475596028181 C
   0.3197869610032839    0.8116143399691228    0.5431964031422754 C
   0.8388648637375269    0.6570960476246547    0.4786505145188726 C
   0.7459037773843902    0.6703298264497445    0.5354285446760572 C
   0.8949954664470301    0.8480764655916021    0.4816642967733729 C
   0.8870164734698635    0.7452408559170919    0.4157869837641499 C
   0.9460495324580277    0.8437909678519230    0.5806439025678101 C
   0.1606629807891795    0.2192393767684688    0.9353881943043945 C
   0.2764121417869067    0.0748945713435002    0.8975955844888686 C
   0.3476758760909106    0.2377676006137541    0.9394628851114671 C
   0.6068510077671774    0.0889202609870678   -0.0299095959728516 C
   0.6402657105885755   -0.0173140307757810    0.0152378012654259 C
   0.6303917620151148    0.1857084102462094    0.6981701328577679 C
   0.7310497706134399    0.2278422664949366    0.6610925103944235 C
   0.3515784682808686    0.3415600377015525    0.9872638436568107 C
   0.1845395685979060    0.6092313397062568    0.6988718524034141 C
   0.6593912845800877    0.4991796955186206    0.8798955934703746 C
   0.8511242616605393    0.5478257347003573    0.8633115724015744 C
   0.7521579409769782    0.5484642419693224    0.9306257888585739 C
   0.8940240531429058    0.4383022903611950    0.8596754563105309 C
   0.7383254279534279    0.6663710502658226    0.9463849946210944 C
   0.6666625230574336   -0.0077504240936945    0.7182148401311998 C
   0.7314784002897101    0.7465936387396190    0.8597646454544629 C
   0.1331511419803335    0.2458757405557899    0.4725970777871280 N
   0.6074895334189406    0.0766223060466818    0.6579576225502702 N
   0.2574574304842171    0.1714228991749684    0.9587004674873333 N
   1.0545421845205487    1.0074053438903587    1.2101740499558096 Cl
  -0.0917409803653899    0.4846264283533521    0.3165401053780621 Cl
   0.2954898447664641    0.0094250169290636    0.3382993080960042 Cl
   0.3916045260917468    0.3384935225282334    0.6886151008512406 Cl
   0.9949759161069213    1.2091107858792622    0.7286787168853973 Cl
   0.0710005753982661    0.9343418470299705    0.8106944000839059 Cl
   0.3783147966960506    0.3562150552941853    0.2509167971539543 O
   0.5027113036455408    0.0504604664236745    0.2813376662383779 O
   0.8366024060648433    0.0657720387616856    0.0331810354037343 O
   0.8541342435968214   -0.0088348284954213    0.1909765327291463 O
   0.2041254407812889    0.4433968129056056    0.1084684664881043 O
   0.0936251521251039    0.3702065169652451    0.2481335061829872 O
   0.2679831612973670    0.5809868057469918    0.0282852147921973 O
   0.5538930747868911    0.4866330432416262    0.1153478241766731 O
   0.5160441905997069    0.6569995869748596    0.1324139088829235 O
   0.7637257868965238    0.5101706086542854    1.0279458868955864 O
   0.1062704640521808    0.7740499180501969    0.2292681594904733 O
   0.2809908199610847    0.8541799354165289    0.1207574037412726 O
   0.3339626723586931    0.7126612714488582    0.2098123954071372 O
   0.5049709406109049   -0.1002904152195293    0.1915529452130701 O
  -0.0186669853323962    0.6659634262295924    0.0497665306732605 O
   0.7127777735889333   -0.1373663106217520    0.1069736269517903 O
   0.8740485845699235    0.7813669250822211    0.2369634872809650 O
   0.7301571603597640    0.7756251826940251    0.3218568102969143 O
   0.5089745259065450    0.2636346129281140    0.2969369212221113 O
   0.7710684636532482    0.3289213588530199    0.3896663581978994 O
   0.1833700429520005    0.6475262176748394    0.5339721080686594 O
   0.4935472306259689    0.4709686116233975    0.4220228528357552 O
   0.6250346275388448    0.3262554665397362    0.4755544718638532 O
   0.9820721007152896    0.7175442028904928    0.3863442468615252 O
   0.2658274928051973    0.8740484955488839    0.4967534488218446 O
   1.0077994554938905    0.7742568417021762    0.5990139178163382 O
   0.4165777283127865    0.8116120062437245    0.5190304203188243 O
   0.6749478905111096    0.7250782463845555    0.4926825245976272 O
   0.4975015603326934    0.6454476462534521    0.6015488059649494 O
   0.7335037123339420    0.6271590182157220    0.6176382326901269 O
   0.9275912067254517    0.9209322608915448    0.6366384687490833 O
   0.5196369468707529    0.0977005138438037   -0.0571380833848021 O
   0.8041340763259315    0.1539604099282238    0.6647146215785688 O
   0.6730389418497825    0.1624567261948375   -0.0550830475725521 O
   0.1023229467586961    0.6558770650582947    0.7206561165337008 O
   0.2034338887778221    0.5250531177987411    0.7425575796217160 O
   0.2965776214534933    0.4124267210537081    0.9266130144819995 O
   0.4372418029808077    0.5711327280436681    0.7374620048117860 O
   0.5991467207509191    0.4403341872746170    0.9361901594994190 O
   0.6468998963683723    0.5145874173430403    0.7911826163729764 O
   0.8996588394885124    0.3797312282240272    0.9319120289921379 O
   0.9454375199821161    0.4232287580138068    0.7772153015930886 O
   0.6607368282545646    0.7444520567324786    0.8038563200156692 O
  -0.0304395718876859    0.8099721751972109   -0.0391749475366907 O
   0.8069091220650827    0.8092596110422743    0.8416953671540688 O
