Li1 Co1 H90 C51 N3 Cl6 O45
1.0
  13.4965489539999997    0.0000000000000000    0.0000000000000000
   0.0000000000000000   13.1467404265999992    0.0000000000000000
   0.0000000000000000    0.0000000000000000   13.1899994032999999
Li Co H C N Cl O
1 1 90 51 3 6 45
direct
   0.8543114255576240    0.7373562874707956    0.4254080330205439 Li
   0.3026652213778944    0.1731289764187303    0.2714585188536238 Co
   0.0766111381897782    0.1067961842814833    0.0825858795283544 H
   0.0432855820396115    0.1264436399715171    0.3263364591679276 H
   0.0877784373648262    0.2940098905033020    0.3372636772513447 H
   0.6358896638133885    0.1030393595175237    1.0167428588620520 H
   0.5186814793069953   -0.0188456057289080    1.0994403607078138 H
   0.6674644020262781   -0.0157330471271419    1.1563850183256210 H
   0.4391900475597682    0.1389752633742778    0.9792136683848974 H
  -0.0884125287928771    0.1542459687723854    0.2971901348774340 H
   0.7420071613219297    0.0420333630518720    0.9540521812723985 H
  -0.0241183152900377    0.3284982872683746    0.2756988526315016 H
   0.1283502903523051    0.3701937936990712    0.0840331881609252 H
   0.1227207030956693    0.5503808912709548    0.1911878556316750 H
   0.3171555922620780    0.5157150543249472    0.1459187102933809 H
   0.4255040304431292    0.3313613543693149    0.2026791374252192 H
   0.4224995586971884    0.3721319166993889    0.0653205262074874 H
   0.5055894214333688    0.6331981497449307    1.0870271683342769 H
   0.6199011321720428    0.4502216154906433    0.3244418419480248 H
   0.3952511116124241    0.5419357560969644    0.3082121217293535 H
   0.7755364732625116    0.2543574760580266    1.0752940366435142 H
   0.8411302782431266    0.5388858746283327    0.2494122706993406 H
   0.1725904884974050   -0.1520337529944611    0.2893068896383185 H
   0.2150717184736112    0.7582580464683348    0.1532871715819906 H
   0.2125933071320152    0.8693099081941525    0.0795138551285760 H
   0.0086745120844616    0.8444535567795600    0.2665714829994848 H
   0.5147927074306523   -0.1498362501106628    1.0802402082091989 H
   0.3743316898430301   -0.0872093195344629    0.9857284526068362 H
   0.6703288379744426   -0.1491714465383404    1.1371431675688650 H
   0.6324250744461827   -0.2253310090998827    0.9553349713228491 H
   0.7447234112407014   -0.1431220382881337    0.9194236732615699 H
  -0.0053135081600801    0.7182709483024395    0.0126965662832480 H
   0.7725675661636251   -0.0670385402085505    1.0864449090205972 H
  -0.0913710628697061    0.7568698696725814    0.1070999064144438 H
   0.1047598154031043    0.2153888813055634    0.4879436461604226 H
   0.2718143719185890    0.3032380334545792    0.6039490570186811 H
   0.3571309964812505    0.0740732441426813    0.5813076609982017 H
   0.5160138344058645    0.0337948190108826    0.3731196303518183 H
   0.4792458426998863    0.1226282455564490    0.5350015937024603 H
   0.0313529020227492    0.2877163152660066    0.5594316175521491 H
  -0.1383719667423954    0.2863897507006400    0.5192732381766749 H
   0.0029160029822539    0.1445979498806940    0.5402935575506570 H
  -0.0518550353416515    0.0861735819327339    0.4028527628568798 H
  -0.1659271589080030    0.3241732608241805    0.3859922617150556 H
  -0.1797425424283020    0.2042066418127571    0.4282441210942584 H
   0.1729928135672066    0.3883945029422431    0.5970127413144430 H
   0.1102960454612226    0.5593661603313366    0.4935770277647774 H
   0.1537716036946551    0.4733432403296767    0.3771234212835137 H
   0.2953070440883906    0.4285649165096599    0.5956746063031871 H
   0.5419497978282960    0.4383308353483879    0.6001219150714744 H
   0.6658313919823685    0.4359553415768054    0.4487675488612280 H
   0.4709071184538897    0.6941356881768191    0.4122915047546885 H
   0.6796808582894278    0.6322191998621171    0.5040843822962208 H
  -0.0149085535632697    0.4854040245891106    0.3474994623997672 H
  -0.0198201795074969    0.4306140936536379    0.4740385128551010 H
   0.2860357851594245   -0.0919215141918287    0.5265949974161664 H
   0.3574503373745922   -0.1713206630400088    0.4414017410981365 H
   0.5865785397424640    0.7107740329605512    0.3598732309656071 H
   0.6165128586099743    0.0317836741078841   -0.4570767680847390 H
   0.9297840521877160    0.8881815061682037    0.4931276721720457 H
   0.2264857473875984    0.2329863992067997    0.7536427711447038 H
   0.2191120105650083    0.3183322692545417   -0.0010130628434037 H
   0.1096477315826287    0.2996219279822439    0.7513160083404293 H
   0.1869519375360167    0.2912335369117951    0.8646010779080716 H
   0.6187504676538070    0.0435455249532187    0.8961681756211942 H
   0.3685005695864199    0.2814988045106703    0.7767003915964462 H
   0.4048572709678181    0.0487901709842982    0.8630620331075902 H
   0.3510479599746725    0.5613252771286750    0.6904464074063208 H
   0.2646740280922927    0.6456346925452424    0.7368186612099846 H
   0.1562507559663981    0.4967894323132296    0.7395199501873809 H
   0.2073786407576794    0.4867445850191576    0.8623561953197834 H
   0.2976624610255905    0.6500258950887410   -0.0689410416555815 H
   0.3498795131329096    0.3800768518400163    0.8608262483210783 H
   0.4112885446434694    0.4060802556425519    0.7417390556706365 H
   0.5256611153844151    0.5360557434480806    0.8542978173964753 H
   0.5749182256476257    0.4272581287096027    0.9212841737248118 H
   0.4155044371796971    0.6365214069617234    0.8191643813870650 H
   0.6455417608378942    0.6484658125637598    0.7829263206119892 H
   0.8198307593083397    0.4254926720833321    0.6897481511199941 H
   0.9130857094655783    0.3664788044001891    0.8317026685350253 H
   0.7691844791125855    0.5403321646883028    0.9427739396704482 H
   0.8369892196517423    0.5154459024374695    0.8342735556869623 H
   1.1097359797714108    0.7859181346879396    0.6272098617100929 H
   0.0069540722832101    0.9576222930382993   -0.0684732630142529 H
   1.1907900331985857    0.9862103679378049    0.7482599050937594 H
   1.0340558927001688    0.7145650867413924    0.6998618740945853 H
   0.4819880992668165   -0.2168444948477066    0.6328080424030751 H
   0.6212748166645148   -0.1267826269185008    0.8587337539125423 H
   0.4722933987588602   -0.1164272083445898    0.8974979709808220 H
   0.9659436661500216    0.8156167510240481    0.7961499754937598 H
   0.7947695380174146    0.6807833290137199    0.7359407233385770 H
   0.8978195847175230    0.9273174427809768    0.7658429233266471 H
   0.1627835370721836    0.2222886904640728    0.1105494895879364 C
   0.1992084040271025    0.3238903009512927    0.0806146891435015 C
   0.3990031818766520    0.2219349906229630    0.0956980863383661 C
   0.6579997603289544    0.0387527019449763    0.9662705290578943 C
   0.3921310547635569    0.3304896554060637    0.1294789824837080 C
   0.2488255322487233    0.3938932043430660    0.2499217475988103 C
   0.2808907662189035    0.3797170668403497    0.1385927054130605 C
   0.4829210785078741    0.6445522949669645    0.2632485109007117 C
   0.7306064691505878    0.5493548574738085    0.3456184918825288 C
   0.0107557848672847    0.6398537919163514    0.1598254584585179 C
   0.1704995836226713    0.7950390267196545    0.0911029382912148 C
   0.0603655037874358    0.8160236960025292    0.1186609380216059 C
   0.0253269171374874    0.9184825532014281    0.0737299276493289 C
   0.1865199752603365    0.7327057050438166   -0.0065286051702516 C
   0.5284283412972978   -0.0771786962985172    1.0406685612332778 C
   0.6971445818533797   -0.0760088245659864    1.1052576467935740 C
  -0.0136460085928422    0.7287838203540058    0.0983091554481481 C
   0.6598187438397520   -0.1480342825330519    0.9289991096310668 C
   0.3633029446054644    0.1444313686652035    0.4340943108964424 C
   0.4078498878314075    0.0841244047887559    0.5182059902133066 C
   0.0283965907363611    0.2211233826004595    0.5056972709211192 C
  -0.0315046479251262    0.1454270527340481    0.3524448758153038 C
   0.0175256636200988    0.3259082916576674    0.3522644360800750 C
  -0.1329127934195614    0.2664715054548318    0.4409505659450495 C
   0.2446644685433710    0.3746367200903019    0.6300400362126528 C
   0.4753444009180304    0.5092117814812078    0.4673999985290053 C
   0.6419438040442349    0.4997162414500516    0.3894956735490576 C
   0.5253330315153392    0.6571143441625088    0.3687602670007014 C
   0.5626433840888952    0.5733970907379929    0.4341329007389766 C
   0.0220453375165819    0.4314439571518116    0.4025373723953033 C
   0.2715557872972984   -0.0768014164680001    0.3665623897215904 C
   1.0361438338543145    0.7532522429106070    0.6270529246294527 C
   1.0360564040969726    0.6778586496823927    0.5343354829824096 C
   0.3325565662968809   -0.0925536100369088    0.4572455628914653 C
   0.4821682934785582   -0.0863505515331447    0.5591841573438353 C
   0.4239206627190662   -0.0263022068953580    0.4755974970044752 C
   0.8580420088475900    0.7683016006662136    0.6348482244513977 C
   0.9545703883941175    0.8370684562261517    0.6382235089103843 C
   0.1861295050728862    0.2979081952037055    0.7831909150136482 C
   0.2248008722334013    0.4882881615515535    0.7817822720386264 C
   0.3007921499663684    0.5724285616892079    0.7586374643198617 C
   0.3562389165843053    0.3629699498474162    0.7815715062974767 C
   0.5871431285144508    0.5692075351361681    0.9929202649109570 C
   0.5899757044662959    0.5064719844797305    0.8943061588576562 C
   0.6763177763523561    0.4369495043560108    0.7276632400224909 C
   0.6853860204210540    0.5067248228177624    0.8249930397250453 C
   0.7817632502176007    0.4821536371460346    0.8843690848675537 C
   0.8013964172518645    0.3772442105318596    0.9274160921220003 C
   1.0541299131718764    0.9442524390443494    0.7768186630195373 C
   0.4498310640514274   -0.0650722733499079    0.9598072990460209 C
   0.9628799199923237    0.8810793654876831    0.7465252575550888 C
   0.6354821522325581   -0.0647543238153189    1.0113895606668803 N
  -0.0278229660248599    0.2414120618734085    0.4145783888611770 N
   0.2518633458512775    0.3814505763841975    0.7464653636933952 N
   0.7861680799413043    0.1976567292712596    0.1620589687945858 Cl
   0.8733207294081438    0.8855382654201251    0.3548209183791995 Cl
   0.6715232173713492    0.1042845350871940    0.5000653525465502 Cl
   1.3011493557984986    1.0541625728959609    0.7558611184778113 Cl
  -0.0387531675528793    1.4332101419737937    0.7133751423328999 Cl
   0.5117540047119218    1.7270472357817719    0.7611545228112893 Cl
   0.1908144063921423    0.1757326636361901    0.1888065060167431 O
   0.0965495684445913    0.1815675700472721    0.0498224208816557 O
   0.2737556089036359    0.3269754763395535    0.3160225845542590 O
   0.2509423696786007    0.0009045370117706    0.3153031000637878 O
   0.3853485801982443    0.1457739067717816    0.1522318265759462 O
   0.4375964549996771    0.2126490386653969    0.0058239351914437 O
   0.2868359897181461    0.4750686109739548    0.0924812552603158 O
   0.1014434120652914    0.6057799465779558    0.1462272774036252 O
   0.2006065392144244    0.4762257799379985    0.2686654937083169 O
   0.2795600556749553    0.6961217318007711   -0.0066264065393462 O
   0.4142411512791227    0.5744187127951855    0.2405222020636542 O
   0.5013340891854183    0.6028856930394123    1.0189672713963436 O
  -0.0460172467137187    0.5989098025674104    0.2236624590719780 O
   0.7820640678572682    0.4969031487137585    0.2777382765296763 O
   0.0398498889481374    1.0033613873299412    0.1043463050768340 O
   0.0712512495066374    0.8264726738892499    0.2280066594201345 O
   0.5132471271440845    0.6964328355319838    0.1874494172517868 O
   0.2718143719185890    0.1660739957170244    0.4294395722476568 O
   0.4213592672010101    0.1667197831688571    0.3584342619846645 O
   1.1183018732004666    0.6252821191074478    0.5362232010359654 O
   0.1143207780195334    0.4649335512042793    0.4365317636223278 O
   0.3926852705134862    0.5049420234896053    0.4277077298645340 O
   0.6105135472100033    0.6144520581661120    0.5219670972826207 O
   0.4934907434263807    0.4409453237222859    0.5416589101522269 O
   0.7573066279265984    0.6341246151351924    0.3790324433562289 O
   0.7523920382617832    0.4248187407731746    0.6623038739118061 O
   0.9617299964042348    0.6620273490522466    0.4855154186055384 O
   0.2340906544160415   -0.1632433757007727    0.3377716378505183 O
   0.4488353280269219   -0.1802841015940684    0.5777648253565029 O
   0.5581131889843253   -0.0551085868580863    0.5973774115356408 O
   0.4795185049939693   -0.0312813878844002    0.3847633003251146 O
   0.9463297632995789    0.9081849436338060    0.5670195633086107 O
   0.8004280215497819    0.7531700932700912    0.5660430659179605 O
   0.4532858731406932    0.0373576793458465    0.9184653714744723 O
   0.3562278026321009    0.5957196581940462    0.8464790149199416 O
   0.5917331907748956    0.4019940716717094    0.7084676364247642 O
   0.6640368591664206    0.5838529904925719    1.0424320184775728 O
   0.7486533047402008    0.3479677520706241    0.9953448290843261 O
   0.8827438790172375    0.3319812798972815    0.8943508897163894 O
   0.7063647166022052    0.6140610867288423    0.8019278377718226 O
   1.0493279448894000    1.0096587657913347    0.8475025176197690 O
   1.1326159027096727    0.9304900923234906    0.7227375385108028 O
   0.1228911170294711    0.7176472195503749   -0.0698379332806895 O
  -0.0229320861247476    0.9031730549175213   -0.0154308042083064 O
   0.8585206497225290    0.7176700388949626    0.7220127469692955 O
