Li1 Co1 H90 C51 N3 Cl6 O45
1.0
  14.2728457275000000    0.0000000000000000    0.0000000000000000
   0.0000000000000000   13.9293010984999999    0.0000000000000000
   0.0000000000000000    0.0000000000000000   14.3964149089000006
Li Co H C N Cl O
1 1 90 51 3 6 45
direct
   0.6422956944554419    0.7092088812958327    0.3452024330951797 Li
   0.7275169616941409    0.7056178899283343    0.6155155648453776 Co
   0.1629084628806726    0.2118213992529555    0.1483041068148219 H
   0.3271013676974531    0.1297749281544831    0.1418511113581149 H
   0.3402984556220482    0.3265823616800037    0.0872312629461410 H
   0.3626548942813128    0.0771362498162743    0.0420533485753960 H
   0.5153550033983578    0.0698271968149745    0.0902848009469681 H
   0.6259976131588858    0.3208383548964461    0.0333088103833095 H
   0.6898223063835046    0.2640006144813684    0.2232679090412236 H
   0.9558680601524073    1.0099246150128010    0.2101160235754228 H
   0.2052686208718079    0.3974954672992346    1.0468882391742331 H
   0.1607918562433716    0.5638354712675249    0.1660140715257154 H
   0.3934217089995518    0.6201893395950987    0.1593895055762413 H
   0.5585550009161619    0.5017005519431661    0.1709958673723787 H
  -0.0264406025823486    0.5581187451061114    1.0643279977244529 H
   0.7314825338778960    0.3890521147456263    0.0181703192117840 H
   0.7923330479646985    0.4057845407555069    0.2267666967823896 H
   0.6875382489066422    0.5828823709018914    0.1096569850473018 H
   0.7168421458298846    0.5122121346108540    0.2461576355519732 H
   0.1658721325515707    0.7047456279308312    0.1472378691370990 H
   0.2773369399469676    0.8338633767167826    0.2726677078453231 H
   0.3925171942134691    0.7383503290346366    0.1776419664606211 H
   0.6348332723124784    0.9198160021596290    0.0212745642813237 H
   0.7422379223218575    0.9936129567039382    0.1541979352809315 H
   0.6803224489206896    0.8906099424210102    0.1791888793650438 H
   0.9543771171122959    0.7412384854263691    0.2267743375735655 H
   0.9169080650248345    0.8682707024405126    0.1119249107917741 H
   0.2669101475019779    0.0623745615918635    0.3545096113647617 H
   0.1406403037435199    0.1528076702663288    0.4473770376274960 H
   0.2467214615523490    0.1834567313341504    0.4670904872464390 H
   0.5634721002346798    0.2209395882490766    0.6592333934841529 H
   0.4838244236813146    1.0540101003977158    0.6077400178978666 H
   0.6584893817139452    0.3123519276762944    0.4420793297965797 H
   0.5095605877941415    0.3016141312181428    0.5377513431912838 H
  -0.1992092324042813    0.0040428481588401    0.6148772114735032 H
   0.7765646438008136    0.3064664924042528    0.4920523963240829 H
  -0.0640476790020009    0.1146916157532152    0.6345911473246120 H
  -0.0915474507709731    0.2146571481337269    0.3522534941157429 H
   0.6953762093341452    0.1626940241491399    0.4812019866221903 H
   0.0891327057468890    0.3656604170792525    0.3347567769403940 H
   0.2267871047021376    0.4348246194457119    0.4189659364895910 H
   0.1368288704078967    0.4163320189786476    0.6623494470491461 H
   0.0600123741791491    0.4206482441485145    0.4394634007449156 H
   0.3499601588754018    0.6115105121977200    0.3744298485776187 H
   0.4539886076057918    0.4007710085254138    0.6037994535032596 H
   0.5264756238429678    0.4262674061902073    0.5095494399696003 H
   0.7431319276410220    0.3646976982820083    0.6326385778704889 H
   0.6947120110249227    0.4423178166464846    0.5559896338811193 H
   0.2567110601735466    0.7656158750454768    0.3683533357406680 H
   0.2562059051303510    0.8981458553327717    0.6172666952594097 H
   0.1573496555121369    0.8769610164156363    0.3886007377393279 H
   0.3213197596302542    0.7657537139784156    0.5611903731258402 H
   0.4405987059948063    0.7425422120004148    0.5923202066875933 H
   0.3416016295198900    0.6952469460469104    0.6635323804466459 H
   0.4267710500551264    0.9058971415772500    0.5564794780572302 H
   0.5106038765877217    0.8794909351639498    0.6362665644442650 H
   0.7607563036626397    0.9566929420985119    0.3417467116315503 H
   0.8777624026483755    0.9212030064223253    0.3597567510504414 H
  -0.0258247478209492   -0.0427649561516153    0.6238669496005970 H
   0.2541390433031289    0.2724489924127401   -0.1032279602251024 H
   0.2276727024477677    0.1155193672619568   -0.1202884576860474 H
   0.0246466167375591    0.1417985034089541    0.8236847527275145 H
   0.0122377388318198    0.2278006647183254    0.7328565841678802 H
   0.1208411687009878    0.1585724964720490    0.6691296072916560 H
   0.3723215019525615    0.2973203048748784   -0.0743492426672346 H
   0.4836287374072999    1.0672555603598002    0.7867776474959525 H
   0.3819740970012527    1.0551077864834626    0.6782881374419986 H
   0.6326381949888557    0.2768591203556716    0.7432841802707957 H
   0.5145960167038456    0.3033967045019290    0.7445372700236375 H
  -0.1433156835471723    0.0828615909109964    0.8634015852596555 H
   0.7910508930006930    0.2518743779383024   -0.0436200644100485 H
  -0.1327151345824704    0.1638721162791009    0.7214224874818896 H
  -0.2358732593258179    0.0732825029828613    0.7029769229659742 H
   0.1580621973691826    0.5728703825749955    0.8416621451295632 H
   0.1917828729225295    0.6157124459190251    0.9549063111470435 H
   0.6067449703960938    0.5225909755144776    0.6791473791405933 H
   0.6457021629991552    0.4343166973360547    0.7612824111942332 H
   0.5249280698077243    0.4410713075878305    0.7415080436310971 H
  -0.0646376104116690    0.5634061604243094    0.8524835892867255 H
  -0.0942098490568863    0.3772144784684008    0.7990800159064730 H
  -0.0618007549749157    0.4539495560176328    0.9177859583799368 H
   0.2938991591787314    0.9632022421243233    0.7233451883886889 H
   0.2334311896877469    0.8464569733918441    0.7299558619905704 H
   0.0122174205291115    0.7052589343738063    0.9623748372127607 H
   0.0292988074266285   -0.0481421103584453    0.7393054119203095 H
   0.3574337911164114    0.7690209274357298    0.8119825337329889 H
   0.4309412065282200    0.8851976105698365    0.8189613545460712 H
   0.4715642197009097    0.7738653915996401    0.7651958855110348 H
  -0.0547615140331867   -0.0159545657839166    0.8703345613256827 H
  -0.0563862776187216   -0.1295862540364196    0.7240453627073499 H
  -0.1763651544800179   -0.0392931380282202    0.8528649342281391 H
  -0.2448483440738570   -0.0547698657172509    0.7232694750943098 H
   0.2859806261715233    0.2154044935982543    0.0229701253049859 C
   0.1846455436228984    0.1710196392808631    0.0175465528048817 C
   0.2070503258299861    0.1888963438074681    0.3271354350511594 C
   0.3557880085970403    0.1476695804588146    0.0708751075081346 C
   0.4524848430160404    0.1923710335752995    0.0878348854490342 C
   0.7525708301957122    0.2583197838754078    0.0850869790952417 C
   0.8699910021780203    1.0563648488354198    0.2977941023184620 C
   0.2346180588183619    0.5863606502252680    0.2764325340428853 C
   0.6075436898818676    0.3700590584444390    0.2359412031324634 C
   0.6638064713433651    0.4109840837539563    0.1504859000042209 C
   0.4418661477051266    0.6596866550820364    0.2915064257981057 C
   0.6917315262069555    0.3436176743867950    0.0671561260576277 C
   0.7999643222094793    0.5179711457365909    0.1170366000884272 C
   0.7493941686619411    0.4635611653190081    0.1966432248802356 C
   0.2702017125407201    0.6790515893377146    0.2306037631874326 C
   0.2386368789678351    0.7640630333165885    0.2930283324768618 C
   0.1322236220043947    0.7802677228702021    0.2962735848744651 C
   0.3723495271976764    0.6709528341164531    0.2127284795401886 C
   0.8310450196730048    0.9511930250920334    0.3119948600274952 C
   0.7469790931641666    0.9172731610113524    0.1560428390412129 C
   0.7647323853133129    0.8817631238241124    0.0578142169190646 C
   0.8317281350226799    0.8906034812210287    0.2190981209113407 C
   0.8183166539729559    0.7826411369967414    0.2488888710886548 C
   0.1888549354391528    0.2072490233993774    0.4267136987419172 C
   0.1649837322814292    0.3121552200324130    0.4528458297190137 C
   0.1688070763462261    0.3189114814797396    0.5629264998044724 C
   0.4500191819508336    1.0155329365967471    0.6653356071641496 C
  -0.0137640835857623    0.2979685786063561    0.4203628120400150 C
   0.6992030565545816    0.2972011316307752    0.5077531594258926 C
   0.0771343976820827    0.3555945854191774    0.4083035597123627 C
   0.5147163080621898    0.3744591356318436    0.5650704363466819 C
   0.6869392092923118    0.3741346398105503    0.5854733631766396 C
   0.3698924138322296    0.7541953451226130    0.6200500270995630 C
   0.4409581297634046    0.9143096239531689    0.6303373104917944 C
   0.3195233414183906    0.2416800401897063   -0.0775771296303473 C
   0.0097518995901303    0.1522871847122632    0.7499670940801583 C
   0.3521454273632343    0.1626157718382528   -0.1366015468465170 C
   0.5718873106484363    0.2873140598368550    0.6994211765996791 C
  -0.1216346532951763    0.0112872891603248    0.8406924592676080 C
  -0.0789557081408593    0.1129693470025897    0.7082365657644872 C
  -0.2013811889006841    0.0011884335892332    0.6884642820534901 C
   0.0567565413279284    0.5455208409643956    0.9454136700371019 C
   0.1326348924764555    0.6119498737964624    0.9010963865997111 C
   0.1044456996776574    0.4508583025731483    0.9819491549705650 C
   0.0191950059315878    0.4573868426166823    0.7931479834844841 C
   0.5923827329058476    0.4507818450400338    0.7076475302265660 C
  -0.0177779993173404    0.5080427222627891    0.8773036574954503 C
   0.1017966133831737    0.7077551112999941    0.8695156074351059 C
   0.2820809133137883    0.8928634653923372    0.6914747537767805 C
   0.4096027848977534    0.8159658527680149    0.7773162641680940 C
  -0.0377326744702601   -0.0580593344189458    0.6996941612298713 C
   0.5927883983288854    0.3709894712417756    0.6401564217701594 N
  -0.1089097907507667    0.0149471999942927    0.7378272661364695 N
   0.3734908553049797    0.8460061252153569    0.6818473568951919 N
   0.5065412669927564   -0.0655342248864375    1.0836022407742596 Cl
   0.8559608638423855    0.6413081306902011    0.5931572206300403 Cl
   0.2694667504875825    0.9322782211017333    0.4405067160491110 Cl
   0.6242838694201112    0.7321978308300260    0.5046670647084825 Cl
   0.7832991102019182    0.2976562872739167    0.8300314717251389 Cl
   0.6909173928363684    1.7041762455588143    0.7520676170361412 Cl
   0.1343318210681613    0.1750047638472333    0.0939266798683367 O
   0.2754844712448742    0.2995049083797360    0.0805483491367785 O
   0.1820146737377394    0.2429600756971532    0.2662411078490419 O
   0.2468293587460413    0.1064277409768708    0.3009636414216864 O
   0.4640644539188305    0.2805520551006560    0.0828760119758985 O
   0.5283863850549000    0.1417224048313941    0.0996058715641425 O
   0.6352837781277000    0.2860067437072640    0.2691578062260831 O
   0.7920506936201661    0.2111357941438069    0.0155696717424718 O
   0.7679314670431759    0.2257919494351865    0.1652791663380732 O
   0.9423725033673388    1.0711294087042669    0.2411779235574487 O
   0.1860699267058620    0.4618004883240481    1.0319011745914657 O
   0.0175050836511608    0.5970848063723475    1.0221806989810074 O
   0.1771852233733184    0.5308781824018662    0.2233332030749082 O
   0.5484035565044260    0.4219074602337988    0.2727788466260630 O
   0.6034372908414104    0.4873157670510097    0.1171769127991112 O
   0.7524356083880330    0.5929202040287131    0.0856412837641816 O
   0.8816733256041565    0.4971520107384086    0.0935203287012567 O
   0.2329932952328269    0.6929711678312027    0.1424408415134157 O
   0.0795487725487293    0.7415773394698436    0.2410973479414124 O
   0.5263469879678905    0.6772690160539284    0.2736603160808058 O
   0.8339477344357782    0.8406160486085640    0.0302594400867601 O
   0.9243522707584734    0.9035545976284002    0.1739424342967437 O
   0.8908901280913114    0.7230566686784152    0.2442745278358125 O
   0.7415723227503792    0.7566161413823500    0.2857869462942816 O
   0.1900915493798467    0.2485863450588256    0.6092633138113821 O
  -0.0423484323406802    0.2648642615455629    0.3387841685074539 O
   0.8409960835821695    1.1210658696279885    0.3459213620830905 O
  -0.0542556583588632    0.2821910461626310    0.4944348644744553 O
   0.6882227655185731    0.1985558377798175    0.5397386435143882 O
   0.2559936138986058    0.5655297414848972    0.3556084960593268 O
   0.2432708532475799    0.3688314304479531    0.4319948746791984 O
   0.1483927871734225    0.4078807694028397    0.5908003838609761 O
   0.4191215594010210    0.6373890539458640    0.3768901833362469 O
   0.0990228147479288    0.8472222666340978    0.3524299269301674 O
   0.1583431504514593    0.1300707075314142   -0.0540886429383618 O
   0.2897135888208247    0.0986333800658491   -0.1545115613627422 O
   0.0870322136255291    0.1033766187633825    0.6999560319819895 O
   0.4358239048583593    0.1559090462574510   -0.1600823927473267 O
   0.5099862001853898    1.0190104980090147    0.7464495516697424 O
   0.0976432720571491    0.4651425942682589    0.7614532870696207 O
   0.0656881869460394    0.3723850904377806    0.9735456739118739 O
  -0.0406171728237087    0.3959225240592928    0.7533797492662510 O
   0.1314907618446407    0.7338475905586369    0.7912954389330270 O
   0.0395756648102536    0.7555249164965847    0.9209117365882449 O
   0.6978508384777887    0.8980259641775593   -0.0063378657934895 O
