Li1 Co1 H90 C51 N3 Cl6 O45
1.0
  15.1425848860999999    0.0000000000000000    0.0000000000000000
   0.0000000000000000   14.7781058042000009    0.0000000000000000
   0.0000000000000000    0.0000000000000000   15.2736839572999994
Li Co H C N Cl O
1 1 90 51 3 6 45
direct
   0.8354819891360292    0.0251626566372476    0.5664875614022798 Li
   0.7888651132651220    0.0842148796733000    0.7615302248702632 Co
   0.0785478140123761    0.0852454583010205    1.0992725805731571 H
   0.1686526415740467    0.2084845272405862    0.1450921719210268 H
   0.3100413157075695    0.2472641927534103    0.1322570235345562 H
   0.5199372630578500    0.1991430052736257    0.0300976489945170 H
  -0.0817312940960341    0.0498958670258293    0.9870010418406552 H
   0.7253825568039456    0.1991402985667900    0.1318105038855268 H
   0.8450147076966831    0.9745881233308485    0.2504184314205314 H
   0.0239342849339208    0.2759952091384283    0.3245904519472848 H
   0.8201431284496209    0.3909192746785003    0.0403427215282596 H
   0.2965376766962604    0.3637249910994922    0.1054612615465395 H
   0.0266933911442714    0.5417099124993962    0.1175100901405110 H
   0.2144750691991302    0.5694827546645506    0.2298700161935686 H
   0.1356965773516107    0.6381437869675961    0.2919022019222228 H
   0.5276109066843530    0.5240170495936717    0.0111670490941696 H
   0.5088229651182369    0.3193099619545894    0.0614188417949844 H
   0.3469233939129002    0.5903318407437985    0.0738978220156602 H
   0.7602042206061423    0.6269935081576306    0.0530246652257670 H
   0.7360689753525080    0.4253061579998780    0.2728098859613033 H
   0.8207493657643893    0.4972398695380562    0.1616310763992267 H
  -0.0034896986939467    0.0190515892787818    1.1382055584757009 H
   0.1467871541100187    0.7729513209232541    0.1536225304359893 H
   0.1606084403418110    0.8289172214898168    0.2834923120515733 H
   0.3224282365279492    0.6679466592595801    0.3258579915961425 H
   0.4696484117337267    0.9537897880047714    1.0252445986428647 H
   0.4430047440221231    0.8441641010957244    0.9981319517426336 H
   0.3437924885650611    0.7870498801540852    0.2882174327363905 H
   0.5832885869708885    0.8723395659027000    1.0751808158732510 H
   0.6251592454330379    1.0029977182791185    0.3245249798579843 H
  -0.0839515226932574   -0.1985689936707592    1.0611239583004333 H
  -0.1118899495326766   -0.0871819172883331    1.0695102782189347 H
  -0.0585304996053596   -0.1786943220523894    1.1977046290693187 H
   0.8417180446516686    0.8261394635996051    0.3007658133717249 H
   0.7745141948694472    0.7563957485622506    0.2244410705487709 H
   0.0605396600511384    0.0793671677304312    0.3492498596614261 H
   0.1652569201442662    0.1072015874760995    0.3865224653793093 H
   0.1336579557931253    0.2085569316484431    0.5521940876987299 H
   0.1462383706584147    0.2916568915669179    0.4743035798601544 H
   0.1008742531601822    0.0087667799795546    0.5677509763095117 H
   0.7293013065052909    1.0194693827282133    0.3727824927187058 H
  -0.0631697339585700    0.2496582749496512    0.4621327112917268 H
   0.0341359777863613    0.3947418214073203    0.6553187827234158 H
   0.5967195831667025    0.5473716665231236    0.5117742713842163 H
   0.6977809284727310    0.6018881255791300    0.4923901790573290 H
   0.6566657552917307    0.5359371158277310    0.4073255670336510 H
   0.8590479788718746    0.4215413994620018    0.3414121958512630 H
   0.6112296553672348    0.3855823254750655    0.5667478129572493 H
   0.7928234863203738    0.5308121694372082    0.6116207461615814 H
   0.6833923678908450    0.4980147320374670    0.6540924904908174 H
   0.8247665134612688    0.5273437276301781    0.4484081900441982 H
   0.6295534753812603    0.3677241504493464    0.4533701887481048 H
   0.7922410230179493    0.3322744110212317    0.3941944848035421 H
   0.6982980132412098    0.3214529970918125    0.5353668441392505 H
   0.7643263701908739    0.4143274844033005    0.6357393544181005 H
   0.8468241741917431    0.4227078547728780    0.5121659869661758 H
   0.0325001936592578    0.7739771628140121    0.6075012423027937 H
   0.1400485423889996    0.7182284754710201    0.5826336333446768 H
   0.2217479358086542    0.8356636882779803    0.5228804001003945 H
   0.6876531992142491    0.7822759259724910    0.5489014308557183 H
   0.6298731037694387    0.8267660662320865    0.4045397296339145 H
   0.7213244649746959    0.7626604215336464    0.3713303217780206 H
   0.1593120962798391    0.0623122079582275    0.9767134124488671 H
   0.0136196655228470    0.1171866289932649    0.9777792980626793 H
   0.1387178580869755   -0.0190933534810536    0.9007206131186668 H
   0.3611917636546034    0.3406246016095903   -0.1131840901142750 H
  -0.0128546783897299    0.0369503649070376    0.8922413228333588 H
   0.0320841484432403    0.6485896453235518    0.8192006600097179 H
   0.2002509455359559    0.6075464962193128    0.7621587569275480 H
   0.2443292851999250    0.4253169171595502   -0.0681098302353440 H
   0.4659485810627145    0.3769607875264206   -0.0732284381768573 H
   0.7345580047902097    0.3978673911259288   -0.0342771280893093 H
  -0.0547061855641579    0.5181541872520463    0.7206193351499511 H
   0.8911356312545282    0.5737173975091170   -0.0973562125258785 H
   0.7553213026264074    0.5644259496186183   -0.0428762322980373 H
   0.1863299405301658   -0.0526964421704624    1.0017721999077416 H
   0.0552235267353599    0.8650131871749722    0.7338584463274057 H
   0.0824368461982916   -0.1556264130445168    1.0311514905395562 H
   0.1089072277754778   -0.0213913475846246    1.1383430498632319 H
   0.6362141611729302    0.8268350872563986    0.8689764706213181 H
   0.4155596279388389    0.9452487745844907    0.7274074813686272 H
   0.4040516851859499    0.7782287225763020    0.8186827757833509 H
   0.5091126052314005    0.9052463542586063    0.6723362881744025 H
   0.5153466293897628    1.0068649256707289    0.7329536220532729 H
   0.6249782987835319    0.8207436435224923    0.7575167857961423 H
   0.4112129460153042    0.9660863571596867    0.8860692689750004 H
   0.5238085175656462    0.9983015819190530    0.8951076909029347 H
   0.4939771510322708    0.7547412740088846    0.7449323955116928 H
   0.5095882241600163    0.7449666789482006    0.8633537275921909 H
   0.6487681604689486    0.9271652662146934    0.8059484544144032 H
  -0.0286610946522340    0.6649990555154236    0.7215405274464092 H
   0.0092122277899891   -0.1393746685258287    0.9414828811962667 H
   0.2126708858179244    0.2746838096764964    0.0330956159635870 C
   0.1139050534815414    0.1962414155456774    0.2921365920019187 C
   0.3016695614163740    0.2943196144166093    0.0756609853805227 C
   0.4013705049049486    0.1998799062096649   -0.0191033166730248 C
   0.3864503309914848    0.2979587817573057    0.0153133965095705 C
   0.7063428748626773    0.3044386379221454    0.0615347273930463 C
  -0.0101351955332857    0.0472818648991819    0.9633381193256676 C
   0.7362413369420009    1.0479710057088996    0.2313536137371180 C
   0.1772086444609071    0.6318155063855596    0.2337872112964177 C
   0.1114173672454497    0.6274049275966679    0.1584707386486915 C
   0.6224813670981955    0.4952124107827207    0.0888064714702777 C
   0.7718541470438626    0.5568681474564321    0.0268613636203931 C
   0.8696023195740824    0.5395666066914895    0.0286919632372352 C
   0.7498697895181153    0.3927239714612518    0.0336914119762215 C
   0.7233109157838714    0.4819525923326248    0.0850758718219350 C
   0.2372644411984097    0.7140411999960798    0.2151237375204164 C
   0.2994486724299189    0.6885128944744897    0.1390569547293064 C
   0.0595325664726835    0.0164199935577018    1.1050570396628565 C
   0.2957438888396683    0.7318479475919193    0.3006289767050869 C
   0.4873515319088082    0.8979348624184753    0.9834020410918066 C
   0.7204170901702390    0.8898316588288809    0.3035169505641320 C
   0.6771919733937215    0.8457414345042709    0.2214169147439807 C
  -0.0524608621761273   -0.1322073088247026    1.0781303334962387 C
   0.6954325843645436    0.9980288812053489    0.3133135392861662 C
   0.0986527037844954    0.1372575368572282    0.3703168138356488 C
   0.0941197920976005    0.2484084530682332    0.5059293750088836 C
   0.0455699569452916    0.1786755648582217    0.4480532658481002 C
   0.0310361107324154    0.3073307541761686    0.5633544600408936 C
   0.0257404494828219    0.0998630285676108    0.5086279643024181 C
   0.6591257051800877    0.5396432741626128    0.4798278528669737 C
   0.7428168325227719    0.4793669294265479    0.6112973140404369 C
   0.7977506503786376    0.4041510110451750    0.3835605080593545 C
   0.6589923065552695    0.3783425613660826    0.5177183776164660 C
   0.8004879637443396    0.4560144237284280    0.4689488140925342 C
   0.2305363957050990    0.7720844980590980    0.3700346291307637 C
   0.1003043372531615    0.7628444775984790    0.6234934548353345 C
   0.1305541264037887    0.8642214754255088    0.6123219522379897 C
   0.7529326747750819    0.8641226806260031    0.4675561572810232 C
   0.7012347641549075    0.8358639845838275    0.3873952083296849 C
   0.1370899986306533   -0.0074200035750750    0.9693438740772027 C
   0.0398892887735740    0.6553266386377898    0.7483212308538868 C
   0.0699997357962970    0.5644530166869760    0.7142161648163620 C
   0.3942904719511025    0.3686214237654050   -0.0549807121679142 C
   0.3611547818576241    0.4614828512164104   -0.0339000088549384 C
   0.1883573354717111    0.7375875194371753    0.7717910107054380 C
   0.0964588907565431    0.7381410409850907    0.7268208514484947 C
   0.0240009842463299   -0.1199060029328248    1.0097977686141972 C
   0.4758005978169308    0.7811871531478014    0.8109832580816119 C
   0.4893304542807413    0.9396113809222851    0.7306817405545454 C
   0.4790069196150386    0.9399375390959958    0.8940954924023489 C
   0.6128799680574373    0.8634832211360519    0.8108752291342660 C
   0.7104234199258073    0.4612487210751161    0.5166119124017053 N
   0.0500870192906239   -0.0177257898522794    1.0100118623462098 N
   0.5162205330263967    0.8782381567745576    0.8130796743810140 N
  -0.1111390869761499    0.7017419241343288    0.2669455509226573 Cl
   0.7199099112402367    1.1133034652806535    0.6356987617227342 Cl
   0.5733582480537838    0.7328737894826771    0.5843948325468603 Cl
   0.7807964776313107    0.1710257346636192    0.8696717842096894 Cl
   0.8361998322309673    0.5488725354635596    0.7831975581033715 Cl
   0.8532946678846620   -0.0466713127540324    0.7732209211357609 Cl
   0.1462126154783755    0.2315781499633987    0.0847472019336465 O
   0.1717769430295682    0.1696493742376288    0.2357075076756014 O
   0.0721162832841318    0.2729718176028702    0.2777910025152855 O
   0.4798868882663770    0.1565218460841313    0.0043363460174482 O
   0.6350472534003859    0.2737188686895434    0.0322398957564294 O
   0.6942788843766349    1.1011929822206976    0.1819025446884484 O
   0.8220219358140172    1.0377152935081568    0.2240259775026057 O
   0.7467923756980497    0.2663207622306678    0.1252580571883325 O
   0.0643289734630560    0.5562131244021751    0.1701961351215185 O
   0.3189314755457074    0.6008054428448210    0.1339514412056532 O
   0.0992576203208001    0.6829512886036859    0.1002339699367874 O
   0.5918247781807956    0.5023047270368249    0.0067994060169331 O
   0.4487956971955469    0.3173692531533405    0.0778143623976163 O
   0.5810128856781962    0.5020758073061895    0.1553221858742303 O
   0.9084371687377680    0.5059888933786660    0.0900720469564564 O
   0.7563719818941594    0.4831078148101326    0.1745650876405410 O
   0.7202064260053032    0.4244638308325856    0.3369483088027547 O
   0.3266184062035535    0.7489110274846302    0.0888103997956357 O
   0.1919161730417397    0.7966377124431008    0.1922785614007920 O
   0.5759953143341026    0.8663157898396879    1.0088870518520272 O
   0.6164355036813071    0.8787774681115853    0.1802434819455736 O
   0.8106949397106342    0.8841178006985647    0.2924063370098368 O
  -0.0243467718010562   -0.1297617991985820    1.1671946354552845 O
   0.7152885073962842    0.7678356450036438    0.1935362802362547 O
   0.0996261175121299    0.0542800554230721    0.5226490217368065 O
  -0.0477833252474740    0.0761326530616828    0.5353984671583827 O
  -0.0330559849896881    0.2179925116779466    0.4110339061716314 O
   0.0732812098889806    0.3492068923091166    0.6262112012621984 O
  -0.0463740546268689    0.3293606411125223    0.5435674197404065 O
   0.1632037700226817    0.8247468629326001    0.3492714654508953 O
   0.2382385153152759    0.7549828475939773    0.4476115256615897 O
   0.0870998545638458    0.9285003493614383    0.6456930761544559 O
   0.2023542852391552    0.8807154702059986    0.5649481161665570 O
   0.7481633437432120    0.8142258934619517    0.5400729124460814 O
   0.7985741557506593    0.9346039732761057    0.4678784109045603 O
   0.1977579761860101    0.2967556505688047   -0.0433738201767211 O
   0.3458456386866456    0.1592908071771268   -0.0636957019747041 O
   0.2761633481175774    0.4781988297912690   -0.0517169285162841 O
   0.0078835246556604    0.5018083170031442    0.6965976255855967 O
   0.1453587322016921    0.5475942931603659    0.7000918709915646 O
   0.4090006420888622    0.5193712579807516    0.0024625348216678 O
   0.9199140731967635    0.5642425702304946   -0.0403221660944247 O
   0.2284039988757016    0.6614539462372703    0.7927682681173190 O
   0.2279522926411684    0.8051300051403376    0.7914725754700620 O
   0.0510181681074248    0.8109277711825627    0.7715612036719932 O
