Li1 Co1 H110 Cl3 O55
1.0
  12.0127720154999995    0.0000000000000000    0.0000000000000000
   0.0000000000000000   12.1684536864999995    0.0000000000000000
   0.0000000000000000    0.0000000000000000   12.4956165194000004
Li Co H Cl O
1 1 110 3 55
direct
   0.8103200489645553    0.4535368244383218    0.5529562506157779 Li
   0.5951449006586702    0.8444081810246368    0.5795023597641344 Co
   0.1636741299396219    0.1456398560538664    0.1895264036010699 H
   0.2210405728481212    0.1756140836259902    1.0423038542739613 H
   0.0563756647446715    0.1742589402014568    0.2589843610097752 H
   0.1520240295448567    0.3266702529106100    0.2757622446519715 H
   0.2869487578181201    0.0802897285448776    1.1031972082608308 H
   0.0859851503439198    1.0062775566039872    1.0322363238080023 H
   0.5829345632102662    0.0433017914087617    0.2088979968013086 H
   0.5448068105642473    0.1499173099803045    0.2745058040453296 H
   0.6047080555950803    1.0826307255387360    0.0080451620409384 H
   0.8764163670313185    0.2634609068576004    0.0253440043721193 H
   0.7522019061163295    0.2422043029649493    0.0450267706940654 H
   0.8692573199863040    0.1690002605328156    0.1977452857859187 H
   0.8989090939099577    0.0567082606449463    0.2689350505021229 H
   0.6877638231325509    1.0013385560088108    0.0664424407079888 H
   0.3237121292889320    0.3993417708193370    0.2212191175528113 H
   0.1430727233965960    0.4416117266618484    0.2172065104179689 H
   0.1258643721739747    0.5451893900586611    0.0586508283574623 H
   0.0149617430155249    0.5117775852004103    0.1174891416858632 H
   0.4446300987738911    0.3491743448071676    0.2138589364959413 H
   0.4352658987495458    0.3855125691528431    1.0512589946486894 H
   0.3700769482733717    0.5679096145935765    0.1576440231373703 H
   0.6159435972190993    0.3525387821510365    0.3193879432442468 H
   0.4709304397436810    0.6176924395610635    0.2779470108023744 H
  -0.1674442826022681    0.4103604263900734    0.1187791940794345 H
  -0.1907919328896549    0.4989402926384718    0.2022068503604594 H
   0.8037853374176525    0.6087652576200648    0.0308223495096898 H
   0.0614422721789479    0.6796534758130626    1.1829611797665649 H
   0.2116131068266339    0.8203048719636511    0.1923297866870996 H
   0.3273590810452354    0.8827450159272955    0.2353080582406657 H
   0.3513768514339288    0.6990799375550550    0.1511073308602675 H
   0.4288477298289571   -0.0202803218106327    0.3207572234212942 H
   0.4957973064098063    0.9190520119830183    1.0371340413319823 H
   0.3817578492193770    0.8702043921199092    1.0631671705893468 H
  -0.0430719896733563    0.9561479332586027    1.0202641254160509 H
  -0.0045387519324973    0.7798494441268218    1.2501127283674089 H
  -0.2022713815816028    0.8591512210708039    1.0656560433833955 H
  -0.1738874249427813    0.9221830589493447    1.1774952629873516 H
   0.1674176455862998    0.0733470222506730    0.3669582251168648 H
   0.2277317844932175    0.0910191115349979    0.4813839517530928 H
   0.1950648863373495    1.2543534483953185    0.5921163832303066 H
   0.2510461368873716    1.1580223918617780    0.6520173892221214 H
   0.0297588272997055    0.3230707815949906    0.5998887088173809 H
   0.3923931963178778    0.2492602529000882    0.5218029258161870 H
   0.5171179474466570    0.2835431626886030    0.3818098332557573 H
  -0.4408466243567161    0.2272196545701995    0.5975566910290021 H
   0.5537964092897256    1.0421572181656180    0.6626419150143369 H
   0.6012350853309175    0.0093600917778371    0.3925848118085134 H
   0.8525833999500663    0.1557397424623053    0.3909186275135907 H
   0.7589247507599967    0.1132199603001710    0.4672886088201091 H
   0.9110295270466335    1.0744784982668307    0.5696453031068041 H
   0.8679254042569989    0.2500475345257419    0.5477840368318754 H
   0.1292441083370863    0.4059177912457267    0.5753008863979751 H
   0.1491046367556862    0.5582477460415817    0.4624597154312700 H
   0.1856024575279679    0.4532952160897391    0.4038591654813616 H
   0.3120845049720989    0.4843238093463241    0.5134223869418213 H
   0.5717464710841036    0.5710431269512151    0.3573948714548449 H
   0.3797316724161716    0.5783957456409061    0.6123650840132712 H
   0.4301538396910068    0.3782158326662256    0.5274977228587756 H
   0.4289542830873015    0.5354634213325524    0.4502466325663256 H
   0.9164487591702435    0.5992587087207303    0.6140864876724348 H
   0.9838436950730792    0.6079179848058175    0.5035661305651320 H
   0.1070893550747583    0.7096753676172197    0.3664236376485611 H
   0.1556285264872885    0.9334663331875763    0.4952616183516775 H
   0.1166633318264692    0.7554223470068512    0.4885024480563286 H
   0.1652349686849012    0.8471776372651932    0.5865864439997998 H
   1.0083675934389085    0.9895293316240047    0.5896187073492050 H
   0.3041013350695767   -0.0160379586205363    0.3739678832529010 H
   0.4382369032732269    0.8545409393172366    0.4352405702636867 H
   0.4940932867236267    0.7427190073728682    0.4429408705930553 H
   0.7487039624322420    0.7875718715133230    0.4350637082419875 H
   0.8127491302758755    0.9297682462194742    0.6472389135136761 H
   0.7120130138792111   -0.0655103086421235    0.4153111814565502 H
   0.7539383912484109    0.7068492073764857    0.5191171839844098 H
   0.0043364685297269    1.0540897121160275    0.8825678382957882 H
   0.2734672732955605    0.0561086774778514    0.7971442820956773 H
   0.1578969454637612    0.1129495890529476    0.7994666965163620 H
   0.2564528823010193    0.2087571608312256    0.8882418280417064 H
  -0.3428584165990742    0.2017414789541838    0.6802929048360533 H
   0.3368373263539025    0.2893877836924124    0.9478787414219341 H
   0.5636009739520724    0.3008271993804083   -0.0190863523964364 H
   0.6561391490348641    0.2359808334961854   -0.0960433395532553 H
  -0.0203892566914586    1.0927963557154965    0.7531728622664152 H
   0.8483212696162902    0.2859625333628458    0.6770757766585370 H
   0.9681853607804366    0.2317987080338139    0.8732605744389439 H
   0.8233977965316693    0.2947500097961605    0.8252117247429043 H
   0.1618951899936688    0.5227510419304253    0.9024628150353543 H
   1.1217052975294601    0.3978847245539048   -0.2422690177471420 H
   0.1384434837899301    0.6556701491292642    0.9240944007662663 H
   0.3253279095580451    0.5821792995078265    0.9041354015754064 H
   1.1741494793708467    0.3446684312858111   -0.1326705839384708 H
   0.3592359866841593    0.5869210687980375    0.7432989997156202 H
   0.4628640251080773    0.6037851671696872    0.9018385961352392 H
   0.4495565220776582    0.4486717855825074    0.9367148264775678 H
   0.6287874270862541    0.5387243122413145    0.6880500250909453 H
   0.9932253764913715    0.3538758460392813    0.8825118186509061 H
   0.7251773359687299    0.3485900470662074    0.7657268646844996 H
   0.7395478742406006    0.5565844287030397    0.7271701436734154 H
   1.0746137520252184    0.8461996987114063    0.9307927497328861 H
   0.1768883988689896    0.7758053805779261    0.7560914857647740 H
   0.2780374091417385    0.7287616053581469    0.6774455063147591 H
   1.0209708460274576    0.7563994637635341    0.8475475574380485 H
   0.2926485246922149    0.8732943492310344    0.7921865435236094 H
   0.6342782496803142    0.6667118150189132   -0.0536820043459696 H
   0.3888777712398432    0.8928038124805334    0.8815914959135569 H
   0.5726888014625869    0.7106508407796946    0.7730318263771285 H
   0.5282344491023692    0.7464721547469401   -0.0439732396914485 H
   0.4528421916923876    0.9653027529974155    0.7076432960287891 H
   0.4888463711974955    0.6878730904474976    0.6705190773654048 H
   0.8146321261381805    0.6720797937023893   -0.0864351701753297 H
   0.8183531657069264    0.8111944292684554    0.6874762238712241 H
   0.7260788764280033    0.4817696639470215    0.3639771797284946 Cl
   0.8683582768690229    0.8863609231849954    0.3377871954654601 Cl
   0.8977270187001993    0.6724175523121427    0.7643791920847638 Cl
   0.1383952018447428    0.1803673580756575    0.2613571931108538 O
   0.2109080239374331    0.1010491451895949    1.0765478629097629 O
   0.5375603565494971    0.0673365625912719    0.2698185603299781 O
   0.6101148010087282    1.0105015937186639    0.0424701941577735 O
   0.5648354933436720    0.2817302782771289    0.3145246377878372 O
   0.9104135160218300    0.1345488823379761    0.2566395387311377 O
   0.8274684639793579    0.2497582619451259    0.0845080559298970 O
   0.0909964832754301    0.5447965710429382    0.1275110561552754 O
   0.1834172832845768    0.4010396036362480    0.2763344453104104 O
   0.3939598621944728    0.3945219308042439    0.1787234152258727 O
   0.4089580657537786    0.6413708795192693    0.1593558234288398 O
  -0.1490705051165049    0.4875493629796132    0.1342158073670245 O
   0.0661229570306582    0.7437289960137121    1.2332428124514776 O
   0.2868563561643996    0.8518618807581226    0.1702932589517541 O
   0.4407841921055228    0.8644025045655089    1.0075796772534555 O
  -0.1808508468650543    0.9293326937543422    1.0966509126160340 O
   0.2089867354979106    0.0315771299459595    0.4226017380976382 O
   0.2517720309598429    1.1912312128353353    0.5821232788639767 O
   0.4604882204259294    0.3011846811206582    0.5093577615653025 O
  -0.3803643310889738    0.1699420400140256    0.6156614399742636 O
   0.8313060461744181    0.1488974597742124    0.4655335933740162 O
   0.8904181311356378    0.3034232564320160    0.6086237720157864 O
   0.9492638329509968    1.0336023103127419    0.6260346776451508 O
   0.1010424576637134    0.3454220192301999    0.6210241205507654 O
   0.1872390489803515    0.4872091389785477    0.4729025775179392 O
   0.3966028824698126    0.5008616542676768    0.5163498135272329 O
   0.5008069744466550    0.6136311182729832    0.3551932994109775 O
   0.9136267627187784    0.5756961421541915    0.5379053725972333 O
   0.1148036444894271    0.6847987474813487    0.4414907620712495 O
   0.1078294007518535    0.8879223376826385    0.5447837847081171 O
   0.5228168818734209    0.9694774822858510    0.6640744173620371 O
   0.3655276236104641   -0.0676583219126180    0.3447936524789316 O
   0.4714415624048018    0.8041623114493333    0.4862432558062967 O
   0.6476332022085898   -0.0232804564982884    0.4494399496800230 O
   0.6993381708202120    0.7481962850711796    0.4831453694443151 O
   0.0178247791203992    1.1045891441582223    0.8242994048119668 O
   0.2331901416413757    0.1286697458557977    0.7745123455632990 O
   0.2575791835396129    0.2646697703976177    0.9469904299102317 O
   0.6290404910748221    0.2434608307370000   -0.0176329627240017 O
   0.9315993005910884    0.3021486491236768    0.8979492322191374 O
   0.7513186794983340    0.2775325386697809    0.7899177479058833 O
   1.1232536495647774    0.4052644625480286   -0.1629331963844358 O
   0.1772430214319171    0.5879187304823211    0.9442774785366547 O
   0.3985682906178684    0.5523193017331620    0.8782223144142177 O
   0.3643089207181500    0.6325094413465926    0.6765395886289509 O
   0.4589906476777920    0.3759756137606597    0.9738878622600634 O
   0.6949703196754221    0.4954723088594959    0.6960360256092126 O
   1.0904469002573323    0.7795026457489242    0.8875936007223562 O
   0.2211030063979324    0.7882802606169906    0.6915328464413311 O
   0.0225176177031394    0.9823468249348463    0.9831150980527906 O
   0.5603261261526437    0.6850913072503808   -0.0856212847632565 O
   0.3497993637420331    0.9275000862123715    0.8164126390932048 O
   0.5719154578922593    0.7037723990190247    0.6929197327924843 O
   0.7788885026476178    0.6720189807166919   -0.0171350281090637 O
   0.7650690445087470    0.8693497231317255    0.6780297111828154 O
