Li1 Co1 H90 C51 N3 Cl6 O45
1.0
  14.6856806806000009    0.0000000000000000    0.0000000000000000
   0.0000000000000000   14.3321991942999993    0.0000000000000000
   0.0000000000000000    0.0000000000000000   14.8128240390000006
Li Co H C N Cl O
1 1 90 51 3 6 45
direct
   0.9703189895803868    0.4355667272390919    0.4781279383899389 Li
   0.4260657013716547    0.9125949841948745    0.7453117643491100 Co
   0.1160303615719351    0.2138110875837341    0.3168661159507614 H
   0.2616041382661357    0.3016419907783141    0.0716049834054199 H
   0.3038554995407735    0.3437702079356733    0.2198461286602744 H
   0.3654508739516410    0.0519392095454586    0.1896695736142471 H
   0.4969215249886426    0.2578287565714008    0.0624750565498836 H
   0.5462354121519860    0.1998851019555565    0.1523390822410889 H
   0.4024644800501355    0.2413783851522143    0.3254937753129142 H
   0.9835897397920166    0.3138759820606661    0.1658408965793561 H
   0.9961781927225107    0.4537004411567273    0.1964211558740976 H
   0.2040405824197435    0.6241151812038349    0.3494797484848459 H
   0.4022479425896553    0.4215355937561037    0.2242004637843656 H
   0.5016683257339487    0.4308375158263063    0.0978545357511622 H
   0.8140654219108051    0.3200362369387251    0.0760875857657246 H
   0.8122037444990038    0.4408671698976208    0.0426888227278698 H
   0.7226464383989596    0.4195740664553123    0.2140356228598011 H
   0.9237375600315556    0.5508891545646442    0.1666334530810124 H
   0.8519356447554759    0.6227546084309031    0.2703820695469749 H
   0.7519995211314099    0.6384570136897906    0.1805821774738763 H
   0.2886631496012346    0.7680491282578519    0.1570964465231774 H
   0.1862872344020099    0.8885281961657785    0.1030081782840788 H
   0.1909918171518764    0.7935664961817814    0.2284852645646147 H
   0.4489284482406873    0.7052192730631145    0.2283840009570777 H
   0.4032434701595359    0.8670227735979299    0.2833687896682373 H
   0.6270642157884480    0.8881884018373590    0.2411398400531557 H
   0.0312831832103563   -0.0195355157295994    0.2605372216222273 H
   0.9826909050504007    0.7990220441364244    0.0589996895392136 H
   0.7806165126853098    0.9139513705900435    0.1880540815286734 H
   0.7617825201714061    0.8405167227923366    0.0951724003328654 H
   0.1987544808294679    0.1397924400881072    0.3555893194729118 H
   0.1088015512560306    0.0607389756030053    0.5045731320254427 H
   0.1961233464040106    0.2871382850188608    0.5460765616470575 H
   0.1811992850161359    0.3329128372076773    0.4342981461578408 H
   0.3417284461270856    0.2857672463015218    0.5697315378404866 H
   0.5697726255449356    0.0941127791285822    0.5704254635884018 H
   0.6226510733941962    0.2487799010369634    0.5831178441570900 H
   0.4931616039335061    0.1304972859952878    0.4910488371663023 H
   0.5402020520424305    0.2656510034213180    0.4917572098555595 H
   0.5674624840719008    0.0298560668463343    0.4673098121786174 H
   0.7338730205088236    0.1029390589119605    0.5519865758192039 H
   0.7290533596746138    0.0704353242314328    0.4357941471865208 H
   0.5657634140360827    0.2224803782010048    0.3431149932057867 H
  -0.0329508159154819    0.1080380670271327    0.4559854354386825 H
   0.6080633940990171    0.1017389639532719    0.3385567806851877 H
   0.6857540388035012    0.1864754362514659    0.3376130038629428 H
   0.7752248661064353    0.1745351891421416    0.4566088142066803 H
   0.4596191341826334    0.3691138411824439    0.6793776793003325 H
   0.6487846935066770    0.4011556788498020    0.5184994231537836 H
   0.0507177607561578    0.7012296550551022    0.5788511358080541 H
   0.6844868180049049    0.3504544577637179    0.4116765313247909 H
   0.7822963803425570    0.3868836193265607    0.5558705752408215 H
   0.2901435031832595    0.8550015898518568    0.3963607482301775 H
   0.3150534823634043    0.7508842817004694    0.4389663984652967 H
  -0.0012158211177495    0.8132557285301728    0.5972508683156713 H
   0.0168099010641102    0.7655352084112501    0.4365671260573866 H
   0.8502857382562826    0.7907692981065589    0.3377129172890460 H
   0.7605146184373994    0.7138753068174695    0.3554495756945107 H
   0.7853272238538692    0.8149895866536269    0.4829364070392978 H
  -0.1723423800194323    0.7363268507597260    0.6689650800826609 H
   0.1794268101430858    0.2058569698342865    0.7624442165629373 H
   0.0764012825624205    0.1460231656585078    0.7433661529029656 H
   0.1023210889560624    0.0464229591132539    0.9672863177052419 H
   0.0056493696890467    0.1983933560127215    0.8735594229318583 H
   0.0529559954498634    0.2938727713800597    0.8202731624644528 H
   0.0307881431670573    0.0144871763492219    0.8767607031114614 H
   0.2469075093053062    0.1542996344956961    0.9277995865822625 H
   0.1230167588817674   -0.0065584423943384    0.7105587693331270 H
   0.3009853567862956    0.1216214674083823    0.8198917362093967 H
   0.2334045601187590    0.0425645142751447    0.7028681358860499 H
   0.0861645344755175    0.2917705120134733    0.9760300926707037 H
   0.2823563258308968    0.0336447387217291    0.9074550527373613 H
   0.2790585556387410    0.5627289286076596    0.8166175462323669 H
   0.0247856975251302    0.5739860984120093    0.6888789060501712 H
   0.5195901439815486    0.3384179239658476    0.8301531151064798 H
   0.3670435818763678    0.4350691064690124    0.8040298047248003 H
   0.5642375739686487    0.5922094008137700    0.8522063035558887 H
   0.5763140315641271    0.4512516892573009    0.8117670194313443 H
   0.4149099365444635    0.4354009466796824    0.9119639836356257 H
   0.3168729417797661    0.5801149554568469    0.9367087587733680 H
   0.5050356194314977    0.5686819577864567    0.9539877056727656 H
   0.3761088749938920    0.5827614439326061    0.6913348860783021 H
   0.4949208005660550    0.5765607207361727    0.7015733118910100 H
   0.8866640316169533    0.4060186450321111   -0.0868698620271243 H
  -0.0761582105062021    0.5705958301537142    0.7641954018826105 H
  -0.1835914329978367    0.5073786652429488    0.7282083410361099 H
   0.1345613378282486   -0.0485157157930473    0.8994991086385373 H
   0.2157097725463124   -0.0597282309012598    0.7729371515759216 H
   0.0601739107992028    0.7199385772773553    0.8829107795425423 H
   0.4922041406530621    0.6838017644282861    0.8906716224241782 H
   0.3352581978582722    0.6664220171457432    0.8483562611973317 H
   0.4366964649974932    0.6728167091785228    0.7422360510428526 H
   0.3648128374721757    0.1874459781628239    0.1640566318145541 C
   0.4249060683678882    0.2729087870028754    0.1930484026523985 C
   0.5095502620580110    0.2631014993637319    0.1347806477848893 C
   0.3652091418809791    0.3635878225354593    0.1858100799856534 C
   0.3512581371944446    0.4011870766830234    0.0885146556826658 C
   0.5810086045634620    0.3415514277213538    0.1486591627431942 C
   0.3420852562820907    0.6580590298347888    0.2707553947134280 C
   0.8764336580123802    0.3258448360847034    0.2440204521422250 C
   0.9415399353988320    0.3747884762400103    0.0343494271018391 C
   0.8502632673877423    0.3858426067228610    0.0833745149640875 C
   0.9321055752889170    0.4857636991236386    0.2052567431770597 C
   0.8553770923192081    0.4131526513778130    0.1832305583563275 C
   0.9272865953901176    0.5187499836142995    0.3048238477424608 C
   0.2646567717105779    0.8023516099171581    0.2167393611810391 C
   0.2773269368903099    0.9012282708390631    0.1968329612114148 C
   0.3220255800296200    0.7612895236300757    0.2937543852572324 C
   0.6559365581212159    0.7599770942014168    0.2031815143132681 C
   0.7761461717165916    0.7822981627033974    0.3256078656440725 C
   0.7571364978668266    0.7675711834632579    0.2215244041825210 C
   0.9032454897935347    0.8411328180531051    0.1453822724032967 C
   0.7988635388755219    0.8436285969294011    0.1631081293572909 C
   0.0730395044416951    0.0668622508108257    0.3526506495821880 C
   0.1222738583491137    0.1573298742663848    0.3644957913011498 C
   0.1207192828073645    0.1901796828419762    0.4641890028124703 C
   0.2946090776041055    0.2321864950442123    0.4519816074148127 C
   0.1956821002581264    0.2652770203411686    0.4750437189406486 C
   0.0202724576255621    0.2297011821123235    0.4907208105869540 C
   0.5610695219721581    0.1012952079104080    0.4977920483012631 C
   0.6143422995175321    0.2573326708065010    0.5077239829284925 C
   0.7240185232507445    0.1264413836726967    0.4812729160037515 C
   0.6197632263190501    0.1706865125188124    0.3669085655233982 C
   0.6811012071448184    0.3386097996133124    0.4866105207570271 C
  -0.1009524306665933    0.5392195567776892    0.6298813781176786 C
   0.1776066697913137    0.7533912242507996    0.3956883578761317 C
   0.2812879381721125    0.7803256810474597    0.3846384730216938 C
   0.7281286493874060    0.8629982691085603    0.3734913751040204 C
  -0.0799339973563990    0.7351134989381216    0.5232558625615898 C
  -0.0131560235376237    0.7382463049640006    0.5989581727387452 C
   0.1230984711310052    0.1661114993536258    0.7947459571858078 C
   0.0681735399995839    0.2309766318707437    0.8605315222768642 C
   0.1017048424097273    0.0185870356383231    0.9003368962182268 C
   0.1848845074567609    0.0088313799915884    0.7483395462144664 C
   0.2548254262564494    0.0984638210834555    0.8758959119030955 C
   0.5120481238049615    0.4107743701707282    0.7984434290423422 C
   0.4289412916094152    0.4588816418219770    0.8409093354990604 C
   0.4997506754314195    0.6047929546393215    0.8878132883287669 C
   0.3294116864253072    0.5939104656447484    0.8629456466805464 C
   0.4335348818874005    0.6016650327208327    0.7360150900864960 C
  -0.0464816834538521    0.5943765490356810    0.7039030499550781 C
  -0.0478244880829933    0.7011494161479804    0.6949695744981635 C
   0.0209629261316216    0.7399787676282005    0.7675735558300449 C
   0.6338987645017800    0.1650565321573833    0.4649073668443379 N
   0.1632954502727226    0.0733546249914055    0.8308963899858014 N
   0.4236749371460387    0.5630170909436703    0.8311853288126404 N
   0.4121153776205306    0.8436795311921826    0.6087010819652388 Cl
   0.3083251595740814    0.2855844411392099    0.6883050789407950 Cl
   0.4679309722686439    1.0607843842448459    0.7468664982701614 Cl
   0.7820492007886126    0.4649031880501597    0.8537178316710576 Cl
   0.1186383441934417    0.7857700653280685    0.0050531903506668 Cl
   0.4267146328176850    0.8530479468958522    0.8875324505905311 Cl
   0.2901979780160848    0.2023578557541567    0.1293367162436999 O
   0.0771251169035854    0.0299523535348803    0.2735327179228095 O
   0.2783953245490942    0.3699099506870158    0.0503571781812887 O
   0.4092227639975123    0.1055660109581596    0.1796458266495175 O
   0.4562620545162392    0.2580045844374411    0.2865572431242190 O
   0.9528652531431916    0.2788506525076381    0.2185904599268156 O
   1.0095027368315554    0.3578413213262970    0.0780777531991852 O
   0.2873380492927616    0.5931597085659409    0.2878763703850678 O
   0.4024174955068238    0.4556524793345895    0.0468791108077511 O
   0.6571649656014242    0.3142388014667813    0.1716568031055648 O
   0.5633998872268792    0.4279870112075700    0.1313680642108922 O
   0.4199910765762343    0.6401469148467347    0.2358147244781431 O
   0.7761175724293583    0.4637324675087739    0.2085916913186117 O
   0.2194406176594285    0.9361084726296450    0.1385321268987768 O
   0.1539788919887922    0.6649630644953840    0.3837790825390631 O
   0.6801867108887654    0.9222222575902146    0.3371579927197432 O
   0.6152860759962286    0.6849711592833805    0.1899450106267478 O
   0.3374644285876929    0.9558151482187149    0.2281443437525734 O
   0.4131660609586467    0.7989745985217787    0.2882577966401239 O
   0.6105528939591288    0.8394233804666010    0.1953079312819075 O
   0.8007436015434016    0.6754017974470933    0.2037944966842254 O
   0.9158019387597440    0.8086548993687818    0.0609000699073247 O
   0.9625433881299993    0.8517752880559406    0.2009030831436855 O
   0.3143562045032417    0.1976112011006925    0.3772907856588087 O
   0.1427747807474685    0.1154353965341189    0.5252798520399679 O
   0.3608457077716803    0.2431122432756684    0.5159915691549652 O
   0.0156516299311643    0.3117437203201124    0.5165374947650115 O
   0.0239222714248507    0.0275249521620445    0.4102676169985927 O
  -0.0542382187127507    0.1734488241126776    0.4812858102364446 O
   0.7644204639509666    0.3262795216424144    0.5317803680621983 O
   0.9682503078038497    0.4660135968425752    0.3586522060555478 O
   0.5180473418130437    0.3974709686888517    0.7013782106738222 O
   0.8342143007020271    0.3032293256800678    0.3128452756408254 O
   0.8826342558587088    0.5943646876320196    0.3284884777331418 O
  -0.0766164800373441    0.5196899649679886    0.5532665478184715 O
   0.1195249220976719    0.8097049824576342    0.4213829856525712 O
   0.7566285200507316    0.8734265361158623    0.4561158629651902 O
  -0.1648527714413771    0.7217484879301683    0.5352909072992195 O
  -0.0503425872303383    0.7444930783158255    0.4397549044226515 O
   0.1218210363012542    0.2521966830210901    0.9354470142234570 O
   0.9443467511601505    0.3819939300995319   -0.0574953147527901 O
  -0.1769386940390588    0.5022403051768057    0.6632349100775002 O
   0.0158885954539539    0.6877181208254484    0.8433909689744340 O
   0.0707672229774738    0.8067752157532544    0.7540163840529908 O
  -0.1316095047097970    0.7429120229807161    0.7191628005201878 O
