Li1 Co1 H90 C51 N3 Cl6 O45
1.0
  13.4217486933999997    0.0000000000000000    0.0000000000000000
   0.0000000000000000   13.0738788666999994    0.0000000000000000
   0.0000000000000000    0.0000000000000000   13.1168980944999998
Li Co H C N Cl O
1 1 90 51 3 6 45
direct
   0.8290839070896889    0.7264141752444710    0.4386287829446856 Li
   0.1453458778928921    0.3808855034509680    0.5485986088599173 Co
   0.2902658912557166    0.1476769789505732    0.2050124219786055 H
   0.1917094341041628    0.0344978669910105    0.0660382539346868 H
   0.0739721678135887    0.2177678838260977    0.2507175876115822 H
   0.6008632728062996    0.1732493437712050    1.0039574106870408 H
   0.5388919143044816    0.0290388902995725    1.0637093424588244 H
  -0.0097613326171444    0.2330120207828528    0.1517544035837748 H
   0.7049830884818227    0.1355925775567061    1.1726680299246721 H
   0.8086223408457132    0.1103338151521440    1.0910862418913643 H
  -0.0475067867731382    0.1804675535284000    0.2718056526409190 H
  -0.1590168466162320    0.3231015811963260    0.1819215968598985 H
   0.0877483160803882    0.4050979046233754    0.1793508671220393 H
   0.0267443427007773    0.4948543580802672    0.2655038578564753 H
   0.2005912871862891    0.4525404430103446    0.3062375737205968 H
   0.3611687237955598    0.3373536636807824    0.0818156121568091 H
   0.6606617400801408    0.3340072964361360    1.0411963978683787 H
   0.5252315482681127    0.3705182665060679    0.2970517129224161 H
   0.6202005444188746    0.5193794438080144    0.2844885292479848 H
   0.5297359538698753    0.6176698603784991    0.2848651426793320 H
  -0.0690740211635678    0.3916084114287275    0.1135113680439671 H
  -0.1482589339702441    0.4463622459485886    0.2155880930710085 H
   0.0923453325653072    0.7001327630099451    0.2208629682359693 H
   0.2933251051434114    0.8796953873799348    0.3159784437860260 H
   0.0139285759978451    0.9843116236129109    0.2541642866462387 H
   0.5755422056515317   -0.0208154801321554    1.1921947502021892 H
   0.5786858347690065   -0.1029188873110335    1.0912333803372143 H
   0.4043806787537985    0.7898781256496833    0.1083096809142478 H
   0.8419495927722791   -0.0498963675930599    1.1659164336736396 H
   0.7474566895767624   -0.1479430156513460    1.1598342029949207 H
   0.7413121847224469   -0.0302549128558540    1.2443457995639917 H
  -0.0032055549751991    0.7912013748687090    0.2423756763447805 H
   1.0295272369013198    0.1266602628863104    0.6363659294341864 H
   0.1656882346332071    0.3236025801780959    0.3463613892910388 H
   0.2762855967138980    0.0426828900504303    0.4611794651158026 H
   0.4620059567759035    0.2095323784265302    0.6051451334007313 H
   0.4305149037354125    0.2349295848245279    0.4796505013512362 H
   0.5282110408002344    0.0814410891408814    0.3987838442835285 H
   0.6573112079678749    0.0962477124830221    0.5042554268202637 H
   0.7453884046882479    0.3319145739718268    0.6665483702176520 H
  -0.1520922645723362    0.3252264287861837    0.3571886442545846 H
   0.8855750556963412    0.1475622463593282    0.6085834463063496 H
   0.8959611837027871    0.0529047990464199    0.5107064184640487 H
  -0.0349100675331827    0.3201774298874612    0.4259411033728071 H
   0.1275762112534563    0.5365519296700216    0.4153998154094602 H
   0.2955573030994596    0.6090993358124962    0.5222727201084607 H
   0.4479784254682594    0.5480050723468587    0.5644624966862054 H
   0.5466794986489416    0.6298728187833195    0.5488942580272784 H
   0.6176189136052208    0.4013453840057216    0.4338873418240842 H
   0.6193616075368619    0.4570038467633525    0.5966065292892179 H
  -0.0777487477330835    0.4352886386835900    0.3632624888042656 H
   0.2535344629402372    0.7599994642376551    0.3670682666368260 H
   0.2381698480371579    0.8678205641860753    0.6456928296752805 H
   0.2034478449177607    0.7279309401007302    0.6530970192405500 H
   0.0679029139584590    0.9519509138102821    0.3795582622760156 H
   0.5042300970832451   -0.1112936015879784    0.5305026384338356 H
   0.5685292595630473    0.7433395271049364    0.4051237578363273 H
   0.3626111587898553   -0.0455808923943638    0.4168923939031675 H
   0.8319203482174178   -0.0621039153015300    0.4521854179599840 H
  -0.0178556579157116    0.6825442567720834    0.5389743822256544 H
   0.1864850776062289    0.2262741581410035   -0.1165453098580524 H
   0.3128970704663186    0.1699787000367803   -0.1219101453163310 H
   0.3053086404989118    0.1092736860090400   -0.3282859195655086 H
   0.6268487094261571    0.0761473273808362    0.6825399559179293 H
   0.4329566123941446    0.2736357718069479   -0.0069508013360437 H
   0.8948801025164633    0.2076928325469017    0.8802459974924524 H
   0.7191444324573261    0.0194525998590802    0.7573061081693686 H
   0.7122347516013877    0.1619810735430607    0.9396388504663320 H
   0.1470945322997162    0.5253259575238497   -0.0867730270220863 H
   0.2161406768200427    0.6373457348930784    0.7986588728315748 H
   0.3042856739456227    0.4049105080576753   -0.2096267679286879 H
   0.0040237563624296    0.6082778504591818    0.9575348498336236 H
   0.4520107614355252    0.5868872591242486    0.9979094868998413 H
   0.6884718271654061    0.5012785418176525    0.9099222210321640 H
   0.8143093792297305    0.4766298508449374    0.8810091352349189 H
   0.9246943993820256    0.5583175436015377    0.7760811263349257 H
   0.0464198712799899    0.7301215677095685    0.8419572194306186 H
   0.2627679840581629    0.6880101174189962    0.9109621010328877 H
   0.2794722157586303    0.9479949340641538    0.8127895002607624 H
   0.2703631195601507    0.8759665781644717    0.9313747014869744 H
   0.1539282170970707    0.8948224970936199    0.8634089375100619 H
   0.0985501872308510    0.7647134439699421    0.9743612365608747 H
   0.1189774807425244    0.8167240222331347    0.7102873697788795 H
   0.3523487106434575    0.7117222844935753    0.7196645867942022 H
   0.3814954342885193    0.8417472003836736    0.7529803903364464 H
   0.3840413022510750    0.7353411357272752    0.8467495109882055 H
   0.6603368941826652   -0.3198353838546354    0.9785138951854652 H
   0.6742270365373402   -0.0040010364432268    0.9242487789306962 H
   0.8915243549884122    0.6805578531756614    0.7998550397825537 H
   0.6981955973671367    0.7076859919335755    0.7118883580497881 H
   0.7125446963109059   -0.1194289071911920    0.9770547087328370 H
   0.8017312864747219   -0.0107924409609904    0.9649794452933493 H
   0.2509699684927346    0.1680351299410896    0.0218761360447192 C
   0.3681760074326202    0.1010358859576476    0.3273576585153518 C
   0.6818467589994580    0.1845581528482558    1.0139170824828276 C
   0.7267939572953590    0.1083160513141149    1.0966005029215942 C
  -0.0023465014894435    0.2360937381836940    0.2309850259849482 C
   0.0568477226127170    0.4184007661362647    0.2565040166478668 C
   0.3879998028320109    0.3428975424897417    0.0022503069694791 C
  -0.1069588014269652    0.3802001674392644    0.1863677700008223 C
   0.2949813721848984    0.7689684933372491    0.2091879518642089 C
   0.1404977763908875    0.8491359792598530    0.2867482098360675 C
   0.1341513604397465    0.9151431687709963    0.1911836951947893 C
   0.2499343359296815    0.8120773522877114    0.3013225397289069 C
   0.0677658230292491    0.7605004632194249    0.2764393701221493 C
   0.5872324111220868   -0.0228730179351494    1.1108965658054424 C
   0.7619652312316777   -0.0643412008308079    1.1664866904482301 C
   0.3040882332051846    0.2159596981880762    0.5667747811746179 C
   0.3493535718639803    0.0384806176750960    0.4276251143211930 C
   0.4108232073672660    0.1856435231614337    0.5421553934448766 C
   0.4285198581857095    0.0685344375097582    0.5079960977964736 C
   0.9512259645405290    0.0070905455944001    0.6570316385101501 C
   0.8745139038754162    0.0628023972511570    0.5909862980829610 C
   0.7646072118565599    0.0363970738180864    0.5954789761212779 C
   0.1430443894128410    0.4058742618241334    0.3372731125398468 C
   0.5823790942042971    0.5713204176325184    0.3367127666450287 C
   0.4315708019140879    0.4706838725478613    0.3657272483660980 C
   0.5239449796998537    0.5259721314777417    0.4239111264828314 C
   0.4801106021206260    0.5942215782637835    0.5067112665903010 C
   0.6657765728465863    0.6447490465641489    0.3681477901566387 C
  -0.0758488462684898    0.3553444988719432    0.3621578068973387 C
   0.8858231604758352    0.6426096661794001    0.6408875777364530 C
   0.0424539201050751    0.6997289042887626    0.3740584863777604 C
   0.4179273487260509    0.6841711649159378    0.4731646157868990 C
   0.4257594131165645   -0.0054910303615288    0.5978133694953363 C
   0.7477942014840020   -0.0804748978116827    0.5776691251704685 C
   0.2581895940581909    0.2236659039000334   -0.0789937487762039 C
   0.7415327223042193    0.1898503848404178    0.7158847297241233 C
   0.7123561962832422    0.0784603364203358    0.6934472602950206 C
   0.2984056651775545    0.3364250945756394   -0.0749745058408558 C
   0.2058275646345891    0.4016605161896746   -0.0532978870281182 C
   0.4587971349611144    0.4330482936185456   -0.0025907766116022 C
   0.7560196572365961    0.5392469217499730    0.8818812926548806 C
   0.7552291492154456    0.5816068828331818    0.7729973179750086 C
   0.8708400159844703    0.6139112206893124    0.7474394461683679 C
   0.7971186237424475    0.6159427524382908    0.9631749027994251 C
   0.7298822284995712    0.4967706983076357    0.6942873979495641 C
   0.0995813494375168    0.7079651745722717    0.9057855722902827 C
   0.2030134752887967    0.6987567367989463    0.8526708804644666 C
   0.2366298102617401    0.8822906385938973    0.8516782677365032 C
   0.1969919052351313    0.8072968276525022    0.6922373705874338 C
   0.3522384418525712    0.7702404953321855    0.7806233587721040 C
   0.7260146251651767   -0.0368153224232443    0.9811898327239841 C
  -0.0275004518212670    0.3446858411452808    0.2640477209053155 N
   0.6987476863809657   -0.0018570667548282    1.0851427635294570 N
   0.2459631693389817    0.7914140126044833    0.7953143320961097 N
   0.6477029219728155    1.3161748789051904    0.3043171501708735 Cl
   0.0142213843412119    1.2799729219476783    0.5907347142118182 Cl
   0.9295171688645023    1.0072856776838137    0.3477229916966784 Cl
   0.2370537490591338    0.4836165302330000    0.6407816075604261 Cl
   0.9618296498911557    0.1819147139459706   -0.0505548604572945 Cl
   1.5067877002230565    1.7144422984743211    0.9979575165479685 Cl
   0.1839027017331771    0.0911696479945175    0.0174345371559980 O
   0.2805950202712354    0.1294505595053893    0.2833846097164249 O
   0.3067168027609048    0.1770301650946992    0.0986221771245156 O
   0.4545109572569908    0.1257707028621907    0.2993914429240442 O
   0.7162863846070586    0.2904180903703278    1.0368706800354566 O
   0.1390784382379263    0.3705297397651925    0.0021999901952505 O
   0.4086893572517380    0.5197187769198808    0.0057930653003900 O
   0.4581418552206790    0.4084129116264149    0.2889903557907069 O
   0.2673426487611456    0.6971443614499830    0.1596663351435325 O
   0.1969032431667836    0.9218221353493398    0.1249126916589388 O
   0.0507702731042106    0.9734036137212759    0.1812263105251039 O
   0.3842946224463542    0.8160562785520887    0.1793165602305198 O
   0.7319579639820646    0.6806473445968325    1.0033551341470324 O
   0.2601088670671295    0.1692696526228861    0.6458697007604476 O
   0.2610230549483282    0.2855312468672316    0.5200832542916880 O
   0.5274559976064228    0.0529483974310931    0.4715877948151273 O
   0.7206278457185049    0.2576596409180497    0.6473837782395070 O
   0.7338645709812393    0.0883464613659483    0.5089668303514013 O
   0.1148930651233467    0.6448064128597714    0.4011609306781445 O
   0.1173413303047801    0.4571803819770816    0.4282447730195713 O
   0.6351039675546664    0.4921302239221396    0.6663051724755472 O
   0.3446552273009496    0.4983875864718547    0.3802870931269626 O
   0.5796752736493910    0.4488254017058309    0.4800794442277811 O
   0.7543715858484857    0.6165225344660489    0.3592699290067661 O
   0.8135673000694421    0.6537073672885600    0.5814939623872062 O
   0.9806513404003979    0.6500688143782096    0.6103857016741726 O
   0.3209794748145199    0.6746116454134028    0.4890472732947251 O
   0.1252031970712089    0.9007855323025945    0.3796733809564476 O
   0.4535081818133843    0.7631255449071110    0.4339760060792778 O
   0.6454915856799081    0.7381497895609535    0.4019934445790171 O
   0.4727702024267734   -0.0923520156573672    0.5913034462356744 O
   0.8004080609840872   -0.1176956801794505    0.4959821293365008 O
  -0.0356685380002244    0.7165288151828001    0.4298784671937287 O
   0.6940187943826220   -0.1331119160230731    0.6311688165566697 O
   1.0354608899460351    0.0573969624356333    0.6688858130931788 O
   0.3852661799011895    0.0185462123882445    0.6807064431600551 O
   0.7933136053974748    0.2085066690607997    0.7904114961102933 O
   0.2113760219706007    0.4932248493310113   -0.0975979948595308 O
   0.0690637165003559    0.6087895578161346    0.9269704589912411 O
   0.3433275314539276    0.3475013789344336   -0.1767996469967544 O
   0.5478657077163063    0.4210051959575267   -0.0097029764112726 O
   0.8823847113546195    0.6242233859904147    0.9937606401520863 O
   0.7937964038873009    0.4369560856763510    0.6671315873734830 O
   0.6854096330401197    0.6627138757012941    0.7682926995846381 O
   0.9349024581923782   -0.0727962279216243    0.7020880227057252 O
