Li1 Co1 H90 C51 N3 Cl6 O45
1.0
  14.7281306643000001    0.0000000000000000    0.0000000000000000
   0.0000000000000000   14.3736274151999996    0.0000000000000000
   0.0000000000000000    0.0000000000000000   14.8556415395000005
Li Co H C N Cl O
1 1 90 51 3 6 45
direct
   0.7090954085445960    0.4964129792354658    0.3330883258419376 Li
   0.7288372214485773    0.5652635185887729    0.5276489573915650 Co
   0.3076425606056605    0.1442431438989092    0.1715146910973296 H
   0.1461855465282383    0.0689524765719141    1.1160178256601907 H
  -0.0039570649411243    0.0976745234202570    1.2066823719484645 H
   0.1164587597431884    0.0064254627542615    1.2130637860225679 H
   0.2620352791854746    0.2194155390632210    0.0298782633196829 H
   0.4085352016250581    0.0738565970116479    0.1866099664783178 H
   0.5417836799779131    0.1717963834924993    0.1681664681432589 H
   0.5458048284420257    0.2719346407620524    0.2908754063707327 H
   0.4139479727239210    0.3168738882700909    0.0716112304454410 H
  -0.0064482161154505    0.1508329905161823    1.0931362827058742 H
   0.8876788323307137    0.3344143457146316    0.0750254216040752 H
  -0.0948219567935491    0.0775313826780791    1.1229579500382505 H
   0.8855332783075817    0.3250506690231326    0.1880303023112669 H
   0.7450083164387452    0.3346126255167773    0.0456877454868128 H
   1.1294148734584568    0.3568137018896449    0.1370166858353334 H
   0.0947947748646862    0.5800224930544435    0.1086779568157471 H
   0.3128584295948057    0.5934860394794297    0.1188350408836950 H
   0.2263715543060373    0.5353755865038140    0.1732244792564248 H
   0.3939366076214639    0.3796457950363584    0.1757184812758924 H
   0.6428677234274122    0.7005912228496346    0.0178888787127361 H
   0.7602444658941496    0.5669248946151716    0.0563981546991608 H
   0.8690451030234890    0.5499757979840474    0.0345896047864180 H
   0.9054244652258318    0.5364396881086619    0.1936517357430008 H
   0.3032944188448579    0.7608828927925724    0.1815580136696526 H
   0.1627416190915441   -0.0539942194118158    1.1066301462638357 H
   0.4736363350855393    0.6612810345667183    0.2280420378138729 H
   0.4995360238304672    0.8778241457864057    0.2270356861218070 H
   0.6493505556466725    0.8709894062205176    0.2591446999756816 H
   0.5800576478594164    0.9475428028138082    0.0262439537641888 H
  -0.0282710806273112   -0.0733136293268346    1.2122156233924655 H
  -0.0051697103478691   -0.1479461468544272    1.1061952946296720 H
   0.7185080083618987    0.9545459062818689    0.2052042492809504 H
   0.7616322862812641    0.7785819740788296    0.0652937651410675 H
  -0.1024087987728133   -0.0710928955428042    1.1177511738923442 H
   0.2955222172933421    0.2874095096712592    0.4144129860249176 H
   0.1190931741766541    0.0861276817493446    0.4544179900780784 H
   0.0825814122798460    0.2543287857687338    0.5782455605743649 H
   0.3339697306205138    0.2145795990466812    0.6294531774233108 H
   0.6577331537383134    0.0540126152691984    0.6023496693769291 H
   0.7016613354435611    0.2119609142211516    0.5881564082216053 H
   0.8074622707772687    0.1694302445202288    0.6239650266905931 H
   0.1525964076315328    0.3556567218511604    0.6031931199924198 H
   0.2410930423850069    0.5075502513641920    0.3438142173880097 H
   0.2770887849597960    0.6753568133632417    0.3932015156779692 H
   0.5137130979452510    0.5683622492510759    0.6670261087919003 H
   0.7799699834511197    0.3424679842747619    0.6333702078555057 H
  -0.0311023971704947    0.5973660621340467    0.6339437273482416 H
   0.2111931175379639    0.7456953556668258    0.3298491523688801 H
   0.0702057751976866    0.8248131710345323    0.4649825960954421 H
   0.1052882993670604    0.8607727785204905    0.6336132131804795 H
   0.2935138157742207    0.7223915653065870    0.6076439543656235 H
   0.4113155952088317    0.7343620996073473    0.6112318169199453 H
   0.2668722813566110    0.8252466037248366    0.7008772217622072 H
   0.3812873445040760    0.8562032987292902    0.7384373633768507 H
  -0.1453348166368766    0.9454702570924339    0.5851393725802413 H
  -0.0287687676839427    0.8552362498697029    0.4079440631080259 H
  -0.0767314057200288    0.7382949968758699    0.5278694123608972 H
  -0.1016123636876445    0.7810190763487100    0.6356144731005543 H
   0.1368591762555361    0.1023887126810934    0.6582509912950636 H
   0.1408936325863745    0.0633380274374764    0.9621294867472323 H
   0.0370488178667944    0.1836750829375290    0.8923458966381449 H
   0.3220714114112220    0.2051651348970887    0.7504132850849070 H
   0.0632850055275022    0.0429938240187368    0.8711000958990256 H
   0.6368282604414129    0.0803239971546136    0.7027297166495420 H
   0.7296852584659481   -0.0422066591039127    0.7197427819774838 H
   0.6059770947125954    0.2214602560404345    0.7689254442043075 H
   0.4669412559714590    1.0745093608915630    0.9515005280731719 H
   0.8720414099551601    0.2787937304790811    0.6771152052204510 H
   0.8467496734483057    0.1604777375237053    0.7915686938482620 H
   0.7317690259649960    0.1511585868228635    0.8418829127268334 H
   0.7968791218663334    0.2537930824436388    0.8555437162310373 H
   0.2033401182241846    0.3546319283474397    0.7662443078902618 H
   0.2775661028326636    0.5818828446015918    0.7282109453796166 H
   0.4373623494605352    0.4153035302200325    0.6659208047929891 H
   0.3595758315301247    0.6187009688449100    0.6294269247704743 H
   0.3971379643363585    0.5359240214793626    0.8171892635818536 H
   0.5108753990578215    0.5608971886299462    0.8149678852649189 H
   0.6527902318116048    0.3324879009001016    0.7961884876025417 H
   0.6169947862104941    0.3019910758929048    0.6865547167775345 H
   0.8049928467322908    0.3663853984437458    0.7480458343150101 H
   0.7553320977430867    0.5696660259150085   -0.1023691387717197 H
   0.0536062483756844   -0.0798394698325379    0.9895022527714242 H
   0.2000667903933243    0.6792277916760063    0.7280655460715991 H
   0.2523531271696962    0.6540761727034918    0.8328789259488579 H
   0.4764415790735049    0.7214377351004763    0.7552114622494860 H
   0.6328026307568723    1.0380432702618787   -0.1015431899247867 H
   0.3004081055055120    0.8166990049558523    0.8204802692156397 H
   0.4204837648209675    0.7092584852185101    0.8581642695000758 H
   0.6383457646318242    0.8715139780479484   -0.0341391671945976 H
  -0.0472022000174889   -0.0130212636652928    0.9729711592237628 H
   0.2825857486848831    0.3163854938100691    0.1248940185293706 C
   0.1200403412216759   -0.0002666544978025    1.1381420805519160 C
   0.3824891263461467    0.3178221527273696    0.1347522262419490 C
   0.3785965753288635    0.1374188401120815    0.1492012824761926 C
   0.4272178169733160    0.2310757828665886    0.1755865448667654 C
   0.4161872249923668    0.2469131211684895    0.2840443314736862 C
   0.3854114252434756    0.1197232374188444    0.0479542245150307 C
  -0.0226403592621744    0.0900230102132500    1.1364571987557683 C
   0.2589425581173210    0.6054955340220151    0.1657074696609066 C
   0.3765827420274050    0.5836054438651441    0.2793484723406751 C
   0.8972958029584475    0.3787344036650927    0.1348356962150702 C
   0.7354993024849600    0.4081744321127838    0.1595845432455011 C
   0.9978272304524316    0.4149901785607820    0.1384767372200096 C
   0.8222373977068167    0.4605424933026825    0.1318644344299339 C
   0.8087285550345917    0.5094153337978475    0.0443219343943702 C
   0.2997440701148085    0.6528134434371964    0.2535306711383374 C
   0.1943430497556657    0.6723123487520521    0.1172504576842815 C
   0.0233512207583572   -0.0113689319807464    0.9957907728431831 C
   0.5769886908389873    0.9828150403189951    0.2100966667377630 C
   0.5890163543651799    0.7717875861919746    0.1255335062266699 C
   0.6468566885811778    0.9160330115191589    0.0266808248331859 C
   0.6570351697080035    0.9157915971635642    0.2028253550469967 C
   0.6609324735348315    0.8547047208562321    0.1157426130085440 C
  -0.0327652015384218   -0.0840276958287356    1.1350705201700453 C
   0.2010852495815198    0.2571088773103959    0.5009652898470841 C
   0.1518590431792792    0.2799576677036059    0.5915322301184015 C
   0.6928570952480072    0.0781171777426636    0.6608883731877152 C
   0.7355909638118977    0.1726590745614835    0.6425922935955074 C
   0.1540460145427310    0.6125862980341823    0.3458343253665312 C
   0.3543633574049402    0.6948418043060172    0.6348417027042388 C
   0.2374489954096435    0.6767322490433884    0.3293988184009924 C
   0.0518762257013364    0.9707777170322489    0.4272101445652952 C
   0.0163897127206450    0.8794089927663621    0.4627031926842892 C
   0.0430821700976644    0.7213911219540069    0.6179807681337598 C
   0.0010014733598034    0.9436947832149761    0.6265936576989658 C
  -0.0389153370895383    0.8825425093588661    0.5475045118767554 C
  -0.0476231631486097    0.7815471267691608    0.5842521675433564 C
   0.1975247162595884    0.2229685739739488    0.6685575135406961 C
   0.3027899420603051    0.2403378846419008    0.6877603193731799 C
   0.1406695715649715    0.2419192530288372    0.7558899923535678 C
   0.0698642518832450    0.0659636694490461    0.9412054492915963 C
   0.7824366916049292    0.1958967716543403    0.8050840980444485 C
   0.6501653229972290    0.2762529661372017    0.7458029153598507 C
   0.8049942046778750    0.3100321915181627    0.6954314791609946 C
   0.3365790230606707    0.3399369599933388    0.6876620402112792 C
   0.4476599224151005    0.5776605283937971    0.7793773657579576 C
   0.7865587354259524    0.4527700642022970   -0.0441865286365878 C
   0.2617460367760271    0.6485688642340732    0.7594314079067174 C
   0.3212871978363115    0.8110727286051463    0.7491646012128118 C
   0.4241651552998981    0.6805893129840728    0.7880986316592322 C
   0.7160827175484091    0.9924597873265180    0.0022584531008500 C
   0.0237008917463044    0.0007317016989656    1.0999963028355353 N
   0.7401604507029347    0.2374631753700920    0.7223088105060157 N
   0.3437320014257636    0.7102046625199767    0.7352352128757421 N
   0.6433918904229369    0.6246173598534923    0.6382834928055986 Cl
   0.6851168054177215    1.4231513463308574    0.4828689996744115 Cl
   0.7160820385756170    0.6282065721316291    0.3918935950507558 Cl
  -0.1323528568513448    0.5297347000624235    0.5849879149677230 Cl
   0.7208783023792256    0.6907781119399390    0.9253017268322328 Cl
   0.5194176304426202    0.0787210614909525    0.8433160383137286 Cl
   0.3417561906006644    0.2463621120341060    0.3193204922915540 O
   0.2333276305614125    0.2703198778821231    0.0634830052402935 O
   0.5183719376557324    0.2335901099015152    0.1511857137726542 O
   0.5826875131751748    1.0699148352306180    0.1993128847264617 O
   0.4941590345977496    0.2621368356616452    0.3314182532345695 O
   0.4613998195284874    0.0743011611996164    0.0245536868084848 O
   0.7081658947921695    0.3376953546511878    0.1042998220965521 O
   1.0589483612000032    0.3466416001802751    0.1342419823739986 O
   0.2380756872967798    0.3705416213841586    0.1707055708740097 O
   0.4637793475757873    0.6004787071684301    0.2596145551469605 O
   0.3521458322658426    0.5118052663463755    0.3207152486166112 O
   1.0149780831816435    0.4993963597532224    0.1501726306311431 O
   0.8381599886550649    0.5294253139992161    0.1949751387039383 O
   0.6918651159987048    0.4284650651990138    0.2278515377945721 O
   0.1175729540950743    0.6393311126099016    0.0823216396577890 O
   0.2122061449438223    0.7567134511986833    0.1077187252697980 O
   0.3429070494833252    0.7376758073182924    0.2302162959846908 O
   0.6018292499254713    0.6999894262571577    0.0735424832912851 O
   0.4948356309851075    0.9445560828467523    0.2272369564602202 O
   0.5288201882523274    0.7699411490169069    0.1867385371627222 O
   0.7829323417431844    1.0158101908332260    0.0455288832799048 O
   0.7516900876860997    0.8153423536780143    0.1199760215646660 O
   0.1640377781517208    0.1994713738417927    0.4490516112658252 O
   0.1191916252315130    1.0153419722127208    0.4716664541931208 O
   0.2770792793407061    0.3047099441974132    0.4804871436027018 O
   0.0195944642995002    1.0006233494260834    0.3579771870208298 O
   0.1737287568137969    0.5227841929208267    0.3551540171234892 O
   0.0796353493347925    0.6474960661466750    0.3573848194696472 O
   0.0325193903704930    0.6341800120657409    0.6394251466315141 O
   0.0829331201861695    0.9250258701947156    0.6579985619408665 O
   0.1223216898032338    0.7534908826248647    0.6106152161507599 O
  -0.1242017884818203    0.9153212913872469    0.5300607684133061 O
   0.1981011641601070    0.1257071131320165    0.6513842397159573 O
   0.0757244660521218    0.1879829725336180    0.7771028089904054 O
   0.0244755997021251    0.1493504141710167    0.9522066571199794 O
   0.3294606723079764    0.1448790307029831   -0.0093620480764967 O
   0.7597372732184283    0.0148798352303070    0.6960500993650136 O
   0.7851532617462426    0.3652409413401336   -0.0430293924769482 O
  -0.0472191743372921    1.0038598323719823    0.6610633908732918 O
   0.2882687509550139    0.4030804500660131    0.7228069377649645 O
   0.1556008622367094    0.3182277566735129    0.7996948996185759 O
   0.4223393974618597    0.3458129993228879    0.6638017445076223 O
   0.4558861530727139    0.5418219759449383    0.6887909042832489 O
   0.7603816183981600    0.5020146967194500   -0.1140778219367993 O
   0.6988911264516694    1.0408797150104663   -0.0745918126358679 O
