Li1 Co1 H110 Cl3 O55
1.0
  12.3755148986000005    0.0000000000000000    0.0000000000000000
   0.0000000000000000   12.3779369455000001    0.0000000000000000
   0.0000000000000000    0.0000000000000000   12.3571702134999999
Li Co H Cl O
1 1 110 3 55
direct
   0.7660253756772928    0.1993978062553704    0.6987313808599260 Li
   0.4593189451893469    0.5486377497963317    0.4337548576408141 Co
   0.1177800246165832    0.1372574024557185    0.1173239974647372 H
   0.0367035596596781    0.0461579724808431    0.1611738425860763 H
   0.3059822949127050    0.2732574489426252    0.2828570414107779 H
   0.3254780493905485    1.0893538666637086    0.2759517387787255 H
   0.4485573727544848    1.1373263197966095    0.2644571977514584 H
   0.6215287616251135    0.1386623215530259    0.1931115753502362 H
   0.5774158495989837    0.0269012093344889    0.2527182642016458 H
  -0.0862009830977361    1.0509468201507732    0.2827655965265142 H
  -0.1334192204630441    1.0888206598757715    0.1611455189493575 H
   0.8484356841255801    0.3091051028734618    0.0859743443235367 H
   0.2209539135789280    0.3526365897741032    0.2355484756226871 H
   0.1476551452098948    0.4951571089662246    0.1107164976416144 H
   0.1232602006380005    0.6050542595163845    0.2626760456252252 H
   0.3041359070906852    0.6207782045370253    1.0769425666938921 H
   0.1021127977101751    0.6091882279010434    0.0795338730323786 H
   0.4748382994605561    0.4697675790806120    0.2282239831671961 H
   0.4338242483961094    0.6117120733639465    1.0706951816804804 H
   0.3671151048360793    0.4145919869761224    0.2964345836070246 H
   0.9622168085100931    0.3786998991462910    0.0725258769860514 H
  -0.1654170810162884    0.4571289624283537    1.1745943736328062 H
  -0.2787473150705225    0.5008074851402142    1.1838036018002449 H
   0.8388845663766635    0.6028325645666459    0.2833976182487259 H
   0.0879012678109306   -0.2173016827394534    0.0000310432572597 H
   1.2042269409805257    0.9879233935947344    0.2348751823155422 H
   0.1218372295419055   -0.0273865934680851    1.0311230149504489 H
   1.3148243594487334    0.9263864829323387    0.1980722580098496 H
   0.3888911684752969    0.8876239652274451    0.0574925807871328 H
   0.3790774353906445    0.7753273841315674    0.1185710467271294 H
   0.4890300322037220   -0.1356305606089178    1.2326901987769565 H
   0.6084367811032906    0.8017502041410768    0.0841588801345356 H
   0.6596726290817638    0.6908803551474676    0.0779178881705545 H
  -0.0219228494994331   -0.2627826059723565    0.0443662745861553 H
   0.8023268955478579    0.8149373774736522    0.1162129016585954 H
   0.8972255732693688    0.9023517830215303    0.1475542195581330 H
   0.8741154237246130    0.7300936749548900    0.2729971788455692 H
   1.3198342520073865    0.0603474937858335    0.5947237498413050 H
   0.6563555953796232    0.1601489393287522    0.3370134533107199 H
   0.4014021630697534    0.1223526569547268    0.4179009042991362 H
   0.4159849906513691    0.1902678518455537    0.5227889957963312 H
   0.5776526074247395    0.2343777873221999    0.5979623553884131 H
   0.7502684555331411    0.2497915029389499    0.3776465425475625 H
   0.9921549567839812    0.1570943107451298    0.6429305795367646 H
   0.6684399410594072    0.2087038804830209    0.5216544318340509 H
   0.8287678155969311    0.0917161299090898    0.4116300511295859 H
   0.9158268195113367    0.1389273091688493    0.5396682647872310 H
   0.9418216975132526    0.3247458353196214    0.5612727256295958 H
   0.0276181195045602    0.6509997189660510    0.3414295128985682 H
   1.1915729220339917    0.3801807598164260    0.4278335990730505 H
   1.1348237680994391    0.4882262286121128    0.3982564391177147 H
   0.2764716036006761    0.4922236637434970    0.5223835631678702 H
   1.0023040294511887    0.4321175246287330    0.5367541671922443 H
   0.4389868618730831    0.3725138925171462    0.6092748158939164 H
   0.3347738242284112    0.5798618545644942    0.6232893513423967 H
   0.6258461577446111    0.5170218188279428    0.5773775454679263 H
   0.6607772295862282    0.4601278466659644    0.4701369736295412 H
  -0.2180767081380434    0.4457417659496026    0.3588056594021926 H
  -0.1694524686675650    0.4177645673643491    0.4694062238021952 H
   0.2641012092167366    0.8558335302193676    1.3457338791556497 H
   0.1047381430203468    0.7908509726621956    0.6275718852142848 H
   0.1996966162336870    0.7463726397684290    1.3726089641680084 H
   0.2470352526298400    0.9198910547883757    0.6417320850801762 H
   0.2617174700154419    0.8303284721963686    0.5518207234331385 H
   0.5567961014841907   -0.1213785894786129    1.3414853336478241 H
   0.5008267130849769    0.9619012865652508    0.4804233092390591 H
   0.3733330279391175    0.7270026913629990    0.3941754076899121 H
   0.6013873774449532    0.8868968650620761    0.5310983415628744 H
   0.4779056465819509    0.7532526231109650    0.4655695848969379 H
   0.9007971418353766   -0.0142976594467416    0.4436972633758891 H
   0.7575424963094312    0.8588146408973804    0.5764129233259591 H
   0.9247476604544872   -0.1870187687409076    0.5630449760414317 H
   0.8566212021286702   -0.2332898074868449    0.4605465902365431 H
   1.2099317541198955    0.0774328934716740    0.6739749038741362 H
   0.1920726910254782    0.2845800142955657    0.9329290126800600 H
   1.1472192119461717    0.1797063179990328    0.7809492335273642 H
   1.0921023133291159    0.0697472023570020    0.7607625730144678 H
   0.3525015714613622    0.2578510043275289    0.8398737273572314 H
   0.6555014895030915    0.0632272951741383    0.7958337092464944 H
   0.4579573856794548    0.3200229158010134    0.8722355054254105 H
   0.5706928970041457    0.1060341055766287   -0.0277915887914867 H
   0.4528432550336940    0.2809776369206986    0.6986083753518898 H
   0.4911568123995891    0.1450252558890772   -0.1174514365444611 H
   0.7828957848449647    0.2621893686475639    0.9159186457134902 H
   0.0800348476419392    0.4820733454349459    0.7905760330247149 H
   0.1741138422970796    0.3486464256443728    0.8177367821445523 H
   0.1885253638750769    0.5320210873504324    0.7530973876715873 H
   0.5738321603251728    0.4635597594465061   -0.0531168853272671 H
   0.6346134697222544    0.5231084551011539    0.7642641837596794 H
   0.6420006371047076    0.3712584328982758   -0.1144467033119743 H
  -0.0623970442383255    0.5489512107565131    0.7642577097855722 H
   0.7541640510210876    0.5262681092642184    0.7304635649461834 H
  -0.1045687037026957    0.4462507360653609    0.6765725859846351 H
   0.8207301702290400    0.3671487011857957    0.8496817981295828 H
   1.0311432335509207    0.6716461321062398    0.8736840571318881 H
   0.2230839259635425   -0.0842173079156764    0.9833208086366869 H
   1.0808300550721459   -0.0713322850962652    0.8552494158617427 H
   1.0089380968554702    0.6876593014148830    0.7406714036196521 H
   0.2598524971081238    0.7157334466888524    0.6895043492636925 H
   0.0208757737772370    0.8482393729366249    0.6900481630886941 H
   0.3460703239009876    0.6679928577197970    0.7629111231712824 H
   0.4345385621093110   -0.2872067084161735    0.9012955566989367 H
   0.3967211457161601    0.8719509172183803   -0.1133186133238012 H
   0.5204889252833176   -0.2439232434608301    0.8218121488450112 H
   0.4275271366687569    0.9911791865574422   -0.0608535271593554 H
  -0.3124849012171186    0.6810935869216010   -0.2399770612498572 H
  -0.2681764417717639    0.7994267151681865   -0.1656121391744071 H
  -0.2304737680791498   -0.0455422038084416   -0.1719906221634891 H
  -0.2048109974710414   -0.0786267155330614   -0.0552873660713697 H
   0.9559706037555140   -0.0488592347628549    0.8302355984051931 H
   0.7024352942586177   -0.0119658492164033    0.6964015594281108 H
   0.6841459542307856    0.8227795567016931    0.6724834620891985 H
   0.7479962268436358    0.1575887388575807    1.0574235347607968 Cl
   0.1316461143434367    0.3339105289595612    0.0954403464890008 Cl
   0.5747767674866351    0.5414499607171230    0.1114108313646076 Cl
   0.1156871824025651    0.0579375606821716    0.1397555084992922 O
   0.5820128300451416    0.1109452632491599    0.2565767527695146 O
   0.3725556865453394    1.1559643207022345    0.2880936772167090 O
  -0.0909773500193813    1.0335368106355491    0.2021273935412236 O
   0.2644947281967470    0.3430469464819589    0.3004516845405190 O
   0.1548928238627752    0.5731943460480605    0.1305220029289516 O
   0.3732700002585410    0.6526017629970808    1.0494686390766208 O
   0.4279796430934095    0.4717129759675104    0.2957046430264421 O
   0.8844503472448026    0.3770267608768698    0.0844412263302842 O
  -0.2159862900655860    0.4928812854486196    1.2277618859878789 O
   0.8750446779895246    0.6652783504357528    0.3192334926721612 O
   1.2747209775638999    0.9629273056874937    0.2649095666921963 O
   0.3942622581264855    0.8524888694586703    0.1300396918579680 O
   0.5527195034263833   -0.0963186783346343    1.2642508225493743 O
   0.6795085714252836    0.7699177589012222    0.0658802616403727 O
   0.8797717540327700    0.8275331760050612    0.1273392354085178 O
   1.2774683379992906    0.0347283618257789    0.6543272017056611 O
   0.4315245461022502    0.1168678980406267    0.4936536845738093 O
   0.4538129116579495    0.2934797203196821    0.6186952574666014 O
   0.6547298044396215    0.2206840675410839    0.6002913675734649 O
   0.7213637996112719    0.1776348904168038    0.3921085914562004 O
   0.9043444689857778    0.0628033149888209    0.4171944318746921 O
   0.9289656667699985    0.1840341797611236    0.6085440660665705 O
   0.1062936338550900    0.6373714381998182    0.3379424685950976 O
   1.1641154786238237    0.4463913087639989    0.4619457778904536 O
   0.3477494459553234    0.5157671670981450    0.5639942224948944 O
   0.6034155758840209    0.5029362728466001    0.5035944718153574 O
   0.9332483168604603    0.3995127374354421    0.5376152057484970 O
  -0.2350844853274847    0.4084778824744418    0.4254940666800746 O
   0.0273593827953214    0.7778520374835431    0.6446906912471494 O
   0.2589450601172581    0.7921557135144965    1.3990713333310354 O
   0.2276106063044419    0.8383992840319644    0.6228442656225293 O
   0.4449365133100774    0.7034486854504070    0.4152481934087263 O
   0.5366547173040305    0.8898618179586363    0.4811281631699764 O
   0.6932987047165705    0.8814112982589034    0.6178350281571122 O
   0.8667460333802712   -0.1697057059143992    0.5032570159150216 O
   0.2071290342586053    0.2810576179388892    0.8517615623115088 O
   1.1107197205148214    0.1378019196906726    0.7251735188538682 O
   0.5276983222846572    0.0810515902058083   -0.0898763530817654 O
   0.4350419755067370    0.2623024731177324    0.8286737521518402 O
   0.7849247913312193    0.2934352864206873    0.8425118718059003 O
   0.7215019756802282    0.0433837621943313    0.7540320676833089 O
   0.1531005752022763    0.4615125685364561    0.7644867266196131 O
   0.2838652353606241    0.6457007745386564    0.7200380388933615 O
   1.0135035634613396    0.6328731118434020    0.8004383233302139 O
   0.5798836257077140    0.4204475669745606   -0.1210987117070838 O
   0.6808289205286449    0.5539673940084865    0.7119803688702342 O
  -0.1203943078577322    0.4920927857137306    0.7384783448908507 O
   0.1437676301938172   -0.0879683368799077    0.9854895899625864 O
   1.0296725876707999   -0.0575740149782459    0.7940663143152391 O
   0.0401775969302294   -0.2856442509497029   -0.0014468841078572 O
   0.3683166710029692    0.9353378938571036   -0.0697139699717708 O
   0.4450577203881094   -0.2404420494468579    0.8383442509744143 O
  -0.3184119273328803    0.7609332245244794   -0.2175722553584942 O
  -0.1862186397481293   -0.1027042335647193   -0.1289095614673755 O
