Li1 Co1 H110 Cl3 O55
1.0
  12.3179797892000007    0.0000000000000000    0.0000000000000000
   0.0000000000000000   12.3203905756999994    0.0000000000000000
   0.0000000000000000    0.0000000000000000   12.2997203904999992
Li Co H Cl O
1 1 110 3 55
direct
   0.6210053130146272    0.1728476280776518    0.5639028754391098 Li
   0.5360993448365512    0.5147401982943777    0.3538891582171207 Co
   0.0987346070957458    0.1375784539934275    1.1507202802944891 H
   0.0603227077342248    0.0195379591678508    1.1594115347788241 H
   1.2243128461635062    1.0142925430178578    0.2367661705179314 H
   0.4616926632471243    0.1684053987778806    0.1127373347747811 H
   0.6325023281440212    1.2066890409564244    0.1809665280699537 H
   0.5684837136069685    1.1623479142167015    0.2867315339968175 H
   0.5168583650609713    0.3280285850654033    0.2633553928430663 H
   0.7950541454278554    0.2988890867845541    0.0165877588125974 H
  -0.0099867110845446    0.2740830550177702    1.2667716989188089 H
  -0.1232985547379794    0.2155110482647294    1.2377141277990584 H
  -0.1270142614352845    1.0115897066268038    0.1533203711489688 H
   0.2275146527807391    0.6308176871704757    1.0081560638465801 H
   0.0348838772309682   -0.4162035026806492    0.0129379677137141 H
   0.2683573890580872    0.3880737594009554    1.1561187769994454 H
   0.1587777320770407    0.4686921451491334    0.2808818075220944 H
   0.0376879084593912    0.4099780974446109    1.0642061184911129 H
   0.3103301807697043    0.5454275371150886    1.0560026799740934 H
   0.0922508328594847    0.5668302676843684    0.3325342012212794 H
   0.2361329491099048    0.6526603388580591    1.3255210019158201 H
   0.3621544255667044    0.3717682698334230    1.0637996051850169 H
   0.4164457956975716    0.3994881702620339    0.2448118818721857 H
  -0.0742012181332992    0.4124431166997553    1.0028632606012087 H
   0.7451620356405966    0.4162319576227101    0.0367558514296943 H
  -0.2062488450847668    0.4561941647438936    0.2910600876801290 H
   0.7094207852461119    0.6492521676850754    0.1150625908856509 H
   0.0403146378869202   -0.2979247848878730    0.0514275670679930 H
   0.2480821487772928    0.7803567775653696    1.3072035123431289 H
   1.3234605977348148    0.9320630070485858    0.2226991840737813 H
   0.4289218674747587    0.9924669362444521    0.0994410975589893 H
   0.4253547240996313    0.8699951695639327    0.0642177765203564 H
   0.5293677215168977   -0.1536509496487651    1.1992986203729752 H
   0.5312714427764957    0.7047593365364286    0.2465826538335404 H
   0.6130648875817364   -0.1396935999248721    1.2990895067534505 H
   0.4076805596890936    0.6830773940396647    0.2782679269638964 H
   0.6930382287349434    0.7668352906468807    0.1589237505601978 H
  -0.0858338074419480    0.9802676476686141    0.2718222519824363 H
   0.9647978887836637    0.6915365414473417    0.2834566628029072 H
   0.9594236308994251    0.8517327615162710    0.1742582454927556 H
   0.8878940444673610    0.7498122913587203    0.1420997908741038 H
   1.2012002899755494    0.2161952798195818    0.6120218554817074 H
   0.3059341677118263    0.1112497432267585    0.4837270691043845 H
   1.2656102024431464    0.3048677933480687    0.5382827808357080 H
   0.3137771745727975    0.0150554714041167    0.3808694463427201 H
   0.4788935357624186    0.1051087041472648    0.4486319623624944 H
   0.5855936621218043    0.0440385623058198    0.4233395174838060 H
   1.4179403760683025    0.2024432807284025    0.6061566815013526 H
   0.9834941363779258    0.2080396942167860    0.5822398776504936 H
   0.9445591804673391    0.2291648361837413    0.4522100924827524 H
   0.8003066300971942    0.2566355562003241    0.5796430706511515 H
   0.8782008965613475    0.0427834072922685    0.4440302317374863 H
   0.2143055062498559    0.4666857152516304    0.4530621443723299 H
   0.2025706274406914    0.4695314042567460    0.5846269237838899 H
   0.3696540319616584    0.4816941680164887    0.5064966924054403 H
   0.4169824096645628    0.6047308518526158    0.5100479926474960 H
  -0.1335956977898952    0.3587556953525292    0.3485687120669347 H
   0.9238252610770893    0.5743665547387035    0.3441027568861628 H
   0.7239808026409486    0.3523581708977882    0.5586962530146308 H
   0.6953778981038822    0.5741433475292320    0.4980314593192947 H
   0.7363700095248407    0.4919787445663519    0.4208931204077196 H
   0.7771404936946816    0.6404659202577004    0.6387070149470810 H
   0.2819131833407181    0.9449603254431346    0.5677444261817182 H
   1.0007372236077186   -0.2132618845040728    0.5576173667002516 H
   0.3509626552959923    0.7776433895607769    0.6007988361270058 H
   0.6321548685708408   -0.0528320679446494    0.6527666841517213 H
   0.5077269975863615    0.7722742415947643    0.6137430328197184 H
   0.6156748934877526    0.8923808235174666    0.4814058781265756 H
   0.6335154812919864    0.7658353223484489    0.5875253636563553 H
   0.8056094476953585    0.7033551602732084    0.5216718341220085 H
   0.7174480755722977    0.9325337713449257    0.4052415450964069 H
   0.9642458502094519   -0.2729937570837850    0.4522873300109106 H
   0.8935605580673589   -0.0896748934387762    0.4455042489853908 H
   1.0470759909842051    0.0098645483073977    0.8500792996380433 H
   0.1460881512630628    0.0462304571028292   -0.0241771597450039 H
   0.1790310531791532    0.3032704413908331    0.8979990881606538 H
   1.0374964980787647    0.1015682319737581    0.7205869250609612 H
   1.0617374860581248    0.2247542617245860    0.7669148074768993 H
   0.4021406902325914    1.0031484157958843   -0.1596436538684745 H
   0.3760276420295070    0.3235344093605187   -0.0874428255727429 H
   1.4788675745897688    0.2683754437559409    0.7015442157501947 H
   0.6248760776055714    0.0698603086250858   -0.1363496284025547 H
   0.3430733746133592    0.2297005334864727   -0.0108819794638079 H
   0.4743384057037384    0.1134623354195552   -0.0096059341959722 H
   0.5487970438648557    0.1112286399996812   -0.2242865867772671 H
   0.7197520247981994    0.0251846957361878    0.6972213532531686 H
  -0.2302073192055599    0.0542412421013715   -0.0426196115079889 H
   0.2906207800274769    0.5547989932625688    0.7568999456679154 H
   0.1009435732140258    0.5364732755336751    0.7441866485330654 H
   0.1659120188272958    0.4263103718772798    0.7612667116019998 H
   1.0326823969830645    0.6435396864477668    0.8688602143796840 H
   0.0744406883589758    0.3624536300665357    0.8831938735526331 H
   0.3661209850867028    0.5944876700943272    0.8532582336917149 H
   0.4253750196354478    0.4473235044082094    0.7890909213510549 H
   0.5473836627505870    0.3969103299082840    0.7852233537568564 H
  -0.2509720878102510    0.5614400164912785    0.7849729415603012 H
  -0.1363834925896649    0.6160803297073026    0.7789557316034663 H
   0.7160038452435877    0.3922927814912552   -0.1455099992421247 H
   0.7302545586725794    0.3621176017584586   -0.2673997619685971 H
   1.0307421437589965    0.6978066348770388    0.7470070378507603 H
   0.0246944628831669    0.8684448940363312    0.7151705417705365 H
   0.2192803479892236   -0.0162942652480475   -0.1161719339411678 H
   0.2922225037141238    0.9247823937069181    0.6876723556929707 H
   0.1336315632002596    0.8374961998648938    0.6686938754845673 H
   0.3913288523923664    0.6966638139645451    0.6957953045753833 H
   0.3845030577865238    0.8858631730009011   -0.1397545838544158 H
   0.4977074974644171   -0.2227299284985605    0.9368698904895648 H
   0.3883421613415939   -0.2818181526524152    0.9840498247950803 H
  -0.3072516086297136    0.7591707609049221   -0.0325117394545702 H
  -0.3201717467305681    0.7730355810947069   -0.1616144303764285 H
  -0.2707172086955156   -0.0656017118153804   -0.0937779289349448 H
   0.9039681088341170   -0.0005928961387318    0.8325667064114225 H
   0.1320006139420367    0.3279563470957925    0.1940757691649413 Cl
   0.7822671460419577    0.1557312875928033    1.1077436935740073 Cl
   0.6600417466042970    0.4788809455145689    0.1904504835011762 Cl
   0.1207520161710382    0.0621496764485890    1.1286303472412258 O
   0.4243342645587720    0.1244790316164847    0.0517243217814432 O
   0.5622253821825582    1.2057231624863478    0.2153331629673196 O
  -0.0729899805557638    0.2361321477695692    1.3021708776136589 O
   0.3068369131449492    0.6151396127772031    1.0117252506741041 O
   0.1677792081224240    0.5324782723154265    0.3289105416107386 O
   0.3399917004549650    0.4233039736813447    1.1289474276199809 O
   0.4624671408938862    0.3725352909714248    0.3070807770733771 O
   0.4767470798944538    0.6434706951284757    0.2656465018362240 O
   1.2717475724740894    0.9608526787574998    0.2742588927391764 O
   0.2882169767653575    0.7130309898881496    1.3330577586108423 O
   0.4150494628333888    0.9188085571188829    0.1285076119714740 O
   0.5950619354909698   -0.1850208966991686    1.2330636155773187 O
  -0.0718420650499763    0.9684660737569251    0.1947083038692269 O
   0.9602841616180494    0.7659416501464152    0.1698662757336931 O
   0.7399834267216301    0.7232059919897268    0.1090811540997526 O
   1.2688250153164975    0.2289448756245894    0.5708583181064144 O
   0.3475067314571397    0.0555652261016980    0.4429383369973121 O
   0.5561212968303544    0.1177933669458807    0.4304852083783636 O
   1.4893887803571000    0.2136718208586849    0.6458128675376412 O
   0.7301798711007743    0.2904632175426529    0.6099787196052683 O
   0.9244909546518740    0.2052735481445002    0.5252930546527127 O
   0.6690781309712850    0.0200457190445822    0.6372492582314203 O
   0.2430691514305898    0.4394714806102947    0.5263182812106870 O
   0.4340444607148714    0.5299572483422693    0.4820928856138781 O
  -0.1510587886279400    0.4369812998151735    0.3515752844788216 O
   0.9739958256157517    0.6356811693492130    0.3467946879991313 O
   0.6687436605410272    0.5122532641495761    0.4534458929332846 O
   0.2661849549042772    0.8911552130218234    0.6205318050315236 O
   0.3999495841858302    0.7117274597848364    0.6146243536673348 O
   0.5761107759668510    0.8184286225379750    0.5933685859181809 O
   0.6383726089236178    0.9230860189149352    0.4100424672414020 O
   0.8558676889487487   -0.0260779648198568    0.4095554643006989 O
   0.7514398507793908    0.6683725030796874    0.5634475805362822 O
   0.9437960683206345   -0.2129136812572974    0.4983005711279303 O
   0.1572734269623135    0.0302489020709334   -0.0993691129469908 O
   1.0662430950094124    0.1784188800260585    0.7005897225074810 O
   0.1256870786602053    0.3206481372264082    0.8416238228712442 O
   0.3179742913796726    0.3026202996643364   -0.0396270231538318 O
   0.5505984756239382    0.0919749484431923   -0.1474368723130203 O
  -0.2447657129575313    0.0132126288529413   -0.1099091899474510 O
   0.1706952707085547    0.4984054888739691    0.7224333084972498 O
   0.0010390417031875    0.4372597000800779    0.9998225410716097 O
   1.0120458961647343    0.6295945116625723    0.7906015247965080 O
   0.0637497307300745   -0.3439768963460167   -0.0072869383900162 O
   0.3668938390905993    0.5751043560238290    0.7762646135171101 O
   0.4677066364203025    0.3753233519333679    0.7857632034273521 O
   0.7820211641478603    0.3712715323345266   -0.0194733129775045 O
   0.6939076894893269    0.4188162912770993   -0.2200547832608065 O
  -0.2166620786015536    0.6310839124966816    0.7641968595123407 O
   0.0622577653011238    0.8051855358843906    0.6806469927370177 O
   0.3573297707923795    0.9463401518289579   -0.1875345317997292 O
   0.4279671654699453   -0.2154411985310937    0.9650819139326354 O
  -0.3336723371557778    0.8084622177194311   -0.0919933355211828 O
   0.9816756563687575   -0.0187543333614545    0.8071840155787809 O
