Li1 Co1 H90 C51 N3 Cl6 O45
1.0
  14.1058977465000002    0.0000000000000000    0.0000000000000000
   0.0000000000000000   13.7663715230000001    0.0000000000000000
   0.0000000000000000    0.0000000000000000   14.2280215520999995
Li Co H C N Cl O
1 1 90 51 3 6 45
direct
   0.6088313925308944    0.6922317362696969    0.3093290771231935 Li
   0.7331396805613445    0.6649958012687002    0.6290678393496640 Co
   0.1479248896737350    0.2389685078601667    0.1262291295682581 H
   0.3290356595028930    0.0890902340860789    0.0332478253752841 H
   0.0601538011368712    0.1995797699422586    0.3364445828586383 H
   0.3072873095918695    0.1783657558128217    0.1275265692672636 H
   0.4978200249354827    0.1231783741029288    0.0514850763556709 H
   0.7100337424737903    1.0590647824041004    0.2153384969780137 H
   0.8632164777262231    1.0971132978843694    0.3296003424529421 H
   0.7494300297563835    0.2189537930502648    0.0387496444239379 H
   0.1107815607331859    0.4938268046988260    0.2914376226389663 H
   0.2788502680643616    0.3446964404216450    0.0281782519468299 H
   0.3239080170585866    0.5990241689847208    0.2982101735271661 H
   0.6458364814221362    0.3614415936099679    0.2926352592842021 H
   0.6377930373224402    0.3880586291438272    0.0657597243983584 H
   0.8209525955746655    0.3899225916234921    0.2808809897684018 H
   0.6942757946994168    0.6000556680966165    0.1468447857173527 H
   0.7618780145040094    0.3807269949632900    0.0512981213394545 H
   0.8300870726788945    0.5204831388960328    0.2743136676949959 H
   0.8423854746039363    0.5627800505424440    0.1078035178948413 H
   0.0690805637054743    0.7374404536837372    0.2182735501649297 H
   0.1527810144827353    0.7807597843442280    0.0859789796860017 H
   0.2866101428321451    0.8870797392833084    0.1986102400570878 H
   0.3587771199571980    0.6399521650843942    0.1224155283728065 H
   0.3824374360886411    0.7709830614238029    0.1160794401352473 H
   0.6403324006897160    0.9891066239749920    0.0555327227405964 H
   0.6637764952055758    0.9420266800030340    0.2140600339159926 H
   0.8948160262278844    0.9835154629438225    0.1989504138459928 H
   0.9312022250522274    0.8328069050254413    0.2488132846184431 H
   0.2419033108861619    0.1417148489883887    0.3992846619747706 H
   0.2729690401204979    0.2544395417229508    0.3572647649841200 H
   0.0733596249240328    0.2897509525175700    0.6158488545940329 H
   0.3685219800483686    0.0934951711385684    0.4554593027759039 H
   0.5589006463524203    0.2146534587246153    0.5341813510872999 H
   0.6634128175373980    1.0199847678119358    0.5898108001362563 H
   0.6887185447172630    0.2185491838915846    0.4834830865844932 H
  -0.0053528413048886    0.0352619614172823    0.5390270704831792 H
   0.0132259123986838    0.2919875622116029    0.4067902733212925 H
   0.2247587090787366    0.3392861549389698    0.5354541914420664 H
   0.5312896422887734    0.3113492363865793    0.4465193388087263 H
   0.4757081391409475    0.3863065334692551    0.5679821151808163 H
   0.5918009273795638    0.4330977303306650    0.5758144761026729 H
   0.2728371803811587    0.8286278808066134    0.2997304130011362 H
   0.2072483028331443    0.9746380329110924    0.3303439454873666 H
   0.0363850197359716   -0.1035872623456002    0.5679893544164066 H
   0.3545739135349261    0.9190002783495269    0.5835843546901623 H
   0.5049172690669199    0.9886794961737283    0.5813977541226780 H
   0.5636775844254841    0.8742659052453934    0.5869832812255851 H
   0.4636095827025709    0.7615368540638797    0.5988907695140741 H
   0.6929203332928753    0.9180138165227985    0.3986598386311000 H
  -0.0938023694683529   -0.1361528515606661    0.6010541061302923 H
   0.8184458426805595    0.9163590594968138    0.4303206003435050 H
  -0.1841886761687792   -0.0063757351276884    0.6820674779317901 H
   0.1897790141406793    0.0394475233065377   -0.0949962873650910 H
   0.1769404126383442    0.2239376771395014   -0.1479087739847703 H
   0.2917952080661639    0.2701284979333185   -0.1340769141383848 H
   0.0410660404825160   -0.1316084442057230    0.7454712334501988 H
   0.4213601625869406    0.2837392013555641    0.7203777938111997 H
   0.4909078806854514    0.2041910068171273    0.6674547646154181 H
   0.5266341427821011    0.2343427428287924    0.7829191666044300 H
   0.0345793920150192    0.0043119032056360    0.7212493134356671 H
   0.6716739010993369    0.2795071493654908    0.7750972779748352 H
   0.6805652175014509    0.2412109288168018    0.6589890760051683 H
  -0.1244207680815971    0.0814091977415827    0.7505042592814979 H
  -0.0172102929188067    0.0417858300961096    0.8761541954622690 H
  -0.1053280449639335    0.2881296102515481    0.8313756577248164 H
   0.1129147110324971    0.3673945057381262    0.9915279312967999 H
   0.0992225658411056    0.5479823967336931    0.7180872434433455 H
   0.2250337713306917    0.5666045877425359    0.8510101514579783 H
   0.0116577739932081    0.6436394112055086    0.7419486073551742 H
   0.5890659011732685    0.4840934483255701    0.7256139399420722 H
   0.4660063106958947    0.4624902248833489    0.7259695761759275 H
   0.5446700029997271    0.4152957990381269    0.8154929154073052 H
  -0.0446477525513232    0.5624517142054180    0.9634277489533885 H
   0.7168557116762735    0.3583398321960282    0.6838126256959453 H
  -0.0975745505061180    0.4509050370411103    0.8674375935407815 H
  -0.0918811872446462    0.5011934517365415    0.7605056498106679 H
   0.2712406850424917    0.8644652108667342    0.6679235578327727 H
   0.3151443068558331    0.9704205090775249    0.6977527226569824 H
   0.3150117381931640    0.7886282339076459    0.8048189085228001 H
  -0.0831642659816583   -0.2159930620448649    0.8130856938639174 H
   0.4863669431888717    0.9877184586208847    0.7561403204658559 H
   0.3664703559319821    0.8988272066337142    0.8468725417569787 H
   0.4889960562496978    0.7160077907988914    0.7173893249053648 H
   0.3712612597946426    0.7049889104972400    0.6687957802956468 H
   0.4362454257423537    0.7942331966874959    0.8553677495803151 H
   0.5562484932833763    0.8731821047700777    0.7618937556641543 H
  -0.2195008561485037    0.0145811306315999    0.7926900261361601 H
  -0.1028475222330295   -0.0447787376266934    0.9255384332796691 H
   0.0144402980625987   -0.0828650263138769    0.8824621701635551 H
  -0.1741645002856749   -0.1845664802998358    0.7307671511409392 H
  -0.1843290429880758   -0.1618117551729829    0.8545369945834438 H
   0.2347878474251494    0.2080692981962899   -0.0027993508341377 C
   0.1574223355228120    0.1451137112028674    0.0281044539141129 C
   0.3255130194772109    0.1698900293074707    0.0489028480489829 C
   0.4097189325886058    0.2344153836113202    0.0305714167220811 C
   0.7018421333981700    0.2721159497432808    0.1494206884783792 C
   0.1145197134511215    0.3539465176687430    0.3041554836105286 C
   0.1817887392907169    0.6508243110053394    0.2246813279199854 C
   0.6491329749056182    0.4884365680721285    0.2502892452727830 C
   0.7054611869967023    0.3764760563697596    0.1069544890993924 C
   0.7262730491890851    0.4635443879193932    0.1737206235560690 C
   0.9046261072653947    0.4491187275579676    0.1628463077256179 C
   0.8203450482810430    0.4551634576352411    0.2342153309086145 C
   0.2440967196685045    0.7332832216996678    0.1758270302613341 C
   0.2395156571114593    0.8300458288815573    0.2320280977865641 C
   0.1412283999006231    0.8777838983432178    0.2486945049276891 C
   0.4154371081666199    0.6951947537890083    0.2490887972739199 C
   0.3549801266028906    0.7092013494760308    0.1608242416291722 C
   0.7301281742564346    0.9808480934093994    0.2087500897524031 C
   0.7727833820860315    0.9786870301291956    0.1085295499690952 C
   0.7999564133165397    0.9377735621860277    0.2798977188372486 C
   0.8003739691577807    0.8303429296820962    0.2563554435621201 C
   0.2493462969255333    0.2154263566507117    0.4246669681989763 C
   0.1506202161735626    0.2559163288317423    0.4518145233657725 C
   0.1029656810223497    0.1800132487605536    0.5227228359730929 C
   0.3242312860969667    0.2230027902683678    0.4986572975040806 C
   0.0760705477371156    0.2688979630772965    0.3702405676509883 C
   0.5770681536323867    0.2903197298447631    0.5103070971190899 C
   0.7664179595079272    1.0570482742811271    0.4173827509506054 C
   0.5508793206606135    0.3692679115195198    0.5784799907605701 C
   0.5482237647595867    0.9437388232472157    0.6261763621439714 C
  -0.0255514848170107   -0.0833735117915719    0.6063457764953044 C
   0.7650795122613006    0.9516239801906151    0.3837392820925371 C
   0.2457882107333621    0.2113286901083151   -0.1143517542507420 C
   0.2841416717978475    0.1170881708957928   -0.1622895506268889 C
   0.4960084422585602    0.2603009264651240    0.7186481084919947 C
   0.6623579396226839    0.3054464463983652    0.7044465556436172 C
  -0.0442698964165499   -0.0333574273898376    0.8782648191979751 C
   0.0014223389578291   -0.0685489808932857    0.7141155036063574 C
   0.0720105438274595    0.6004210512327316    0.7720321996826559 C
   0.1083861088018557    0.4667544422119255    0.8984130878065286 C
   0.0317330648459483    0.5336951897037655    0.8452574190980866 C
  -0.0142087115405136    0.3682465821171780    0.7604522340917490 C
   0.1414240627396426    0.6712145786609104    0.8000143051737203 C
   0.5358763053401239    0.4313700419590223    0.7430267614712492 C
  -0.0461655574003845    0.4641347250308407    0.8111521854067322 C
   0.3354854439572412    0.9059474561370953    0.6595035537189669 C
   0.4349091052657164    0.7502455708277488    0.6726431177346263 C
   0.3806651277641884    0.8304918432862783    0.8122240139771457 C
   0.5075367407704610    0.9198879487120173    0.7200776818114839 C
  -0.1593175189900700    0.0102452023225118    0.7517124385028362 C
  -0.1355586625157874   -0.1594342223608460    0.7939937913808272 C
   0.5612612192559253    0.3407455082599546    0.6846419750160029 N
   0.4155682589826293    0.8507499047176486    0.7150706610012375 N
  -0.0880735600403921   -0.0613190438082876    0.7819633063711432 N
   0.5057028270086503   -0.0273333272948019    1.0574836930704032 Cl
   0.8708962441577415    0.6068330531064661    0.6069122642512080 Cl
   0.3373690532444694    0.9916025612626496    0.3802321184424627 Cl
   0.6391059633291947    1.7092971246770556    0.5180891207542494 Cl
   0.7729336738319450    0.2677487858977057    0.9104477898466536 Cl
   0.6815839403263463    0.6558212704354310    0.7676500022160802 Cl
   0.1177963570813695    0.1791292104371895    0.1084381809762075 O
   0.2160396610457593    0.3091206171786244    0.0274114552449800 O
   0.1321456741994681    0.0682532256179616   -0.0069151725445256 O
   0.1697179017545347    0.3378979895848624    0.2404825409823045 O
   0.6690870398689657    0.2635530542988964    0.2293334153347835 O
   0.7379128613407604    0.1976874775574078    0.1038289667042259 O
   0.2118378724701469    0.5699787520909551    0.2472157329197218 O
   0.0807983574234255    0.4416160243345773    0.3306524915479644 O
   0.6295234466805441    0.4258134579403360    0.3157804308594725 O
   0.6138285930825210    0.5740509943594670    0.2493657156062103 O
   0.3847740473835994    0.6385763486633166    0.3152455708318760 O
   0.9613080720980398    0.3840001886239955    0.1584690301278898 O
   0.7342640329623773    0.5507216806428188    0.1149408419161851 O
   0.9126007858021020    0.5295794356065194    0.1059283450254228 O
   0.0889481400225887    0.6698917900110780    0.2390719442997996 O
   0.2134357856554734    0.7496099639806301    0.0838381338988020 O
   0.0674826505201478    0.8448892463833007    0.2106329938442967 O
   0.4901286321613560    0.7402029826432719    0.2639875658218712 O
   0.8924524758463942    0.9780238197847162    0.2714601437632721 O
   0.8593684418921717    0.9707517510458519    0.0966529865705066 O
   0.7247928172765022    0.7877681670425161    0.2551767835538686 O
   0.8844707080763893    0.7856833765839664    0.2342202507774623 O
   0.7108234830631663    0.9860644280027253    0.0372912547297687 O
   0.1022326542993560    0.0903360235064317    0.5060340153151742 O
   0.0667212668639629    0.2147805800940391    0.6009058072264515 O
   0.3346538768914080    0.3007996155400578    0.5457796607606250 O
   0.3815463194631063    0.1511341792587766    0.5051181395588519 O
   0.6281530978840774    1.0010952587233906    0.6487662913778474 O
   0.6738829061949346    0.2885131535832952    0.4903389941077428 O
   0.7187804385166290    1.0844825186184248    0.4863837006894746 O
   0.8198899195033236    1.1278861125866479    0.3785249239522762 O
  -0.0618575753050884    0.0061867618026801    0.5740390360031833 O
   0.1678938420270080    0.3412830500506608    0.4994382915417484 O
   0.1408342385292648    0.9572921404512642    0.3011016507328587 O
   0.2464177346502077    0.0320715782486586   -0.1369747168897388 O
   0.3487182068309345    0.1243529755564044   -0.2195434700855481 O
   0.4934069063152626    0.1995659681935783    0.0476827205747286 O
   0.3971291631750238    0.3223899089229891    0.0162567068902043 O
  -0.0552645883381245    0.2820844443295794    0.7817292611816693 O
   0.0632383265447486    0.4046825448661110    0.9597343331255046 O
   0.0538500548884579    0.3664966656660818    0.7046820065099050 O
   0.1939907276429086    0.4593356536205114    0.8834707432773541 O
  -0.0070691446862885    0.6003919949197205    0.9183034147197762 O
   0.2274923174383724    0.6371801928231311    0.8300093398619417 O
   0.1323058908719986    0.7596525521651070    0.7901007694454039 O
