Li1 Co1 H110 Cl3 O55
1.0
  12.7358610460000001    0.0000000000000000    0.0000000000000000
   0.0000000000000000   11.7851580991000002    0.0000000000000000
   0.0000000000000000    0.0000000000000000   12.9958489718999992
Li Co H Cl O
1 1 110 3 55
direct
   0.3982715031735594    0.8972813059171053    0.4735810641773098 Li
   0.6508307913427905    0.5329484761073890    0.6991238514425167 Co
   1.1295004296170459    1.1455681744847368    0.1963656234785333 H
   0.0583259757873461    0.2889415670936181    0.1097472730780342 H
   0.2649833027237631    0.2251426775346042    0.2659501501958971 H
   0.0979080659325843    0.4165478314605633    0.1116593451599528 H
   1.0197159403744331    1.1227258843995018    0.1611943929580563 H
   0.1615635186005939    0.0788732778791475    0.0407724179578960 H
   0.2838559960683164    0.4048313997556255    0.1953329860549208 H
   0.3473318770535211    0.1007070961305675    0.0119925205607567 H
   0.4457170585088056    0.2978111977868188    0.1692246494057612 H
   0.4619436802702692    0.1976657444907675    0.0849134203072125 H
   0.5396855774552237    1.1638284301546573    0.2212127881922973 H
   0.6133523673653311    0.2825589628580632    0.0793124780249971 H
   0.3608825902229462    0.3959821336598262    0.2912643871273458 H
   0.4573134475920851    0.0420137299335689    0.3195380305649149 H
  -0.0183273416816454    0.4123170863504228    0.2353988564052035 H
   0.6862253358005111    1.1042025860131466    0.2284504838752327 H
   0.7105087351625932    0.2062256635984886    0.1084420101408704 H
   0.7175369211389243    0.3785653117322803    0.1572800661518589 H
  -0.1395712053217073    0.4263958113539228    0.2616957147896724 H
   0.8637233464835025    1.0591798552582219    0.2048306341321556 H
   0.7212955990820253    1.0326040556493972    0.1311978917027014 H
   0.2193578049343928   -0.1206422466668969    0.0040152040942325 H
   0.2580697536765509    0.5371257641493510    0.0592129831351445 H
   0.1890653890069146   -0.1918139690101088    0.0938967503114647 H
   0.1907880836814840    0.5824845107613987    0.1598124132167686 H
   0.0927103019368165    0.7396194413603714    0.2240398447454660 H
   0.2069832980651068    0.7288440237603566    0.2804063046500015 H
   0.5697369417577737    0.6383318735600584    1.0170115099504482 H
   0.4744249722242141    0.7287379581488910    0.3011544682046121 H
   0.5886771609646848    0.7943297808041198    0.3132460214644086 H
   0.6072130101818952    0.6688965886848820    0.1914048086722518 H
   0.6697513809385511    0.9112310551370632    1.0032532706552235 H
   0.9306681723512266   -0.2313475922404649    0.2926809933098127 H
   0.8561541684238630    0.7142052723283181    0.0156986270339961 H
   0.9538232616643768    0.9702714171032838    0.2338645203227271 H
   0.7020601505234104    0.5095554933674245    0.1896580970838760 H
   0.9269935091438497   -0.2109549935176397    0.1720016899883376 H
   0.7937689086341811    0.8278482110770379    0.0485902065625251 H
   0.7140145837140754    0.6793622946994173    0.1192602337370350 H
   0.9204921819307984    0.5780586049261615    0.3317573169188393 H
   0.2148586980586943    0.1709541808992667    0.3594223044681241 H
   0.1284350164540889    0.0932561142038417    0.5980138737226164 H
   0.2069628832695102    0.2542114432753168    0.4985875105204984 H
   0.0828651097234969    0.2248855744924115    0.4734248604537678 H
   0.2926751877660208    0.3964564590743004    0.5916957024221080 H
   0.3161985285843547    0.2748195673206401    0.5997682800756986 H
   0.0208108836962573    0.4192851727612680    0.6561716748508254 H
   0.3386838555650492    0.0326055489768393    0.3403015836489386 H
   0.5732153088536454    1.1486907460862847    0.3417405046490544 H
   0.3898134963210245    0.4269863846785634    0.4516986923049608 H
   0.5816026491060383    0.4468435641947102    0.4143883171960763 H
   0.6669741835529759    0.2796799179004406    0.4275794523324319 H
   0.6812825997128110    0.4252570909492280    0.3356854943015083 H
   0.9723457627460048    0.3576652951242036    0.5134330200687518 H
   0.9626330311487289    0.3385022089694878    0.3948813191886243 H
   0.6686481967918921    0.1862505391223920    0.5851920872921729 H
   0.7450733396608699    0.1711858281947077    0.4300263875090993 H
   0.8920920605182300    1.1805528557705556    0.4383844409333013 H
   0.8784926659131517    1.0850344087090804    0.3491874979320065 H
   0.7252576397966458    0.4891272565991469    0.5153844123983206 H
   0.8410550715268851    0.0093371721172246    0.5294273579876858 H
   0.1503165365957935    0.6640523600780245    0.5023379388384472 H
   0.0671785378240063    0.7300149881109370    0.5754943753325690 H
   0.2647202659343462    0.9668603470385495    0.6299994716546018 H
   0.0678524616340259   -0.0055688646557072    0.6541064000036003 H
   0.0290459766845669    0.5344758209124940    0.5792894332858155 H
   0.3850450711803408    0.9871146362040235    0.6606500279100092 H
   0.4523400893109902    0.5753433252726418    0.6227887076481392 H
   0.3909637915344448    0.5552791056829141    0.4000321946831565 H
   0.5405155174146676   -0.1272726201708355    0.5878875633688603 H
   0.5279831884717314    0.6686072416968039    0.5626210339785920 H
   0.5973165454242505   -0.1611465823733864    0.4821491846779993 H
   0.8397909245687918    0.5138761821160879    0.5829929235390547 H
   0.7812145945267563   -0.0481137330218168    0.6328496125018900 H
  -0.0474627883279122    0.8694590232423366    0.6084995295881659 H
   0.9718196891671709    0.6503155906058895    0.4244222903733543 H
   0.7797258848171010    0.8533175342270533    0.4719774752124750 H
   0.7606089991098353    0.7538559919937323    0.4001306876713997 H
   0.3293613606374455    0.4605743939926030    0.7232200071209262 H
   0.1406399234830345    0.4835465083862720    0.7994743558858854 H
   0.0086844165934692    0.3655523339927868    0.8195869318757392 H
   0.2432635305779388    0.2233200460671790    0.8018120254037207 H
   0.1576030482548655    0.1403249778826720    0.7672425254832920 H
   0.2140397506814947    0.0827054708476448   -0.0645169096542231 H
   0.1047284921044984    0.2992375681298084    0.8027584814626204 H
   0.6230972915248938    0.1383046401154749    0.6894907755064474 H
   0.4111791502816935    0.1724399479846771   -0.0649970629719088 H
   0.6385889806448820    0.3042345312171765    0.6995432161190211 H
   0.5467765781872367    0.3678340174266351    0.7695932761011282 H
   0.7345133940463376    0.3179144495215658    0.8475727911132851 H
   0.8634406800829350    0.3557612052671729   -0.0968610836215315 H
  -0.2023427758588314    0.0007008009167591    0.8095606534631677 H
  -0.1750222830595415    0.1185126273110126    0.8442486527600764 H
   0.7445417697909139    0.2781288143983673    0.9581773390045377 H
   0.9578905170947639    0.4094244649945325   -0.0171937219710035 H
   0.0951934477473570    0.6560321028014404    0.8325987789944332 H
   0.0832335967840144    0.7812438299239379    0.8871546607635289 H
   0.2298392321043230    0.5506724640457394    0.8638779975263619 H
   0.0254275326835252    0.8350318228103810    0.7106052098610876 H
   0.2708478453510916    0.5657439631725576    0.6834988622294949 H
   0.2867164230051698    0.6821327284708993   -0.0237979846232996 H
   0.5498348716044872    0.9322235609583380    0.8641473142910894 H
   0.5596677364220044    0.7655172695807080    0.9621632271225056 H
   0.6404168900352182    0.6691027802335713    0.8671251882325054 H
   0.3983665104915279    0.6433610805933121   -0.0537234632004134 H
   0.5087532362042387    0.9901268995696471    0.9662337576522448 H
   0.7770743169428892    0.9751334647328675    0.9620478056519081 H
   0.9471727494065816    0.6791569516756198    0.8558908317610132 H
   0.8992450908214786    0.5680400715295653    0.9030520446471609 H
   0.7636994850893728    0.6541220732701676    0.8350149351122746 H
   0.3099256900450954    0.7092490384357527    0.4215552210437118 Cl
   0.4097642479099642    0.2946165015694744    0.8024476129684777 Cl
   0.5775330381223132    0.9701611088673595    0.6999825871837623 Cl
   0.0339557821366011    0.3738441192347228    0.1052629950500264 O
   1.0848626938607697    1.1443462986406530    0.1282438715318755 O
   0.2252545401240082    0.1538037957877225    0.2869276177387615 O
   0.3269955999015852    0.3494091479277200    0.2341538434756916 O
   0.2190421607870925    0.0427552134102028    0.0011811453051809 O
   0.4958157520871557    0.2432875338192500    0.1440712330566785 O
   0.5639909619817943    1.1084536957206885    0.2756440147731477 O
   0.6889648443326775    0.2746982282611235    0.0678487406176041 O
  -0.0682992279719632    0.4279808558516650    0.2923054887921354 O
   0.7426384826937599    1.0977792525827890    0.1777404455064464 O
   0.9307623944847490    1.0510594720444142    0.2425272864293065 O
   0.7314755154246837    0.4341598141132060    0.2154170914153604 O
   0.1991518684004964   -0.2025265957681360    0.0191154873019181 O
   0.2189023979557008    0.5084048936142455    0.1206491387665585 O
   0.1660288625451135    0.7127254449171497    0.2134318421210830 O
   0.5422562713314956    0.7531389884602248    0.2672136305607046 O
   0.6514079019106158    0.6275293031635083    0.1391227298739273 O
   0.7390439082998771    0.9429658860875756    1.0245369898334067 O
   0.9643133258632132   -0.1879243309064417    0.2385383204054561 O
   0.8320411540865676    0.7564363561894678    0.0795284700703086 O
   0.1528385490364120    0.1893798989230736    0.4900524775080470 O
   0.1285056830542308    0.0512193425428970    0.6610970937394569 O
   0.3072788332775596    0.3322986434860868    0.5450277239536470 O
   0.6627106320110836    0.2001536194733050    0.6614379718159550 O
   0.4145114730706053    0.4710061590114693    0.3925713508237326 O
   0.6555952905612442    0.4286953138104974    0.4105193895016474 O
   0.4071495837047153    0.0081805478373143    0.3680227429805809 O
   0.6680373232928880    0.1905423780247367    0.4427127460807084 O
   0.9662762869782650    0.2998909322964366    0.4615695364704610 O
   0.8608417195666066    1.1058147833074239    0.4219945921084531 O
  -0.0170342214174939    0.4668314165441826    0.5992050232991827 O
   0.3278969916456169    0.5179720117684441    0.6643450539220713 O
   0.0234695182304834    0.8443121395511766    0.6344485846079010 O
   0.0791278673157722    0.6560304057516569    0.5358771097646754 O
   0.3365387316585206    0.9730800344948932    0.6011664188228700 O
   0.5267622266581693    0.5986540010981090    0.6096237347117858 O
   0.5341052715973548   -0.1826193532833774    0.5237678585460539 O
   0.7555932408686552    0.5243359484563811    0.5823034726213522 O
   0.8325279684431005   -0.0561849017919044    0.5779867096210048 O
   0.9121535231140586    0.6536833859011458    0.3710190843572925 O
   0.7379344426776498    0.8303165699870656    0.4111611328781696 O
   0.0602979665235270    0.3531630220487111    0.7648925443419264 O
   0.1825428618138207    0.1788938283111369    0.8251810258173657 O
   0.6190465249678730    0.3851413796431485    0.7415889494282867 O
   0.4226875987070188    0.1186057104916348   -0.0100768340939602 O
   0.9220154397560786    0.4208490041367169   -0.0878820626855149 O
   0.7817665791923089    0.2702935355481794    0.8912867494109201 O
  -0.1619057768887659    0.0424021676585028    0.8608308707025872 O
   0.1775663627949416    0.5552824997824809    0.8044898035215832 O
   0.0514074800781240    0.7312198934571864    0.8351534408769916 O
   0.3264569633716150    0.6166630934000789   -0.0529385972003502 O
   0.5382188529100571    0.9134966165979688    0.9385172151794264 O
   0.5572140350281897    0.6786995967589802    0.9528756461217581 O
   0.6904127244511395    0.6423946107416373    0.8112765859927175 O
   0.8750457061951208    0.6437726151657986    0.8829302349396595 O
