Li1 Co1 H90 C51 N3 Cl6 O45
1.0
  14.6948699601000001    0.0000000000000000    0.0000000000000000
   0.0000000000000000   14.3411672896999995    0.0000000000000000
   0.0000000000000000    0.0000000000000000   14.8220928759999993
Li Co H C N Cl O
1 1 90 51 3 6 45
direct
   0.8631767081669147    0.0201034643189098    0.5807369114477543 Li
   0.6898910644753341    0.0143473080498669    0.7242672494234884 Co
   0.1738422650922605    0.1951185066301905    0.1416842044891259 H
   0.3044102799988003    0.2666147788155384    0.1499549663191572 H
   0.5425842148143610    0.2322688995680547    0.0711914603981868 H
   0.5351864630618672    1.0057958918908712    0.3057555013258710 H
   0.5424817300694066    0.8601829192634747    1.0891185592379364 H
   0.6939162787276961    0.1950097288739251    0.1629247946428804 H
   0.0280580556493196    0.2403470425573778    0.3314644213271087 H
   1.0336273488871786    0.5023061930303089    0.0707394324655560 H
   0.2833451054963719    0.3806041052753232    0.1221930299015082 H
   0.3147145562810090    0.6222280909664132    0.0604304969273490 H
   0.5024594636868603    0.3521405923858826    0.1128657371125219 H
   0.6448413293094236    0.6023705721015065    0.0056386394754905 H
   0.6820536354737361    0.4062635228503690    0.3277631896279855 H
   0.8919187114066036    0.5247705429323830    0.0556349528301256 H
   0.8507349512479065    0.3551410454962026    0.0922613594072314 H
   0.8577380754864622    0.6089871883143410    0.1422077472887102 H
   0.8436447217812355    0.4674221428066354    0.2712482286836805 H
   0.3012942265648924    0.6879305530440109    0.2644064148556075 H
   0.1350266783229497    0.6741122915317610    0.1467428693232539 H
   0.1705839851530705    0.9019786802285181    0.1453800388397998 H
   0.1127481552132582    0.7203895565962760    0.2564574699268671 H
   0.0651029564533479    0.0650021805107540    0.3247905999695208 H
   0.5282760242301030    0.5897927953866675    0.9366765243038140 H
   0.4815924535783943    0.7324164715966942    0.9863827301792980 H
   0.5042159270016146    0.9787722896853281    1.0642813110112643 H
   0.3668769777302141    0.7796064936032053    0.2365088700581693 H
   0.4456446022919032    0.8785049982610970    1.0168001620340137 H
   0.7519188335181980    0.8116255050772431    0.3347851399605546 H
  -0.0822457445476963    0.7927156078198022    0.1643611639989565 H
   0.6759685186783649    0.8707162319951722    0.2024812867594125 H
   0.7832120672282341    0.9222643371853924    0.2850101178923419 H
   0.1642368721637586    0.3695764115872658    0.6422646597643679 H
   0.1706186911423977    0.0573026677884315    0.3625747377890065 H
   0.2007326017249034    0.1533457563443571    0.5368726606001063 H
   0.1888788050956738    0.2332262832818519    0.4526485223192445 H
   0.6006851032412900    1.0340920543860574    0.4055632688507518 H
   0.5273743490171902    0.4120659793951557    0.6641765451315069 H
   0.6763645752624519    0.4571700484666162    0.6429359549777525 H
  -0.0013590131082633    0.2349646355021698    0.4924055259306689 H
   0.7601230571913130    1.0780766190492868    0.3586117346900911 H
   0.2189260257379037    0.5460132349563998    0.6358688018519202 H
   0.0781830313721389    0.6231582802411439    0.6191255522935641 H
   0.5839976469612529    0.6499859430267476    0.5763395567323796 H
   0.5520965820812741    0.5782435263031838    0.6743937257460754 H
   0.4400603405581953    0.4415780819632621    0.5831360328334784 H
   0.5211538924736348    0.3610157416278424    0.5534514934313248 H
   0.5110982267616400    0.3992343879156974    0.4204734439420065 H
   0.4927362745475243    0.5532253396554562    0.4584566764524166 H
   0.6109893795234987    0.5738212921350104    0.4418111863678489 H
   0.4758388130065777    0.6059163085797722    0.5832196917344428 H
   0.5303069370643800    0.4725976036670150    0.3253357321629025 H
   0.6959503219061086    0.4235434969971028    0.5343871141723374 H
   0.7083424016247073    0.5397474967368521    0.5567892811792419 H
   0.1047297106594829   -0.0675804720440071    0.5441721695766819 H
   0.1574671627161683    0.7720025100642698    0.4866942542021622 H
   0.6754070982627777    0.7563343294021989    0.4134636376434483 H
   0.4002580148766403    0.8067946570297653    0.3950593540998131 H
   0.8119275305937316    0.8037488798543347    0.4734874148146581 H
   0.1843316399842144    0.2366771878700401    0.8762154269744977 H
   0.1268006783428058    0.0592181325093353    0.7573793074915287 H
   0.1895007908651850    0.0645824099384991    0.9034835060090337 H
   0.0109582105549238    0.0234400128043574    0.7466696188309596 H
   0.0393987480441821    0.1367048515156824    0.9733440856628459 H
   0.1423544056381541    0.0098413986845664    0.9980558455380713 H
   0.4782346150855069    0.9927042100070093    0.8872442338621331 H
   0.7128630268619753    0.9256936256809893    0.9243192950290890 H
   0.6516716041109378    1.0287905333547391    0.9522046957925162 H
   0.0322547583195336    0.1747812499684211    0.7664306608410435 H
  -0.0548518308150115    0.1081255879368825    0.8895131442165173 H
   0.6801795120500667    0.9360114747800843    1.0434300046144174 H
   0.0288392806639792    0.2611319615237778    0.8591375418122837 H
   0.1634331903324755    0.5427854642272174    0.8423153560328562 H
   0.0521106672722668    0.5804651027869113    0.8118675640931129 H
   0.2299142141627369    0.4146226053140468   -0.0325219633983354 H
   0.3856372662355589    0.3413806593286323   -0.0999746509751934 H
   0.4723117998284599    0.4053916272963035   -0.0456307734446286 H
   0.0433749656057291    0.4153158543222457    0.8253157324231574 H
   0.7786274740890690    0.4107686651930291    0.0141171992208208 H
   0.1083765615772188   -0.0572981849036913    0.7703511598209204 H
   0.2067047539275625    0.7308956748889071    0.8431735344362986 H
   0.0243975945396907   -0.1226561840864487    0.8787386873745563 H
   0.1724914535468779   -0.0654572139169041    0.9109932417077105 H
   0.0151671623978415    0.6863281730190248    0.7037492292933869 H
   0.5026487134051328    0.7312526890633165    0.8659914996743677 H
   0.4732815940517974    0.8836175528055699    0.8464827837042898 H
   0.5705843264939611    0.9564163688928647    0.8214377375623187 H
   0.6580146340426818    0.7940062977354894    0.8832488466725218 H
   0.6478410156026462    0.7756409865526848    1.0067941526775253 H
  -0.0777326049159694   -0.0393435794801194    0.8742393227734894 H
  -0.0183152706781876   -0.0605963822571223    0.9803383745846124 H
   0.2124931685396657    0.2787692984915756    0.0396952335221624 C
   0.2939277102027929    0.3131298208985566    0.0913289674626109 C
   0.1283263808540138    0.1764449918046339    0.2833045557823558 C
   0.4167712607004467    0.2156349676724739    0.0264973672264554 C
   0.3885852337995880    0.3170039825255467    0.0476725145302618 C
   0.6593341421467106    1.0857377806395927    0.2791283574196922 C
   0.7109453508242481    0.3125768673042076    0.1001522828401416 C
   0.6931697597023637    0.5259574756036325    0.1229783441008847 C
   0.9564636854400823    0.5099219608261732    0.1778565591279324 C
   0.7848956479654013    0.3886906157843590    0.0841450966765620 C
   0.8741689796493159    0.5378063716221626    0.1224230918791606 C
   0.7872447670861372    0.4750059118125315    0.1458678242059074 C
   0.2604221398005456    0.7433772251270498    0.0911218442158681 C
   0.1338623264065015    0.7349588030027427    0.1878045469885909 C
   0.0539596118409342    0.7949532220496458    0.1508185420710489 C
   0.2288730344829205    0.7824500557189118    0.1806631803215804 C
   0.2939385983563073    0.7603688684903493    0.2559649618808663 C
   0.5129754396988691    0.9049812252187664    1.0381001230207110 C
   0.6385534206548464    0.9089132621904360    0.3265332688500960 C
   0.1174198535805388    0.1058558982148068    0.3596716389918269 C
   0.1504402206417998    0.1980562033426651    0.5029120718889767 C
   0.0797400373247009    0.1376099382312751    0.4494230668859291 C
   0.0591559831056909    0.0560628802843300    0.5130928008361241 C
   0.1101969247429108    0.2672053862485947    0.5693759652299186 C
   0.6077664860832306    1.0127269873862421    0.3385167317447054 C
   0.5119312385564525    0.4205926214410806    0.5923654986818206 C
   0.5582917372781004    0.4459470429225977    0.3898725022400137 C
   0.5614992512015295    0.5242408789345677    0.4568823373766047 C
   0.5433374028337211    0.5876751156060395    0.6001923286018952 C
   0.6715234300061032    0.4816792807278175    0.5750624091555585 C
   0.1072911487737501    0.7610856860124059    0.6059317340091940 C
   0.2653354190739274    0.7908824237094069    0.3506661631041315 C
   0.5728145605885115    0.8491677768549865    0.3819437973679582 C
   0.7873012493824934    0.9287129057106630    0.4297373178867133 C
   0.7449531373073481    0.8890585324987669    0.3437285463410829 C
   0.0764783548375376    0.0057141195862666    0.7783196701377896 C
   0.0602373128515917    0.1924415976154290    0.8370171838612895 C
   0.1481475838174199    0.0064595261340082    0.9276514830279897 C
   0.6615702966747344    0.9562518076718479    0.9733535310226322 C
   0.0189126872068018    0.1165196047953608    0.9009427042265149 C
   0.2623976591538181    0.6553279070700109    0.7070652252469398 C
   0.1113517495250339    0.4791603783769646    0.7319463269297626 C
   0.1231191214357427    0.5698027907929760    0.7862240869418231 C
   0.1591003857433312    0.6605436610242739    0.7394938440675848 C
   0.3461568215922738    0.4778929850307442   -0.0328080228661495 C
   0.4002757081261012    0.3843834350122357   -0.0414397323737293 C
  -0.0068316712684484   -0.0569781272746797    0.9065620186308163 C
   0.0814896274925492    0.6837677119869320    0.6683864769219789 C
   0.5346012928614265    0.7293658133680979    0.9316731822912916 C
   0.6096828011017684    0.7961672097012997    0.9418802428775175 C
   0.5248474807903313    0.9378892856622808    0.8754206674153350 C
   0.5757987993139356    0.5014009668560544    0.5535835935346221 N
   0.0591260406835262    0.0181663835054148    0.8793135049844092 N
   0.5752959027234883    0.9015603042428820    0.9600989925682073 N
  -0.2039399143399841    0.8410554664935030    0.1280869344081690 Cl
   0.7871352050413984    0.6819652087821499    0.4319279666885823 Cl
   0.6570585180621968    0.8904796162633107    0.6414496601485202 Cl
   0.5911647740121195    0.1186463493890109    0.7214107027566841 Cl
   0.8159881313450155    0.0818425112259152    0.7142585413927750 Cl
   0.9973153569165896    0.4371524310578728    0.9373262301234013 Cl
   0.1560115526932093    0.2158274206258665    0.0711239935425702 O
   0.1894830976157241    0.1682866600847305    0.2257479065873316 O
   0.0693745151789736    0.2431536481276864    0.2807887167364151 O
   0.3582971127608515    0.1600899772328105   -0.0012780625623169 O
   0.5040686647253321    0.1885527928289418    0.0361431035739517 O
   0.6188145593523932    1.1206407972412820    0.2147737478527456 O
   0.7449381660962658    0.2429730491605535    0.1440293523903567 O
   0.7441514970048489    1.1032712209042910    0.2955713794705546 O
   0.2990907364974117    0.6602124467023119    0.1154342003058435 O
   1.0361152919652232    0.5140410815927532    0.1345920886267155 O
   0.3850037118029386    0.5525405976256318   -0.0241898067296930 O
   0.6339974089186565    0.3280386491466980    0.0715045066082475 O
   0.4369640219025323    0.3603567994504656    0.1153282773425256 O
   0.6289521107839123    0.5155309184776032    0.1746674008629387 O
   0.6939571093033752    0.5664244047089647    0.0420376827491686 O
   0.9547937148948082    0.4889724806387564    0.2601236188610697 O
   0.7801273172356802    0.4499850684772952    0.2370661462855619 O
   0.0601427220179351    0.8699422364217455    0.1134607947790598 O
   0.2247280505419000    0.8824830565911866    0.1821481258137004 O
  -0.0219941055468721    0.7594100901899334    0.1843515933181365 O
   0.2434815339512982    0.7701065695560290    0.0154240322141131 O
   0.5755157753735202    0.6350248177804017    0.9309269988681727 O
   0.6198945280791046    0.8916134151843845    0.2339741402926560 O
   0.1806262652413385    0.3057287497126546    0.6139919992497017 O
   0.0264078198822904    0.2857024858668747    0.5793492531614334 O
  -0.0144799186027334    0.0451418724726098    0.5522646839741744 O
   0.0014698652767018    0.1943403272969074    0.4335417738749299 O
   0.1454309895155722    0.4746876043897265    0.6556858413521658 O
   0.6431699977449602    0.3977784394856839    0.3820679363822926 O
   0.1198812567843923   -0.0109470067483805    0.5036591323812186 O
   0.0957966612104964    0.8458500552888925    0.6121110233151127 O
   0.1403918159671800    0.7247629802327917    0.5314910993949976 O
   0.1858518984186652    0.8018438745330718    0.3761935972637607 O
   0.4922827149026892    0.8722154126103682    0.3947267425016235 O
   0.6048634321524485    0.7705186699018806    0.4192887259573802 O
   0.3318109988274315    0.7881560068696783    0.4120373883157147 O
   0.8245217216619417    0.8702281266785968    0.4889099332074649 O
   0.7854509437946366    1.0122702602685894    0.4504453246822309 O
   0.1570779112280278    0.1902235075982485    0.8365523372260916 O
   0.1992688255868086    0.3150648098321235   -0.0344373474292889 O
   0.2777159301294170    0.5837953756325744    0.6500415642112862 O
   0.0787015796832631    0.4029006166778263    0.7689107424535073 O
   0.2568222440448407    0.4796650095449727   -0.0281494364858276 O
   0.1550118840986667    0.7360145050731645    0.8024991165222005 O
   0.3241906523865272    0.7025548856219197    0.7422869718901094 O
