Li1 Co1 H90 C51 N3 Cl6 O45
1.0
  12.1910205186000002    0.0000000000000000    0.0000000000000000
   0.0000000000000000   13.9039698441000006    0.0000000000000000
   0.0000000000000000    0.0000000000000000   13.8914945062000008
Li Co H C N Cl O
1 1 90 51 3 6 45
direct
   0.1986737087026200    0.3858314195334942    0.5533897918376588 Li
   1.1472612352641800    0.6070135735860632    0.7327506229482325 Co
   0.1985268793213333    0.2933607068941413    1.0929732035904103 H
   0.2103634601703147    0.2147112267628224    0.3223512956868264 H
   0.4001720161045419    0.9994576065624019    0.0324004917468827 H
   0.4305410897547040    1.1285416034441700    0.1193796140767897 H
   0.5708320832273659    1.0892039174355879    0.1341944347505586 H
   0.6464881465235269    1.0541024316389183    0.2829840411588184 H
   0.7056927880790714    0.2292926738080367    1.1540998159661353 H
   0.5541262315975314    1.0513888181585200    0.3787728707484719 H
   0.3865652799213886    1.0457997669111903    0.2714863581752694 H
   0.0188930253171660    0.3107248124486746    1.0706228366186328 H
   0.7401238678528754    0.2994503346011468    0.9952659339086483 H
  -0.0473877260577643    0.2273090676646658    0.2383236196524711 H
   0.1214307905594439    0.4612927454543945    1.0660401763460765 H
   0.6474134177083953    0.3675251370218123    1.0590373301111675 H
   0.4399562162262637    0.3733011852224691    0.2222087228787591 H
   0.3952774299696928    0.5530146791394823    0.1927676861481563 H
   0.6182814841300582    0.5794394343798647    0.2039176743607904 H
   0.6228245000256922    0.4262702299095530    0.3273097254633531 H
  -0.0398444691286421    0.3760881590460957    0.3366535725160996 H
  -0.1945435771420030    0.5024202943783196    1.0454873121547850 H
   1.1838127281699742    0.7231509083261275    0.2215298902307822 H
   1.1662506217266830    0.7975498038645088    0.0798115172276942 H
   1.0578060499221380    0.7151028471425451    0.0888594997859353 H
   0.6346644440057534    0.9105714816745212    0.1600649413284940 H
   0.4168531462601126    0.8255677012253337    0.3142261799946577 H
   0.3763192139903680    0.9540425195706859    0.1962856661594639 H
   0.5105320961279741    0.8426131927401596    0.1637830437959389 H
   0.6162097953849309    0.8139321754140743    0.2478085602354438 H
   0.3832907386359323    0.7275021835862412    0.9955574792134527 H
   0.5199020253989256    0.6795151692672247    0.9979063985457417 H
   0.6636060735815289    0.9599983725341572    0.3676797518668985 H
   1.0945831186930375    0.9751379335631480    0.1235742671412237 H
   0.8996158477928198    0.7265031883240431    0.0279690031138545 H
   0.0816162402304170    0.0168957804665899    0.5979443931963363 H
   0.0737555365384011    0.1259595958375270    0.5314879007298152 H
   0.3822539099323208    0.1737423519459861    0.5571441754985906 H
   0.3562610080652022    0.0849813711730244    0.4693898306038837 H
   0.8132186509057329    1.0271777472360060    0.5457205666184104 H
  -0.3241381420588236    0.2668725884553431    0.4401638175338862 H
  -0.2472782927483900    0.3059448826340108    0.5399003865100777 H
  -0.0871875114210752    0.1444133182547169    0.4440456892774868 H
   0.3003296773813044    0.4855112962550416    0.3711034295697384 H
   0.5538037811518116    0.4501278046683734    0.4415939732303185 H
   0.5116611238397231    0.6088770701478740    0.5020889976947439 H
   0.3275045967815750    0.6124523080516797    0.3759157267613878 H
  -0.1656608433739168    0.4224152157948076    0.3928793443113084 H
   0.9431364045165590    0.6373761250539909    0.4920668003035372 H
  -0.2210393081193383    0.5787058309475810    0.5939585009674414 H
  -0.0251213374821856    0.3837996257136890    0.6233944986433931 H
   1.0358948407996160    0.9623681993080538    0.3464631721915830 H
   0.2570502817642596   -0.0860712150068292    0.5379486166707779 H
   0.3973043316521483    0.9231319231856991    0.3865596499140773 H
   0.5249716584050964    0.8467623674468696    0.3880360929268032 H
   0.6897211965537410    0.6595014607278552    0.4574955740193056 H
   0.9951714248031829    0.7314233658537024    0.5637800345819208 H
   0.7012354089845900    0.7476892239169640    0.6467757122237633 H
   0.6939636633694674    0.8255087252631306    0.5513819445187436 H
  -0.0728531905384730   -0.1991403612742247    0.3294052523331948 H
   0.2772651603811894    0.1674218549235267    0.6924489837149499 H
   0.0639097652334584    0.2724278364072635    0.8316989398040266 H
   0.5173807434477465    0.2253010080735522    0.9762327046270909 H
   0.4815056500269190    0.1440745660815742    0.8432239776556807 H
   0.4771819758997547    0.2630154166834439    0.7954746156483060 H
   0.5531656885501193    0.1549657001747812    0.7344955755873587 H
   0.6650300724972484    0.1001058286019388    0.9525642649316171 H
   0.5425012819238124    0.3414232392135399    0.9179330019105443 H
   1.0055372510116776    1.0149049933453316    0.0172998846879103 H
   0.7040579782639625    0.0929798062420698    0.8291650151795529 H
   0.6227889000527992    0.3553998230366458    0.7824702553241254 H
   0.7791895063097528    0.1643385628507816    0.9078153000364031 H
   0.7286342636982197    0.2618697007347892    0.7397210752603853 H
   0.7601353180532739    0.3301120811943979    0.8412184339046058 H
   0.1173646830564362    0.5208143791517791    0.9520409231128693 H
   0.2977507300362456    0.5853233654382102    0.9379754818521903 H
   0.4365135183868199    0.5435009933732455    0.9717292294990491 H
   0.3663241524765192    0.5064579829398941    0.8541839215214790 H
   0.5401530781818595    0.5663191527591872    0.7721999420805559 H
   0.5993510755028317    0.5763381618308382    0.8885610722151545 H
  -0.0334586214564785    0.3679056038999281    0.8423003909246580 H
   1.0098945564496395    0.8715596018961592   -0.1113846135280416 H
   1.0870718525229668    1.0151279512512217   -0.1166842592909321 H
   0.1285991814145547    0.7428244262542516    0.8512821459074867 H
   0.2743449782729168    0.8107999764458436    0.7670766632304483 H
   0.3111679824927105    0.7966853025648960    0.8797585636049092 H
   0.3587612089264424    0.6414540970746264    0.7304009837509934 H
   0.5933272155734718    0.6753846942558472    0.8046442553831199 H
   0.4915610018174414    0.7845247468462179    0.9216633420821414 H
   0.4397413039475089    0.7485796171024219    0.7573937597861884 H
   0.4619519137637160   -0.0442881842239683    0.7104146532754578 H
   0.8746745395950285    0.9207175048306245    0.7561073611202980 H
   1.1775154702921067    0.9896805427795943   -0.0047898911719184 C
   0.4838196482649631    1.0655178764204924    0.1308945738191419 C
   0.6616169045892365    0.2941432172219106    1.0294530402554880 C
   0.4797830706933874    0.3359708395859495    0.3528274982157225 C
  -0.1928546291192689    0.2508749990982009    0.3010152184297885 C
   0.0750294249693414    0.4678064966359272    0.9971159868304940 C
   0.4701210411840214    0.5229298900691507    0.3277114101055282 C
   0.5452924346372447    0.6113130650744865    0.3271938272063814 C
  -0.0376001943398124    0.5119591384269694    1.0109885042845368 C
   1.0791824391753919    0.7908783279450352    0.1008898828325838 C
   1.0609526281713890    0.8056057764576550    0.2083844363763752 C
   1.0690782809704196    0.9676911395064178    0.0458022175235376 C
   0.6042939758866070    1.0049697013712469    0.3282894616604862 C
   0.4373953149504135    1.0029918489802860    0.2207884293321436 C
   0.4633545855067346    0.8838496170440640    0.3444374722219044 C
   0.5733043635384371    0.8719148961074810    0.2075292368156154 C
   1.0216852018497267    0.8591789651477959    0.0356636395658426 C
   0.8995420229642398    0.8639991712293302    0.0567779984182390 C
   0.1235963188644551    0.0617505958173757    0.5417814656112742 C
   0.2369822325286165    0.0900705651797293    0.5808051285985829 C
   0.2650775014585168    0.2079678289382230    0.4463360116028348 C
   0.3197259206768702    0.1383898587004272    0.5147103682695044 C
  -0.2554236321683751    0.1622183050876716    0.5391304189594137 C
  -0.1482652529328670    0.2689518507325313    0.4045224400147846 C
  -0.2495291297442046    0.2575587017415459    0.4783037023219148 C
   0.3799645199704701    0.5298957423463044    0.4992992899363236 C
   0.3646893426614103    0.5403004685951454    0.3890395846672908 C
   0.5418477681357055    0.4370014096857602    0.3600736588037769 C
  -0.1002520452521027    0.3686737298466722    0.3952498595921015 C
  -0.0342821784330813    0.3956782475642740    0.4862548266556359 C
   0.1173745263669136   -0.0058452067151517    0.4561184003832032 C
   0.3136501372847423    0.0112606991999798    0.6227955710048813 C
   0.9222267522351046    0.6842950990818886    0.5529161207004704 C
   0.8163463628099024    0.7266635741724738    0.5262225925250461 C
   0.8307167758309215    0.7907970561922431    0.4373143761017687 C
   0.7527954895406831    0.7883164696844526    0.5966076039839366 C
   0.8170263715087108    0.8667473072241888    0.6424601218477066 C
   0.2056189845202448    0.3249984337399502    0.9523511849063772 C
   0.5819484306892733    0.2759987589967618    0.9524418878900941 C
   0.5289450747344426    0.1934388848837506    0.8014797290623283 C
   0.6972259005168270    0.1415249345448629    0.8921316023678217 C
   0.6920712869302019    0.3008894919227150    0.8015322792036883 C
   0.1125586867158831    0.4171785818825947    0.7714239276643108 C
   0.0823996036892373    0.3656335909170026    0.9508250712120920 C
   0.0533405106084324    0.3488175302795283    0.8435327997192884 C
   0.3807569064638947    0.5622580823862562    0.9117292057702847 C
   0.5514306410233163    0.6113785140081509    0.8321862883752676 C
   0.9112736085014630    0.6146531183485306    0.6365413922277003 C
   0.2871215952724826    0.7552453392694854    0.8195425803911045 C
   0.3788514056106594    0.6961952975040112    0.7889137664927798 C
   0.4592532061411833    0.7174489396877503    0.9524044549126871 C
   0.5226540509532106    0.9441029122822937    0.2728454632011234 N
   0.6282792525542883    0.2250571928151755    0.8621952985515264 N
   0.4367095643204932    0.6442971699842512    0.8716651219705465 N
   0.1029048599652482    0.3008945264560738    0.2245230886934416 Cl
   0.6568798114220246    0.5548430058896865    0.0737214597495559 Cl
   1.2846385776650711    0.6472042533894379    0.1522875204072404 Cl
   0.2035682948374691   -0.3181790256670656   -0.3996192594268644 Cl
  -0.0538490391102540    0.0052019979121784   -0.1699161127585315 Cl
   0.5405752741737494   -0.1039287048305257    0.7396217338972668 Cl
   0.2510770328562705    0.2953162634945131    1.0370663319681110 O
   1.2679262770263220    0.9725307645023360    0.0292186886672880 O
   0.0182130166183576    0.2999911873276932    1.0026970997888873 O
   0.4786273019881750    1.0027674526362935    0.0469201677910966 O
   0.6569175441121876    0.2215639458832132    1.1020636581807095 O
   0.4198086002309290    0.3269583056546296    0.2682368877903620 O
  -0.2860117194766576    0.2710677931813337    0.2798425505164312 O
  -0.1282546230083416    0.2105073914082167    0.2377174933644578 O
   0.4432889970987108    0.5046442131832873    0.2240602155305051 O
   0.6269185789359729    0.6177177107259432    0.2653459101506217 O
  -0.1233132811487253    0.4626827801147618    1.0434169805581979 O
  -0.0404137405845806    0.5997537764826602    0.9950989252402170 O
   1.1310591462185056    0.7575166330333597    0.2643863301720923 O
   0.9843396818987616    0.8586934922881965    0.2387123467255437 O
   0.8489572504212749    0.7781193819757098    0.0540569089067305 O
   0.8506765486513139    0.9412094940390808    0.0675550965867033 O
   0.2097023178165878    0.1574419713682641    0.6588672837911733 O
   0.2399147187749857    0.1638926470390014    0.3643748518808308 O
   0.2400984605705624    0.2913411397982075    0.4594079672458330 O
   0.4867373695456164    0.2709009343614417    0.4136359302834880 O
  -0.3086841446094258    0.1533165308902455    0.6138548483242102 O
  -0.0590307218006916    0.2087747927137350    0.4172906846353211 O
  -0.1943918261054776    0.0913047450716889    0.5033112419962783 O
   0.3073643632690982    0.4897024014324401    0.5468294465875977 O
   0.0587576124744527    0.4317842666098364    0.4797448719520842 O
   0.4671171909366915    0.5665324731297904    0.5459119787086512 O
   0.5416892088094332    0.6685672168689683    0.3967227032800768 O
  -0.0804185949161692    0.3756149129103677    0.5714393976513524 O
   0.7565441502807971    0.6425911823946661    0.4955840244566471 O
   0.1894693931304495   -0.0695636993423447    0.4390049789371596 O
   0.2957189066985515   -0.0798679506897248    0.6023398885818579 O
   0.0298994869825598    0.0091555450369462    0.3983416795529294 O
   0.8497340516731103    0.9375256540585349    0.5902634341784008 O
   0.9200825511027945    0.7602892224759612    0.3917808303974031 O
   0.7640874072099193    0.8502807870456262    0.4083434831700988 O
   0.3911087879825464    0.0381343190502526    0.6775607368162672 O
   0.2642162117917510    0.3099674747876994    0.8796534633221895 O
   0.1471283931122429    0.4947996003471856    0.8096170824586493 O
   0.1175262774034390    0.3988615110851439    0.6835435344168354 O
   0.8159723170117641    0.5713309587959766    0.6577039820317558 O
   0.9779923871926343    0.6008023978593950    0.7027732868297796 O
   1.0364887205317479    0.8242062195613015   -0.0632731594507493 O
   0.1917989766100827    0.7027322794608994    0.8347943590896051 O
   1.1629203016818552    1.0105681024662427   -0.0979324972048773 O
   0.8348296390586964    0.8587610988790148    0.7376759389370531 O
