Li1 Co1 H90 C51 N3 Cl6 O45
1.0
  12.9246805657999992    0.0000000000000000    0.0000000000000000
   0.0000000000000000   13.1666986954999992    0.0000000000000000
   0.0000000000000000    0.0000000000000000   13.1346267914000006
Li Co H C N Cl O
1 1 90 51 3 6 45
direct
   0.3258206855837557    0.3294892628843024    0.7537220929780821 Li
   0.5149123917623158    0.3028500871796228    0.9476880153039532 Co
   0.0947882832897054    1.1088311645492230    0.2598549962557560 H
   0.2862344074242900    0.1051224669000021    1.0835967113293947 H
   0.4101229624913288    0.1553727244095878    0.2682275219275173 H
   0.6041540634715622    0.2040645046976195    1.0725457692428606 H
   0.4290472212963944    0.3154128414299750    0.2652910091043852 H
   0.5689221675897459    0.3362927906380449    0.2924588918061338 H
   0.9282023042522628    0.2218571196436930    0.1701211942438320 H
   0.7405705877348733    0.1619901766666048    1.0448182969831648 H
  -0.0196222812477921    1.0461487853829048    0.1917944404289760 H
   0.1940882229258197    0.4391387683061453    0.1376048535222487 H
   0.2480145073281034    0.5830683928708575    0.0703825400128833 H
   1.0758508275782148    0.5650751961342322    0.2166432621871778 H
   0.3394380434057907    0.5681451380334733    0.2250074130492283 H
   1.0399334988955724    0.3443441634575833    0.0910180711402288 H
   0.2045991209947030    0.3419851818541981    1.0202823885696111 H
   0.4285071692645886    0.4767623983030334    0.1733135194363113 H
   0.5707782289351595    0.5460260779155763    0.2034049720734572 H
   0.5430908135148582    0.5684733903995336    0.0405788762912532 H
   0.4668059107677107    0.4232834651031224    0.3280921844327996 H
   0.3497516445289570    0.5157917717157957   -0.0027569572303120 H
   0.9692880391991776    0.4337248067924394    0.0233366657894456 H
   0.8785600715693318    0.3696891650952415    0.2998142587712048 H
   0.8910083482738046    0.5652943095252742    0.0432146573111347 H
   0.1391646218057745    0.8463393980154289    0.1362938151293440 H
   0.3327090569865726    0.7164784480884456    0.2297285216870924 H
   0.3583901558973104    0.7497768481004276    0.0964761630326409 H
   0.5696428817267474    0.6996898813328665    0.0805586951578102 H
   0.4804535981594402    0.5950805155492670    0.3094110293534137 H
   0.5784809338100043    0.6728965287880427    0.2458408942242829 H
   0.4500442586017571    0.7883544757766499    0.1953491664780306 H
   0.5085010077766049   -0.0247696221917392    1.0397515371081469 H
   0.0000602167998302    0.8311442451052784    0.1112044079285418 H
   0.7446024088491132   -0.0229141836672479    1.1039901343214649 H
  -0.0674083752139582    0.8293860215341784    0.3059324379380934 H
   0.7736073810100478    0.9511872442315662    0.3277023751080800 H
   0.3093413614785556    0.1549109533809792    0.3601562854300012 H
   0.0819601132505383    0.0893607330896182    0.6004052129492925 H
   0.3098164215753015    0.3226257352765137    0.3882697602827299 H
   0.4608801937172902    0.1456033810855880    0.4991770455170391 H
   0.5392481653544527    0.1480360333958400    0.3916227295523886 H
   0.6189892463624541    0.3080328593822951    0.4763665154000989 H
   0.5281986079380865    0.2935865654099870    0.5823064878179740 H
   0.6485505185389593    1.0966154980621508    0.5156903582624013 H
   0.7073264392383178    1.0852504624172519    0.3931340020320145 H
   0.8746156800820174    1.1039142144847300    0.4708837558863568 H
   0.8225896360667176    1.0838924910370675    0.5935363462937837 H
   0.8165152112791724    1.2656631881076983    0.5453179225762039 H
   0.3364298452687412    0.2647547368112401    0.5182614248436086 H
   1.1454525477460911    0.3788425605504888    0.3578539741058759 H
   0.2368204202275806    0.6081726356005077    0.5865555617266854 H
   0.4774823061569424    0.7023496216983058    0.6636137085681854 H
   0.3633674549239667    0.3970726427868231    0.4898115110444081 H
   0.5319104985148599    0.4158624704969805    0.5080734536035262 H
   0.9291439135971160    0.4738417724962666    0.6344693707746942 H
   0.7389132933908505    0.4937631822638985    0.6430010178309602 H
   0.8015879564802791    0.5341465625095272    0.4146519335643405 H
   0.9804790314456501    0.4463979152047272    0.3460348335649627 H
   0.1297021055464854    0.6244075328168507    0.3781468993814169 H
   0.1002460584076960    0.8729307257352361    0.6486814228538765 H
   0.3323245213708027   -0.0069808047047825    0.3452795779983184 H
   0.5986421284076885    0.8371320786407223    0.4245220274816555 H
   0.5914040384971694    0.9600413999084059    0.3598890528655939 H
   0.4475713928440863    0.8139326414040824    0.5960426984363169 H
   0.5381498790232948    0.9486186428849310    0.4885618371662932 H
   0.3025984482161104    0.7722198314809916    0.4663306002505105 H
   0.0278404004701007    0.8700735174957207    0.3939204727984898 H
   0.9182887130151188    0.7256591852493343    0.6601480600405999 H
   0.7884951764197976    0.8308981697545068    0.4002472608618104 H
   0.8591158772837886    0.9402946125008030    0.4289119504627754 H
   0.6815958226627725    0.9577925446194092    0.6409560415688568 H
   0.6914660859432101    0.8261376750056277    0.5818283623181225 H
   0.7984528693271605    0.9018552123364341    0.5919656887998450 H
   0.0945871177764253    0.0733939364869246    0.7542938640774267 H
   0.2050556119671462    0.1041260136277416    0.8210601311307235 H
   0.0238495861720293    0.1184196497435526    0.9406516524542291 H
   0.1051939563208729    0.3258725628214176    0.7154507352925227 H
   0.5647040362616681    0.1486033737878968    0.8157977052470086 H
   0.6298583737876785    0.0133120573238229    0.7752225135446492 H
  -0.0959181707268187    0.1778210242329153    0.8083997028870463 H
   0.1869716060367812    0.6284191686278875    0.7066381514377773 H
   0.0211725374183793    0.3665646157339000    0.8157071050328647 H
   0.4718580278910370    0.6686038810023593   -0.0090532914401388 H
   0.4333829570783898    0.5042214454310402    0.7747413426594484 H
   0.6931202854331824    0.6246262664619811    0.6777488646672960 H
   0.7949208671420703    0.4113207093932318    0.8738633063571493 H
   0.1349091974863885    0.8551244399363420   -0.0462267877072495 H
   0.2859837242462025    0.7504368464949356    0.8109601106195310 H
   0.4852398673198318   -0.0045549878209408    0.9074264982925793 H
   0.8214058543924158    0.8675239034446698    0.8892249914057195 H
   0.9654024499388220    0.6876564928834026    0.7773512379038603 H
   1.0366134942129388    0.3000149042029850    0.2896830230601812 C
   0.6553468180337749    0.1381641586756853    1.0580740980626442 C
   0.6477775787398563    0.0787703791045562    1.1559337495330304 C
   0.4217503291589164    0.1059936040214068    1.0221362669010412 C
   0.8842863252762000    0.3083746307028113    0.0543973123140291 C
   0.3046658107218194    0.5210367462988020    0.0697300662017803 C
   0.3799380772236555    0.5418715816925638    0.1546917493712382 C
   0.5133916888018103    0.6423193879791932    0.0577700765884587 C
   0.4876230596813904    0.3442036574702599    0.3211456604508818 C
   0.9690814576913093    0.4475978363364684    0.1849309031978286 C
   0.9648763247502433    0.3815501489008005    0.0854701403800101 C
   0.8888388555844303    0.5398626498705695    0.1941416711870046 C
   0.9591748298757787    0.3915048082297024    0.2871561145665397 C
   0.1570203822499178    0.9672148001801293    0.2698301559676244 C
   0.0491430546129467    0.9204133950404638    0.2395986156044074 C
   0.0646575579679152    0.8823415889186056    0.1342138169357228 C
   0.0718801736081820    0.7415515516533376    0.3050713552305584 C
   0.0755769767714595    0.9675375842050613    0.0512346796287062 C
   0.5259798296979586    0.6094895944222302    0.2361009905306535 C
   0.3909217142487469    0.7301356300562731    0.1717093627035296 C
   0.0176018495576582    0.8440199099868588    0.3150282426303306 C
   0.1976852170459697    0.1667202917425491    0.6730650619999617 C
   0.3895081396611982    0.1312102515409156    0.3444230633688076 C
   0.4690271648910789    0.1755524221565111    0.4194940962698421 C
   0.8040259277585310    1.1155458317596314    0.5156639395444954 C
   0.7114557482551473    1.0655378521417007    0.4739731470540273 C
   0.2596712751091704    0.6321049824466990    0.6614103722679145 C
   0.5427831076508910    0.3322568510886602    0.5028221738301898 C
   0.3583739079135455    0.3205158669911936    0.4590704777122411 C
   0.4115976604463742    0.6777800612123076    0.5038814730566520 C
   0.7545299269294843    0.5738139850031021    0.6482870454511329 C
   0.7726085168652610    0.6059701093127365    0.5359749087282315 C
   0.2324876245569331    0.8123103668693655    0.6264874157739899 C
   0.6018112589553621    0.9236237669778460    0.4336597823570802 C
   0.4183258731520796    0.7303642370951072    0.6093989972323257 C
   0.7887961509762051    0.9140534105115691    0.3980507766785757 C
   0.7186009925441526    0.9078020333134160    0.5806482754952409 C
   0.1449365246098870    0.1349553057219498    0.7749476675168684 C
   0.0845613380799521    0.2161882726740643    0.8375577449146095 C
   0.1616572473310233    0.2762230633441171    0.9011903104434026 C
   0.0407188618875878    0.2971349112087685    0.7667647170831056 C
   0.5045332957903067    0.0308092299506057    0.9775594388496069 C
   0.6058833131722581    0.0901900981607376    0.9632895244487867 C
  -0.0577385037332881    0.2714815558908223    0.7015386536702536 C
   0.3166521804592606    0.5453263580987062    0.7024994727479805 C
   0.8454753080563752    0.5299395854015198    0.8148231819352094 C
   0.8625124796041712    0.5875364832677393    0.7114186450899541 C
   0.3160657056166979    0.7378824466546404    0.6680805275293769 C
   0.8173399898836207    0.7601689747195903    0.7924845190512276 C
   0.8944351254211792    0.6897815510051899    0.7339651555240305 C
   0.6832515695797700    0.0048292931486107    0.9220610975889870 C
   0.4475868671143387    0.6294080269819144    0.1484015059321101 N
   0.4629604772386598    0.2921746701103434    0.4237051028616864 N
   0.7054687530945276    0.9510915482618216    0.4727013941321295 N
   0.5842164720790239    0.3999161801735179    0.0725325820695400 Cl
   1.2033085230789495    0.5082523723343906    0.3969102798652359 Cl
   0.9971680319127690   -0.0217870978013678    0.5986404121393314 Cl
  -0.4604772773145607    0.0838369490582530    0.6841997521836034 Cl
   0.5042433930742648    0.3630512065589935    0.7906877416950981 Cl
   0.1771090798914698    0.7232667860057207   -0.0806624825452747 Cl
   0.1638298348744479    1.0700211323750499    0.2707826002356405 O
   0.0515415665020551    1.0586447043528004    0.0616339092504746 O
   0.3434389159795261    0.0561086620788618    1.0719770435288654 O
   1.0113184783449960    0.2188404181212700    0.2494123698927590 O
  -0.0364977466714514    0.9962478941120690    0.2462687708658697 O
   0.8715811756855389    0.2262462228909445    0.1123213030054240 O
   0.2469630306644588    0.4295637789397457    0.0839474477053241 O
   1.0757827407891045    0.4945795979994294    0.1808500868296700 O
   0.8506854948503287    0.5685698458611015    0.2762894182936426 O
   0.8713428719236532    0.5912602716777192    0.1106859310728112 O
   0.2301773160082628    0.9106827857994559    0.2971838071756847 O
   0.0840228334751716    0.6945845772961776    0.2219155855732782 O
   0.5909413578166253    0.1079956244678084    1.2245325772203119 O
   0.7111818536716814   -0.0001157581133470    1.1699744986863105 O
   0.1460940000247600    0.1436135125083603    0.5893580775944451 O
   1.1259232449741601    0.3061842562842142    0.3339385629572567 O
   0.4014086271987391    0.0251859524903791    0.3646200590058434 O
   0.7663909550778818    1.2213711439524451    0.5146326197959306 O
  -0.0747191941946632    0.3224434572389050    0.6254915747647453 O
   0.4604362369037514    0.6029891039060119    0.4802890478647239 O
   0.9503397952752211    0.5392159425829706    0.6611362875864710 O
   0.7791255057820224    0.5167254909634460    0.4832965943011300 O
   0.0898504436521925    0.6942390085165446    0.3924800055282369 O
   0.1490317902321615    0.8263359023715272    0.6851780822270892 O
   0.2418928860162886    0.8476366100497437    0.5416859960085427 O
   0.3522004477963854    0.7226295723659140    0.4299775307965207 O
   0.7741598124580553    0.6915321796580562    0.5016863471152833 O
   0.1509003083651282    0.2825762124466016    1.0022780703841232 O
   0.2818915534779785    0.2073090537670533    0.6706904227737888 O
   0.2361194357851508    0.3218039651236280    0.8620715742843804 O
   0.0008555942906056    0.1698835751868824    0.8883608633128351 O
   0.4208056249600128    0.2005359056862455    1.0216512892841538 O
   0.5937986818187148    0.1702633210985670    0.8853680108607398 O
  -0.1146459062996798    0.1926052920666229    0.7335730621602988 O
   0.3994433948766954    0.5686920480954817    0.7598166704085131 O
   0.2913494274561919    0.4542329088037876    0.6932460693639133 O
   0.8301333428147200    0.3162725861740291   -0.0230826203983588 O
   0.8712438365940385    0.5685484281916825    0.8954893490693780 O
   0.8043307708825016    0.4377649994960349    0.8022503085203267 O
   0.1065819983625053    0.9326700740859983   -0.0419305103256228 O
   0.3420083196946998    0.7742826112732627    0.7639096683180691 O
   0.8721931830740178    0.8305108289245884    0.8497408090047728 O
   0.7242413640511205    0.7437199008090571    0.7802755691855949 O
   0.7496330941081401   -0.0356797222344397    0.9800132580948636 O
   0.6725565276948842   -0.0290926496503575    0.8262936258536195 O
