Li1 Co1 H90 C51 N3 Cl6 O45
1.0
  13.3384196505000006    0.0000000000000000    0.0000000000000000
   0.0000000000000000   12.9927095766999994    0.0000000000000000
   0.0000000000000000    0.0000000000000000   13.0354617192000006
Li Co H C N Cl O
1 1 90 51 3 6 45
direct
   0.7215818348419716    0.7704194597523193    0.6123387902588133 Li
   0.1512481521920309    0.3716004167027861    0.6900989817913469 Co
   0.1123230011168406    1.0261444092238594    0.0303402263854964 H
   0.2660601044417559    0.2217748557981588    0.1621491363429602 H
   0.0926729970783056    0.2524936213985035    0.2657557464571807 H
   0.0230095718489780    0.0370782006598471    0.2974792104132682 H
   0.6009536013510808    0.1296839803008940    1.0352152574483700 H
   0.4116553136858438    0.1453897111798435    0.1115855265377795 H
   0.6363888337387709    0.1287111270307288    1.1949479961002836 H
  -0.0287311904064763    0.2607921213660049    0.2003081222473373 H
   0.7571842534525002    0.0990629618250043    1.1448607790868406 H
   0.7076019178138693    0.0298780089332681    1.2527127317283986 H
   0.2828851861141254    0.5543891557244740    0.0115975070815733 H
   0.2891138100573589    0.4482508639494448    0.0930806200606498 H
   0.1086299099343216    0.5048606877631787    0.2094892316378641 H
   0.1689533981048139    0.3893826967296042    0.2107542424487748 H
   0.1337595736263344    0.3867658445788432    0.3978600046027589 H
   0.5735229154387296    0.5224510678644823    1.0688320183609932 H
   0.5706418394936824    0.6031110174934170    0.3116643619624185 H
   0.5666076284394528    0.3439941658370525    0.3561752517566321 H
   0.6595107633287159    0.5240385966149893    0.3658987278198780 H
   0.0632594675688113    0.4007152058671937    0.1245225443153400 H
   0.8290645829909443   -0.4709543972392978    1.0216461178344294 H
   0.2431525930568861    0.9323941415980530    0.2270060641765748 H
   0.0018001626826233    0.7582895803711450    0.2147962933661115 H
   0.2152354926988957    0.8482484910279369    0.3230509935369164 H
   0.6247555215424356   -0.2912074409779107    1.0230185279864727 H
   0.4978269764552719   -0.0101428964006345    1.1688384491328221 H
   0.5331532903924959   -0.1141766233165340    1.0914902107873468 H
   0.3422482906458019    0.6957283420704231    0.1597564324501583 H
   0.5843684281599144   -0.1013740590001346    1.2125231311384661 H
   0.7415249770559765   -0.1179356544648624    1.1464963176246583 H
   0.8004922325936682   -0.0424433182273949    1.0630094397953098 H
  -0.0757067704540355    0.8452652795760695    0.2527427820026765 H
   0.3157091646267214    0.0799784130219841   -0.3159313593268521 H
   0.2287183493425056    0.1105971225106819    0.4181960698461977 H
   0.2888559084400656    0.2277012562572352    0.4169178642590908 H
   0.0019568529094091    0.2026225767041777    0.4326049955939791 H
   0.4579326850817019    0.1710464071932602    0.6172538443919271 H
   0.4759231971729153    0.0944626896764460    0.3497059757297008 H
   0.4070745611228735    0.2636344845991697    0.5263006410808623 H
   0.6165034195030555    0.0834565173953043    0.5852979375761028 H
   0.8809125543489362    0.0762940391261921    0.3645892229962124 H
   0.7778688628162231    0.1922752354351100    0.6442816557260715 H
  -0.1065147680105223    0.2615263792930125    0.3802211970980477 H
   0.7536568490648119    0.1739395681446457    0.4985905370752661 H
   0.9204014903549536   -0.0252082681650449    0.6002072675397466 H
   0.0497331275129834    0.4977362308164922    0.4128630021346332 H
   0.0174796813572484    0.6315715936201343    0.5105051131252453 H
   0.0073120600382628    0.3687788343543480    0.4434367561438973 H
   0.3438796683179825    0.5878346812659114    0.3576182386185622 H
   0.3756428015152589    0.5352601204348908    0.5256593903004861 H
   0.5955009314017384    0.3957208665712267    0.5013961147209074 H
   0.4709667629226613    0.6057093977466431    0.5798627637766474 H
   0.6107343702441266    0.4929993435924163    0.6461979668271358 H
   0.8966880364160423    0.4640449520716023    0.6681503921546186 H
  -0.0966087968788488    0.4134946803116746    0.1779560179432114 H
  -0.0620447321635272    0.5224756662746994    0.2608721449882557 H
  -0.1296389467424786    0.4158229090634546    0.3061110488877174 H
   0.1514483258310347    0.8642990306608691    0.7139508411805731 H
   0.2380455412632768    0.7582002995330602    0.6790575623847749 H
   0.2854304651568887    0.8862651954793155    0.6936884211996251 H
   0.0436417012324379    0.9057091766218668    0.4278698353572623 H
   0.6346464983940340   -0.0133693211700433    0.6668715728569909 H
   0.3588544558290736   -0.1400449764892034    0.4716040744874576 H
   0.6641260027358591    0.8200303585563636    0.4519283617643535 H
   0.4009921314103732    0.2841921672305889   -0.1393376912552868 H
   0.7017264091664065    0.0701444365719038    0.9700146517231314 H
   0.9451083153488462    0.1642410522764872    0.9250427119001990 H
   0.8789153162429211    0.0698635097968956    0.6915550100018431 H
   0.0909906388538694    0.4336529081589042   -0.0810996313880380 H
   0.1452114550337599    0.6809816105384878    0.8187495839813642 H
   0.3308383932225870    0.4865404137206601   -0.2083808919786160 H
   0.3111906383260632    0.6576123511697951    0.8112623156281270 H
   0.3499006214821746    0.7145950764150125    0.9312112697719592 H
   0.4714876642124733    0.3444982947072726   -0.0439594049481177 H
   0.9669752236964978    0.5361642428529787    0.7402161171926768 H
   0.7391176453899050    0.4586834068458918    0.8934956897188292 H
   0.8247109937711133    0.3898352582192064    0.8062828218903338 H
   0.1838734564936307    0.7227096270695633    0.9534467690771414 H
   0.0922853949383619    0.7978540759034590    0.8761261477051002 H
   0.1941130503569772    0.9586527136061448    0.8575360888932155 H
   0.2602925546108346    0.9001652983742400    0.9605397284207919 H
   0.3297902930453313    0.9439590887796221    0.8439101810561050 H
   0.5761424911392654    0.0078294902383123    0.9627237707365365 H
   0.4985593270827043    0.7111823933454613    0.8174546547825667 H
   0.5227899187471288    0.8142055535337287    0.9268539250745835 H
   0.4387131668241255    0.8010812703352651    0.7283170373333467 H
   0.6961830238226092   -0.1283615012984530    0.9167967439156759 H
   0.9672331253137910   -0.0293644451103711    0.8066640895513543 H
   0.8063152612608677    0.7025945003165815    0.8060227620571631 H
   0.7629270627212974   -0.2243237786540495    0.9950348625162491 H
   0.3164986134726801    0.1592282410829854    0.2896260171620296 C
   0.3538598611360282    0.2566736578781454    0.0156825177353630 C
   0.6304713411070976    0.0542462900936336    1.0070252318155417 C
   0.6898614353429096    0.0665508828389912    1.1800402004129418 C
   0.0114249910628871    0.2734900115963738    0.2719296742959975 C
   0.3330822872358390    0.4885156752970463    0.0276422015086178 C
   0.4315484499757979    0.5315538111607762    0.0677297727244742 C
   0.0978512717022720    0.4238704990894419    0.1985782257169531 C
   0.0468174897523629    0.9486078496592092    0.1397617436838907 C
   0.2125327737153429    0.7688316462267254    0.1857585800764874 C
   0.0806888187282108    0.9035264140631732    0.2417481580233123 C
   0.1920385917085748    0.8646415304276599    0.2429955246567512 C
   0.0014238062527361    0.8184625562530989    0.2699995547082163 C
   0.5589672180557399   -0.0583553186288162    1.1475342555428889 C
   0.7275870440120847   -0.0859938953152357    1.0716773337628536 C
   0.3042018043830176    0.2103861613055677    0.6304938817391115 C
   0.2986329287630926    0.1478256926672431    0.3966632690872825 C
   0.3908275089474026    0.1862610934627434    0.5640950062220945 C
   0.3853268573018196    0.1103115777612901    0.4736067653443184 C
   0.6748071781474200    0.0526376956833129    0.6414263675282490 C
   0.3583783874366864    0.0022909996274665    0.5145058152962458 C
   0.8583431639797618    0.0021147469384888    0.6480713181917469 C
  -0.0456357417632442    0.2157083767827771    0.3579642179246391 C
   0.7716949679952642    0.0347384269721079    0.5794155222346455 C
   0.0536286414765175    0.4158798640808535    0.3907079756214854 C
   0.4579816414061473    0.4486267670642776    0.3708713173143127 C
   0.5965910155632046    0.5759062995003458    0.3819273123457526 C
   0.5186764629227018    0.5215009350282848    0.4504240805641627 C
   0.4376234575196611    0.5830028177020108    0.5073321530191157 C
  -0.0730550320227383    0.4419412485827615    0.2526553282534685 C
   0.9140724047352163    0.6226735266451497    0.6230956014113841 C
   0.0081045077402365    0.7731094298308222    0.3747944618182527 C
   0.6455098543085083    0.6687655289688178    0.4401703586109825 C
   0.3952890569837751    0.6782038989466947    0.4567288054577159 C
   0.7566227176636843   -0.0380978043323372    0.4954751123304575 C
   0.3946840377827412    0.3278035476478150   -0.0677138377921738 C
   0.6705330586119874    0.1351809091422866    0.7215102205199991 C
   0.2275742857727687    0.3981945615160931   -0.1038652231555241 C
   0.3374193827475874    0.4267297948953469   -0.0749479505555986 C
   0.8095585240411310    0.4584458890300904    0.8495348379788443 C
   0.8100143501554169    0.5518724366515995    0.7770356798855014 C
   0.9031025894322082    0.4661679118620270    0.9130500411864535 C
   0.8936322021367190    0.5412724152175038    0.7034878439398147 C
   0.7026530556750531    0.5706486586982683    0.7309659653685647 C
   0.1602004871109225    0.7487149801489490    0.8730407180619937 C
   0.2597220222539736    0.9107612405976300    0.8795368439242081 C
   0.3381398579052002    0.7274138036417548    0.8475126618129495 C
   0.2272151727649679    0.8307309748657842    0.7157919727428446 C
   0.4403689851728286    0.7738629293177619    0.8126577399246987 C
   0.7012675841961057   -0.1641361791865473    0.9938787853227726 C
   0.8479836158758138   -0.0848455590184900    0.7246854053267664 C
   0.0258689810593165    0.3911667741665054    0.2814107347035443 N
   0.6504579667333207   -0.0065747415268322    1.1034583330802621 N
   0.2475631605410029    0.8060917725415750    0.8313037998216024 N
   0.8864881773948952    0.2216632547505529   -0.0013141951370060 Cl
   0.6897077439721389    1.2952976585407894    0.3970537424061142 Cl
   1.6922065669491735    1.5730380312242018    1.0720302173122889 Cl
   0.0102246989428682    1.2934196822914199    0.6592416168076778 Cl
   0.2179809453806628    0.5356671179105738    0.6730478021102606 Cl
   1.0470589238640780    1.0687536891998233   -0.1491800737319295 Cl
   0.2656567583077334    0.2535141937373003    0.0488075430932297 O
   0.2572374700455148    0.2275057620083254    0.2402299916225893 O
   0.1232290907295292    1.0001198145845416    0.1017116913969480 O
   0.3814155993442065    0.1082219443526677    0.2420972058819929 O
   0.4261337905264461    0.1927524261214252    0.0502075702187069 O
   0.5077605595537039    0.4794959246970513    0.0481907640198688 O
   0.4304374487936268    0.6135753474468717    0.1137657331627692 O
   0.4920747357843073    0.3619519288904510    0.3387811613220728 O
   0.3806014099361238    0.4864346621072734    0.3317419016489884 O
   0.9013422609513810    0.5112681810969245    1.0039858304614919 O
   0.0808732483731357    0.9868600708041562    0.3167627621136085 O
   0.1576477109281215    0.7110854158834037    0.1389646871450574 O
   0.6083150431539948   -0.2165778962877970    1.0082603242385655 O
   0.3134712683254994    0.7598250568537239    0.1931967515880640 O
  -0.0391267247826047    0.9519797406217044    0.1111375178576268 O
   0.4812865761844100    0.1167397981033946    0.4242308388244329 O
  -0.0704512752876818    0.1140975470935233    0.3208592798396624 O
   0.8035413194469578    0.1355072459987345    0.5445793185172779 O
   0.9990127522191501    0.5907611685990992    0.5738660448506991 O
   0.5540304263123843    0.4528863096695590    0.5331643028311951 O
   0.6686812650227014    0.4821694240002522    0.6946849336577046 O
   0.6821543753842624    0.6499418957184764    0.5266285926403919 O
   0.0049692037765145    0.6819991042276955    0.3942859079574995 O
   0.0162479012490716    0.8393050139715127    0.4544188757714011 O
   0.6446566797722302    0.7580017266345613    0.3948551244655018 O
   0.3341851165353691    0.6653166717665943    0.3767008001233546 O
   0.3400538777567981   -0.0669054982002290    0.4484016742568226 O
   0.4173246509822727    0.7685376351909633    0.4794591318844030 O
   0.3631975490528521   -0.0157060162081934    0.6083596446698543 O
   0.7953701865199836   -0.0193395923857647    0.4109989331416485 O
   0.8621607076869049    0.6969605715684727    0.6056094543987113 O
   0.6982522344729852   -0.1156020380763015    0.5227194100507990 O
   0.2594453777865864    0.2947842611419925    0.6257989962553192 O
   0.2780645250699522    0.1431061228471059    0.6997756624273850 O
   0.5998417754835055    0.1442136670367957    0.7833530625585452 O
   0.7408075007543787    0.2109764923642835    0.7101228218073504 O
   0.2107971857966398    0.3316641742325847   -0.1718022106651886 O
   0.1608639840042496    0.4550516008918342   -0.0579865260381731 O
   0.3824112195411991    0.4875902332305536   -0.1556961451860684 O
   0.9863868186818374    0.4342024471105640    0.8761154077709870 O
   0.8257890825085193    0.6413701655999396    0.8441479938828984 O
   0.6549742438919676    0.6523209221884770    0.7332520370583850 O
   0.4759543103040714    0.8487764794324728    0.8827956467894285 O
   0.7774490229741178   -0.1481649147805353    0.7280799916447043 O
   0.9203130241025100   -0.0951867429883795    0.7927198193816011 O
