Li1 Co1 H90 C51 N3 Cl6 O45
1.0
  14.3786944238000007    0.0000000000000000    0.0000000000000000
   0.0000000000000000   14.0326020373000002    0.0000000000000000
   0.0000000000000000    0.0000000000000000   14.5031800053000008
Li Co H C N Cl O
1 1 90 51 3 6 45
direct
   0.6065670118257541    0.4991307029147142    0.3637526391227380 Li
   0.7487064814995154    0.5469202716787573    0.4924731679528139 Co
   0.1903637166159775    0.0835578829559401    1.1205314970000497 H
   0.2853744289751431    0.2538313642139989    0.2953703947020265 H
   0.0460564562456975    0.1264722332951926    1.0348420137594194 H
   0.3891133329420439    0.1708460421116086   -0.0010914845843612 H
   0.5029636556313113    0.1843203784818275    0.2441795524364896 H
   0.5192674376778905    0.3293540646499554    0.1188318701119472 H
   0.5452922552983700    0.9426223649356110    0.0337946576144603 H
   0.6848265510324170    1.1230842631116420    0.0361520716427979 H
   0.7689454539279378    1.0519114330587942    0.0917805613743719 H
   1.0077640767311400    0.3371117135671440    0.0993582098597274 H
   0.9817325060636080    0.4184111045829751    0.1876023052603434 H
   1.1589669562082483    0.4409390718950749    0.0920549839491828 H
   0.3765134407223357    0.6576381553520934    1.0603571076812193 H
   0.5840034194412477    0.4479732626843259    0.1106578007039500 H
   0.4123219769374010    0.3942907027430091    0.1014060366114568 H
   0.4763691687655879    0.6812923571257701    0.1933375991730993 H
   0.7817991939513770    0.3151407349004305    0.0044107569909925 H
   0.7747790850997054    0.4468692621604871    0.2068311916078953 H
   0.8627606474525459    0.5331963736099531    0.0731101732318371 H
   0.2117182284339464   -0.0954288789663173    1.0136376985756033 H
   0.1650749115768965   -0.2140205696289992    1.0018285643072973 H
   0.1331033023020603   -0.1372856920105939    1.0983922144507976 H
   0.3143464613253449    0.8398075059262123    0.3771021252305604 H
   0.3860309946786589    0.8674182084153245    0.2808328932766183 H
   0.6810000561937111    0.9341463887991934    0.1966196380075208 H
   0.5516929059615947    0.7766973288082416    0.3597707537721530 H
  -0.0298336049683315   -0.1823065654252836    1.0289577869919921 H
  -0.0141465061711940   -0.0359395556190829    1.0716008487049402 H
   0.0975569595719445    0.0988558297964039    0.4612216079615315 H
   0.0802487121981034    0.3047157260808867    0.5989555393662310 H
   0.0493933377862484    0.0221451814691235    0.5474322872431155 H
   0.2371057907007803    0.0270929452420466    0.4941523169388363 H
   0.6585543465564165    0.2572626594129943    0.6795068391207041 H
   0.3608868481140327    0.2215401327805458    0.6203356780590340 H
   0.5074292905566713    0.2826521060069313    0.5836506200368919 H
   0.4629616232459543    0.1788987182795520    0.5170350019692036 H
   0.6453952936950653    0.2616445979755327    0.5073328883673190 H
   0.6225392547311920    0.1463894232259758    0.4546537380209261 H
  -0.1018693524062594    0.0639114909847868    0.6481130344631315 H
   0.6990162955242593    0.1361896042886506    0.7041986653180714 H
  -0.0375088497956594    0.3068707077385735    0.5514478203867927 H
   0.7258852162073861    0.1723254541226396    0.5309738967444269 H
  -0.0389992493666058    0.2319950719008907    0.3994910082121781 H
   0.0848826516947041    0.5583678991090089    0.6655774801852034 H
   0.2486673410822137    0.6548567752562099    0.3827712267634624 H
   0.1653273684337577    0.3702281661512590    0.3281618238800554 H
   0.0673914948074898    0.6350999262225759    0.5755865954604018 H
   0.4119617216981335    0.5385835427036862    0.7204695796909030 H
   0.3566145548035692    0.3598637305595272    0.3194540784094863 H
   0.4370752674316249    0.6031550311269654    0.4269008590072953 H
   0.4632402299039669    0.7152931788359396    0.4838480250562708 H
   0.2052837082144431    0.7204354895640706    0.6127869887398645 H
   0.4651506258822369    0.6933970259212290    0.6724449395950434 H
   0.5421446120794499    0.0253149428492130    0.6535504626665449 H
   0.3515090843181203    1.0010306343229542    0.4010010218775947 H
   0.5774270226410290    0.6470406909898379    0.6526237693485907 H
   0.5653206383707111    0.0256113953523869    0.5266616700481338 H
  -0.0748147403160199    0.7730935780665346    0.6421957115057775 H
  -0.0915638270482180    0.7038170463573059    0.5437571622029159 H
   0.6547848805393708    0.0221772496485533    0.6064042506116628 H
   0.0694236681842071    0.1478645594797495    0.6925887976932836 H
   0.1537296534337105    0.0798237216178849    0.9824769462554329 H
   0.5940088480121387    0.1871103100922256    0.7421558581405301 H
   0.4101409722456195    0.2072327363713600    0.7887959742911127 H
   0.5606882984630105    1.0476855596361478   -0.0291356790197447 H
   0.4340207481056351    0.9905236734893119   -0.1318586680094399 H
   0.4172626202187835    0.1080045250746391    0.6670344020459456 H
   0.9064106466458753    0.2876383515951703   -0.0079541174665034 H
  -0.0284809091374913    0.0093335874737883    0.9630874054859441 H
   0.7507824697026301    0.9509757693639855   -0.1229840625813225 H
   0.3748199629084046    0.5580422289312433    0.9326885550380501 H
   0.4779144411905462    0.4688514789425254    0.8101044045724072 H
   0.6150566560453257    0.5450916728250456    0.8723114515559173 H
   0.5185181345991516    0.4914019866216333    0.6993293883750704 H
   0.4943995262068641    0.5699879820819722    0.9603369742022241 H
   0.6550331645556227    0.5780370951188679    0.7617949993423845 H
  -0.0805600463615577    0.4511079628549055    0.7516916978632295 H
   0.7241973021809339    0.4344674282356447   -0.0686477032648128 H
  -0.0271344725675649    0.6588011613260830    0.7949442810739986 H
   0.0444102706253382   -0.0637989646553290    0.8169580739031110 H
   0.1394029006751970    0.0009324370893737    0.8782591126873710 H
   0.1531642335311536   -0.1207157073860788    0.8550400669417526 H
   0.0279345049530477   -0.2394499232906711    0.9278082460317403 H
   0.3922839963316587    0.6828066878210691    0.8111710671935942 H
   0.6457903226060767    0.6697385483902950    0.8573747273395154 H
   0.4870793205680421    0.7287233323811663    0.8682406201949037 H
   0.5637049840341429    0.7481972688096078    0.7293655597416816 H
  -0.0623358604739806   -0.1564125794749834    0.9106926893118148 H
  -0.2009958765530407    0.8330845902652939    0.7041855647428920 H
   0.7110918007740684    0.8312196474748950   -0.0741692509509572 H
   0.3624203670379416    0.2134019414674561    0.1184216152576445 C
   0.0956151977417615    0.0615106532848044    1.0317895797426160 C
   0.4044102711422141    0.2759284777198033    0.1986116149387485 C
   0.6432309803657209    1.0646090068606009    0.1640302334888376 C
   0.6963679326842388    1.0549379565707637    0.0722675993966138 C
   0.6845622711271628    0.9703542138803470    0.0018037425302892 C
   0.8395241845197936    0.3363499161491324    0.1687326504742902 C
   0.3225919943692739    0.3182078781063445    0.2620797646592662 C
   1.0317808608578269    0.4893985092960974    0.0684429209481819 C
   0.2482229335573259    0.3775454120709442    0.2220547494703306 C
   0.9837083460921001    0.4057104664884673    0.1090843526745068 C
   0.4620080596193913    0.3578869054542285    0.1592788617224513 C
   0.5091159735951436    0.4340046487751613    0.2200641515470166 C
   0.3655082690888056    0.6770315650188554    0.2648033052886706 C
   0.8780242029278419    0.3966858394333152    0.0900112942211942 C
   0.0269170273178193   -0.0169487797607180    1.0120966572321302 C
   0.1496333149022714   -0.1409044079027015    1.0212836079526830 C
   0.3827636604815959    0.8299910798896264    0.3488586641516583 C
   0.4198435221356206    0.7271299001766068    0.3480974517833388 C
   0.7103128705270038    0.8771206142583821    0.0459223427108132 C
   0.0866804505238671    0.0925804433950845    0.5382558169827061 C
   0.1749965355988846    0.0942943094290583    0.5942820815469645 C
   0.0169314197398223    0.1637440093072082    0.5750188579023634 C
   0.0319967652861776    0.2686682418968823    0.5507996177169946 C
   0.0728217513870273    0.2925141401209285    0.4556426935461804 C
   0.4256555936309069    0.1878585676122558    0.6577474732516549 C
   0.6391937570762466    0.1856223465666799    0.6842926860849309 C
   0.4969263202904676    0.2016307817380676    0.5846986660512450 C
   0.6541874688588095    0.1832272098763740    0.5174727059760269 C
  -0.0828182486046108    0.1421514351577670    0.5411626967142266 C
   0.0511507991561884    0.6231826781202292    0.6484832980879391 C
   0.3216767513289727    0.6730380077405231    0.4960294914612549 C
   0.4122378246517806    0.6775895513409351    0.4436909698596058 C
  -0.0959620010503947    0.5247689273184060    0.6329894546744338 C
  -0.0560939863959389    0.6187943259218048    0.6682306914110130 C
   0.1058769082734055    0.7005090354925632    0.7037311816353533 C
   0.5873448215591252    0.0487560693862335    0.5951694731393805 C
   0.4526830127098427    0.9010769695449089    0.4034425553886633 C
  -0.1079498766474092    0.7072070092361472    0.6161469415214057 C
  -0.2142237812844450    0.7137318148108101    0.6206728454939147 C
   0.5793561268546972    0.9717958567022718   -0.0278828503302187 C
   0.4307297678117862    0.6110188613493773    0.9383059437741914 C
   0.6170575331174735    0.6023953715875823    0.8210826865727558 C
   0.4812277461816546    0.5241553561519813    0.7537388351110020 C
   0.8604947950017091    0.4002057140701580   -0.0860818108127849 C
   0.8536360359869294    0.3435075337978779    0.0015389730108737 C
   0.0981557621993755   -0.0677298108272206    0.8674159734625575 C
  -0.0061235246264265   -0.1780272450369207    0.9577072061109460 C
   0.4546528021194514    0.6597767466069604    0.8492372016412291 C
   0.5326690647185933    0.6829435120533031    0.7017247251210326 C
   0.5600043003398067    0.9307721036969623   -0.1241900050017853 C
   0.5915120983809220    0.1541705888080797    0.5965829562508436 N
   0.5200995299143175    0.6163193750960291    0.7830510273229615 N
   0.0666348197103411   -0.1021047612974053    0.9665149296552529 N
   0.6406632924441465    0.4454824915566979    0.5087939610418812 Cl
   0.7322508845568363    0.6106974669288692    0.3496398721347255 Cl
   0.2299006859154308    1.0017510994208119    0.3588102747603150 Cl
   0.3388299081268358    1.0904039377677734    0.9050380673620060 Cl
   0.6057053202399387    0.4232293841736225    0.9760156046761549 Cl
   0.8641578535832184    0.8961320562768240    0.7841432015905505 Cl
   0.2913332453651890    0.1695419361481274    0.1263543582807579 O
   0.1285903751831285    0.0522899827594044    1.1202363893065346 O
   0.4151678542329271    0.2182107431295165    0.0455824172601052 O
   0.4508106591284606    0.2236908386809753    0.2671503767576561 O
   0.5877516735185295    1.1292385030573378    0.1775831232639193 O
   0.6608424541571695    0.9984245602746207    0.2271239825608068 O
   0.8611353260352330    0.2508091164592867    0.1832529143007781 O
   0.7802726297618170    0.3798386432132842    0.2260249132536497 O
   0.2410971127435526    0.3987781099845614    0.1371540587562923 O
   1.1211081643071590    0.4890794665420807    0.0579024739604085 O
   0.1839319782902138    0.4147995149529630    0.2767289657256778 O
   0.2827851813770875    0.6556684565088902    0.2655755497202992 O
   0.4856509572274870    0.4618586418522148    0.2983662893943713 O
   0.5789715300452090    0.4778534444842137    0.1787408004074054 O
   0.4092097333163161    0.6644686775706542    0.1833060061054526 O
   0.9862509969700187    0.5592223379342623    0.0381757657560389 O
   0.8243079212380695    0.4812374426816811    0.0971642082691540 O
   0.5166574649714756    0.7242223852416325    0.3227643869061370 O
   0.7102474960241251    0.8580835176963961    0.1306465204119078 O
   0.7122546323571868    0.8033153429874471   -0.0135377205087608 O
   0.1830744595450076    0.1301586486772077    0.6708383953756732 O
   0.0003151684336861    0.1454102748140506    0.6749940357233745 O
   0.2483126496304253    0.0573075839008636    0.5559608306353094 O
   0.0225404129921238    0.2674888455200729    0.3834241870105626 O
  -0.1259271694656041    0.0716221065721450    0.5847469313282218 O
  -0.1199127152007680    0.1840524310270358    0.4737826462947403 O
   0.1439325191565658    0.3400961921327499    0.4435661696434229 O
   0.2410157423516717    0.6642520392029503    0.4491194345115807 O
   0.3204687139725874    0.6648321169375260    0.5818648047887509 O
  -0.2656262228563739    0.6566696963333115    0.5768570754512221 O
  -0.1329917886171081    0.5165113711152162    0.5542537567390361 O
   0.1695245506132543    0.7508681918430107    0.6632979801039854 O
   0.4188156123988690    0.9876596287531204    0.4264719875461587 O
   0.5356788651027204    0.8786641626282727    0.4176897756482539 O
   0.4434757094528192    0.2399508309043350    0.7382946359823872 O
   0.7480409134223359    0.9942571222011576   -0.0710113228287617 O
   0.9276246728299985    0.4021352920577633   -0.1426176877515225 O
   0.7810912019946699    0.4468141761544887   -0.1067848566199992 O
  -0.0884599291083517    0.4478866785998653    0.6822807135389557 O
  -0.0771285804338633    0.6204269525678897    0.7634870420523994 O
   0.0917462790235279    0.7147451692807937    0.7897419737198578 O
   0.4046216950664174    0.6820755333300682    1.0020554111090880 O
   0.4728844991201251    0.9401630918864452   -0.1596918742340392 O
   0.6187864800765833    0.8857277136173574   -0.1712927783073883 O
  -0.2446855177321582    0.7914622312439601    0.6614266663651996 O
