Li1 Co1 H90 C51 N3 Cl6 O45
1.0
  14.7631034525999993    0.0000000000000000    0.0000000000000000
   0.0000000000000000   14.3804678991999992    0.0000000000000000
   0.0000000000000000    0.0000000000000000   14.4277864211000004
Li Co H C N Cl O
1 1 90 51 3 6 45
direct
   0.8929567735284220    0.8266737586654839    0.3277093986216300 Li
   0.2469151041313079    0.1032223332373335    0.2889058023068658 Co
   0.2068490027252497    0.1664184688825831    0.0516705189376627 H
   0.0962042453241679    0.2279338525405246    0.0549655496937650 H
   0.3157495469205733    0.2920423368027986    0.2398788774997775 H
   0.4004864725958915    0.1377942264111055    1.0375057388989781 H
   0.6531040886665284    0.1405222322225285    1.0479231373559024 H
   0.5488155828694055   -0.0171812594786116    1.1062688859988754 H
  -0.0012637433423061    0.0520306748601431    0.1943874915834922 H
   0.7026499041753387    0.0094006294195421    1.1321356398519968 H
   0.7842560518168649    0.0032304546643148    1.0474102381637451 H
  -0.1196528073769545    0.1521345108472936    0.3225062442492992 H
  -0.1862343363322968    0.2585517714487469    0.3362061975360301 H
   0.3293964065152961    0.3326439364233840    0.1263645827771409 H
   0.1756048946363935    0.4173845727185210    0.1294856436721196 H
   0.1100597331392299    0.6111710349903801    0.1468646090020543 H
   0.2516708792449501    0.7182948094598950    0.2331058357352356 H
   0.5321638672738811    0.5915159026274251    0.2421030579154974 H
   0.5816834687822785    0.5945491836239652    1.0626190854252413 H
   0.9078533703521250    0.6430775072426163    0.3799814504796377 H
   0.6864480262458119    0.5686026008969348    0.3065058687750413 H
   0.0140020170531010    0.6833425392331410    0.1288362023977258 H
   0.1758846461136666   -0.1229886650974960    0.3326983829258842 H
   0.2813258905645989    0.7955509883121703    0.1388405090728586 H
   0.0667957946285563    0.8656307664573629    0.2292334468344482 H
   0.4088376976886268   -0.0736376978706590    1.0357244538667560 H
   0.5310689755357111    0.7746824044730662    0.3191633891090633 H
   0.5706058521737464   -0.1209623054404766    1.0543759636788541 H
   0.6382501657969857    0.7987678516523802    0.3307327314272922 H
   0.7197330331264932   -0.1010464027029911    1.0741600103557967 H
   0.2142397251672024    0.2769934523355526    0.6129361049153769 H
   0.5398847371008770    0.1348659489520430    0.3641183101946327 H
   0.5095064496737157    0.0974248862707687    0.5242387841587786 H
   0.3939512613302000    0.0882728892062419    0.5560763777156271 H
  -0.0190066251720659    0.2791366371203617    0.5227563668720407 H
   0.0099825369898119    0.2360156479879777    0.4085769666564391 H
  -0.0330477108195077    0.0927511857715145    0.4435704843911927 H
  -0.0705398276889130    0.1200263761720869    0.5622186920952187 H
  -0.2529953668408530    0.1986441240732449    0.5264218633284242 H
  -0.1486189391508728    0.0617793145415959    0.4888151450028398 H
  -0.1714623745493159    0.2637191971904457    0.5923736990589848 H
   0.0395339115636429    0.4875258231333363    0.5149487242640757 H
   0.0767076671877254    0.6221199137823391    0.3839543398978074 H
   0.0642251969136621    0.4156057710703895    0.3807237680942330 H
   0.2007967522423565    0.4425242275986040    0.6293211547837527 H
   0.5206019351538471    0.6083748811877463    0.5513011476152395 H
   0.3157414185483522    0.4690137690147906    0.6783771900855310 H
   0.6948575046727978    0.5512505229430679    0.4312629137897656 H
  -0.0604457441191229    0.3611770831106922    0.3285847927833795 H
  -0.1132916787496630    0.4080802857552683    0.4336693120401046 H
  -0.2235300175396944    0.3136800193998516    0.4874685697602518 H
  -0.2320512610847191    0.1482424260839658    0.3821072096990248 H
   0.2985113015328678   -0.0187570079284420    0.5255012785892036 H
   0.3149807383813361   -0.1348707541364420    0.5159125588811215 H
   1.0862210156412491    0.7890713660458334    0.5060578940108358 H
   0.5412514551534046   -0.0354025024754808   -0.6031035208404883 H
   0.5874647735244714    0.7748805899577096    0.4927840144003141 H
   0.6652702297883240    0.6867937482165956    0.5836384713309332 H
   0.7979408438152857    0.7377733133558344    0.6264745642672798 H
   0.0969513782041490    0.3410609087255672    0.7384252095608531 H
   0.2313966868326977    0.2105477701298188    0.7202235262024174 H
   0.1505884743975340    0.2983390721131314    0.8402717407689280 H
   0.3157915435103818    0.2715089298184246    0.8277549211592411 H
   0.5771586749125834    0.1164291357788952    0.9535413687147652 H
   0.6911455480252036    0.1191015105770850    0.9340200095970492 H
   0.3284961892918193    0.2764663484851680    0.6601318409850604 H
   0.3824496146374719    0.0455712188361032    0.9311533189770999 H
   0.6390189743362228   -0.0219836066959676    0.8526617217946085 H
   0.7476506048839013   -0.0586082842580447    0.9066360444849654 H
   0.8665605621050461    0.1578165234613995    0.8662112708587744 H
   0.1406041238527276    0.4144479506074735    0.8329559962105224 H
   0.2187374244628275    0.5039977489190876    0.7362751915958911 H
   0.2824963761644243    0.3663841459493197    0.9537368248933982 H
   0.2468351751378013    0.5173681275011848    0.9366032194472792 H
   0.3804012648377776    0.4248022729455028    0.9080894898984164 H
   1.0050964740538175    0.6638028412226449    0.6974126811847304 H
   0.4006476853116082    0.6305556615514886    0.0469830361855550 H
   0.3769866711406019    0.3460197181676415    0.7654134105665562 H
   0.5256434225510578    0.5353277447966948    0.7935258311529068 H
   0.6206231132713753    0.4852056621876792    0.8490284548144890 H
   0.7951209760189473    0.6564644151895205    0.8085551636971480 H
   0.7632814646649021    0.3777808543978061    0.8044977152229741 H
   0.7446498808056454    0.5811694381700150    0.9008555319679494 H
   1.1794060295116029    0.9805101995592512    0.7990554389299753 H
   1.1171210226394159    0.6822834638187139    0.6803497726542873 H
   0.1555020754051341    0.8126227554981085   -0.0672312966236747 H
   0.4727096337640956   -0.0970854745607873    0.7007763295354593 H
   0.4714470943488673   -0.0876226392098200    0.9308310242144605 H
   0.6467314448452571   -0.1234427532430119    0.9132656130971064 H
   0.5869052705699253    0.7396480785017933    0.8212473393819915 H
   0.9911705403461736    0.9235044049115260    0.6910991693720809 H
   0.9725389564869168    0.8175036815216564    0.7571668232850868 H
   0.1154190398902821    0.1123972780948190    0.1512173210652269 C
   0.1507212378104771    0.1962811967861647    0.0970433835541386 C
   0.2986515159536803    0.2821400164472890    0.1682670605623580 C
   0.3399097786188198    0.1910991679034922    0.1369143646742030 C
   0.1886969928270325    0.2807645396450982    0.1531316826446031 C
   0.6411309963849817    0.0987475136103880    0.9865152419143470 C
   0.5571081482092791   -0.0495439060393602    1.0419554859444506 C
   0.7182699261267115   -0.0269458930763690    1.0690656737850452 C
   0.2783949350145734    0.6642471939408451    0.0970995252224693 C
   0.0462228845371818    0.6702998481806172    0.2635852167826903 C
   0.0745807431232279    0.6783030648218784    0.1659638659467652 C
   0.7814917278973699    0.6604462049616867    0.3717106044525934 C
   0.2402552578248943    0.7388692443165285    0.1585497001920268 C
   0.1408059784295493    0.7679440979951949    0.1517170512240720 C
   0.1171381906150255    0.8122750616654010    0.0591068641169268 C
   0.6020091408852641    0.7068800209321078    0.2182213625574280 C
   0.5936660441647498    0.7410075613876795    0.3182665086298045 C
   0.4669670742628229   -0.0445704934563121    0.9903612927485103 C
   0.1509528964187759    0.2900173679211101    0.2492080979409086 C
   0.4391922909107638    0.0734527872809175    0.4994293650592193 C
   0.4143250263021598    0.1216076877232406    0.4145044178609378 C
  -0.0438266097489177    0.2721180894133280    0.4492293566268253 C
  -0.1980407969833128    0.2492419213841709    0.5194702078857487 C
  -0.0903046421086488    0.1091525992479926    0.4916903816323017 C
  -0.1688396197793369    0.1920052580315279    0.3656736423394988 C
   1.0580419812440651    0.6211714050067132    0.5566565082883780 C
   0.5258651239033858    0.6053012677066121    0.4149951376285694 C
   0.6113933466144192    0.6672415332281221    0.3974207161200018 C
   0.6340186706915986    0.6287003672601612    0.6976691307808092 C
   0.6926669083592357    0.6073317996896238    0.3771147598596883 C
  -0.0550640843444631    0.3700557928227109    0.4056298756225840 C
   0.2831656121439541   -0.0704660347287012    0.3863247658939937 C
   0.3332533191341649   -0.0687192209131787    0.4815847981599284 C
   1.0203967800311642    0.7878871208516316    0.6231628989427832 C
   0.4792980181313995   -0.0874529646194588    0.5612608181985143 C
   0.4376514902198363   -0.0411415368781508    0.4792128889147269 C
   0.9186275277310728    0.7967818244799548    0.5860068180060702 C
   0.2522717014249530    0.2744608504581112    0.6765002562850420 C
   0.1473520275248688    0.3523686075528805    0.7898939503868200 C
   0.3170609243055628    0.3453890015551101    0.8089585519807094 C
   0.6726358897492619   -0.0557481547901928    0.9110948019216516 C
   0.2445341684349039    0.4496746208070003    0.6922809168350921 C
   0.3114516701087146    0.4064669863715056    0.8949149117301385 C
   0.5780067350809754    0.5471417553831968    0.8453293426678087 C
   0.5432116121145009    0.5667670556153054    0.9391275152011127 C
   0.6480773678121858    0.6244286008315170    0.8032625985196979 C
   0.7751014726029531    0.5092308957490448    0.7787009651785120 C
   0.7445049248343707    0.5977090251756111    0.8267388262731564 C
   1.0520879485921757    0.6854982409959274    0.6423820634013362 C
   1.0158963712781319    0.8517911611402736    0.7107293462913763 C
   1.1020097013162078    0.8665632813166844    0.7676472944805062 C
   0.6465485564702844   -0.0017172285751129    1.0010545477979731 N
  -0.1218102128372807    0.2072245124768005    0.4559274042121895 N
   0.2393645237023421    0.3549491911792355    0.7434828114597337 N
   0.6578429296713768    0.0669432633449677    0.4018524423830472 Cl
   0.9209414043566534    0.9626429088840784    0.2505873809036018 Cl
   1.2668544446869794    1.0642348744752170    0.8693683733186073 Cl
   0.8797901652590904    0.0818064793055479   -0.0879926241937818 Cl
  -0.1425633018462209    1.2771215497530297    0.7963523215659032 Cl
   0.4833617978232930    1.8385219197958653    0.8083943628693365 Cl
   0.1646458167894178    0.0539603756316697    0.1933790208745884 O
   0.3369144734553779    0.1172782041183669    0.1803832643165491 O
   0.3839553955914138    0.2004173626200531    0.0615216489621646 O
   0.0267107270206490    0.0987892368703129    0.1448414296210987 O
   0.1686354928212298    0.3587174969381193    0.0954686444128125 O
   0.2422873508801466    0.6000378784670859    0.0552926962055194 O
   0.0938625967601655    0.6121869963695513    0.3177910372165344 O
   0.5695487573664042    0.6176631742346944    0.1921764802010845 O
   0.4975511991691942    0.5586912405017748    0.3481865523150012 O
   0.8497659903677374    0.6162056416879846    0.4092555184255228 O
   0.1286750602540447    0.8336728355178858    0.2272865092252997 O
   0.0467342946227537    0.8556832459036013    0.0469067944137478 O
   0.3698838285481433    0.6774769442753654    0.0906141228697454 O
   0.6397816865962942    0.7454038022084332    0.1543044197164006 O
  -0.0228228959298298    0.7103465284442015    0.2942988680016980 O
   0.7833822518031063    0.7400138524138016    0.3402303768734155 O
   0.1599435534595639    0.2178180481717326    0.3007073354755983 O
   0.3317475381802230    0.1314543770655170    0.3973028879272089 O
   0.4743435043169536    0.1520900060367070    0.3521130035630701 O
   0.0228409444790969    0.4236806126411884    0.4285711633807628 O
   1.0494733221944179    0.5293289135622258    0.5719700147093550 O
   0.1192813714239650    0.3664474262268725    0.2806384218149036 O
   1.0575434410811766    0.6635893572093625    0.4802797954761858 O
   0.4892304825668617    0.5893289084196950    0.4940701229867889 O
   0.5661878786623223    0.5911257901471273    0.6634649926270663 O
   0.8204096967272105    0.4967409613978828    0.7094872985179359 O
   1.0701532558533688    0.8326019385131468    0.5566876981041173 O
   0.2038117009719992   -0.1156259004960820    0.3939732018202851 O
   0.3095943370562140   -0.0315187623641380    0.3138576548983011 O
   0.6292940543381369    0.7169394989000011    0.4821348063017453 O
   0.4818682094276827   -0.0705988537727955    0.4007510953339419 O
   0.5383137259598615   -0.1484551521803240    0.5600589706320267 O
   0.4435318933666904   -0.0636790511142508    0.6449465593621228 O
   0.6892834734222407    0.6824795631403610    0.6514846378480952 O
   0.8607765479054462    0.7553102948899353    0.6493048162814268 O
   0.8980214267864625    0.8388242673432802    0.5146101414865503 O
   0.4402128080431115    0.0516516885824919    0.9665918807271023 O
   0.2691624589002103    0.4934307770329743    0.8786532349106870 O
   0.6089629633203374    0.5790416909913783    1.0019562800263471 O
   0.4611283967600368    0.5750065649852746    0.9637744007053195 O
   0.7396597376262974    0.4361370918917673    0.8302667409867789 O
   1.1395946171018030    0.9523400452332897    0.7462677154517446 O
   0.1780210532790885    0.7877174462612704   -0.0086235535284916 O
   1.1337598005758216    0.8040423670945528    0.8170076037624967 O
   0.6397918470615704    0.7117901532376031    0.8452461698258372 O
