Li1 Co1 H110 Cl3 O55
1.0
  12.6302617304000009    0.0000000000000000    0.0000000000000000
   0.0000000000000000   12.6327336344999992    0.0000000000000000
   0.0000000000000000    0.0000000000000000   12.6115394245000001
Li Co H Cl O
1 1 110 3 55
direct
   0.5886744094466623    0.1448318210718306    0.6149635624445176 Li
   0.5085042576624893    0.5245683166549474    0.3805131991323301 Co
   0.1437422203951828    0.1374921586770832    1.1777822446912656 H
   0.0807239697057101    0.0350014359673072    1.1619475401973756 H
   0.4907318626962220    0.1786194407865634    0.0383656741745612 H
   0.5750491969472417    1.2113096230897975    0.2137119919844247 H
   0.6117649839909765    0.1282099238581868    0.0494083387781745 H
   0.4908252891053643    1.0100546870198477    0.1103392032931911 H
   0.3583680181706458    0.3216858626941866    0.0302203561017778 H
  -0.0498854377010638    0.3163655573711606    1.2714821460454455 H
  -0.1427759909645902    0.2392713964256427    1.2781427127829856 H
   0.8010595569011676    0.2823531248738450    0.0042613522894435 H
  -0.0979115208454857    1.0120020090098261    0.1534592365972586 H
   0.2531421702532480    0.3835632063172036    1.1848154859962632 H
   0.2186709922766210    0.6405281747809342    1.0418670370148675 H
   0.0523492608002400    0.4146934439504903    1.0568057366976358 H
   0.1785095125838375    0.4953751102856755    0.2929378474782407 H
   0.2999361332459122    0.4976968563818570    1.1279152158669923 H
   0.5298917796130297    0.3445890607169677    0.2857880462553360 H
   0.4143526062253865    0.4007257624410731    0.2447446825090802 H
   0.4016648248143099   -0.3527556514316055    1.0231222991963618 H
   0.5203947475989352   -0.3894650457256105    1.0290930215217995 H
  -0.2492132152039192    0.5050381019652140    0.2287783525296627 H
  -0.1752836308507667    0.4204008388885975    0.2977397989261624 H
   0.7684854100796694    0.4033451479958853    0.0361432650731353 H
   0.8940908831777916    0.5721676738010383    0.3134484284068061 H
   0.9696000072448347    0.6651926701320491    0.2681002769441091 H
   1.2295154444759231    0.9868213941719363    0.2291042445450352 H
   0.2758598309102226    0.6670909132751255    1.1579194831703870 H
   0.2076696367254879    0.6938293857049980    1.3229429533390584 H
   0.0258554606603277   -0.3224352147721999    0.0500308638907510 H
   0.2585141887789363    0.8121616519626778    1.2661299049170649 H
   1.3459738387196201    0.9463155135917785    0.2243641412168191 H
   0.3763082639736775    0.7013503231955603    0.3262287872967669 H
   0.4652557477218564    0.8988515190718203    0.0745645857137129 H
   0.5523164930548967   -0.1331499761861776    1.2159457062481469 H
   0.4976565014619801    0.7086884024016981    0.2981219885889594 H
   0.6269610269627576   -0.1492248817351568    1.3109618624576025 H
   0.7043410544603388    0.6678160136583858    0.1198725358986012 H
   0.6818735865600506    0.7763918801085523    0.1778821075595172 H
  -0.0619233513441396    0.9880721131736296    0.2737585869725717 H
   0.9540025474134334    0.8309643914862362    0.1685263900671082 H
   0.8688261652478415    0.7433293607770798    0.1370567980814545 H
   1.1324786588446261    0.2148008416792207    0.5804840286331850 H
   0.2802595813814459    0.1040449245134442    0.4844315199563527 H
   1.2124928360304852    0.2919496226317745    0.5305559446138177 H
   0.2986859612117100    0.0114145379434106    0.4048171314028469 H
   0.5754933682652831    1.2027208248819663    0.3386182343532030 H
   1.3954264956266926    0.2168851094839413    0.6216082706898254 H
   0.4556375780755689    0.0875662267095512    0.4585100214781476 H
   0.5735044941994720    0.0472247602665148    0.4253586363912651 H
   0.9366949092451879    0.1958967780846389    0.5524509719142575 H
   0.8882002689064400    0.2353150080899064    0.4435919378352811 H
   0.8786042682385931    0.0501809691980488    0.4357943172046895 H
   0.7599250174046892    0.2386428705475766    0.5700443831967027 H
   0.6747375507498770    0.3318942628497801    0.5783772279401322 H
   0.0815309205209469    0.5589900034078804    0.3429761480186221 H
   0.1820763428650793    0.4894365698105467    0.4564301802218896 H
   0.1838846981064458    0.4843584923448107    0.5855214786907555 H
   0.3301461168665696    0.4723887948608833    0.4879727212718115 H
   0.4142520540731739    0.5150604774591633    0.5638326117893349 H
   0.6803922237506824    0.5862912993885149    0.4901453347076282 H
   0.7189860399680257    0.4958366097654144    0.3975737650757720 H
   0.7531706047233854    0.6545639334005702    0.6340500507706279 H
   0.1584069996336202    0.8436536481932897    0.6480237612010646 H
   0.2994207044971689    0.9328663263520505    0.5670344413710239 H
   0.5441345565118662    0.8324367568932929    0.6042463933939709 H
   0.6485741974438538    0.9144617587638412    0.4669911431239486 H
   0.6511711349183206    0.7999631837246430    0.5701680794361140 H
   0.9834397837855909   -0.2139717547133247    0.5570071167325795 H
   0.7950446380007029    0.7094024204646900    0.5203192878779079 H
   0.9530999532912101   -0.2665605307630062    0.4487649780014372 H
   0.7334417974097376    0.9713219776825970    0.3885891363015975 H
   0.9047557453061661   -0.0778602803682823    0.4358640945705113 H
   1.0211270471345606    0.1318156359168661    0.6938191221447108 H
   0.1555962898670478    0.0257664498292798   -0.0186078621888227 H
   1.0756073116522626    0.0001799149309848    0.8184367399548623 H
   1.0359327577359416    0.2547470650858359    0.7102239394343497 H
   0.1488680049103347    0.2890056834119659    0.8562354561904022 H
   1.4634852594392440    0.2744553884941648    0.7104412007779313 H
   0.3950355085113493    1.0722502515534222   -0.2080668108210774 H
   0.4353197093347860    0.3093077025489467   -0.0630654800202183 H
   0.7040045610375801    0.0516739952164627    0.7624388180336058 H
  -0.1841678489608253    0.0396758003375600   -0.0937857582478987 H
   0.9481198506343820    0.0038991416129823    0.7942969430789493 H
   0.0583843693060703   -0.4267032250152683   -0.0114170667634977 H
   0.0834551878495884    0.5820198565194405    0.7168781627749967 H
   0.1381128833697380    0.4668302196520916    0.7370366851760065 H
   0.3215025905224372    0.5516297595612065    0.7368122875109203 H
   0.0681993678109409    0.3763264511820892    0.8677645800432394 H
   0.4150635970339448    0.6264496700688351    0.6917995431589352 H
   0.4659841570134751    0.4417224314902498    0.7664954203466122 H
   0.5667429557750980    0.3876272514784021    0.7855652572558789 H
  -0.0504719655306629    0.4111613501621640    0.9812638089493688 H
   0.7371519343016132    0.3526538234949753   -0.2608510092914709 H
   0.7274023342831422    0.3851424369554177   -0.1378247911768244 H
  -0.2330536134192034    0.5342313083344860    0.7609893518435791 H
  -0.1534543128298750    0.6271803116122294    0.7572792575858470 H
   1.0223938459025932    0.7056328483849028    0.8418438744896460 H
   1.0269780739444112    0.7531839182783967    0.7304522392011812 H
   0.0467163609032600    0.9096646972763337    0.6992181458251763 H
   0.3163419690411644    0.9338874830053318    0.6960496190771750 H
   0.2498912479147843   -0.0029704720835337   -0.1054473005108751 H
   0.4019411452955871    0.7989277783738742    0.6783079308923585 H
   0.4831785750418275    0.7881359732155920    0.7624174090690922 H
   0.6405609034868176   -0.0184895992710642    0.6903738647072570 H
   0.4290039257269135    0.9599546834646751   -0.1670940173652549 H
   0.4817193812109000   -0.2428372410403807   -0.0635697800732035 H
   0.5832121315087517   -0.1743358362742181   -0.0856757253203320 H
  -0.2625502309836124    0.7933486217131559   -0.0068669481722239 H
  -0.2972193462677445    0.7216760901616872   -0.1046535829746516 H
  -0.2240640926615520   -0.0667629198083208   -0.1324868226914530 H
   0.1047651975505098    0.3165325837694881    0.1887943360645203 Cl
   0.7969844236142527    0.1135155587768995    1.0488764905815167 Cl
   0.6518306620269275    0.5113004045110344    0.1279587810878194 Cl
   0.1497278445741368    0.0664278881894761    1.1516078032619563 O
   0.5412288368376914    0.1288099523412777    0.0814330572844176 O
   0.5955974647139605    1.2525200226012889    0.2772434906406060 O
  -0.1140149084348701    0.2995362624496411    1.3113345370250600 O
   0.2856371421517442    0.6352284509098347    1.0818145789478757 O
   0.3145272798059576    0.4262420132642274    1.1654998424573970 O
   0.4711526959870481    0.4000568652534586    0.3021817626004124 O
  -0.1977123030387839    0.4961983683627396    0.2975003356934556 O
   0.9603761287150974    0.6171864335132555    0.3320639195136190 O
   1.2830614449022011    0.9435449335247362    0.2679853028754254 O
   0.2605576935416188    0.7305269060844299    1.2776748872621344 O
   0.4731296938144090    0.9372517588010258    0.1411744555895552 O
   0.5848225494426132   -0.1919448515860338    1.2572650077592438 O
  -0.0407832510279806    0.9842487126811112    0.1976124506702564 O
   0.9474072763273638    0.7526749231403658    0.1553368820775556 O
   0.7375050544582022    0.7420161058253018    0.1259376162528207 O
   1.2125561759688868    0.2192337697864883    0.5577136125615257 O
   1.0127503402809450    0.2019136863959498    0.6579749650767942 O
   0.3224265618738709    0.0401638973859423    0.4737206943026989 O
   0.5311308671580116    0.1095282982632733    0.4556332909872196 O
   0.6978875064864427    0.2630888858705477    0.6079152555718992 O
   0.8663559076501779    0.1950711452246603    0.5059150193833659 O
   0.1533057593445989    0.5337650592889179    0.3539589468140587 O
   0.2099126622941356    0.4463200112129302    0.5219305106887033 O
   0.4508372024939553    0.6627783075021980    0.3354552580774831 O
   0.4062490528561279    0.4786962182820811    0.4950852550379704 O
   0.6576777300906279    0.5191593527697761    0.4421900471219512 O
   0.0789628027184528    0.8471999906791038    0.6569624003477658 O
   0.2954651253439871    0.8863918247131788    0.6313675868095447 O
   0.6099787977280505    0.8673618976241227    0.5776897623018646 O
   0.6567569257361142    0.9547064132233922    0.3974825787454366 O
   0.7285028657128706    0.6918535663200444    0.5632244386122285 O
   0.8752868389648077   -0.0162646651583683    0.3958475681962929 O
   0.9356656352461615   -0.2059671531024871    0.4940322511537497 O
   0.1039289520137623    0.3312578210286652    0.8115882500843702 O
   1.0207865949656518    0.0163272513588595    0.7590641308865854 O
   1.4523532652651574    0.2024298058827246    0.6746969522110778 O
   0.4007424369613363    0.2710483666060077   -0.0071237764539250 O
   0.3662055437986175    1.0016321236160395   -0.1868901732187580 O
   0.6405284417683866    0.0519990238380420    0.7154770649862786 O
   0.0773686948187298   -0.3492987591022416   -0.0043558352197101 O
   0.1482702342416693    0.5379502183787616    0.7021963706663906 O
   0.0269344034638011    0.4233408201368817    0.9852918659763573 O
   0.4643088156427520   -0.3667866604854123    0.9756261149608081 O
   0.3951336854158719    0.5523097390690891    0.7134685869450655 O
   0.4918862330735916    0.3737379378051669    0.7974305811440395 O
   0.8121004999138017    0.3585203288883611   -0.0144251848625698 O
   0.7074542124327790    0.4081540833979658   -0.2116341786487193 O
  -0.2287607490940329    0.6140643855748513    0.7484547995832180 O
   0.1736101683484714   -0.0075048825806856   -0.0870815806567199 O
   0.4683142749974251    0.7623387064142092    0.6902596835631849 O
   0.5044805880755258   -0.1726560731592856   -0.0919786830580351 O
   0.9849836947841306    0.7050755659942749    0.7724820011642822 O
  -0.1829533056419741   -0.0041680751073704   -0.1579872782008921 O
  -0.2873232726417199    0.7989752740321662   -0.0866288207034895 O
