Li1 Co1 H90 C51 N3 Cl6 O45
1.0
  14.1844285667999994    0.0000000000000000    0.0000000000000000
   0.0000000000000000   13.8430121217999993    0.0000000000000000
   0.0000000000000000    0.0000000000000000   14.3072322640999996
Li Co H C N Cl O
1 1 90 51 3 6 45
direct
   0.5839642209829736    0.6670563804793734    0.3487170711989448 Li
   0.7040712800708213    0.7002081249091346    0.6154332277245581 Co
   0.1134278177314667    0.2009728472691859    0.1347071254959623 H
   0.2885494300193270    0.1440972198354634    0.1369339712905850 H
   0.3394820422565915    0.1088288840351104    0.0411928821187047 H
   0.4809138941322135    0.1527904145636894    0.1065528331377723 H
   0.6823340631961370    1.0624565977037934    0.2278341521217382 H
   0.8459345909912106    1.0491011228711991    0.3548475371326030 H
   0.8589389921999943    0.9623844466566650    0.2201750886510933 H
   0.7257605570516426    0.2363899946130003    0.0044897664981076 H
   0.2716922123405226    0.3391638697986999    0.0670609181698606 H
  -0.0215032435366418    0.3079921857603354    0.2255954242246333 H
   0.1447967232819834    0.3667077306755928    0.9779911218195486 H
   0.3023589394456339    0.5225721466723219    0.2252683169327678 H
   0.3557668012027962    0.6231757571977249    0.1076243192027932 H
   0.6219664568475664    0.3319811844752206    0.2564791054177264 H
   0.6265715066521732    0.3995695815500575    0.0846100845890020 H
   0.7189502721293369    0.6038735997157407    0.1763021726032398 H
   0.7414721522668087    0.3969735425027893    0.0394587941034948 H
   0.8302265207682402    0.3808708332052253    0.2482937347018364 H
   0.8499939720039058    0.5083337715075986    0.2459452720935715 H
   0.8404680330939477    0.5510390003117420    0.0887709172994190 H
   0.0780023511620114    0.7255089768421068    0.1655754298505489 H
   0.1757524997471511    0.8050920899902264    0.1108576489723865 H
   0.3207791386640607    0.8251672006348498    0.2719544954801053 H
   0.2380659017878089    0.7524171379216887    0.3342551545835850 H
   0.2549273494572484    0.9538350067689673    0.3377282232444386 H
   0.4031575012817104    0.7429878317236220    0.1438102138918082 H
   0.6263804520751602    0.9874909767197773    0.0559071186750120 H
   0.6245467511348997    0.9530273790719292    0.2108748971434824 H
   0.8598977900772546    0.8207859287363382    0.2774712857679132 H
   0.2755422088167867    0.2032396949555057    0.3224128920919683 H
   0.2657293355420897    0.1146325342301052    0.4190353536891526 H
   0.0688091715153379    0.1233690721263297    0.3927325724765858 H
   0.2395090335927737    0.3688770562339160    0.4517502765589285 H
   0.1299558011391825    0.3109467450455642    0.6028444896181715 H
   0.4044998183098750    0.1004571511362064    0.4334168913759558 H
   0.6239587824366385    1.0555939294373695    0.6008014669384220 H
   0.6036541223903314    0.1966067454794735    0.6763199166326450 H
   0.4765496012945806    0.9797202690837855    0.5902208041515428 H
   0.0077548966870236    0.2250420308448682    0.4332030135312746 H
   0.7344045429142088    0.2316778698654336    0.5935568791602477 H
   0.7140096430676891    0.2637568708872327    0.4461431822922551 H
   0.5582458779223411    0.2756148392654801    0.5343153022881945 H
   0.4701412359824413    0.3399454915949390    0.5812089982606491 H
   0.5540428182277446    0.4020889754285818    0.5258599282670745 H
   0.8233577209754841    0.3181446004778430    0.5770709512291100 H
   0.6852555767280246    0.4452043750792173    0.5949114388432291 H
   0.0923758593396479    0.0909404362160095    0.6610870612503458 H
   0.3545231839561144    0.8981318120296033    0.6019092982580946 H
   0.5581671295966867    0.8940308259508151    0.6258405516046368 H
   0.4587422572193175    0.7762414325981797    0.6437000505827275 H
   0.0096978723853543   -0.0215293056509472    0.6094642185952180 H
   0.6430663551332483    0.9290000938919787    0.4106682567000041 H
   0.7584372347068049    0.9031177211216938    0.4395557446760721 H
  -0.1249695194665077    0.0393432842583672    0.7064312611643890 H
   0.2193566532093257    0.0715487028534952   -0.1160590558151852 H
   0.1955107860031075    0.2598812692820364   -0.1249091253228787 H
   0.3001325543747600    0.3075146885262189   -0.0957839952971649 H
   0.5200585235675932    0.2569837785013389    0.7435747135240358 H
   0.6421406921826285    0.2702041671270047    0.7759163985864267 H
   0.4378328495118972    1.0193236440701186    0.7668622364949198 H
  -0.0698619064725255    0.0690774198914492    0.8902480855126611 H
  -0.0583076870530982    0.2925410687550150    0.8264712499125577 H
   0.0221608347928615   -0.0187835159582443    0.8838072870200536 H
  -0.0752918044509518   -0.0363822869378888    0.9565208615812507 H
   0.1062495236239184    0.5389884437903548    0.7004391867772893 H
   0.2397029081635433    0.5651515358120431    0.8286449757196124 H
   0.0259917963112682    0.6361657046468657    0.7245381874529933 H
   0.5660712900971963    0.4971826579607930    0.6850274009105509 H
   0.4741889140210465    0.4216333489810641    0.7226650089440201 H
   0.5799712508232475    0.4230434467132809    0.7935801923471619 H
  -0.0049414202038463    0.5434387758032108    0.9600729112762514 H
   0.7240178009100339    0.3976388601315658    0.7004552625630006 H
  -0.0792947855885141    0.4371591607125684    0.8571501395746325 H
  -0.0747101807386431    0.5160469772073794    0.7530468460440376 H
   0.2664378589734476    0.8450913325776120    0.6831395445102760 H
   0.3013338717150922    0.9656452976624164    0.6963063119550660 H
   0.2902541162452210    0.8146297541082891    0.8264237215026285 H
   0.3792157542877662    0.7158333369725822    0.7334434737898693 H
   0.3265601258651897    0.9362181761359902    0.8603680925057192 H
   0.4984656762732804    0.7561497070724901    0.7646130243897422 H
   0.5293322704358941    0.9251606115934478    0.7922983231734840 H
   0.4027619971573405    0.8263374661708085    0.8844209626659038 H
  -0.1167421876814862   -0.0784417747774684    0.6663543273860256 H
  -0.2293917732798773    0.0374296833912348    0.8404662697950840 H
   0.0502373976324913   -0.0839550257468734    0.7141217772592517 H
  -0.0152816323110365   -0.1804239147610626    0.7966988947751614 H
  -0.2348978110897331   -0.0705265899148149    0.8930452722264337 H
  -0.2618710513720742   -0.0640670131107766    0.7680979751530781 H
  -0.1346992029253835   -0.2128294343151169    0.8047144213202750 H
  -0.0802930633783676   -0.1702794462910213    0.9093118705246924 H
   0.1528513304494102    0.1466891412817718    0.0205956069392528 C
   0.2360249313064347    0.2180204376291164    0.0110458912795138 C
   0.3156122051034418    0.1762159520945945    0.0715188034423349 C
   0.0666828962228251    0.2325519570867360    0.2978127462703934 C
   0.3922575204138255    0.2534021880523988    0.0902820411562847 C
   0.7027479980005140    0.2820238490401868    0.1339837151389522 C
   0.1846770749885039    0.6336741948730870    0.1748427708395323 C
   0.6514332766092238    0.4696306557921777    0.2527991483842399 C
   0.6973321999908709    0.3880340141031053    0.1039597390078132 C
   0.7255194475854491    0.4658197583129418    0.1744912003954975 C
   0.8912427256808398    0.4314607621771966    0.1301863349750524 C
   0.8219991889832188    0.4482416475767099    0.2082496514421005 C
   0.2572108394016944    0.7200065616647012    0.1803309042919419 C
   0.2507657436708746    0.7873827939321858    0.2665117935960105 C
   0.1750453863126716    0.8667636389629791    0.2571906336722543 C
   0.3997142889048428    0.6215872300905811    0.2449632512707703 C
   0.3569441485961969    0.6770130285547548    0.1663219054653189 C
   0.7482027723654892    0.9901262413340842    0.1250169214480503 C
   0.6952475196062686    0.9836565511241796    0.2167264831424091 C
   0.7456943879189504    0.9248875496350575    0.2945668354511131 C
   0.7256830072233348    0.8168648168047434    0.2816405058447883 C
   0.2661368246399254    0.1930547728619992    0.4001309286398251 C
   0.1711552049253752    0.2388164896347812    0.4406894370423238 C
   0.1686524604663498    0.1904093948418260    0.5434315308914913 C
   0.0742475294750342    0.2021763425672767    0.3954361002649098 C
   0.3564619296638101    0.2307741648126655    0.4408718622627872 C
   0.5918101486124084    0.2578831492373070    0.7197755611992085 C
   0.7495323994217487    0.3062447337038638    0.5736228349834691 C
   0.7382735743483303    1.0481360149970997    0.4321748621929538 C
   0.5417599124215994    0.3423698194583198    0.5695747424571930 C
   0.6938911026093209    0.3764577763168480    0.6352427894041545 C
   0.5254843184551036    0.9636197269446214    0.6469417677187789 C
   0.7155176347290567    0.9469326072652114    0.3959966559231921 C
   0.2593772996052394    0.2400712743483368   -0.0907984048850358 C
   0.3100349624512306    0.1699449180713496   -0.1556753833855585 C
  -0.0538485719253980   -0.0081059265218219    0.8890186373793462 C
   0.0846251064995000    0.5923089201076163    0.7568050851644663 C
   0.1267614532113391    0.4625061731194590    0.8744232218478618 C
   0.0490621652344081    0.5239690969769125    0.8304566468745597 C
   0.1617900056595462    0.6668570019065805    0.7652392810852796 C
   0.5507301010619660    0.4261229065609586    0.7222638132484416 C
  -0.0094308502644304    0.3760532400821957    0.7335937474389100 C
  -0.0356504472153073    0.4655297997428934    0.7907788119501603 C
   0.3242794559145004    0.8932354788180432    0.6744264686547313 C
   0.4367534969015401    0.7673763099702265    0.7193645802427622 C
   0.4743945620657500    0.9492861412875281    0.7424270422136874 C
   0.3494718701395181    0.8635100118185609    0.8370679884851482 C
   0.0160625982941095   -0.0172311081577659    0.6877924360529010 C
  -0.2168146011252258   -0.0377569877495735    0.8319495981040995 C
  -0.0876038971924783   -0.0285870181733644    0.7166743324513302 C
  -0.0845709939072031   -0.1636176013696568    0.8317007728991762 C
   0.5940583886348964    0.3489240288458215    0.6618426231787786 N
   0.3984805416363091    0.8671291663464329    0.7455932730516158 N
  -0.1116831188820591   -0.0592400289680139    0.8171899299794775 N
   0.5027191433562770    0.0130462618475636    1.0817092954402763 Cl
   0.8436771859890135    0.6819187527860480    0.5693169008333273 Cl
   0.5858445223200629    1.6632463627364182    0.5181459345356012 Cl
   0.3645376867844117    0.9599868470802164    0.4138673380565602 Cl
   0.8000659825424474    0.2767865495737054    0.8954608337663633 Cl
   0.6796127692209712    0.7121845646132445    0.7645452265108726 Cl
   0.0930575928303176    0.1546585051044234    0.0859534611167059 O
   0.2057212783974919    0.3067684636505120    0.0547510599982055 O
   0.1344565111747932    0.2320730150803529    0.2437470831343474 O
   0.4768595186084363    0.2237670193195799    0.1107451184724071 O
   0.3720015052598206    0.3427252334359073    0.0995941147663779 O
   0.6846767730094725    0.2576974960010470    0.2165014221424504 O
   0.7137290536889025    0.2119300001391984    0.0719933885944218 O
  -0.0184689302544883    0.2742921502553936    0.2854630481080623 O
   0.8484486154252625    0.9364731784410478    0.2884804031913599 O
   0.2050444798958963    0.5476661794553280    0.1696502920547705 O
   0.9343413952621352    0.3579459092647025    0.1147934206828447 O
   0.6468239968139822    0.5463788873657736    0.2920450339360476 O
   0.3641548726319467    0.5349903254969495    0.2627577481588108 O
   0.5962840687073311    0.3985013891747353    0.2825589224719491 O
   0.7236526117185480    0.5548698139766733    0.1249672961965066 O
   0.8970681277836361    0.5083826048102102    0.0712392245603986 O
   0.0925633889244650    0.6563614537757516    0.1675946883253338 O
   0.2385114608013593    0.7742346439198506    0.0988329612603063 O
   0.1017276636351329    0.8529010490648026    0.2097901310815695 O
   0.1884692615927567    0.9479750104555744    0.3031890481700285 O
   0.4677426902927241    0.6532703635113276    0.2841098863194907 O
   0.7019555797548959    0.9740199201058536    0.0484416635801081 O
   0.8364206370547184    0.9987508093796459    0.1266126179167017 O
   0.6512654869807033    0.7765946794173673    0.2727142510917672 O
   0.8076228608118257    0.7713819410794182    0.2632609901462961 O
   0.1695308885215458    0.1014634350199042    0.5596890428760870 O
   0.1639881907928535    0.2506665117655622    0.6172211346745408 O
   0.3631897297687338    0.3173275817610720    0.4620629629874718 O
   0.1733449300774126    0.3444156169878475    0.4441047027693371 O
   0.4259909907292918    0.1693178869076384    0.4517519540322201 O
   0.5969185673025770    1.0345732153442462    0.6599442825704313 O
   0.8192363001001426    1.0869592129594605    0.4020131934624612 O
   0.7169981314512971    0.3238044958323096    0.4786283612157998 O
   0.6891521031012734    1.1003797025440527    0.4847940540885819 O
   0.1517416629061691    0.0723245455606678   -0.0330073531471886 O
   0.2777996138189837    0.0796820483284076   -0.1588234415961612 O
   0.3767249948022066    0.1958106759605684   -0.2064245420346352 O
  -0.0117143402088764    0.2894673157577904    0.7744059736767659 O
   0.0968138245141732    0.4170714083106121    0.9520259321069199 O
   0.0257866417654721    0.3843642925459018    0.6533846630530008 O
   0.2058559330993719    0.4564434752570600    0.8420766441550370 O
   0.0119052224983707    0.5836518446860557    0.9046575810876579 O
   0.2441648432850000    0.6337334305360183    0.8075605343383866 O
   0.0570794074845593    0.0713854435873676    0.7174194101716904 O
   0.1638119411830630    0.7511233443569345    0.7358520458577504 O
