Li1 Co1 H90 C51 N3 Cl6 O45
1.0
  13.4225497560000004    0.0000000000000000    0.0000000000000000
   0.0000000000000000   13.0746591671000001    0.0000000000000000
   0.0000000000000000    0.0000000000000000   13.1176809623999997
Li Co H C N Cl O
1 1 90 51 3 6 45
direct
   0.8088557372005170    0.8018641977208348    0.4113273906162157 Li
   0.2960172582875989    0.1624586198655862    0.2965766961668975 Co
   0.1585590231877253    0.0724050295614685    0.0040615777554520 H
  -0.0513221134972562    0.2148355110141676    0.2165419702874295 H
   0.1385166314745006    0.3482340170638558    0.0868018123373901 H
   0.3869917767060650    0.2478933517177787    0.1903002892321662 H
   0.6217236314784125    0.1146263978545008    1.1453242782976802 H
   0.4486603132395198    0.3641273567941098    0.1960513057583524 H
   0.4510695425281313    0.0408638631930399    1.0819098682061115 H
  -0.1838297243708872    0.2518804537396177    0.2456599219356541 H
   0.7258752290074209    0.0283541680713829    1.1388612456745353 H
  -0.1309977354499292    0.1204720569285302    0.2750180074923820 H
   0.1430813379657253    0.5441338846829755    0.2140125597845284 H
   0.3550865122231699    0.4905706528579938    0.1076317136578449 H
   0.5573772132716988    0.6011117370674239    1.0578492129039523 H
   0.6193723643515470    0.5093120285885819    0.2403853615771332 H
   0.4016804911145825    0.5191155346197399    0.3127274167559457 H
  -0.1459933960106231    0.3835542494384049    0.3098991729446851 H
   0.7440670036283976    0.5761360955744741    0.1362137474086797 H
  -0.2344229434197822    0.2568266629809821    0.4182748076376558 H
   0.1514530707618559   -0.1409917377531820    0.3534876701523033 H
   0.2146884481997818    0.7518422436766543    0.1839363594918955 H
   0.2318848828709829    0.8668601558669843    0.1157329931678900 H
   0.0145968077274155    0.8889020306353284    0.2663442182512704 H
   0.4697957163601666   -0.0463047570695706    1.1916403917739484 H
   0.4556797694317297   -0.0982778135994046    1.0592541868511636 H
   0.6117180809353820   -0.1712908067336446    1.1748287311891150 H
   0.6316062545575860    0.0072889918033051    1.2357144931076511 H
   0.0149208892230386    0.7072254018496876    0.0419486098783213 H
  -0.0791961021805729    0.9756981746492077    0.0229795557662998 H
   0.7102612060527793   -0.1262731896411027    1.0994282085788258 H
  -0.0732657833181364    0.7357462217987334    0.1393644567542162 H
   0.0605515638067716    0.2071374135942924    0.3396399480952817 H
   0.2659745311358710    0.2728829132676627    0.5787874017490140 H
   0.4866565963057846    0.0012024086669547    0.3914860024359392 H
   0.5143315915006395    0.0894188573910883    0.5463239654739113 H
   0.4047812432635098    0.0953425299710121    0.6068769704049499 H
   0.0460975291019812    0.2429188434595703    0.4682183915590730 H
  -0.0001284124127928    0.1240866827016380    0.4256636898858080 H
  -0.1490405070844127    0.1431961674543038    0.4582319465177970 H
  -0.1506534644132035    0.2654655115013488    0.5213202318917225 H
  -0.0072909859735297    0.3699187123493304    0.3096498910777626 H
   0.2841752459360375    0.4215116442475023    0.5029724003893495 H
   0.0046486233341849    0.5449760481274886    0.3726686519677023 H
   0.2578270478344130    0.5400119416700661    0.5666244287008564 H
   0.1611717905558867    0.4474369854489726    0.5635591003005656 H
   0.6364577917978105    0.4101553252718136    0.5135807541371555 H
   0.4380045881649254    0.3947576007554771    0.6226511000390758 H
   0.4078849754721669    0.5018927070781524    0.6992507675321445 H
   0.7033280970912424    0.6100519318752651    0.4670070493984009 H
  -0.1448073322381357    0.4619377076151821    0.4604112189122043 H
  -0.0413716940592282    0.3787908365490871    0.5106402953692863 H
   0.7216107635339802    0.4674862270123489    0.3115869712730223 H
  -0.0048458469651733    0.6029955337832862    0.5194258421690855 H
   0.2812577674604971   -0.0497824767882167    0.5789734102368704 H
   0.4699381632152543    0.6445897346759909    0.4305594485327884 H
   0.3296412722196952   -0.1680532462390264    0.5243279281539726 H
   0.4900887310966732   -0.2491238107908903    0.6474939057860739 H
   0.5793889029559132    0.6956518687987635    0.3698800493095914 H
   0.6638035648940082    0.8836582992979547    0.6967137337305609 H
   0.9297373900530020    0.9091824828147035    0.5012844495950387 H
   0.2259746794117229    0.3185238735690668   -0.0004293074984932 H
   0.1789389066653574    0.2918149555363334    0.6888525881290190 H
   0.3049559474473368    0.2482275860518558    0.7121989403446144 H
   0.5669262931656067    0.0846225564551680    0.9837995388202277 H
   0.4218860410980174    0.2207637726238500   -0.0920666939729444 H
   0.4515080583173813    0.0654587681836934    0.8443998991094110 H
   0.8980176342882912    1.0349914984821340    0.6931986307079939 H
   0.8297861867132422    0.2201580206957287    0.9737718517330786 H
   0.9618661590156373    0.3461039424176211    0.7903636710572299 H
   0.1536232992601320    0.4623933217863713    0.7333878990330217 H
   0.2494985259043654    0.4255813488049942    0.8210863270781510 H
   0.1992003327687273    0.6216797684449982    0.7944642434186238 H
   0.3008352698558623    0.6143495582440955    0.7039612037881499 H
   0.4171730766352318    0.3883796142294623    0.7571390484086653 H
   0.5745798315668393    0.4800046412905472    0.8430063601102238 H
   0.6350549286799753    0.3737329609169326    0.9031839175811422 H
   0.6121233690586441    0.5181063763823152    0.6842671739714090 H
   0.4041703310188869    0.6099219093654411    0.8275966241531284 H
   0.8355980482014165    0.5024072902817383    0.9453255126987949 H
   0.6798750270171843    0.6235842157947734    0.7965972423900275 H
   0.8830473042353012    0.5008139791495889    0.8164719443855469 H
   1.1403441712822062    0.8928225917256691    0.8237674412248367 H
   0.3147201131522481    0.6735503366435590   -0.0591271826951107 H
   0.3884572210782274   -0.0619288737206596    0.8573442602725394 H
   0.5982862067179361   -0.1865967506548112    1.0397720847378003 H
   0.6810029796249391    0.0131009979924389    0.9591297819533255 H
   0.5924147440351645   -0.0298171379855915    0.8235143477085729 H
   0.5381786999724794   -0.1189972829590090    0.9100204918397369 H
   0.8880605097158710    0.9434082315918515    0.7995703288762583 H
   0.9931076151937045    0.7622708138028339    0.7039627284478864 H
   0.8614537914326804    0.7499768030798261    0.7268417724542358 H
   0.2006478967825105    0.1855880946866935    0.0847549566411004 C
   0.2121531623845969    0.3003398431510307    0.0770554249716306 C
   0.4014845521873437    0.3221813302865872    0.1460912555117807 C
   0.4509851323362828    0.2931304774004352    0.0450215615772949 C
   0.6467956190007212    0.0343168474042539    1.1556302157867460 C
  -0.1180918417748050    0.2067404625201827    0.2711003942993716 C
   0.2933091290080817    0.3643644566649654    0.1386547276468621 C
   0.2520263615702256    0.3821423579493746    0.2477670016915368 C
   0.0368377385063500    0.6422470349842792    0.1936766482187089 C
   0.4704834396443269    0.6407701322403369    0.2702374368884964 C
   0.6660557450348557    0.5268895345918206    0.3046390968536611 C
   0.7203062423872307    0.6276019113483358    0.2830499149844151 C
   0.1908516954355032    0.7967160711700966    0.1188958997913187 C
   0.0762691438370258    0.8212016042848392    0.1424671393180521 C
   0.0497011663303236    0.9094998907063326    0.0674752255171527 C
   0.2065707654956224    0.7418618687902210    0.0173299291125928 C
   0.4790104335523835   -0.0340749927631817    1.1083993064685607 C
   0.6302615026044832   -0.1417489276633336    1.1008331825260371 C
   0.0059449493166774    0.7263532427213875    0.1204358061252127 C
   0.3894145652664475    0.1310612430962571    0.4514043677516479 C
   0.4387030396641131    0.0697563945525238    0.5359841043057079 C
   0.0129428745773390    0.2045201369553642    0.4035323390142523 C
  -0.1656714754218714    0.2271624097837780    0.4486666124957502 C
   0.2470124110747234    0.4571674876650559    0.5678594030874446 C
   0.5987443909014033    0.5438768990164998    0.3989743687318998 C
   0.5280113321861170    0.6306169038996670    0.3711958306622157 C
   0.5432860008390197    0.4469067230603786    0.4180522835491095 C
  -0.0680670691193823    0.4325589685527857    0.4501589494458644 C
  -0.0745084682254911    0.3657228094734798    0.3533588364045667 C
   0.2654880363849701   -0.0660031673079100    0.4184084440635626 C
   0.3256479921816726   -0.0851111223839896    0.5089559275253562 C
   0.4900136335914805   -0.1068600640860831    0.5958064160580153 C
   0.4324848470317713   -0.0464799050386865    0.5176573893406859 C
   0.9005052391477982    0.8842311631794736    0.6497412542377171 C
   0.9180056399114458    0.7080085962618041    0.5814425966801786 C
   0.7882076483471968    0.8868622069076773    0.6207841541916963 C
   0.2593371931025234    0.3010603208231144    0.6592200638197160 C
   0.5985931528701125    0.0089318644568463    0.9777008998741130 C
   0.8636478604087955    0.3524329792928786    0.9029201514467229 C
   0.2296975190292600    0.4714563496240815    0.7522883434568994 C
   0.2653479735776663    0.5780225692243620    0.7712162317560346 C
   0.6404384065819810    0.5110795851806614    0.9853554540813553 C
   0.3947287567797338    0.4235445844305155    0.6855829553240332 C
   0.6406127400761783    0.4557274501268402    0.8860993429034703 C
   0.7195783627982104    0.4214886990987098    0.7245822267247003 C
   0.7315753382557250    0.4838103236692670    0.8235829573967167 C
   0.8303546331067144    0.4590885320057912    0.8724269567161493 C
   1.0391562431545514    0.9736759422022977    0.7478386240158404 C
   0.5444198390647410   -0.0420989112959100    0.8941731785382577 C
   0.9201468128273556    0.7712500153636223    0.6715576104077060 C
   0.9239672494010459    0.9656114872400359    0.7299985804387183 C
   0.5896395634117253   -0.0348688949114013    1.0894691311798206 N
  -0.0848515105329292    0.2551226032639943    0.3728836289905529 N
   0.2870569636948195    0.4144131800494038    0.6683207577870556 N
   0.8930349744199525    0.9451237638832355    0.3418583280119309 Cl
   0.4818686833407929    0.1836935902347282    0.7905961816670506 Cl
   0.8329837908033901    0.0793604689987606    0.0033968261103255 Cl
   0.0135224961947982    1.3885181136638918    0.6781776829837135 Cl
   1.2905242813688849    0.8699845202942261    0.8066615213108531 Cl
   0.5458664345591121    1.6770686564951198    0.7649338713116682 Cl
   0.2029686182971449    0.1346391566312970    0.1679975666062247 O
   0.1784390016456721    0.1478226742891597   -0.0034008693249876 O
   0.2708968447946798    0.3138201180666095    0.3107240138621471 O
   0.3036514263005873    0.4519677345295346    0.0768762774525885 O
   0.1976097258879105    0.4576656268453406    0.2730481471127870 O
   0.1157974011089224    0.5914428808177632    0.1599191569922276 O
   0.5423004950863525    0.2955749005851269    0.0311494449644887 O
   0.3913635243297809    0.5757131399983995    0.2638026104704771 O
   0.4919342075858869    0.6984366450238768    0.2014729957814483 O
  -0.0057309247049440    0.6234281887829847    0.2749204292692442 O
   0.7164031091560366    0.5288598345186304    1.0378609237580614 O
   0.7548294893428145    0.6367570257165331    0.1878829412199000 O
   0.0786330762177433    0.8563512777200308    0.2443075487493532 O
   0.1160447460665014    0.9606637483220853    0.0236496437205042 O
   0.3015959301019110    0.7313820544984048   -0.0057930604516011 O
  -0.0484247504248924    0.9101805967871761    0.0477301195992380 O
   0.2689829014331724    0.0029011145158909    0.3568137153675406 O
   0.3035851199715978    0.1707150492394115    0.4612272168031944 O
   0.4266325312327641    0.1326995267200398    0.3611818655126953 O
   0.0049965453076470    0.5103742895486955    0.4422043422024734 O
   0.4615480285502918    0.4235300525029470    0.3818753097867308 O
   0.6483541902394420    0.5681679337533115    0.4933799274239926 O
   0.5919155840304117    0.3718537532308290    0.4670970043228561 O
   1.0026013404781302    0.6509157121980760    0.5781218877740192 O
   0.1956935474816056   -0.1422659583494574    0.4165420318470910 O
   0.4579616011668893   -0.2046063979420244    0.5899753548956613 O
   0.4897840944907874   -0.0658547886790520    0.4267388799320080 O
   0.5534848827570253   -0.0806039303228546    0.6564893982315931 O
   0.7362093311356692    0.6939738135837406    0.3456120402832645 O
   0.9586745150449492    0.9273810451603081    0.5664879716544371 O
   0.7501776161044912    0.8973527289355966    0.5360813775968984 O
   0.8486961557291172    0.7113853573257632    0.5185425305507276 O
   1.1011139199832964    1.0288291963547684    0.7116485381797275 O
   0.3872450817831038    0.2500838485891669   -0.0258896004387856 O
   0.4468496289476522   -0.0051694591527154    0.8790416929830790 O
   0.8130591114494953    0.3028140950291526    0.9708864331816982 O
   0.9380055657735198    0.3112326701211114    0.8623116016941499 O
   0.5504946908240762    0.5488182897766177    1.0078792523690934 O
   0.3416397377070747    0.5903464851246294    0.8567717505414728 O
   0.6343941004348771    0.4422991077313618    0.6713403463952506 O
   0.7470984693886055    0.5952676076699808    0.8099456383833359 O
   0.7776820773813043    0.3604469549277969    0.6918676027580044 O
   0.1416002482799811    0.7111490222932008   -0.0380487618376017 O
   1.0660944930826897    0.8950735108222108    0.8090514254478618 O
   0.7374594661923486    0.8739677981245997    0.7060179697727271 O
