Li1 Co1 H110 Cl3 O55
1.0
  12.9094788048000009    0.0000000000000000    0.0000000000000000
   0.0000000000000000   12.3370467456000004    0.0000000000000000
   0.0000000000000000    0.0000000000000000   12.5303463215999997
Li Co H Cl O
1 1 110 3 55
direct
   0.3795736045190335    0.4408366917098439    0.2080051176484316 Li
   0.6852427999735230    0.1101311278799018    0.7501864608958153 Co
   1.2038516533000165    0.3061966895883949    0.1678490048734297 H
   0.0818589517345253    0.1826679366035262    0.1426549685796515 H
   0.0483399377957821    0.0584992411621847    0.1272675247651393 H
   0.3363495512139129    0.2617533141755919    0.2770989780876736 H
   0.4022561623842761    1.0795170957384816    0.2208523284012980 H
   0.4723720836919159    0.0888099798430904    0.0594956549217553 H
   0.6444781798089714    1.1873062633911271    1.0619025060674427 H
   0.6726156441863048    1.0416230997408793    0.3269284068979280 H
   0.7133082242620143    1.0944720524476961    0.2148245620442102 H
   0.9534000240059017    1.1078139813058892    1.2861740407779985 H
   0.7607981353010292    1.2110396581036360    1.0574892202267574 H
   0.8424427946972015    1.0540896164990212    1.3113209913819752 H
   0.9485508739397718    0.1955454107086365    0.0523609758230707 H
   1.0992618382954038    0.3434616857807750    0.1241103893608444 H
   0.0837563947196667    0.5870110588162316    1.0809362976226584 H
   0.0541266934913121    1.5009793879077511    0.2483743131213473 H
   0.2877976298329388    0.6018703686478476    0.1362576992670054 H
   0.3148103392748056    0.6180338803951885    0.2579758035280895 H
   0.5074393398410701    0.5062696933549017    0.0572992272019120 H
   0.4772886260992206    0.3849067747509013    0.0394192744655863 H
   0.6197746263331004    0.4203358372334512    0.1328627412260877 H
   0.7123151555104523    0.3350236858163891    0.1496651499222518 H
  -0.0286531782725779    1.4855624081457317    0.1560296986707988 H
  -0.2135611080266778    0.4761352529441453    0.1215510027982625 H
  -0.1248859556592283    0.4884493831515372    0.0256116752532839 H
  -0.1539738844345075    0.6316562653521020    0.1609832728503889 H
   0.6905544009325411    0.4511941137602688    0.2957808240631893 H
   1.0556194877002336    0.9040861320216671    1.1991852240266974 H
   1.1170317268763978    0.9080903318126438    1.0895154699169380 H
   0.3243676577278268    0.9640923892131645    0.0724185220033193 H
   0.5067894297922710    0.7396318633593878    0.0788513050989510 H
   0.4258551011645718    0.9036808486420136    0.1027510435669745 H
   0.5641395375072873    0.8210192505278854    0.1536538664921876 H
   0.7015835061468476    0.9036078976336760    0.2340427060459357 H
  -0.1188268419503994    0.7340608380226709    0.2327099416058011 H
   0.7347382141309420    0.7942316402663075    0.1795198714438060 H
  -0.0999771266613885    0.7629899656623378    0.0686046609356790 H
  -0.0412422999913859    0.8608667124154177    0.0253072143946544 H
   0.0891657533046187    0.1480583571146358    0.5596673851473032 H
   0.1818855306170029    0.2307856111362678    0.5449766499293404 H
   0.2121718036658130    0.0668307326543976    0.4875265219341486 H
   0.3455056141183309    1.0937587536995059    0.3392672518134497 H
   0.5436359986733583    0.1035704005300709    0.3914477728636063 H
   0.6178163753159795    1.0498422466802524    0.5650950084750609 H
  -0.0781892602220852    1.0982087652081012    0.4637155280204622 H
  -0.0790173339314610    1.1101970475782519    0.5873872893770251 H
   0.9099668220557563    0.2945958581291930    0.5230666409835585 H
   0.2767522575017970    0.3403604573596664    0.3468951335612381 H
   0.2734205970490134    0.5647107461341774   -0.3665488344310601 H
   0.2596733340739960    0.4150582370636032    0.5219278057404015 H
   0.1580177970966198    0.4054894964699841    0.4516959081205417 H
   1.0514907385225223    0.5389720092591428    0.4796272989230993 H
   0.3273360192379561    0.6230780373383560    0.4543518602503428 H
   0.6665503334805862    0.3956678590474612    0.6419300755426297 H
   0.4206356805342868    0.4921990649800914    0.3834575707231105 H
   0.5427901085979248    0.4453928874639085    0.3623935080686717 H
   0.5584514689872245    0.5141662347240705    0.6243096527439879 H
   0.3786680683485373    0.5224323945354834   -0.3867605662938439 H
   0.7437765340944572    0.4903558361694274    0.6612567560496595 H
   0.9916432410609879    0.4319504483275612    0.4456194599485746 H
   0.6868718355308826    0.6263624538470680    0.3977309192331749 H
   0.7039027322327891    0.4299134940614227    0.4242098362147476 H
   0.8367028263281880    0.3919197983524256    0.5412528901223534 H
   1.0491591184428015    0.8198520343944833    0.3629880646602287 H
   0.3115987456367584   -0.0083468701483786    0.5088092537242742 H
   0.0771980354489175    0.7439829857233479    0.5249995484530232 H
   0.2228345114390206    0.7734025062523956    0.4364888264398440 H
   0.1934057478348121    0.8910765355347897    0.4536296136525453 H
   0.5102752405426839   -0.0026844453038821    0.4560940307729859 H
   0.5125255250382283    0.6853522603223945    0.5528854496908576 H
   0.3934347373118978    0.7157606722977966    0.4142915149800212 H
   0.4051486106825077    0.9315562394945816    0.6415517938991424 H
   0.5778271543872422    0.7321008875986664    0.4559727252670575 H
   0.4556882188158283    0.8539120496205637    0.5405769311518180 H
   0.9638109787804684    0.9016868544141183    0.3493252339925015 H
   0.6856417316482923    0.7363142136135443    0.3399687487852331 H
  -0.0160549159833576    0.7150392678820133    0.6137281415393502 H
   0.7117574257903863    0.9668888445327737    0.6022120991015403 H
   0.7995254927381172    0.8230375617585599    0.6315289264718067 H
   0.7407105698833162    0.7999591049875708    0.5196134243772936 H
   0.1979388510595713    0.2773469974911400    0.9791833238998064 H
   0.2136079576949831    0.2199775139676683    0.8617244794093801 H
   0.2803782753068377    0.0625325402998204    0.8024092792605390 H
   0.1748929942516745    0.1009765869002885    0.7516421269669562 H
   0.4380019896928442    0.3128790019521218    0.8575346510796157 H
   0.3339288493039039    0.3172779477548809    0.9231593336618127 H
   0.5922615093923966    1.0547461755740599   -0.0838359780518710 H
   0.4875376843300458    0.1934654964042548   -0.0048842097121052 H
   0.8864414726135250    0.2033916969387283   -0.0649036202453624 H
   1.1453597489080871    0.5351250594194717    0.9290729770758231 H
   1.1852296776466993    0.4192237396396820    0.8631530113541950 H
   0.1768636392625746   -0.4172390064936612    0.7663512176233163 H
   1.0082976702018498    0.4381845172733914    0.8806385615837455 H
   0.5105680486457186    0.5875768344142279    0.7187627484225815 H
   0.9307887316048897    0.3533125036066330    0.9380751225157743 H
  -0.1716980701634406    0.4858271996851791    0.8497934444512888 H
  -0.2740693602815682    0.5459477467897388    0.8430338547459354 H
   0.0580865745037812    0.6798290584244766    0.9990949842479253 H
   0.1547589513572893   -0.3249365273443355    0.6779003503005622 H
   0.2437819101751689    0.8655355769490261   -0.0565614725251665 H
   0.2926142456653983    0.7174644836258600    0.7934645943233960 H
   0.2044720350304564    0.9830920740513207   -0.0815742688163372 H
   0.3683206327920893    0.7311987267955579    0.8845969517771993 H
   0.3845389482768439    0.8870074904030685    0.8037580049514536 H
   0.4745015267481126    0.9803118300668977    0.8092199449683884 H
  -0.1460448269142349    0.6690801326293063    0.7182479980849248 H
   0.6714304685311644    0.9411614555923694   -0.1134664439999655 H
  -0.3150346082204213   -0.2262159805948170    0.9108292674342200 H
  -0.2176976034505012   -0.1584363881815654    0.9532542720076067 H
  -0.1093911395613371    0.7719669925216628    0.7862548973460450 H
   0.5666222093861926    0.2577320924826699    0.7271232515811745 Cl
   0.8552628320126091    0.1250293449159645    0.7632339853459714 Cl
   0.5543490570462941    0.6194394031558269    0.9281871276575300 Cl
   1.1498215866686157    0.2903014754383845    0.1132790845814989 O
   0.2905785321871572    0.3254735882582340    0.2695764405950336 O
   0.0223295926008119    0.1369689932805567    0.1377293265889265 O
   0.3933859359613920    1.1274702252190842    0.2842783486885425 O
   0.5272511388971950    0.1331990472830198    0.0175856401047871 O
   0.7231157464644541    1.0402046079120921    0.2703737050714973 O
   0.7045092633033608    1.2041660519847126    1.1083657070881834 O
   0.8973869183698215    0.2399887861214395    0.0085399284308318 O
   0.1112534769309186    0.6319205101156361    1.0236114654460902 O
   0.0475380463982649    1.4732823217422308    0.1784025838892022 O
   0.2979583808580870    0.5635224552650333    0.2031145904094227 O
   0.4899421191232196    0.4408715460804941    0.0974973978727193 O
   0.6873954817680558    0.4059944795610324    0.1746349306425702 O
  -0.1456598384824671    0.5100307231180862    0.0982675282228570 O
   1.0493682670878264    0.9266604162683671    1.1247658922646901 O
   0.3924881460370078    0.9756348598656963    0.1070733502782134 O
   0.4929871684698581    0.8001074387045241    0.1258166470692323 O
   0.9852758267569003    0.8318727394350062    0.3213068543731926 O
   0.6746560054122132    0.8342720170425549    0.2092700467727510 O
  -0.1674577750417161    0.7104376803894275    0.1759062442672016 O
   0.1594771898641260    0.1555463728371139    0.5824943679503991 O
   0.2579064153358421    0.0113343878550084    0.4571993473895047 O
   0.5709577833350951    0.0351733183595793    0.4270932361681646 O
   0.9125695607493980    1.0715249074917148    1.3403624871762858 O
  -0.0385504794674559    1.1265461791134741    0.5257034396124237 O
   0.6750224028533122    1.0392805618064822    0.6155126093765604 O
   0.2263675742907169    0.3597710995447912    0.4732954707386514 O
   1.0575637954743529    0.4717468445092571    0.4416459065668799 O
   0.3092160003326984    0.5197502291289364   -0.4222344461525167 O
   0.5054501038395012    0.5672510623578455    0.6436746402528898 O
   0.4658613638347557    0.4447128219528499    0.3441178759255085 O
   0.6974462360984131    0.4535852857002244    0.6057898134638897 O
   0.6700175532403304    0.4750296398844505    0.3732423702238752 O
   0.8802832069544622    0.3598724203897046    0.4869271769673575 O
   0.3254939619125157    0.6805909911782251    0.3988482067877788 O
   0.0458495196707649    0.6877815289000376    0.5695322361919163 O
   0.1597808427117175    0.8164800766757663    0.4505235542507466 O
   0.4265801498006577    0.9249987544117877    0.5634334422688572 O
   0.5076043348832564    0.7391933467426027    0.4895951000352437 O
   0.6904234893732477    0.7036491837802314    0.4093754497397643 O
   0.7653203937812316    0.8576244453781897    0.5690725521694507 O
   0.2131509291743734    0.1012424527973412    0.8181263229036593 O
   0.2192015220124791    0.2903873955148710    0.9052268684104207 O
   0.4164255957723992    0.3264859861406084    0.9296874852308552 O
   0.6279035370030634    1.0095246560723221   -0.1423882304134255 O
   1.1552594514392598    0.4915797919759810    0.8571276391847242 O
   0.2128449524529483   -0.3645772947082445    0.7133271444694338 O
   0.9422144446201323    0.4287770794648744    0.9195840134870803 O
  -0.2149554323268430    0.5357402795897858    0.7989648413422030 O
   0.2134352164066849    0.9334367543761737   -0.0231872952066101 O
   0.3245473706376258    0.7739301852127044    0.8418527221882114 O
   0.4022623593811657    0.9624631500269575    0.7880617109343472 O
  -0.2713457801485789   -0.1606484248677142    0.8945328303877836 O
  -0.0830407341620488    0.8006659192016866   -0.0007201029379727 O
  -0.1057689948793524    0.7385067966974699    0.7149535959239214 O
