Li1 Co1 H110 Cl3 O55
1.0
  12.5100502129999995    0.0000000000000000    0.0000000000000000
   0.0000000000000000   12.5124985901999999    0.0000000000000000
   0.0000000000000000    0.0000000000000000   12.4915061012000006
Li Co H Cl O
1 1 110 3 55
direct
   0.6808594659155586    0.1408531063955812    0.6053129614189297 Li
   0.4843286800163062    0.5282041989899924    0.4115028651514004 Co
   0.1206163109586873    0.0984041905238943    0.1523771861678991 H
   0.0231895477364700    0.0266456689522529    0.1748940866698314 H
   0.2575725957719623    1.2394993840276709    0.3089972113394079 H
   0.0380056913045741    0.2851152605119276    1.0287815133409304 H
   0.3187010474551802    0.3176954839630045    1.0781430550961528 H
   0.6064696765737914    0.1625761857662263    0.1214033390700835 H
   0.4936603771727803    0.2284910783078299    0.1308321460566714 H
   0.5909421609609330    0.2160842837031467    0.2618259579111769 H
   0.4889625543024190    1.0498010609558071    0.1522971317699828 H
  -0.1502379176261744    1.0502645974715707    0.1689436432727089 H
  -0.1984519527203915    0.2265937753967556    1.1858002094140625 H
  -0.1107416732796451    0.2249482207657943    1.2671915157756175 H
   0.1659438668313841    0.4669222740033585    0.1105223453052930 H
   0.1465330734400306    0.5541222838282993    0.2452554980864712 H
   0.1073557726574410    0.5734973109863344    0.0723033350328537 H
   0.3236970305996005    0.5965222886055643    1.0415902170075466 H
   0.0504490466348538    0.5944883223424285    0.3012183254938760 H
   0.4241618551687263    0.3847380489593368    1.0464735352804440 H
   0.4482936527922312    0.5801778312195570    1.0400451671277611 H
   0.6611353244613870    0.6528219952486274    0.1323211578579155 H
  -0.2861462450150759    0.4776795179726341    0.2175846954466842 H
   0.8821464277682991    0.5794737352361297    0.2790944920857131 H
  -0.1933128846187150    0.4165846059940841    0.2600727665968088 H
   1.2175167842869472    0.9620408113075034    0.2107000172258780 H
   0.1158697272928364   -0.0487656961878025    1.0197353663763826 H
   0.2564502981183997    0.8320987387246995    1.3324758772764023 H
   1.3415690441561618    0.9394793702040373    0.2308513102693820 H
   0.4244296398652673    0.9604583935467927    0.0849620968121727 H
   0.5066307487729985   -0.1199365333775445    1.2301183241005549 H
   0.5750988992133472   -0.1482434296738132    1.3277206460401709 H
   0.6402313316278293    0.7641602695315204    0.1695048246021026 H
   0.4722288085191717    0.7037119110723719    0.2897521340803170 H
  -0.0261024446617063   -0.2632196664045623    0.0502476279173176 H
  -0.1112580580974523    0.9927700854990822    0.2813200043477876 H
   0.9215467492384557    0.6927292924523282    0.2298706438949067 H
   0.8141706814266646    0.7525318965929645    0.1305975866707765 H
   0.8899961164848124    0.8577291112428772    0.1624672424812761 H
   0.3168465385119714    0.1159180386510490    0.5869460809049811 H
   0.3132174563558645    0.1068023533082883    0.4666387306283294 H
   1.0111227286246545    0.2972719052382763    0.6410036136419768 H
   0.2236726519044868    1.3114434480777601    0.4065611071680241 H
   0.4933734079009648    0.3332319492499822    0.3482847076608367 H
   0.5610925605483019    0.1514417189772256    0.4345433214157057 H
   0.4853790355125891    0.0885430105916433    0.5288065744182306 H
   0.6828842379643293    0.2542293429460561    0.3400903394901190 H
   0.8442888658931397    0.0763281840405574    0.4844556374285927 H
   0.8850321076325164    0.1775332304084994    0.5421932708378030 H
   0.2919913225291544    0.3653917930333146    0.6579175068337435 H
   1.0390202985030976    0.3586745095591867    0.5308591691808059 H
   1.1946151975529244    0.4359220707103245    0.5251705036648699 H
   1.1469735022877321    0.4831044936088484    0.4181105551554162 H
   0.3730133794148025    0.3400355464201489    0.3766735982499334 H
   0.3879685551986362    0.4872923062685070    0.6008371200314264 H
   0.4415063099315475    0.6040499617813895    0.5869781026641476 H
   0.8047606472544859    0.6021678436872109    0.6603199393152133 H
   0.6759498133598738    0.5528347711957211    0.5055619794392388 H
  -0.0569869729746703    0.4689210754273672    0.6404056072895417 H
   0.7019529064299528    0.5042633371516846    0.3843716291535698 H
   0.1279184399225720    0.8335452923342380    0.6143310893442067 H
   0.2122386450408406    0.7039548681427031    1.3435794222674002 H
   0.2556805170355074    0.8382206175363378    0.4966263075438156 H
   0.2893726280041751    0.9306801684134187    0.5724434261784548 H
   0.3621133432296320    0.7624124171867354    0.6170729524728418 H
   0.6530706086303379    0.7567876413282092    0.6525522610853897 H
   0.5943186462092580    0.9715113418450900    0.4513155183231605 H
   0.5361670011228116    0.7833890429268230    0.6445940533885252 H
   0.3739318409560727    0.7019896331560428    0.3601655808556025 H
   0.6255823096910857    0.8622206202404500    0.5015784725989211 H
   0.9557992096766015   -0.2070678119260101    0.5373619879235512 H
   0.7772443708096249   -0.0502253566919247    0.4027721325146432 H
   0.9072942085240533   -0.2781167709801418    0.4398044964467683 H
   0.7984721033509411    0.6804927276370547    0.5617913879917050 H
   0.8798922401735366   -0.1002282394486931    0.4423990594832373 H
   1.0513943495551978    0.2095092579873049    0.8412861079810430 H
   1.2216015001058254    0.2146625053211748    0.7257035682694143 H
   1.0635046126972727    0.1192818751938931    0.7647909285960522 H
   0.3691876553621312    1.0169459123988289   -0.0806867835739340 H
   1.3455018820874496    0.2234577111073471    0.7536881841490334 H
   0.6340794778231159    0.3121690098138558    0.7067530911946556 H
   0.4420338857515983    0.1834505137924903   -0.0983099587312396 H
   0.4930952315594834    0.1021486065301982   -0.1827721517968657 H
  -0.0681431232397564    0.2212822862868146    0.9888023470215043 H
   0.6804717776235516    0.0245201542272538    0.7752116095728238 H
  -0.2163415691639319    0.0133468382830268   -0.0715813963549281 H
   0.7549894641338158    0.3122864923445752    0.7214670895316810 H
   0.1981891410814276    0.5788367721273991    0.8052528229349140 H
   0.2660697639039924    0.4768091882042433    0.7143142290778549 H
   0.3105571952511235    0.5650121951451902    0.8538466430141186 H
   0.6183097569474160    0.4754953019423198    0.8078657984829037 H
   0.5624242898152786    0.4944395598210503    0.6927916041980439 H
   0.6439603334468246    0.4892151836080372   -0.0305889815210748 H
   0.8972063193588398    0.3496930899658196   -0.1219099952369801 H
   0.7486881305134214    0.4461430508829149   -0.0963406205424974 H
  -0.0144051295024166    0.5459936115837597    0.7361074378226234 H
   0.8602999926743780    0.4250329585943229   -0.2155496244797367 H
   1.0583327709461690    0.6677574614668906    0.8697534518800976 H
   1.0573975229015333    0.7087428806701869    0.7428079909282220 H
   0.0381142440263361    0.8714993425646171    0.6886872152168725 H
   1.0576213429464034   -0.0565003623939429    0.8554397255326540 H
   0.2115599906905026   -0.0802745908468426    0.9504562904195718 H
   0.0741025088481793   -0.2256963854534876   -0.0067341318667666 H
   0.4204128694171533   -0.2652935927121604    0.9246707688507149 H
   0.4087310617895439    0.7457211066147945    0.7294693271473995 H
   0.4079572839201361    0.8928380063075342   -0.0561904580291220 H
   0.5331406343732475   -0.2081523275327194    0.8833787104054608 H
   0.6097494395884404   -0.0244960431036581    0.6843530701136812 H
  -0.3135146403588620    0.7067504728532920   -0.1287498429949532 H
  -0.3165218225331515    0.7454869407542449   -0.0055265913285963 H
   0.9324180085607142   -0.0138195983442853    0.8212404867427885 H
  -0.2458418504351050   -0.1016036641790886   -0.1246846806687609 H
   0.1651748851057949    0.3033634144161232    0.1616763050298625 Cl
   0.7618159755023518    0.1364439150896009    1.0429431363323329 Cl
   0.5781124762460615    0.5084567442175678    0.1197782347923815 Cl
   0.0988531688957498    0.0260809136438659    0.1431469140881438 O
   0.5366849846552251    0.1662165458167502    0.1596805488898079 O
   0.3987462897164312    0.3121210577605009    1.0713224203936798 O
  -0.1752593999280377    0.2611048681962552    1.2505161846896413 O
  -0.0913108959557139    1.0083145427949525    0.2051370371146707 O
   0.1720053932608464    0.5427640407903093    0.1089220578909451 O
   0.1324404041862497    0.5847180914713739    0.3177039276567903 O
   0.4343025019159449    0.6517958213068331    0.3330295415938967 O
  -0.2369346120065809    0.4832587393804731    0.2791993633469835 O
   0.9362389364695670    0.6357382770400658    0.2883591875565725 O
   0.0335248939420064   -0.2904684207234669    0.0025681891711135 O
   1.2669650270571620    0.9187800671725187    0.2534314537456682 O
   0.4629786458076146    0.9760987549493727    0.1570987945570055 O
   0.5320335245084439   -0.1798422344328937    1.2657265202937482 O
   0.6938370317315048    0.7274186070501301    0.1283944896401185 O
   0.8902279301027135    0.7768603708625574    0.1482407754275612 O
   0.2810577133372534    1.2562426426574129    0.3816009464416849 O
   0.3434019874784974    0.0672536575435929    0.5307406886718897 O
   0.6075560031487142    0.2318844852835762    0.3410181699619695 O
   0.5572740307113586    0.1096435124695644    0.5048839186888873 O
   0.8195447605754547    0.1324335250273553    0.5375541184785504 O
   0.2790537245783635    0.4423812122972254    0.6379303253059680 O
   1.1576529158572451    0.4133774128255326    0.4591632509509005 O
   0.4387101580852784    0.3841234634755052    0.3602296243739356 O
   0.4446997423574610    0.5317182853000151    0.5594057669337978 O
   0.6424671340046203    0.5294205827434276    0.4358169868865548 O
   0.9820660906567058    0.3415012808510295    0.5828464951876847 O
   0.7503292110567007    0.6392491665465315    0.6148130168196630 O
   0.0510647116297070    0.8161986370331140    0.6334200605273608 O
   0.2611137486247274    0.7634921375881092    1.3740161043551971 O
   0.2691368978760150    0.8523824572938093    0.5725947289905168 O
   0.4198085552960042    0.7250969284668651    0.6539331994494467 O
   0.6107222574263219    0.8197598761956023    0.6477217787151169 O
   0.6229851978132903    0.9005502948887757    0.4313483503948641 O
   0.8560474118218473   -0.0305463135156198    0.4136339132239338 O
   0.8914909146416230   -0.2261886932012643    0.4948563048058850 O
   1.2892511086677922    0.2390037668049958    0.6924033403681495 O
   1.0852471313417902    0.1960467190079253    0.7738242668569334 O
   0.4283800636572233    0.1409058536542716   -0.1640338188765852 O
   0.6168013697164526    0.0401275006410989    0.7315931703241203 O
   0.6983014422693589    0.2778129619868702    0.6831714672004360 O
  -0.0101325647173084    0.2716894847734534    0.9594544047453697 O
   0.2515446423492305    0.5270229800756840    0.8273086101048480 O
   1.0798674566918782    0.6509478691633411    0.7906941301298461 O
   0.5644090939988939    0.4487132809427359    0.7519389955545612 O
   0.3900332951125622    0.6098026097821954    0.9951106335773129 O
   0.6928002653093748    0.4997782217612258   -0.0940790838013604 O
   0.8325463071104940    0.3741182675430117   -0.1629306692732979 O
  -0.0766874534526698    0.5184131888958172    0.7017144673898004 O
   1.0069101156372793   -0.0241940250876113    0.7977781438014642 O
   0.1322653449368693   -0.0914154512429573    0.9533142324251856 O
   0.3508328129681825    0.9463365138337836   -0.0377699410685695 O
   0.4505126686656569   -0.2138314490517144    0.8703058272257205 O
  -0.3331596454400259    0.7680883419021733   -0.0809837853902036 O
  -0.2058012437651596   -0.0352643160452054   -0.1326140687823755 O
