Li1 Co1 H90 C51 N3 Cl6 O45
1.0
  13.9732570000000003    0.0000000000000000    0.0000000000000000
   0.0000000000000000   13.1697019999999991    0.0000000000000000
   0.0000000000000000    0.0000000000000000   14.0603580000000008
Li Co H C N Cl O
1 1 90 51 3 6 45
direct
   0.4869695375959950    0.8608194110998109    0.2543525065293501 Li
   0.3395687483598133    0.4355623118883025    0.6838065033621477 Co
   0.2962877581082206    0.4791097156184704    0.1234987366609015 H
   0.2375154282212086    0.3625433119139674    0.1541895433956945 H
   0.1854337982905488    0.4824911254635831    0.1880353857277318 H
   0.2233867823371459    0.5938802108050737    0.0125058238204177 H
   0.1078829187783492    0.5879271641833658    0.0715210387957405 H
   0.1177933176209383    0.5571590640395661   -0.0514858220537486 H
   0.2974832539042258    0.4408187983296813   -0.0444151770531021 H
   0.1913977542959383    0.3946481583258301   -0.1012021728038504 H
   0.2494879146644193    0.3194553832729093   -0.0096257093880540 H
   0.0447723998778524    0.4208867953124528    0.1192591618221954 H
   0.1021631256048608    0.3086051742097126    0.0749993556351837 H
  -0.0510211491851900    0.3388099085309600   -0.0076837076267902 H
   0.0421302449385995    0.3570290497081863   -0.0927152502091341 H
  -0.0827711012543461    0.4920781624367811   -0.0748870014547282 H
   0.3147077964715027    0.1594724064371389    0.7057689740190114 H
   0.2893478707219083    0.0266162263960111    0.7146200530598154 H
   0.4119918534383215    0.0707303453031815    0.7141825094353927 H
   0.3837992309166001    0.2488974739139884    0.8366335786044707 H
   0.4744063842810591    0.1565181611550512    0.8590953822086180 H
   0.3910708097618186    0.1899661176843638    0.9515469933269124 H
   0.2093844241181565    0.1868274141662431    0.8306724778985001 H
   0.2300356387920153    0.1336204486631512    0.9475345997591241 H
   0.1876081610751165    0.0552898167323756    0.8506613665171255 H
   0.4328060888023457   -0.0262000218380036    0.8462588178764723 H
   0.3106644671317503   -0.0603054078216804    0.8639201754322330 H
   0.3700201263026938   -0.0846213194497491    1.0152144959609135 H
   0.3336172575942745    0.0460432863249298    1.0288519573968173 H
   0.5366164703046684   -0.0377828177129596    0.9893980210176725 H
   0.0043043794299353    0.7431257161323773    0.2981508863430077 H
   0.0618436367412408    0.6942307570816714    0.4038756836774711 H
   0.1094460954951304    0.6661258910793882    0.2880393045468685 H
   0.0763552405856416    0.8647544629331780    0.2049857706325827 H
   0.1935023674151273    0.8065065177632722    0.1981544161251086 H
   0.1808377588703907    0.9336536559445311    0.2429141797100756 H
   0.0138894911902071    0.9108648730244618    0.3591902347009940 H
   0.1245232253296422    0.9612591742774439    0.4055410239198746 H
   0.0655421946365117    0.8588717436430985    0.4660372623513568 H
   0.2552464475533514    0.7216169819180420    0.3368879128113239 H
   0.2092704671502142    0.7534830734970314    0.4518342968223142 H
   0.3602110417063108    0.8267503129531710    0.4401890819565191 H
   0.2800721657091114    0.9319736399502434    0.4320490594905194 H
   0.3395042193813511    0.9642932201503118    0.2975068956281198 H
   0.0417592448203021    0.7216653641821206    0.7685418472275030 H
   0.1388930247257314    0.7118984787962552    0.8507290938111248 H
   0.0683209955989502    0.8578434606948587    0.9120245323767715 H
   0.2926043126523759    0.8068448602709462    0.6896995353887860 H
   0.3225819327591269    0.6837547166974621    0.6502605104365052 H
   0.4576157069178646    0.6770412823312176    0.7338099442418180 H
   0.0294455823720984    0.5880050239557433    0.6703758232898479 H
   0.1359338570814235    0.8092939764316611    0.6230484181128247 H
   0.8060396126686855    0.6804813465027530    0.2798084757159099 H
   0.7342133025965242    0.5694232132207699    0.2777759286072232 H
   0.7841398522907006    0.4419165057797056    0.1832930135918303 H
   0.7495106251892454    0.5706524779376178    0.0354076133765584 H
   0.6416111039824143    0.6349650394519178    0.0271710798544390 H
   0.5603906855788883    0.4998245366523860   -0.0117162728004507 H
   0.6047541550262763    0.8058468430037371    0.0929514049357776 H
   0.8093918869451839    0.7847499783973853    0.1413051296417915 H
   0.7219636359654732    0.7218445618587270    0.6775344930762075 H
   0.7195777255080902    0.5878395281837054    0.6887016354775604 H
   0.8662236785596943    0.5855353378535065    0.7524047182866893 H
   0.7751980250560051    0.5380033618072756    0.4769072530016660 H
   0.6596947776742387    0.5503576033838883    0.4268050166290218 H
   0.6670021563333444    0.3779393535252354    0.4176883838946348 H
   0.5721524144299357    0.7061585470954469    0.4339870720219215 H
   0.7824433050934366    0.7332715341622765    0.4935158742046254 H
   0.0781063699035951    0.1765378145989940    0.4768669467733325 H
   0.1621680757750323    0.2420285083140074    0.5467531452613084 H
   0.0442012524352769    0.3306015686611588    0.6282302221607728 H
   0.2189116588924114    0.4079572476279266    0.3967668156102426 H
   0.3108118558185826    0.3333310017189456    0.3424818656822251 H
   0.4186830700959697    0.2622599266103364    0.4493792896311744 H
   0.2575372384548570    0.1460393743153794    0.2410782371259679 H
   0.0799825030055627    0.3045933810803009    0.3265134074111057 H
   0.6137811105886051    0.1893014488862391    0.4730565786447258 H
   0.5635242077061918    0.0786539209467306    0.4203358428000197 H
   0.6724558283011612   -0.0456861187899316    0.3835521556421251 H
   0.7137497141861772    0.0838966151246247    0.2400890468080542 H
   0.6277739942806462    0.1507461193882747    0.1704079519170138 H
   0.4887415260450731    0.0290130619508323    0.0855502178536279 H
   0.5885941344956297    0.3481631194084727    0.2199489515131834 H
   0.7505875967213657    0.2364336003958177    0.3630206435710954 H
   0.6811378800232473    0.1146975633920950    0.8821696495921370 H
   0.7550628869131942    0.0240999955807656    0.8239071558490899 H
   0.9136275014479445    0.0379000504339430    0.8559963800352736 H
   0.9023325878855588    0.1984587418910466    0.7415441854325473 H
   0.8370804623431745    0.2060886654838508    0.6340417811552166 H
   0.8590573335908729    0.0697654502736660    0.5400664094043693 H
   0.6491729301192987    0.2940085515982063    0.6599276391113227 H
   0.7589108509204404    0.2840359250345984    0.8515931422229789 H
   0.2268663211447410    0.4420557731678363    0.1338618234329453 C
   0.1543325539636178    0.5546048369203799    0.0169435123913630 C
   0.2319642850625305    0.3962175393186574   -0.0345490626910069 C
   0.0795074061831111    0.3861732247244471    0.0570226874735337 C
   0.0103085014467278    0.3879371515012261   -0.0266064420265828 C
   0.3384461210439341    0.0871684704786790    0.7363317235592436 C
   0.4006628905487103    0.1789025689419548    0.8749749536960580 C
   0.2330568878823312    0.1196440359850208    0.8705750017175948 C
   0.3663377886773284   -0.0056798172046718    0.8834033194602868 C
   0.3813609769003747   -0.0062827496020791    0.9899415925255957 C
   0.0723977294627874    0.7227016328843281    0.3314556727502955 C
   0.1474950585965749    0.8586618338061105    0.2380186301088493 C
   0.0806985028615734    0.8931670952007875    0.3967410851131956 C
   0.2283058989038847    0.7839987685370559    0.3815423910258899 C
   0.3058349660354776    0.8634730231557252    0.3949007130543902 C
   0.1167559789389117    0.7439796807854879    0.7819896193254823 C
   0.1201407145091513    0.8589505548417118    0.7832227671585602 C
   0.1792510164237300    0.6994865077433037    0.7017901749016632 C
   0.2860689494224575    0.7254955320932852    0.7076573007600517 C
   0.3375106591111864    0.7116511907406866    0.8026857630509834 C
   0.1684546637909830    0.5836035803999211    0.7019493422571458 C
   0.7807142028519192    0.6178869506690433    0.2341188232902747 C
   0.8688591779282382    0.5579483446170612    0.2004766429133597 C
   0.7179222539168928    0.6644401429888088    0.1554412981518678 C
   0.6844473310696282    0.5892914076567565    0.0770937397184339 C
   0.6360939350074216    0.4919175832528330    0.1029957082173868 C
   0.6281615417221624    0.7118941400496382    0.2052662706027826 C
   0.7408664479584107    0.6501173359883163    0.6411074582880464 C
   0.8489874765775794    0.6519519295121485    0.6246444806028409 C
   0.6847470271247427    0.6451519092839004    0.5479707607729476 C
   0.6983329019139918    0.5432452761649429    0.4948038094051374 C
   0.6704005966540227    0.4445917485452595    0.5437008460239775 C
   0.5765497228026364    0.6630496840399275    0.5645974256132027 C
   0.1210232753895531    0.2470251673120622    0.4804182077013970 C
   0.0483485832973658    0.3353037031513698    0.4834122111257764 C
   0.1888311730042609    0.2491213529357005    0.3940386034267406 C
   0.2615506148638073    0.3378372806005785    0.4036327360939174 C
   0.3172276828516071    0.3510710940915748    0.4943687735404745 C
   0.2414513123175220    0.1447108286884548    0.3883150741965460 C
   0.6239350460669262    0.1316117327483948    0.4171057785299634 C
   0.7184148119511435    0.0788332120195279    0.4380310060383953 C
   0.6255660036883313    0.1853942997343448    0.3206841525656743 C
   0.6387157775742620    0.1102296202298275    0.2379345589920257 C
   0.5750486654614596    0.0168477798510551    0.2424513977524612 C
   0.5299596429093087    0.2426638863962146    0.3067254105478679 C
   0.7502161528983543    0.1042528783111418    0.8451982766014918 C
   0.8296921283277048    0.1367957224848368    0.9140951233247403 C
   0.7513647140391105    0.1727246903536618    0.7575928130706201 C
   0.8448382098747629    0.1612653741140081    0.6995295510967785 C
   0.8822372307329636    0.0541293424862613    0.6785692995868241 C
   0.6624849245956043    0.1476865991348931    0.6950209880857940 C
   0.1723224864467890    0.4454210125635342    0.0420048351542685 N
   0.3348955386707623    0.0957195682939523    0.8426811024299665 N
   0.1339328683355641    0.8166802399932817    0.3369237355122821 N
   0.2652515794993250    0.1821668371843190    1.1134542029441923 Cl
   0.6180399193974605    0.8799584083223753    0.9737904184232008 Cl
   1.0726536533322186    0.2717523547609506    0.7379693845633233 Cl
   0.7976951000042437    0.5369567701683760   -0.1442263881189938 Cl
   0.4489446955709753    0.4188127240844174    0.7908459009365195 Cl
   0.8965942342576251   -0.1261834337633456    0.2081858356664887 Cl
  -0.0205477241275960    0.4887841911684866   -0.0397500682415057 O
   0.4789454004889483    0.0248462827784562    1.0111371844159300 O
   0.3528948175790368    0.8916917072231400    0.3071384526624429 O
   0.1445187038354766    0.9111279602226383    0.7150460073633971 O
   0.0921308582530186    0.9057658214286094    0.8644412809403572 O
   0.2980442712819209    0.7266423173432475    0.8797219949876097 O
   0.4309833641505341    0.6900452766509069    0.7985569798436142 O
   0.2369922717373623    0.5285266690165047    0.7242050102849442 O
   0.0854502260997561    0.5422650049332932    0.6816773797651525 O
   0.1444318142863901    0.7355517383764645    0.6115838494297229 O
   0.9496185263034952    0.5931510477609897    0.1972246794854014 O
   0.8533842754055121    0.4595310493737824    0.1778435470846475 O
   0.6597458874477152    0.4377955651540180    0.1714060694613893 O
   0.5650085509770556    0.4591221464236625    0.0466168820168021 O
   0.6016322407868114    0.6888250470663649    0.2855719569871549 O
   0.5772731260864951    0.7802808188066822    0.1561057008648002 O
   0.7672187801312177    0.7371135466846556    0.1018694260843145 O
   0.8865081491022457    0.6891568685456969    0.5532044020500757 O
   0.9043218571017480    0.6155330895110611    0.6943792007287438 O
   0.6665508699940179    0.4312214353825167    0.6295402449923394 O
   0.6496909346188937    0.3667378092533909    0.4845748180807345 O
   0.5372367229773273    0.6499063388070588    0.6413039774662921 O
   0.5275573568853703    0.6933073815945114    0.4871522197372214 O
   0.7122538038196821    0.7246596437793353    0.4844557933731132 O
   0.0157826518183985    0.3708173867563594    0.4078099753932297 O
   0.0196068282434081    0.3691731863029247    0.5662511573318403 O
   0.2890491987658997    0.4138908875842445    0.5556561561234785 O
   0.3969683818167804    0.3008990408439007    0.5080744188732605 O
   0.2576041262248308    0.0984785639037239    0.4623125442467396 O
   0.2651351406475956    0.1049241979810933    0.3044546909829750 O
   0.1375423610973447    0.2630373253700046    0.3083100174262988 O
   0.7882600026607970    0.1307114724387841    0.4643766986587397 O
   0.7235738131775576   -0.0206712930937997    0.4302707399057691 O
   0.5929648556524796   -0.0528192893051035    0.3030831398460835 O
   0.5036167537747284    0.0064586662629116    0.1856183804139268 O
   0.4573897932314563    0.2147930621361061    0.3497993998445843 O
   0.5270048257181557    0.3193402447526907    0.2464019493671498 O
   0.7012563212714115    0.2599768916563184    0.3179821182362497 O
   0.8190208317216235    0.2125944110200823    0.9644303999940825 O
   0.9093105043441195    0.0806622086057832    0.9157238507013833 O
   0.9079013411118110   -0.0036381278786718    0.7432162417201610 O
   0.8933349984187652    0.0256562608630021    0.5882010315811304 O
   0.6311043266433873    0.0610915098914159    0.6909880132497338 O
   0.6238438303968789    0.2243851645238442    0.6459606177879681 O
   0.7433063715925355    0.2764593587614967    0.7835540425073102 O
