Li1 Co1 H90 C51 N3 Cl6 O45
1.0
  14.7552539941000003    0.0000000000000000    0.0000000000000000
   0.0000000000000000   14.4000978916999998    0.0000000000000000
   0.0000000000000000    0.0000000000000000   14.8829996933000004
Li Co H C N Cl O
1 1 90 51 3 6 45
direct
   0.8781401865993650    0.4118926475644800    0.5126630937199336 Li
   0.5708754657200861    0.9778393557946621    0.7614708110020222 Co
   0.1226038871593375    0.3336097075124024    0.0432305220626756 H
   0.2177096712116570    0.3021258937626837    0.1881253715177082 H
   0.2985751039908627    0.2233861512604095    0.3159981148637117 H
   0.4674263485032392    0.1428630875478814    0.1577289454394590 H
   0.4154860023522040    0.1887273590943043    0.0536565116613890 H
   0.9646239570929298    0.2464464111626286    0.1272626409750354 H
   0.8093978931488029    0.2850260100082872    0.0342229293217881 H
   0.2964179062894386    0.5783809602155942    0.1157582397435364 H
   0.2845367146766004    0.5724553060539526    0.2895491456967494 H
   0.4202280420370497    0.3429506162348028    0.0528065485987884 H
   0.3286904784993381    0.3623511787935493    0.1630995025614874 H
   0.6945743868453900    0.3020474220739148    0.1879432845691195 H
   0.9521545004455844    0.4088447516175158    0.2144883365170713 H
   0.7937458413378109    0.4051128325427868    0.0306047071145914 H
   0.8654552134992853    0.4868988737806609    0.1977659011795204 H
   0.7759908098009254    0.6556734903338463    0.1712934152479803 H
   0.2785923913843635   -0.0053872935297693    0.1391076993391340 H
   0.0617747072374675    0.8837893007057577    0.1626647783705763 H
   0.1291690062713998    0.7280924424717395    0.1744782570793846 H
   0.2162640844390722    0.7363854416511987    0.0965867013520890 H
   0.5515823379898668    0.5828781518657514    1.0202425693414228 H
   0.4763710945613399    0.7406444404761546    0.2490203536232307 H
   0.9860387019781311    0.8331111729952074    0.0205872373119738 H
   0.6704324777909990    0.8963885206113790    0.2807337185178412 H
   0.8808524408252836    0.7963267008351042    0.3149821906339473 H
   0.7781676615184793    0.9120398031023059    0.1588926893322843 H
   0.7574896033758000    0.8157855963306346    0.0851528504143237 H
   0.0398896214145381    0.1673094491384443    0.6739172245710148 H
   0.2100825575038889    0.0122091146270148    0.6793516129111832 H
   0.0952983592327357    0.1948127343923784    0.3859705680962960 H
   0.1111815151644269    0.1054161198914456    0.5439736621270390 H
   0.1785507383846763    0.3410610457468353    0.5963817798501841 H
   0.0011468115497548    0.2714080470281168    0.4067136982691050 H
   0.1174125160022819    0.3801899464138766    0.4997857286759580 H
   0.6340108750036200    0.1826475393140191    0.3409198381482305 H
   0.5233739452257417    0.1620101796075070    0.3634690558406208 H
   0.5951264206777630    0.1232514153131547    0.5694908298906697 H
   0.4812507123590945    0.1512331695366624    0.5336496009050817 H
   0.6123033530505534    0.0961849326453770    0.4136135169962551 H
   0.5291621885209198    0.2269666824753895    0.6041611255725470 H
  -0.1215898082823501    0.0643969542967131    0.4096109636650999 H
   0.7260953623694963    0.1964620287359737    0.4965926223815734 H
   0.7131311666954342    0.3050939291414317    0.4394120796457491 H
   0.3241971637772391    0.3074168300169375    0.5715885924817726 H
   0.1784843213646513    0.6206772004620622    0.3077612000934193 H
   0.0778076403265620    0.7051259319322090    0.6430054453947303 H
   0.4599787640669469    0.2992550799452424    0.4368104535758762 H
   0.7206661098448003    0.2648476749590873    0.6325055459644863 H
   0.5702272898226177    0.3495498769283550    0.3959215190505361 H
   0.5282291649345074    0.3532324907827071    0.5148946250432158 H
   0.7293131992172379    0.4084078795873871    0.2867963404260188 H
  -0.0116106780925969    0.6464832750314712    0.5743456307701272 H
   0.6350145852756304    0.3420957609350277    0.6102734686401178 H
   0.7703372304024715    0.4244415205901388    0.6101196018090225 H
   0.0647682172114511    0.8742803375702416    0.4741163066593745 H
   0.2688175681208892    0.8266841333531126    0.3047181307570416 H
   0.7866914049965847    0.7680775873180031    0.3677249183216577 H
  -0.1450628030636321    0.7621963772986731    0.6165161617742059 H
   0.8889227864830143    0.9042579115594305    0.4485803926748375 H
   0.1839711804883487    0.1653066849755268    0.7529651332079828 H
   0.1990939293132232    0.1631587829103730    0.8679238132629331 H
   0.0549317210008108    0.1265541706386871    0.8545736819658500 H
   0.3632056417221224    0.1802093614443925    0.7983672708095976 H
   0.3192890815423309    0.1327881560376157    0.6930833877019872 H
   0.3128574741950127    0.0789183833573119    0.9353934108368714 H
   0.4129458901985950    0.0794843517320615    0.7608768447195409 H
   0.0044175109236387    0.5759844487293848    0.7478586357567858 H
   0.4101184227746739    0.5014304416612246    0.8434778005304469 H
   0.5542355623949264    0.3746219287098987    0.8572438426067785 H
   0.6215692050687339    0.4783127793714511    0.8440717668129282 H
   0.4684364293873745    0.4876443548239660    0.9479291901720003 H
   0.6362189020571039    0.5933544695362690    0.9403373066587012 H
   0.5946980986710712    0.6319305961833095    0.7850957526969607 H
   0.4696631788562238    0.4273162232700324    0.7309991312771237 H
  -0.1028032797609949    0.5940454370612701    0.8061042863557203 H
   0.8896676059218661    0.4663345135778956   -0.0407908463287343 H
  -0.1983211204273470    0.5006311415393390    0.7730504658801705 H
   0.1075780529657240    0.0180583804190584    0.8856144673935333 H
   0.2180681875748531   -0.0715972600987843    0.7638318941656413 H
   0.2546517665641300   -0.0248559111814305    0.9163858178899099 H
   0.0395873562009550   -0.0388328994987120    0.7697991052003886 H
   0.0360143916134880    0.7681338369356162    0.8849969843464741 H
   0.4799561904208319    0.6557602952992987    0.7551696619102691 H
   0.5808462191926341    0.6941732286112886    0.9781845156627823 H
   0.3548303199520318    0.6499360293373053    0.8861177261555000 H
   0.4033465976309011    0.6362583445409037    1.0042182459580553 H
   0.3270876595977146   -0.0326107195750849    0.7112652062584854 H
   0.3728462754961583   -0.0211580196531589    0.8752906077438439 H
   0.5350307421923527    0.7423298456853781    0.8166801113401726 H
   0.4256322187480629    0.7380652913426332    0.9295081725243671 H
   0.2787774102258617    0.1259993132995154    0.1632836052327543 C
   0.2840223216337537    0.3040946303791438    0.1474171801258382 C
   0.2662069725990905    0.3176459271458468    0.0497419782205110 C
   0.3320425048365179    0.2112140117848141    0.1750870053281720 C
   0.4240863287207464    0.1994321474338926    0.1302176904211359 C
   0.4863787162572487    0.2861628078358517    0.1417617341986376 C
   0.8446165346040967    0.2418943587743055    0.1996378356399196 C
   0.1910994888212353    0.5530693267294020    0.1823321845408372 C
   0.2296755784112619    0.6133147505122526    0.2583370238414275 C
   0.9317326222372873    0.3601039718479180    0.0345501483032003 C
   0.8369236816009977    0.3504019544692357    0.0618665501293066 C
   0.8775437888685282    0.4167516423106428    0.2253248616345586 C
   0.8235243866733024    0.3442797738658097    0.1704743599331107 C
   0.1968330397335969    0.7554880895685127    0.1668413557596078 C
   0.1941912688758681    0.8590068302889633    0.1704911576220949 C
   0.2599468295993879    0.7144710072929511    0.2380346650275638 C
   0.3559560206689861    0.7177175130008703    0.2071739508257912 C
   0.6668588354788380    0.7752900382875111    0.2280958084093922 C
   0.7960148636137667    0.9104182863476554    0.3488987404157256 C
   0.8113382189481044    0.8137432491034710    0.3198817405568588 C
   0.7687960844480139    0.7821601304732747    0.2282100326944848 C
   0.9003166940407713    0.8357146275190555    0.1222025051454349 C
   0.7974082655849033    0.8390111328870752    0.1421648787342584 C
   0.0429163398985342    0.2162077278373589    0.4369139273400189 C
   0.0897471162630957    0.2377068872408824    0.5323170066425872 C
   0.2402148751297177    0.2996064664453936    0.4717916408854730 C
   0.1550479237168525    0.3223424229966827    0.5292853597347188 C
   0.0155294850086365    0.2670330767693166    0.5964865974294457 C
  -0.0120871185525721    0.1235868296996627    0.4444661683073153 C
   0.5891353343816309    0.1634615586298709    0.3933723017702939 C
   0.5484267840415161    0.1792899232503208    0.5515957814805097 C
   0.6856717952632643    0.2591754912965666    0.4951372706079822 C
   0.5326734801612207    0.3134674833288307    0.4520892283313691 C
   0.6971985368610714    0.3121904086770952    0.5824853877073352 C
   0.8551375327558108    0.4184876027317458    0.3236269532927760 C
   0.0058475100282584    0.7076724423987202    0.6172673544255793 C
  -0.0013926228791600    0.7897538288510494    0.5491427141720130 C
   0.1930784449281024    0.1195931068491293    0.8093301145482460 C
   0.1011261138775818    0.0704358021333047    0.8290640395668843 C
   0.3066590041424762    0.0217798828979331    0.8884526049243038 C
   0.2567825330024828   -0.0136004321410123    0.7331136243664549 C
   0.3498246453611686    0.1153785521664851    0.7600262097493810 C
   0.5541266520365794    0.4518976533868392    0.8327272795805587 C
   0.4750640347162358    0.5102532289058327    0.8802969909686948 C
  -0.0666500559524923    0.5976954122486120    0.7441134230208686 C
  -0.1149447176563801    0.5339879981116031    0.6775206648119054 C
   0.5717973068490453    0.6209688651459822    0.9591171229430371 C
   0.5310711356668830    0.6659498093639616    0.8058758377855351 C
   0.4114067774182200    0.6619060868533276    0.9327239221035024 C
  -0.0330721859816934    0.7627401236022668    0.7746166824010573 C
  -0.0566590385115897    0.6991190283229038    0.6994040221129620 C
   0.5893101873527171    0.2275757061130035    0.4732061406794546 N
   0.2762630516106298    0.0618976657314080    0.7984384930108906 N
   0.4982479121430008    0.6150445998637877    0.8923624350122662 N
   0.4972589084968532    0.8876142747034517    0.6671719445825193 Cl
   0.6720535952593643    1.0782365899574449    0.7158388810151035 Cl
   0.3467254103349003    0.3509332008578043    0.7106578018248166 Cl
   0.7728258354793263    0.5077115100734145    0.8963421434864030 Cl
   0.1077806926492696    0.8450603973195211   -0.0351535419056367 Cl
   0.5411480208265322    0.9458645731603447    0.8952119949715459 Cl
   0.1821928308909448    0.3316722206835052    0.0106376301728523 O
   0.3320974005367426    0.3215472895131388   -0.0048760434653956 O
   0.1975216080228356    0.1239708548668241    0.1836793591973701 O
   0.3224994634184370    0.0519470389316701    0.1330074506076319 O
   0.3535751738184983    0.2134001080347670    0.2726499986710847 O
   0.5495875231251570    0.2777281429527742    0.1958711218621026 O
   0.7903450188226535    0.1971238297925827    0.2473439442626075 O
   0.9300925284774864    0.2077154244572211    0.1771101189894291 O
   0.9986965660904453    0.3118299944605369    0.0540038878695822 O
   0.2460561842684464    0.5357953469362942    0.1066908472298651 O
   0.1140089825883480    0.5213837087959995    0.1806100854661770 O
   0.4746723098430271    0.3578519038242213    0.0889679415364152 O
   0.9433935533245325    0.4243124242455180   -0.0278122799119819 O
   0.7292433935737422    0.3612525751507840    0.1860592557726516 O
   0.1204548221542430    0.9138703462137659    0.1712806490043523 O
   0.2724935468618643    0.8950711684556736    0.1775730632978337 O
   0.3794818779764104    0.6712838008810799    0.1389356910039358 O
   0.6239303979030919    0.7118154697898317    0.1889377077569842 O
   0.4144822920801936    0.7477798086363407    0.2688557366833336 O
   0.6220104038446143    0.8486617617262097    0.2561533242734814 O
   0.7416267791849328    0.9640081998193406    0.3139837360007264 O
   0.8014583483570397    0.6883600736848732    0.2254095219870389 O
   0.9195938952406785    0.8409875083404952    0.0377873989242354 O
   0.9624437167519052    0.8276125992635914    0.1852509509787319 O
  -0.0036365693414329    0.2210201951220392    0.6722858330168692 O
   0.2331983913713631    0.2807364558354921    0.3908775090023605 O
   0.1447078780584717    0.1618692083436123    0.5616117730864967 O
  -0.0299038230366236    0.3352909460832842    0.5794514563137648 O
  -0.0959128527957489    0.1302110902232652    0.4089383841981726 O
   0.3218752789751409    0.3009738182611997    0.5063553921856614 O
   0.7614339610956518    0.3814420212355618    0.5571861195652074 O
   0.7683325207572272    0.4229633361944432    0.3423153901490378 O
   0.9102202849961307    0.4231123629591319    0.3857071803330238 O
  -0.0839896422518744    0.5147330595628995    0.6022179689108548 O
   0.0146281111654402    0.0507991300685277    0.4803310484389929 O
   0.2492374239827048    0.7621463776385725    0.3185782398916849 O
   0.0774003277853883    0.8183626621449851    0.5113859775208008 O
  -0.0768992865018593    0.8205932025372497    0.5271076401440511 O
   0.8572201807408804    0.9470680372013766    0.4061889384652387 O
  -0.1475053228612860    0.7128411572616170    0.6667076564589960 O
   0.5340435006304097    0.4524548718210711    0.7359853572751938 O
  -0.1920860532413273    0.4937498688740251    0.7022085642657639 O
   0.0729327666016663    0.0164701967711416    0.7497225073264726 O
   0.0044432644620157    0.7198431929948683    0.8467506622521285 O
  -0.0538295379135862    0.8454333114511046    0.7717657786266588 O
