Li1 Co1 H110 Cl3 O55
1.0
  12.8019177834000004    0.0000000000000000    0.0000000000000000
   0.0000000000000000   11.8462838519999991    0.0000000000000000
   0.0000000000000000    0.0000000000000000   13.0632541815999996
Li Co H Cl O
1 1 110 3 55
direct
   0.0942840683811542    0.6507850919593178    0.5066050540547189 Li
   0.5396870225692908    0.3494551521573653    0.7575440585653467 Co
   0.2455646837363988    0.0839494425783239    0.1428694998087688 H
   1.1316498931500238    0.0722808888169127    0.2883677021385656 H
   0.1494618950124073    0.3550400259309944    0.0256754240664189 H
   0.2584385361379277    0.1688719391661594    0.0503859590918090 H
   0.0818574146022741    0.4796951514073850    1.1380725188476033 H
   0.3158416543607999    0.3547589251198368    0.0159600041384530 H
   1.0822354217635353    0.4006712134623262    0.3151098901985711 H
   0.0027703577151533    0.4324516439081524    1.0555586226150508 H
   0.0387112071866768    1.0527406806898789    0.1173406388248242 H
   0.4014483594297132    0.3643273266047348    0.2181838117193327 H
   0.6472373149001268    0.1218585460246492    0.0533810014798771 H
   0.3919794656240379    0.4607381516591402    0.0277584425564310 H
   0.4179669782474507    1.0490264357376469    0.1385191289739085 H
   0.5703144650067368    1.0286993860899765    0.1704238897789955 H
   0.4530859352355181    0.3473025783782308    0.3285797345079504 H
   0.8513715738615950    0.3365768519320805    0.0437053266255952 H
   0.8458411524670908    0.4228756451040340    0.1306328857325340 H
   0.6948684597267776    0.1240013277034551    0.2508900573500573 H
   0.9577228270906566    0.4201355453051827    0.2775166539977693 H
   0.7502500058353875    0.4594044000626569    0.2338812786099972 H
   0.7759242841397048    0.3318825528004071    0.2826019106326412 H
   0.0135471024446729    0.9856225861098843    0.0160174936421831 H
   1.1504986316033272   -0.0425775779393337    0.2170271320903561 H
   0.2168275830750404    0.7538275325466176    0.1962926354454455 H
   0.0960852047726017    0.7648065029667838    0.1471433200394613 H
   1.0560440334361725    0.6098785928365412    0.0398258721423944 H
   0.0829046795688860    0.7077894663637004    0.3016737281550256 H
   0.0311626662856170    0.5878514319766445    0.3209223775730378 H
   0.4505824040816500    0.5265013909781503    0.2582588185072570 H
   0.3614215440205059   -0.2826502484519396    0.1071248841480171 H
   0.3845110533425612   -0.2993989607467664    0.2243905347052640 H
   0.6122175617986558    0.5808222234045453    0.2270920055263483 H
   0.4051931108654835    0.9211719947228563    0.1573375639964972 H
   0.6643644362978529    0.5665485488824332    0.1165062372393944 H
   0.6971478057195973    0.9985211458530903    0.1478529441400975 H
   0.7998167981501145    0.8472998833558595    0.0934663425993640 H
   0.8701890669962854    0.9549294164591661    0.1192995687854801 H
   0.8511216113126909    0.8376808330761583    0.2792765523875888 H
   0.2644923166192000    0.3414821877087671    0.3484384922411805 H
   1.1533185216081523    1.0849786385820936    0.4480446073723361 H
   0.1740449305641648    0.2557185834685671    0.3973443767259108 H
   0.2407872745204682    0.0352262052145195    0.5824445031098744 H
   0.1702822130701921    0.4317847681099108    0.4808289346193119 H
   0.3115524532481978    0.0130119223822225    0.4868641842519073 H
   1.0326725351136345    1.0882201614494962    0.4278620405834759 H
   0.4265500672704469    0.0286078681073292    0.3470667054144922 H
   0.6097312155700249    0.2426765188067520    0.3728979412848999 H
   0.5101133285020688    0.1907851402377489    0.4257706780776095 H
  -0.4495350779210817    0.3105965526377968    0.5557574314848698 H
  -0.3817686686472366    0.4244305631044911    0.5584558402817874 H
   0.4163765915300481    0.4854184652201427    0.4921285693005320 H
   0.7788902460090456    0.1341445930093690    0.3442810289288232 H
   0.8920061107178257    0.0207051366541913    0.5123287427283509 H
   0.7463388730780030    0.4612767171772139    0.4415446955724419 H
   0.7641424556237008    0.4879922681427236    0.5613004607326656 H
   0.1973180061330716    0.5025850300720955    0.5938390605402625 H
   0.2164424845231349    0.8537272154163811    0.5331413209895127 H
   0.2736479761057797    0.7507995787639683    0.5815098202329846 H
   0.3116555627996208    0.5446724902603660    0.5013950199350533 H
   0.6131307062351213   -0.0166879399877476    0.6350424232336213 H
   0.4813723221758837   -0.0127723660761729    0.4558941063237100 H
   0.4792991952859100    0.6153697663397844    0.3469403969176151 H
   0.4256791040141090    0.6616078952621741    0.6447245436487741 H
   0.5092603313039333    0.8500467363273511    0.5496249625849813 H
   0.6170527748540204    0.8489307745485213    0.5023672126079853 H
   0.9046760874154045   -0.0609832655561460    0.4179487373437361 H
   0.9005438940288328    0.7475403288183846    0.3564250167740149 H
  -0.0923862446479395    0.7119654594952214    0.6645618672128373 H
   0.7905369385220481    0.7904947275443692    0.6053323682500273 H
   0.7042756440281921    0.6572909296517844    0.4727428943010593 H
   0.7665522508217300    0.7588400749389709    0.4236042959796587 H
   0.2531854169461140    1.0493303285064659    0.8720438592434041 H
   0.2815874115653478    1.0221741330261687    0.9957037052161893 H
   0.1763805181304880    0.2853498167215789   -0.0709807369825235 H
   0.1574739758377505    0.2576516791368879    0.7651738572827588 H
   0.1672295454417002    0.4346109708599274    0.7538183406604962 H
   0.0444827877615660    0.3001114079669615    0.8082695509111474 H
   0.3287389407512886    0.4777882242830458    0.7426465454882365 H
   0.6450977917081006    0.0137251418277091    0.7477555328104005 H
   0.5091994029326380    0.1386692186784518    0.7071530923597596 H
   0.5599503928227986    0.2484901563035753   -0.0493812185105159 H
   0.6307671263262395    0.0616257330248548   -0.0510209324517918 H
   0.4606629249991751    0.3335362359507305   -0.0388676819834958 H
   0.3908140152397723    0.1960247580601364    0.7200495726439214 H
   0.7771155119118262    0.1886258132859739    0.9568619286614096 H
  -0.1209811791096087    0.2587347191990956    0.8423345697658519 H
   0.8496530813378790    0.3888151747454853    0.7012112344642492 H
   0.7198725259468456    0.4892078392179996    0.7678026050298836 H
  -0.0947976021118992    0.2087739038586731    0.7258551704640132 H
   0.8942089056800434    0.1606938470986083    0.9800873819659429 H
   0.7838582516685154    0.0762811306304667    0.6724902132865040 H
   0.8791486621085686    0.0047592077569947    0.6782200260084695 H
   0.1483815881213621    0.9229024952119644    0.9336517854777099 H
   0.1360881175130700    0.7747936011553879    0.6860434977544264 H
   0.0843157181574499    0.8098670474099999    0.9750503522116967 H
   0.0875223470934074    0.7861693204681789    0.7977675735253565 H
   0.1658719363479645    0.5712107704440645    0.7643945721323298 H
   0.0123827456465588    0.6691334620233444    0.6899292064219877 H
   0.6613211422649450    0.5047435128772905    0.8751900890747037 H
   0.3662739420011077    0.9025585626326930    0.8615104961099044 H
   0.4022380848576572    0.7753186603281808    0.8803342896747849 H
   0.5752863763310333    0.8959657778424809    0.8755192566726256 H
   0.4029254818671436    0.7628683424189826    0.7110028222433621 H
   0.5920768294207041    0.6173670171481892   -0.0059441857381427 H
   0.4268562713928545    0.5166805896658165    0.8177312055862967 H
   0.7017096222370979    0.8758539855727240    0.8836718960165043 H
   0.7663397826551613    0.8121183863390006    0.7249472802985821 H
   0.7119916754596771    0.6309054399990753   -0.0352502831835428 H
   0.8790783601416893    0.5227069521008131    0.6710380483254395 H
   0.9682837447818569    0.6756713772858530   -0.0157763453374646 H
   0.2424073442905532    0.1196234991246435    0.7176412906368002 Cl
   0.4159758703188361    0.6298114260313269   -0.0342779374094025 Cl
   0.8059729070498446    0.7568799665800883    0.9278722148630354 Cl
   0.2924826541657073    0.1026477113997825    0.0839971859650062 O
   0.1931272277741005    0.2881422536083935    0.0016276641719143 O
   0.0750375770219071    0.4652551800090026    1.0626701737422466 O
   1.0317742322035104    0.4480101095251048    0.2699113514736909 O
   1.1434450009264383    0.0404128106316796    0.2151386286855347 O
   0.3944142570769574    0.3905026237590107    0.2914343193415306 O
   0.3763068138077479    0.3853085898519461    0.0557981633570819 O
   0.6428731250228537    1.0569023233295389    0.1621143216965726 O
   0.8793048887016335    0.4100353314748514    0.0648548653361832 O
   0.8018711778489206    0.4121575159771041    0.2785072188157016 O
  -0.0167952264604293    1.0400447161258854    0.0628418140983806 O
   0.7237719417097503    0.1739824025617988    0.3081690469186698 O
   0.1424895021639122    0.7691876237172576    0.2050308869112084 O
   1.0339457818471152    0.6883116281755630    0.0229371324047298 O
   0.4435998565046058    0.9861712813869185    0.1831488967098213 O
   0.3348349024126885   -0.2613144436411062    0.1777696857549448 O
   0.4832056412455026    0.6043106019945131    0.2688120847978402 O
   0.6758056908409751    0.5575035182771678    0.1895561822786725 O
   0.8045473393881256    0.9146467416590484    0.1400003831645569 O
   1.1024198975875452    1.1212178512637585    0.4029103711549570 O
   0.1911431500421739    0.3355419282249358    0.3774381576180966 O
   0.5494785242896454    0.2634070705196876    0.4166971349655913 O
  -0.4325141906066399    0.3786693769998312    0.5991953063138887 O
   0.4395020329685084    0.0493905036642541    0.4187862009533326 O
   0.8584330158681373    0.0828439482170868    0.6590701268698339 O
   0.9163696479063267    0.0172601744609960    0.4408588021590977 O
   0.2399303716575062   -0.0025023099539351    0.5097436288256018 O
   0.1758102910658004    0.5022819814498566    0.5217773838007917 O
   0.2100653149942178    0.7733973827119808    0.5479730005470386 O
   0.0435541222130795    0.6609275131186516    0.3491641919686919 O
   0.4134817127605519    0.7428831721362337    0.6408342419449626 O
   0.3901703616763442    0.5630740415589359    0.5027055662784072 O
   0.5581780021244751    0.9013345500916164    0.5242247066160387 O
   0.7136750169999534    0.5013787446092002    0.4988696155035551 O
   0.8638462673178428    0.8202551152241292    0.3492284944761929 O
  -0.0473508046650654    0.6488621260499575    0.6409536608874646 O
   0.7157106495075916    0.7384328313661954    0.4801813165080518 O
   0.1193464852337321    0.3205211839794770    0.8072743930569650 O
   0.4055782094173889    0.4651716094975774    0.7614397188114498 O
   0.6354406448577818    0.0469346955506330    0.6795129657128650 O
   0.6460234342720111    0.1408226366041664   -0.0207592538145641 O
   0.5096579279832840    0.3002971202145731   -0.0904253559472055 O
   0.4690515119138052    0.2082429356598200    0.7161998427603190 O
   0.6555134186677501    0.4678424892768642    0.8046640174548404 O
   0.8454818313030411    0.2214057132825826    0.9585307318322692 O
  -0.0897842907404404    0.2757257015623975    0.7732652561433032 O
   0.8270314706620536    0.4613476254899384    0.6721174118442066 O
   0.1115170332956819    0.7315049203837025    0.7437083023680450 O
   0.0812635973220337    0.8846035648749708    0.9379156541298606 O
   0.2620098760553957    0.9850570079012488    0.9225366377525344 O
   0.1975578139534266    0.5069543327704487    0.7288582506655189 O
   0.6447181610869523    0.9342056179188707    0.8713855240475604 O
   0.4168030901291158    0.8416803995724482    0.8344881328386445 O
   0.6553970298559167    0.5790950995017573   -0.0127760209577089 O
   0.8169173610270196    0.8238258552577523    0.6710594824946065 O
