Li1 Co1 H110 Cl3 O55
1.0
  12.2826249802999996    0.0000000000000000    0.0000000000000000
   0.0000000000000000   12.2850288472999996    0.0000000000000000
   0.0000000000000000    0.0000000000000000   12.2644179893000000
Li Co H Cl O
1 1 110 3 55
direct
   0.7875387798385536    0.2134263953540696    0.6437318510823694 Li
   0.4777312259888506    0.5895638922566977    0.4178996915443950 Co
   0.1408423275134260    0.1232206649667490    0.0792237752780193 H
   0.2928904445075822    0.3311949425820214    0.2327926606212281 H
   0.0538929985456441    0.0349954753093224    0.1048648615712587 H
   0.3130660991740286    1.0716539283172677    0.2967239454717661 H
   1.0263102154806738    0.3238282525135736    0.0648182812583162 H
   0.3392323299687874    0.2538585348446633    0.3165446984999229 H
   0.4396335065884353    1.0954633962180520    0.2814056482509843 H
   0.6665939490403641    0.1616869971075856    0.2731492434147871 H
   0.5775535361193397    0.0312131480085434    0.1745428520593157 H
   0.7282395664238158    0.2698210533244712    0.2622502345815412 H
  -0.0742883961094214    1.0165462026118623    0.2242345700463984 H
   0.9209825675165819    0.2767253920162474    0.0243316474504007 H
  -0.1093411637947117    1.0587113457660720    0.1020037392554168 H
  -0.3303549946618083    0.0599175983100583    0.0160157289870068 H
   0.1675149647164222    0.6150697338704816    0.2613680076377564 H
   0.2899521475183079    0.5694768413374616    0.0870221070116117 H
   0.1845805350107356    0.6374587736862448    0.0781795349389201 H
   0.3350288311171324    0.3851565578325787    1.0658546134113045 H
   0.5264683649115256    0.4475560857073935    0.2797708376943405 H
   0.4494669094802209    0.4321479004802499    1.0498245009207221 H
   0.5437814393024695    0.6181580457069115    0.2158884748554727 H
  -0.1541214938041496    0.3901471851043636    1.1752931535174058 H
  -0.2763502521036098    0.4243733969616040    1.1776169490717374 H
  -0.1795378848851037    0.4730676253134955    0.3225743364382676 H
  -0.2397058051126860    0.6219708165666474    0.0134536750821730 H
   1.1941570725903377    0.9976532880827271    0.1767166201111922 H
   1.2991427741051373    0.9238724275518861    0.2018625341096437 H
   0.3297343602605931    0.7384605715186289    0.1381399831755651 H
   0.5822023795132870   -0.0162139282516848    0.2968853881102775 H
   0.4726696043811149    0.7232526300215227    0.2273981934677341 H
   0.4268772757134149    0.7949358153803869    0.0772034592694147 H
   0.6509262883970852   -0.1969666173662921    1.3056213926066567 H
   0.9807906298141948    0.7461121612029835    0.0720583313020662 H
   0.9176852267555510    0.7282750032505086    0.2412822603797196 H
   0.9427368749572601    0.8691635613087504    0.1061898327206583 H
  -0.1872080694060104    0.7370914253644709    0.0259910820862518 H
   1.2930610122570136    0.0651916599997254    0.6092287869851425 H
   0.4159130070643276    0.1195031319786163    0.4609029551693086 H
   0.4336030367077054    0.1889868923026798    0.5750412698631880 H
   0.5951849463714104    0.2632911541278868    0.5420768030329871 H
   0.5139173019060804    1.0189393593854796    0.6070501267320989 H
   0.6735411610684817    0.2346465327457123    0.4430162523358445 H
   0.8309041028744923    0.1091669739135168    0.3503131170552365 H
   0.9860663750318444    0.1749348292472528    0.6096405472500329 H
   0.9218618583861903    0.1411823647513203    0.4992798272239493 H
   1.2293368489567937    0.4024589185060513    0.4113294653770954 H
   1.1739333825893479    0.5248200475424211    0.4184133726669315 H
   0.3194800375728932    0.5212213583940666    0.5267878590192074 H
   1.0846039435028505    0.4183978310176841    0.4929917179906140 H
   0.0624031500944906    0.6555873432458472    0.3426763910335278 H
   0.4243664117857558    0.3902692849397523    0.3366198459887646 H
   0.3482149375284057    0.6116208205202038    0.6092891241328691 H
   0.4164772187056596    0.3705900474707142    0.5831639545341535 H
   0.6364131040992734    0.5881353241826506    0.5663070600463459 H
  -0.0512859027130058    0.4419354232850031    0.6588715829605551 H
   0.8849560666090217    0.6410590908324045    0.3397997767473236 H
   0.9795612509131685    0.3340724287026803    0.4894986863573661 H
   0.7015107523041502    0.5586123979845805    0.4575363053995419 H
  -0.1083983685845206    0.4863406914191431    0.4311624489081698 H
   0.2290620689561493    0.8656308060715058    1.3596965228393838 H
   0.1493975020114292    0.9197047531706206    0.6423661115899113 H
   0.2015541054270253    0.7487657976254299    1.3837906135869273 H
   0.1795156567701496    0.8327289704287808    0.5508517811928877 H
   0.3646356945183398    0.7902675316740281    0.4475032161728575 H
   0.4971578550997047    0.8097701313812039    0.4299565213205008 H
   0.8436619620659379   -0.0047992216406523    0.4107758312783616 H
  -0.0155976031269597    0.8022943654598088    0.6148915098359611 H
   0.6837897846486934   -0.1183758373200414    1.4105754149763288 H
   0.8392655077178968   -0.1459997040783668    0.5252068626754007 H
   0.8609709656658188   -0.1790065455795261    0.3985249441892976 H
   1.1773691302465208    0.0858174153926962    0.6769425587046434 H
   0.2997660106129912    1.0005267042088730   -0.2368292982051063 H
   0.1900467932501336    0.3134977924407922    0.9389509151389633 H
   1.0269859667971322    0.1162170184088567    0.7621801950043881 H
   1.1094357689871575    0.2202851501073007    0.7673504362710607 H
   0.3249764196661573    0.2887033858678728    0.8448820403658973 H
   0.5237059260961731    0.0934283865318116   -0.0882286877570584 H
   0.4237175276903135    0.3238046465453984    0.6967730961351343 H
   0.5004608949682238    1.0329889804441990    0.7308122164883560 H
   0.3863859311679550    1.0104574908204822   -0.1408239271367639 H
   0.4533569574200249    0.1636267564924597   -0.1776728016935740 H
   0.7863460380570942    0.2569305667030414    0.8528726356053534 H
   0.7614743188203698    0.0562077983115002    0.7921669420575999 H
   0.6806642312705212    0.0384837862064855    0.7014859165926910 H
   0.0652562047189055    0.4975641082880667    0.7677752424057297 H
   0.1627619090712620    0.5845333790386857    0.7491449249948795 H
   0.1713398799992181    0.3917190169852667    0.8413922702000940 H
   0.0780889664659104   -0.3724012888504925   -0.0609952715206420 H
   0.6134945504145769    0.5472652532824631    0.7333863296690665 H
   0.6252102870938943    0.4726842318303752   -0.0773786009354827 H
   0.4466401521660729    0.3469612873263050    0.8632277947421995 H
   0.6671565323652707    0.4001878615678227   -0.1727740775916707 H
  -0.0945698913435057    0.5272579742556809    0.7310511189786785 H
   0.8333710022586711    0.3599404998281172    0.7899124526864677 H
   0.6976467574271494    0.6306016469308189    0.7200558968558147 H
   0.1438889075449760   -0.0490101068368535    0.9909713208815447 H
   0.1199925498469467   -0.2455867718180478   -0.0457609570865607 H
   0.2230210150186556    0.7563400574140384    0.6768846676575003 H
   0.2125314006075142   -0.0838093739215179    0.8923037770114856 H
   1.0316673765195834   -0.0773388966448227    0.8488773379856253 H
   0.3296488736482701    0.7318077584877533    0.7484486016954411 H
  -0.4148418206997595   -0.0431002306043726   -0.0090504502860910 H
   0.6186791099124153    0.7666322595383980    0.9823936615020470 H
   0.5183772605947045   -0.2550804410189657    0.7119348429185716 H
   0.5341792573430624    0.8109227538272725    0.9008488217165366 H
   0.4898841656283342   -0.1408739529887518    0.7372161078159771 H
  -0.0767919326131671    0.8793304076021110    0.6932751723007193 H
   0.8377430318603343    0.6691998468938752    0.8505243790451867 H
   0.8685100707144970    0.7051769703905887    0.7305007463473895 H
   0.9213815050407561   -0.0093441031133785    0.8359456195674851 H
   0.1853588702619814    0.2774995049726113    0.0901730922465992 Cl
   0.6251410836458233    0.5203617755529305    0.1007358437862990 Cl
   0.8324835698069367    0.1251327483889351    0.9593269329995764 Cl
   0.1300815984174887    0.0436536560366209    0.0747845104023847 O
   0.3209072569195814    0.3309816748695426    0.3089772786614136 O
   0.5613981947067134    0.0546778059741903    0.2541397804134934 O
   0.3716887471140956    1.1247022367991180    0.3225702596039617 O
  -0.4097427478142443    0.0362172062622211    0.0208512540035009 O
  -0.0569646562458924    1.0166927224143287    0.1473087835294103 O
   0.7196615954958597    0.2073930354880657    0.3127010591163724 O
   0.2443014823796004    0.6204624766001464    0.1319325952614856 O
   0.3735100190356823    0.4424531265870510    1.0298072444790236 O
   0.9475566915758535    0.3388611842466227    0.0644284543619913 O
  -0.2157288457516092    0.3912200356579785    1.2252425274326180 O
   1.2439428472908418    0.9670387893562826    0.2396433729887699 O
   0.5122678173673524    0.6700879196966019    0.2698633149642761 O
   0.3817957071653149    0.8009944092123711    0.1427109297992784 O
   0.9266898165869095    0.7861861411764371    0.1072644862436791 O
   0.9233924758258786    0.7129929878532668    0.3234859165890545 O
   1.2353290534015313    0.0299872656612415    0.6563700374304887 O
   0.4071510363803238    0.1136415258810591    0.5456195720447663 O
   0.4611614780460107    0.3174513851106763    0.6220977221549726 O
   0.6698424403086389    0.2348663124494119    0.5226694410034429 O
   0.9237669886036747    0.1926962853017866    0.5594571630456652 O
   0.8876590718748544    0.0572629036890385    0.3807238548762562 O
   0.1418779367598535    0.6295426343585482    0.3388702585255910 O
   1.2060926319870571    0.4620436381757067    0.4616351546106383 O
   1.0033102459747174    0.4067641587018547    0.5106175034285040 O
   0.4904467489532410    0.4394291206639257    0.3495833637144903 O
   0.3842740047644699    0.5576315293069585    0.5558565029867429 O
   0.6290783527619580    0.5733661280940410    0.4822166449202659 O
  -0.1695131548133570    0.5191822911430763    0.3888734466536403 O
   0.2369292797645053    0.8111628835035368    1.4152148524163803 O
   0.1350968130071062    0.8429609366343487    0.6137548884314915 O
   0.6323471979855478   -0.1266053662252355    1.3474660199218491 O
   0.4408734695462255    0.7570710284285650    0.4693134643422667 O
  -0.0921656821416972    0.8120208383468678    0.6407255934652393 O
   0.8150394159437642   -0.1409838428406016    0.4496998144968467 O
   0.1830792272667008    0.3172112554344120    0.8561911787303111 O
   1.0774474928140945    0.1619971306894727    0.7235774663292036 O
   0.4045245619864755    0.2897729804258772    0.8231794206221623 O
   0.4840857308381953    0.0931766166712402   -0.1589364865907718 O
   0.7709779876360523    0.3065437998159580    0.7911297954101929 O
   0.7572732624433527    0.0535441497025519    0.7113624553820310 O
   0.1395347894239900    0.5282624489014781    0.7941001768854317 O
   0.6236861829199066    0.6175605705124098    0.6959960515164402 O
   0.6066955151811524    0.4479573871663708   -0.1523466916188040 O
  -0.0628996253682843    0.4505092737259933    0.7349860794506800 O
   0.8308389702174843    0.6414563222968689    0.7711451536429411 O
   0.1453796312322471   -0.1132338062523745    0.9359911334329198 O
   0.2776103231735011    0.6968017356818307    0.6900120741223210 O
   0.0985012155089384   -0.3195906680481987   -0.0060523463375727 O
   0.3184395433771901    0.9713448435509886   -0.1629293381099163 O
   0.5432563072553424    0.9863142833696356    0.6741482964714173 O
   0.5595117901281186    0.8168478518392319    0.9815946019781013 O
   0.4804944789624157   -0.2094370805539850    0.7668701851898321 O
   0.9782178898623782   -0.0458491862983124    0.7943602789141445 O
  -0.2235366230104454    0.6891363080161321   -0.0309222586535185 O
