Li1 Co1 H90 C51 N3 Cl6 O45
1.0
  12.1941155515999995    0.0000000000000000    0.0000000000000000
   0.0000000000000000   13.9074997574000001    0.0000000000000000
   0.0000000000000000    0.0000000000000000   13.8950212522999994
Li Co H C N Cl O
1 1 90 51 3 6 45
direct
   0.1970846319792881    0.3279312211580884    0.5953905701893476 Li
   1.0916677572448730    0.6393265169009968    0.7559408823834175 Co
   0.0676492503543450    0.3102055332702400    1.0729868170393861 H
   0.0613240683701641    0.2745851839161866    0.3094500215671325 H
   0.3709430796074825    1.1739301573608092    0.2546397419589645 H
   0.3816703848758697    0.9817856276743623    0.2412471751811917 H
   0.3103835419456384    1.1108663417721498    0.1532012501130675 H
   0.4528210965719023    1.2461990782691277    0.1463297240990863 H
   0.4968570906321311    1.0497647768019367    0.2889016542911387 H
   0.6591296221352759    1.0521886488557228    0.2054185146156245 H
   0.5984943922269467    0.9064111881068024    0.2604432595308899 H
   0.5449707892039818    0.3654577362833037    0.9138010223696676 H
  -0.1789155773510556    0.1836436040447196    0.2378689867532877 H
   0.6301688501542639    0.3432999073869896    1.0109538064848089 H
   0.9171893384537018    0.9854606232444901    0.0407242720917994 H
   0.2482650556319171    0.3247142518407822    1.0867341871607799 H
   0.1232744408103268    0.4758720470355245    1.0748378397570191 H
   0.4405988079303580    0.4190504030459556    0.2159942451115872 H
   0.3768893903253998    0.5734987249923271    0.2198992409381333 H
   0.6122074818965011    0.4672335424807376    0.2936681097572674 H
   0.6044657150089786    0.6400592150982107    0.2460129109650819 H
  -0.1257530501257875    0.4780003231826624    1.1590608127737956 H
   0.7437729073028149    0.4589896451591506    0.9487862153516168 H
   1.0724240491623127    0.9936317540719082    0.2927944155196289 H
   1.1730734152279771    0.7068541111042824    0.2264317966177423 H
   1.1384862409294148    0.7930184124455343    0.1122664440647608 H
   1.0402085105824395    0.7070087039525660    0.0686810483317565 H
   0.6002551595338615    1.1108016284868218    0.1023060418827856 H
   0.3659595283410665    0.9333621143364119    0.0925730592882024 H
   0.5983146333923903    0.8483374858534369    0.1418504218461518 H
   0.4908063852990723    0.9082166887674541    0.0183054506777309 H
   0.4194033387791667    1.0324201782610198    0.0298455553733936 H
   0.6718587126005237    0.9993883603200874    0.0903139767412934 H
   0.7783896040377095    0.6904277221785199    0.0914525140427302 H
   0.9176493964198790    0.9519952262918600    0.1693818658831070 H
   0.1332120209068267    0.1940459051429471    0.4490515352876616 H
   0.3985580385255827    0.0759391261637844    0.5544807371147198 H
   0.3553699944422298    0.0384981763825028    0.4335925448982481 H
   0.8123141636541485    0.9928134905307605    0.4448540605993557 H
  -0.2577084997187571    0.2510719712105023    0.4381133008481250 H
  -0.1267051486975020    0.2188274982410607    0.4952798488927001 H
   0.0397997520809388    0.4402480305953027    0.6104650343586866 H
   0.3078355916766315    0.5887444559791051    0.3984149808539261 H
   0.4410801876561086    0.5828799942553792    0.5276857439125056 H
   0.5845753015572072    0.4534703928608245    0.4209640647531779 H
   0.2846522784790699    0.4677037204504708    0.3516644226356381 H
  -0.0146207589591528    0.4235875233839535    0.3400760992299904 H
  -0.1349558495846852    0.4490445074699405    0.4000781665072891 H
   0.8777932873036889    0.6020746737201736    0.5456344030380695 H
  -0.2761682231031615    0.6239046219708259    0.6594811522640308 H
   0.1401563539863086   -0.1421561499757024    0.5212077401465811 H
   0.1061686491588256   -0.0216305321982791    0.5439557442165770 H
   0.2947792942087016   -0.1265250154229710    0.3819033112541387 H
   0.6508123317528101    0.7123993206203900    0.5224205486550395 H
   0.4754705457124561    0.8522842772219426    0.2198697339663514 H
   0.4747308446687985   -0.1010287000402346    0.6333005517888941 H
   0.7472540945869907    0.8830460969208688    0.6251443929790441 H
   0.9786829331983907    0.6850227247806229    0.5895582653278790 H
  -0.0959927941675451   -0.2417750623731533    0.3517486254575521 H
   0.1180030457896715    0.2898697428741614    0.8302279224143306 H
   1.0807001721474485    1.0560951741800244   -0.0202947061886157 H
   0.7483103417535438    0.1716622987844885    0.7266339822638804 H
   0.5232748327501915    0.2029756194817102    0.7137588670156481 H
   0.4856705474652425    0.2907972999638630    0.7978522972294799 H
   0.6057666703700191    0.3146290458406620    0.7118272398872939 H
   0.5121219123580147    0.1128357653118071    0.8557456955477334 H
   0.6527437551430788    0.0782033721137615    0.7667382750088635 H
   0.5034883218729560    0.2067476849798302    0.9403558576088671 H
   0.5973584344822963    0.1104111742215172    0.9526120461319189 H
   0.7728270849921114    0.1129098260716825    0.8437982507050332 H
  -0.0095166577443801    0.3645661310187843    0.8423193037047472 H
   0.0810967201036770    0.5268464861774551    0.9598959500686074 H
   0.2616034563803551    0.5991352524932743    0.9170129642004592 H
   0.4554354723226567    0.6000858187510926    1.0170272048962024 H
   0.5496658406620180    0.5580047826044912    0.9293339241249835 H
   0.4148782053435761    0.5038162934334591    0.9423436199518306 H
   0.3663539808931722    0.5581669972397133    0.7749815153695819 H
   0.5022360785318638    0.5850421370218387    0.7716702573898662 H
   0.7430504276803510    0.3203266910955423    0.8197874921792213 H
   0.3259492465018081    0.6869252953692667    0.9926933090452672 H
   0.7450390917943972    0.2504011101526017    0.9316369072884459 H
   0.3186686856752091   -0.0431627993364224    0.6948312241409410 H
   0.2486258854093111    0.8190058297602598    0.9139751854714045 H
   0.0856571164493310    0.7624456993470664    0.9076534966877000 H
   0.2684592221508402    0.7613275975838989    0.7978544562761958 H
   0.4016488735960323    0.6689206213180041    0.7303252324655676 H
   0.5735061182754160    0.7216346254732022    0.8819997036112055 H
   0.4736836182466801    0.7651852284259526    0.9616656486932806 H
   0.4626094243513893    0.7905715312236313    0.8379184468158182 H
   0.9978216726184365    0.9121570088074269   -0.0752575584313631 H
   0.7432177214862338    0.7875673967114040    0.7086807891402135 H
   0.9783032418644512    0.9671819962853390    0.7188614140871946 H
   0.3887049253997000    1.1306010176511816    0.1914984207569710 C
   0.4452584324647954    1.0343738004414225    0.2248218674500343 C
  -0.1639247402356885    0.3178064681502678    0.2650377109419975 C
   0.0760073801070704    0.4618255251295252    1.0099469710330327 C
   0.2412034528747822    0.3557751907252246    0.9482478930371575 C
   0.1146711108225087    0.3733311859982129    0.9556958845242427 C
   0.5041373234316596    0.3553782825752128    0.3257911264763759 C
   0.4547416950688493    0.5314075504310244    0.3430973252675577 C
   0.5492088169462415    0.4523886024410911    0.3478853712008439 C
  -0.0437872859200469    0.4606836951617375    1.0409573590112933 C
   1.0720870013475197    1.0088465664890294    0.1198195091586791 C
   1.0512507218383706    0.7755566109545233    0.1071660560399300 C
   0.6166035366799058    1.0412672034018640    0.1371840022111860 C
   0.5494057151952239    0.8885862731814510    0.1944599131687361 C
   0.4438282344380339    0.9648681368166104    0.0623787909684938 C
   1.0259229316683427    0.7570939106504392    0.2138236834800239 C
   0.9771256246818654    0.8491413686645116    0.0603881498965759 C
   0.9678473789967854    0.9507937162942697    0.0988537261843077 C
   0.8581428256538844    0.8060279399059772    0.0534979121443916 C
   0.2482765365793797    0.1348886148785891    0.5242619995988993 C
   0.3261386821349399    0.0512934309648597    0.5115078629349726 C
  -0.0995453273395238    0.2891118783993199    0.3585280321449948 C
  -0.1709576406241671    0.2273854707074395    0.4244451677411991 C
  -0.1700949294291252    0.1230619024666415    0.3965143000618310 C
   0.3478155310118818    0.4758956314328441    0.5001572728828780 C
   0.3422169289885442    0.5148402303505476    0.3952469396396880 C
   0.5178775573412863    0.6196874728769499    0.3727424760392283 C
  -0.0653271834951143    0.3917967624483117    0.4014793878258083 C
   0.0029401702524703    0.3825593004859886    0.4894303868066636 C
   0.1437064269552596   -0.0639041263205566    0.3985250922364291 C
   0.1646722771572001   -0.0686677431572025    0.5060079433153930 C
   0.2810849840889251   -0.0420159361131092    0.5496165488005916 C
   0.3738157766761440   -0.1117890813172771    0.5115475174263185 C
   0.8870403704170849    0.6635062764455598    0.5984211520960164 C
   0.8034156093030080    0.7419711349057844    0.5726370965343385 C
   0.8294470175389542    0.7892815797360928    0.4820830068965321 C
   0.7910760509838106    0.8186139548657735    0.6517093037695836 C
   0.5570468597789140    0.2643820559294687    0.7575529705978412 C
   0.6309195401047786    0.3612729438320917    0.9349150598851870 C
   0.7102288590879914    0.1378194076674448    0.7897177288867874 C
   0.5565893440225320    0.1612240458610788    0.9010446546908013 C
   0.6951478145282757    0.2889997087047513    0.8770036695109690 C
   0.0828984087876191    0.3618100641003144    0.8511519638188644 C
   0.1208052170382059    0.4275623571761012    0.7773989280089789 C
   0.3074542602073402    0.6691960122989000    0.9214994632757796 C
   0.4657142005723291    0.5680936556907799    0.9465739121502157 C
   0.4200864551531875    0.6174570216426442    0.7833967597853214 C
   0.8661958902311767    0.6202842731749750    0.7016660463607545 C
   0.2385808764472689    0.7497964091749494    0.8709360285574840 C
   0.4854368281776124    0.7369767073514686    0.8909388766966327 C
   0.8968795423924775    0.8491924202562704    0.6986239495382682 C
   0.5118211935412640    0.9855052035077161    0.1525556951450594 N
   0.6263319995190523    0.2136583448163591    0.8339997770267390 N
   0.4180190645422553    0.6508188773387495    0.8821896997221911 N
   0.1887265022265627    0.3287307897501413    0.2259769574429585 Cl
   1.3018306008849547    0.6817654894191125    0.1522066492593471 Cl
   0.6614602544701705    0.6295411491228964    0.1314359001716314 Cl
   0.1785109191879343   -0.2879372059071412   -0.3633204499751566 Cl
  -0.0099029096197268    0.0656051335334032   -0.1210286291229410 Cl
   0.4977398114784648   -0.0676963248407786    0.7392845566536752 Cl
   0.0722760721817466    0.2905161566909379    1.0056929293207744 O
   1.1216387705958204    1.0474681742092957    0.0456576938372791 O
   1.1175326917426125    1.0234084937608412    0.1974955328510750 O
   0.4520043091667106    1.1791201628441164    0.1257892733277169 O
  -0.1948757344593310    0.2450737686970984    0.2075401378549643 O
  -0.1950807513783048    0.0948634479032085    0.3149030538888685 O
   0.2876110826537003    0.3227440918207957    1.0250718129590723 O
   0.4661947602304038    0.3518132995901425    0.2331025312871590 O
   0.4452280899607873    0.5325756971348455    0.2392853213988171 O
  -0.0571773509320663    0.4937089986319469    1.1276524405175992 O
  -0.1941729364610887    0.4003863725208509    0.2439013632770822 O
  -0.1219733582075858    0.4315489112632584    0.9927703150447955 O
   0.6729453022710848    0.4523665280204292    0.9165775564461170 O
   0.2107699213546298   -0.0985199816790183    0.3404690457322562 O
   0.0543231506210455   -0.0256679221662440    0.3668662705612061 O
   1.1008451346058179    0.7151676111594221    0.2658739817032298 O
   0.5769661724155840    0.6705240727211318    0.3106238232982598 O
   0.7838938982783191    0.8565481636885555    0.0224774486147908 O
   0.8552488068256499    0.7118643574616784    0.0727127082322930 O
   0.9335595293999247    0.7753250812003497    0.2491564829832081 O
   0.1911776845098139    0.1471294923166360    0.4397552558754498 O
   0.2318341796776778    0.1860336813828345    0.5934747760702423 O
   0.0666922313765751    0.3170694557340320    0.5134836065845518 O
   0.5113148837581661    0.2792553260073588    0.3751440556693764 O
  -0.0016177658901561    0.2298143760167512    0.3359947812549918 O
  -0.1635138863300650    0.0591021673944408    0.4689175718332558 O
   0.2970722034305050    0.4042504746914373    0.5257291438104726 O
   0.4145050745510437    0.5209197558925136    0.5590153109635774 O
   0.5157646529743419    0.6466499036906177    0.4569321997365824 O
  -0.0140860748344690    0.4539428717473694    0.5547047741955903 O
   0.2542966533881275   -0.0353914528050308    0.6473732182821268 O
   0.3765884254883462   -0.1390110843087607    0.4268640197450733 O
   0.4586771998454711   -0.1343754559697635    0.5601465794744044 O
   0.7087683185572217    0.6859078587166094    0.5651506740157130 O
   0.8903255615267216    0.7371679710614381    0.4246805038332155 O
   0.7886437302571050    0.8683130389611895    0.4594429551623234 O
   0.1253910354818127    0.4024521643958220    0.6891694839700163 O
   0.1530560185281425    0.5098110014294552    0.8009152648368850 O
   0.2889764953340661    0.3644553993972230    0.8705294080926852 O
   0.7656916761441458    0.5956047832603789    0.7163756316351323 O
   0.9370841802709230    0.5969019251129539    0.7624648018761635 O
   1.0238719424109284    0.8547203728962907   -0.0365839939766812 O
   0.1296430863813301    0.7115062772828634    0.8722012299329113 O
   0.9287080090293278    0.9377036567454184    0.6675775774480786 O
   0.9418536938739304    0.8093671454289030    0.7664705532161110 O
