Li1 Co1 H110 Cl3 O55
1.0
  12.7099320947999992    0.0000000000000000    0.0000000000000000
   0.0000000000000000   11.7611646850000007    0.0000000000000000
   0.0000000000000000    0.0000000000000000   12.9693907111000009
Li Co H Cl O
1 1 110 3 55
direct
   0.3498150906108333    0.8831561856919955    0.6990296658917654 Li
   0.6803282647700145    0.5230413404843841    0.6340836696793836 Co
   0.1138779528170859    0.1722852622822533    0.1248477196553413 H
   0.1548258505806726    0.2684891698291869    0.0560534316371398 H
   0.2596832164626869    1.2615931959037947    0.2099141676154418 H
   0.0109397159924156    0.3068595193725067    0.1388761350260251 H
   0.3182515860218411    1.1783276328215109    0.2802227904576525 H
   1.1746243753346288    0.0013809297748134    0.0610308435632645 H
   0.3128180400764418    0.0059917826497130    0.3264894203531062 H
   0.5269899160311288    0.2950843250181051    0.1429210436241678 H
   0.4280539035787517    0.3066767143478699    0.2884544801629081 H
   0.5904819940360269    0.2504118785324193    0.0425265818484406 H
   0.5457170027082779    0.2796411265879660    0.3071963012256328 H
   0.5177884506631235    0.4799435679783613    0.2799328770697566 H
   0.4828323236998825    0.4661133050446695    0.0451317157944080 H
   0.4558904016309127    1.0076132474885073    1.1930474761900087 H
   0.9915156079044578    0.4903413477285221    0.1935170981819493 H
   0.8772585065156835    0.2926985068826115    0.0257278512948508 H
  -0.0924689403400384    0.2883970621401090    0.2075485977376108 H
   0.8643788153592709    0.1238929461091888    0.3120824212764201 H
   0.2664338426155287    0.6631618169965281    1.0274344533545030 H
   1.1359302268268481   -0.0255778798747430    0.1805110901313449 H
   0.1820337064071786    0.7485844793695277    0.1732624843877042 H
   0.1142125730155479    0.6365615602720386    0.1536301049126930 H
   1.0311775035180655    0.9110496816837999    0.0507305909935222 H
   1.0689275085079664    0.7894783885087653    0.0378896870752320 H
   0.1002101378591230    0.5300304442170134    0.3202123328774144 H
   0.5328152815364482    0.5870230991072972    0.0145167849279815 H
   0.5424526264952080    0.9636890262199401    1.1125194064244692 H
   0.3578434576578726   -0.0304566483927268    0.0587225624213927 H
   0.5116759081711156    0.5670505873458058    0.1879139051238664 H
   0.6388347307317197    0.6126608661206753    0.3124432709188011 H
  -0.1771649081839908    0.9644287488777732    1.2162559681465650 H
   0.9690056528656695    0.6238527849080959    0.2121663936953455 H
   0.7501704947189204    0.6761588291202471    0.3159738916719264 H
   0.8543944976576903    0.7280439966477690    0.1545260606486903 H
   0.8767156239929025    0.8013199028255933    0.2601964063517509 H
   0.2218214878231703    0.2618095592545476    0.3803200139061619 H
   0.1655088344854845    0.3761171160320335    0.4124842079914691 H
   0.0867401209681560    0.2071823163574722    0.4577037570870224 H
   0.0412688709497196    0.0902326743076296    0.5055787894483026 H
   0.2903159529003025    0.3272988216387687    0.5382827159046925 H
   0.3723934960546679    0.3041267968181673    0.6252204930999613 H
   0.5013886777575485    0.4163996911586482    0.5438990167489303 H
   0.3614075994378695    0.4918573540491156    0.6375371858080685 H
   0.6422603981290942    0.1939200243840476    0.4291041097895943 H
   0.6001555311629720    0.3886507386746961    0.4894793438651500 H
   0.4274512252998383    0.0285700227400565    0.3759558921628361 H
   0.4873295939900508    1.0125277267554900    0.6310943233898298 H
   0.8103053557314903    0.2755071822633865    0.6444565548053487 H
   0.9623258374766687    0.3473988717895417    0.6549065445557544 H
   0.9758585612329482    0.2291911910678258    0.5778690011386313 H
   0.9170148164810792    0.1998624630686395    0.3892371637226926 H
   0.7432656584581583    0.2387829281977272    0.3835907920749231 H
   0.7020349110323399    0.2729887242030401    0.5864962375672660 H
   0.2912081685246991    0.7313421393945900    0.3552162902808610 H
   0.1579320827544977    0.9165678426600484    0.6354245190984019 H
   0.1085077431660111    0.9144422028386894    0.4534198241531145 H
   0.2046128986372781    0.5602196312158858    0.3832800604384284 H
   0.0534532397445268    0.5665166266226803    0.4949946376513708 H
   0.0165978894164438    0.9018669176555281    0.5300664471243249 H
   0.0035911322782498    0.5605308248857328    0.6090709295109223 H
   0.3726696580336477    0.7419822420843859    0.5466655306738513 H
   0.3883809929574353    0.6426944562846243    0.3515214366776776 H
   0.3825831649713874    0.6795428477158509    0.6533906676392564 H
   0.6364232308298013    0.6919140714761618    0.5101626593712836 H
   0.5485761839949245    0.7195014753336905    0.5926221999790547 H
  -0.1990226174091770    0.9423220947356371    1.3348505909983230 H
   0.6734847978379146   -0.0760838472605743    0.4640008917650688 H
   0.7092623296617111   -0.1961459361624439    0.4078309439064918 H
   0.7455339632598649    0.5536888154287417    0.4484997780675735 H
   0.8471560640206105    0.5639913665149056    0.5179402028385854 H
   0.9387930602935105   -0.2603087992981368    0.5275536074138127 H
   0.8458499988208765   -0.1671972725633167    0.4993032440650996 H
   0.0957697522159070    0.4923981168196693    0.7386838031952117 H
   1.0040963202802085    0.1013320852500247    0.8198842252858712 H
   0.1105707754312053    0.2568007015794967    0.8934111951522236 H
   0.1987568484676276    0.4216041076972642    0.8613588027723550 H
   0.2265296168323318    0.2655209263826408    0.9318478504357561 H
   0.3251635033589872    0.0770690970475089   -0.0073238709910023 H
   0.6540283602932032    0.2867373625675916   -0.2436800012274402 H
   0.6536239521530445    0.0887185385500790   -0.0596227811795497 H
   0.6230392096775879    0.2381622413698903   -0.1282320180990942 H
   0.4068256233654854    1.1511109405488271    0.7174090952196203 H
   0.3965745851201037    0.2459327303008511   -0.0095370050263147 H
   0.4800565417573154    1.2519172834369676    0.7627774562403435 H
   0.3731102583419917    0.2037804423873689   -0.1301704283575255 H
   0.5736392604633130    0.4303302842919081   -0.2193087715343229 H
   0.7404725672177633    0.1886858488879327   -0.0341230482031229 H
   0.8365659208950568    0.4161514164275134    0.9069738985912875 H
   0.9095167433765825    0.2342128025818049   -0.0908131438581748 H
   0.9831678056338691    0.2216783296832137    0.7590078111514531 H
  -0.0178730264572334    0.4975447159551443    0.7715427099467267 H
   0.1807591126580407    0.8894701862173608    0.7528417543349555 H
   0.2284887146319327    0.5557396327283891    0.8675888564271382 H
   0.0095519036997585   -0.0798742881900221    0.8984538375906248 H
   0.3067291011723809    0.5222378486319104    0.7510444455392500 H
   0.3522234433676921    0.7524225346309739    0.8780134016514785 H
   0.3339227948461186    0.8795034862229717    0.9026174873104057 H
   0.6123900575821667    0.7386840993375648   -0.0708368777581595 H
   0.6393547964528186    0.6236266168311033   -0.1330202152768422 H
   0.5188348763954405    0.9875897203713034    0.7510375061230503 H
   0.3595232463334340    0.5893247419058650    0.9864687663893258 H
   0.4779518884987080    0.5162954099473185   -0.2616947256816921 H
  -0.0684082295731322   -0.0789713163939086    0.8010969124947267 H
   0.7988702041574340    0.5454804446945808    0.8062289962974788 H
   0.7885420608580922    0.8612842021861373    0.7449400724223045 H
   0.8482811683794175    0.5563492662291548    0.9396739698164555 H
   0.7990220539065599    0.6718709884726012    0.7464420705064033 H
  -0.2204963749370920    0.6998435582657603    0.9869159732110802 H
  -0.1034375276590089    0.7352975299741753    0.9981269856047121 H
   0.8620971351910610    0.7954471851271420    0.6710129295551067 H
   0.1901462595845623    0.8805620548540086    0.3034844846050726 Cl
   0.5517012990391071    0.0382775987376628    0.4779776470373776 Cl
   0.6446144626336749    0.9231403209876913    0.8570178124163612 Cl
   0.1314968510401235    0.2520605247778656    0.1291786864101578 O
   0.2989163135619241    1.2608874834831034    0.2707913527961044 O
   1.1188018898399756    0.0206824195574981    0.1151078634960317 O
   0.5266248472042151    0.2937774816559334    0.0647131291126640 O
   0.4992368173230470    0.3377450659768565    0.2817440646978613 O
   0.3814069195053620    0.0476755795465677    0.3175984861088852 O
  -0.0602185713417884    0.3393103871413055    0.1492405386433019 O
   0.8754646338317116    0.2026249445804780    0.3287732593290305 O
   0.3011476394091804   -0.0023567952870647    0.0093121456736310 O
   1.0162679037982110    0.8466351427932580    0.0085731749529943 O
   0.1606323332156344    0.6905136999618503    0.1193856280599843 O
   1.0247494597338327    0.5642770525068963    0.2165575020572255 O
   0.4799935988561235    0.9436569965434506    1.1515497673161930 O
   0.4801541032541631    0.5470449156031012    0.0612631597967034 O
   0.5271079339708638    0.5604211418709507    0.2637570979084080 O
  -0.1559791144290292    0.6842974788682673    1.0274421638169471 O
  -0.1452497101345883    0.9742747125303092    1.2815327431977961 O
   0.8540561795637832    0.7275091856687150    0.2303368694909669 O
   0.1829455916881977    0.3018260042755281    0.4371977822171017 O
   0.0216010632749427    0.1700754471239682    0.4831174413025737 O
   0.3614398576747304    0.3540699798048955    0.5634350154433909 O
   0.5670538594261003    0.4564611997438415    0.5269976830715976 O
   0.9431282526131093    0.2689661634050999    0.6450394657661181 O
   0.6817846061463444    0.2664477053447534    0.4212093672931432 O
   0.7347187992625497    0.3019552431766667    0.6500759398345642 O
   0.0764323554330749    0.9508756693767867    0.5154427840529613 O
   0.1391302513821830    0.5150744424339297    0.3871769281576455 O
   0.3262917548628538    0.6662720531831410    0.3946105849999431 O
   0.4090718981517749    0.7471688032485024    0.6103894185888529 O
   0.6242996412739577    0.7033219552694324    0.5844984567480156 O
   0.6961017558087292    0.6457460248121676    0.3602265487769973 O
  -0.0039543053593939    0.5991009845722605    0.5383235813556460 O
   0.7318643386934927   -0.1128965279428021    0.4188746392650883 O
   0.7751737754311767    0.5301333251843671    0.5172832714383533 O
   0.9073058739722135   -0.1841173655413363    0.5412304256970485 O
   1.0013583040783565    0.1869215678362045    0.8303241914350996 O
   0.0253511226493355    0.4794529703075916    0.7127966965855964 O
   0.2177325596044852    0.4939889456619746    0.8212643980633542 O
   0.1615804106648389    0.3086246506801635    0.9254790084569803 O
   0.6655996258910870    0.1672857574224164   -0.0417289567764204 O
   0.6044372220165577    0.2949227763916818   -0.1832461676373098 O
   0.4055101167305727    1.2316131718633443    0.7380607978297333 O
   0.3531243136410026    0.2006353457076857   -0.0533271885939922 O
   0.8487925794516024    0.2733662378353134   -0.0441270648057653 O
   0.8590444044832490    0.4939778923349035    0.8865797254268054 O
   0.2946393434259278    0.6272937706509123    0.9634221941440944 O
   0.2133092472232175    0.9225961571934232    0.6889050576564982 O
   0.3383634165252141    0.8257358520696541    0.8425452744089008 O
   0.6235639961162761    0.6573817771942881   -0.0639691688592543 O
   0.3660401969656006    0.5464999015529047    0.6953062835775392 O
   0.4620131723443643    0.9950634699832026    0.7026612937029075 O
   0.5581962196558564    0.5114685070409759   -0.2443693165699373 O
  -0.0224636095984188   -0.0365961764015551    0.8438791844117195 O
   0.7719385103099079    0.5914792904287948    0.7482771605680846 O
   0.8434660364382295    0.8033452124473844    0.7456586875220890 O
