Li1 Co1 H110 Cl3 O55
1.0
  12.7399556723000007    0.0000000000000000    0.0000000000000000
   0.0000000000000000   11.7889470710000008    0.0000000000000000
   0.0000000000000000    0.0000000000000000   13.0000271854000005
Li Co H Cl O
1 1 110 3 55
direct
   0.4484927564248319    0.6889153447366427    0.5690093556886970 Li
   0.5719445203442004    0.3552044563675181    0.7500020541226274 Co
   0.1481793096270003    0.1194828958868603    0.2175416291341381 H
   1.0413543168792583    0.2751014586771657    0.2157185560234436 H
   0.0069915342322317    0.4257807338746681    1.1039451601160957 H
   0.2740989000293415    0.2884470101545339    0.2360962057177084 H
   0.3718951586700961    0.3728710044269568    0.2516946346369753 H
   0.4386410737951277    0.2222434726121607    0.3028976044851894 H
   0.6215263255127550    0.3660629324662781    0.0500459793984640 H
   0.4033748600376595    0.2416489376314038    0.1005818737185792 H
   0.5467850921448609    0.1613924062972833    0.2969606938234426 H
   0.6284243086973492    0.0346224164924830    0.1847732361204359 H
   0.3698001749286667    0.1546513462584703    0.0107345231444380 H
   0.9771861187294437    0.3716817548768855    0.2714615163776994 H
   0.7175454979075012    0.3527513110759304    0.1224787510050894 H
   0.7077393413388697    0.1304574977084482    0.2051331935440062 H
   0.8734573433716702    0.2743354869626762    0.1776655586762093 H
   0.8360553294042249    0.2064464723475558    0.0824364501255484 H
   1.1216136228219928   -0.0260484216826628    0.0456507578204529 H
   0.0630781501027719    0.5437234128625430    1.0568221817358661 H
   0.1915711403538491    0.8951517444216371    0.2084154943724168 H
   0.0735124093277886    0.8920386589374992    0.2020039693185609 H
   0.1732900720369173    0.7229667318183177    0.0745766973309733 H
   0.6201833067111118   -0.0355876111728452    0.0230738819559453 H
   0.5181421353413761   -0.0089208530555460    0.0788114577060767 H
   0.3540324591557801    0.5506951974930959    0.3010145314999658 H
   0.4702298807228480    0.5476457309221217    0.2700645962219943 H
   0.5913990621318843    0.5322423196669553    0.1688532694120254 H
   0.5303101525611734    0.8104546129486987    0.0348991256887160 H
   0.5103665980830023    0.7010970942292052    0.0967036510594280 H
   0.6276684190971257    0.6431326300676034    0.2368223580453437 H
   0.6745500578848196    0.5298180149493352    0.0208121943778593 H
   0.7366962709773384    0.9712314820435247    0.3290183190927221 H
   0.7920174995693968    0.6687863206116857    0.0480465220412369 H
   0.9063695457988473    0.6191644165962682    0.0671150206270245 H
   0.9306945911892173    0.7621330795183446    0.1818086269353656 H
   0.8976881969115452    0.8473434035574694    0.2673222942643463 H
   0.1464242014794408    0.1637149207538418    0.3404790643569572 H
   1.0996433736940012    1.1453352410678577    0.4977395047271129 H
   0.1115324788208996    0.3426842542569254    0.5385563424484928 H
   1.1748084703891235    1.0444950224427045    0.4843041482075391 H
   0.0133961091066488    0.3241143176305639    0.4761249345425542 H
   0.2183655820913668    0.4309041770147752    0.6397430539253217 H
   0.2867708436492877    0.0760427144257216    0.6452753500485767 H
   0.5998724040160096    0.3882269135602942    0.5488601670551395 H
   0.5007794375667719    0.4728858736853345    0.5768847238352329 H
   0.5799241399453138    0.2954349115764217    0.3997027866630664 H
   0.6438702023143773    0.0874018289584702    0.5444755608395452 H
   0.5088979901473656    0.0769921630857749    0.4327296406747405 H
   0.3378816965242134    0.4965351443386763    0.5401055699780029 H
   0.4636081936330396    0.0924731894150006    0.5470847861524042 H
   0.8775782368308327    0.4977803785323314    0.6623714681435915 H
   0.6677925775438807    0.2572482951391138    0.4772741629085362 H
   0.7277095835080144    0.1942995011941894    0.6638906957358369 H
  -0.0421313996379940    0.3230344926111340    0.6475522683640433 H
   0.7683784848234663    0.0930003781420828    0.5181817696708706 H
   0.9605063118709294    1.0351896960773113    0.4774003164908797 H
   0.8966834838395971    0.4828053346258000    0.4121173760864834 H
   0.7316334590132246    0.4538655151537748    0.4454280756584301 H
   1.0121548432257648    0.7321583923921918    0.6581330154685170 H
   0.1653889456445499    0.6606049283788493    0.3348329223179287 H
   0.1704148658005531    0.5446505524903802    0.5979054491077849 H
   0.2952952061190979   -0.1003502227446721    0.3679759299328580 H
   0.0962525983403692    0.6669311931038358    0.5091287116794093 H
   0.1879855705783341    0.6996202871916346    0.5853916291226465 H
   0.2971696239439512    0.8299957983160242    0.5271771354752847 H
   0.0458819050266343    0.6995524270175935    0.3457182841700121 H
   1.0150669412702396    0.5167354216463764    0.3788228303269099 H
   0.3335567207223115    0.8434363540370499    0.6409468975617085 H
   0.3746840223768398   -0.0314586588833112    0.4392796269775099 H
   0.4129502465725781    0.5242237918518177    0.4418403908532491 H
   0.5577521632708452    0.8363805924411212    0.4847526088081868 H
   0.5949948360245363    0.7282191092891031    0.4126227596450177 H
   0.7299395755684870    0.7860215572851815    0.3475790495095775 H
   0.8719738217263718    0.9779241917083333    0.5648178259924210 H
   0.7299073933529011    0.6505226030206849    0.3838674351623252 H
   0.8259689520803702    0.9415850685092960    0.4096058428770245 H
   0.7745158688153122    0.5302158452196515    0.5322686632894985 H
   0.2075814001417607    0.0715004936762770    0.9220840019598132 H
   0.0038557305428310    0.3855608569726524   -0.0679585430630633 H
   0.2644567942669889    0.1763979872821332    0.8852840789152461 H
   0.0823543553201850    0.3214575918168528   -0.1521214439859767 H
   0.2668712453680144    0.2013993719032450    0.6844406527620829 H
   0.5223925425949694    0.2489439063408277    0.9486377925847810 H
   0.3756094573079545    0.3823858490797019    0.8124765388615615 H
   0.4113379960649363    0.1903262880040799    0.7208505766222103 H
   0.5206978742181443    0.1174945079622370    0.7405451508218350 H
   0.6299164645956097    0.1994636604387211    0.9248916883961149 H
   0.7861187349321386    0.3068583236240742    0.7151075117089424 H
  -0.0416675047743054    0.0788220975040121    0.9766685031981595 H
  -0.0645388559387005    0.3620311898760581    0.7715912397448854 H
   0.7692874361807445    1.0756428423275934    0.9262532240104310 H
  -0.0698591256275010    0.1914400431105303    0.9159917070076190 H
   0.6685892836126520    1.0414243495673423    0.8616456668090683 H
   0.0541354973235545    0.7208859692317808    0.9222840015415772 H
   1.0757029450264863   -0.0760791832466783   -0.0579624101206689 H
   0.2275304491445440    0.6683036651238180   -0.0222933308651449 H
   0.3041837770774894    0.9657687380332118    0.7943681151911569 H
   0.3449594291568358    0.6743398276047786   -0.1555491291257465 H
   0.4189102359126581    0.9584737693237879    0.7366905434979152 H
   0.4130640617252597    0.6714159023557804   -0.0576424107898466 H
   0.4179667475435317    0.5007246618335419    0.8547072197801805 H
   0.5541775825445546    0.7818829349208467    0.7137005915741490 H
   0.5687349330385786    0.6433158525375146    0.7196682714023210 H
   0.6541449633392221    0.5333798258343202    0.8553149108170787 H
   0.6216008940610637    0.6395767569478470   -0.0106236629608825 H
   0.9654906306262971    0.7478782017088250    0.7727250835276549 H
  -0.2345441570332048    0.9302778670096888    0.6905552553599353 H
   0.7140109487176712    0.5053408501726914    0.7547412749812725 H
   0.8671700373511196    0.6329748102658184    0.6727852925202082 H
  -0.0581934649436779    0.7492846038158278    0.9560377771100471 H
  -0.1315335945354567    0.8640802672325442    0.6820691192598588 H
   0.2752519652658195    0.7450899968079091    0.2429531144555694 Cl
   0.2177996460563085    0.3375794726646796    0.7683012466248683 Cl
   0.5815505192305299    0.9625708273315227    0.7428151460748559 Cl
   0.1536942424734907    0.1864362035271708    0.2639307628951260 O
   0.0053802256430948    0.4841421800544107    1.0474683551425981 O
   0.3493126625138862    0.2945637565921683    0.2265493026051222 O
   0.4300484222337085    0.1951876212219530    0.0446818367697227 O
   0.6616237962685364    0.4075144715271409    0.1031617914004181 O
   0.6563875143130939    0.0832450539975794    0.2422285005862554 O
   0.9904279230448857    0.3363342384710245    0.2080616489585268 O
   0.8081360799853777    0.2417642999272738    0.1463263934429587 O
   0.1552860847468586    0.6776658243849706    0.0090118344392058 O
   0.1325050007725214    0.9373522901534790    0.1812332435232139 O
   0.5802687251317086   -0.0563920985051643    0.0876790545469100 O
   0.4152179153732486    0.5013167418520510    0.3124429691394544 O
   0.5096593742722013    0.7322873267228701    0.0247452630761635 O
   0.5659813912757706    0.5997674340987801    0.2023155071286163 O
   0.8643285831945162    0.6949845890524484    0.0662648685586956 O
   0.9553414587354457    0.7934607288644429    0.2470792596731918 O
   0.0546247454936680    0.2876691629095872    0.5322902017059962 O
   1.1024534305671061    1.0701122381432397    0.4652234188780975 O
   0.2242305946488642    0.4795259917152613    0.5796847179799283 O
   0.3105150392949377    0.1546123266583966    0.6335469130364423 O
   0.4963484959330630    0.1924562492167965    0.3461198217918613 O
   0.5641807570671385    0.4327923863574703    0.6106469609244698 O
   0.6430711414493435    0.3285404974823981    0.4396357800788818 O
   0.5051169722820731    0.0411773445564229    0.5039602609491324 O
   0.7130164397628600    0.1278067096599657    0.5635770593563239 O
   0.8866363531201154    1.0170879946518339    0.4889410615878203 O
   0.9648626849563295    0.4537399738317987    0.3787274459109917 O
   0.2998313286525264   -0.0476634987939034    0.4274134979456224 O
   0.1021150206219780    0.6501374965330015    0.3755905293939402 O
   0.1140847639964830    0.6752576364586852    0.5826700963523356 O
   0.3182183628012653    0.7832375936451432    0.5864439346143892 O
   0.4034415792650937    0.5345402348104239    0.5148971611549781 O
   0.5390668549288716    0.7601617414624492    0.4612603502425288 O
   0.8266989389217075    0.5598062741102962    0.6662706907588278 O
   0.7726909017119689    0.9044231407000096    0.3597367163933438 O
   0.6916788458973607    0.7078228857288590    0.3466467437668932 O
   0.7679938681006112    0.5270399890745255    0.4531649825560525 O
   0.0062591141014232    0.3214431715298690   -0.1240445796229604 O
   0.2810651723055446    0.0990502823082867    0.9135070968187823 O
   0.4891396796418349    0.1965838443028497    0.7341443949762280 O
   0.5886894765659740    0.2752982531818850    0.9179840105336522 O
   0.4272831064895886    0.4478208701510591    0.8017019460086089 O
  -0.0995648804774060    0.1336062097839577    0.9631608391374864 O
   0.7212095608917622    0.2565959892161433    0.7209290379965947 O
  -0.0869361081222700    0.3709166314145716    0.6919052525368420 O
   0.6925218629592923    1.0654638162214207    0.9316224435516325 O
   1.0966841797242788   -0.0062803288583872   -0.0247877102643216 O
   0.3423542395585577    0.9442994754709422    0.7317559384324700 O
   0.3485026125996279    0.6359818642280169   -0.0904277268450827 O
   0.6432579552861588    0.5018129693747270    0.7862473629423798 O
   0.5254333695017875    0.7067965005964865    0.6943375551427560 O
  -0.0082641703400050    0.7639670007218068    0.9009994306669289 O
   0.9487087825964129    0.7448423071726589    0.7001598506595688 O
   0.6882486926751628    0.5954413480036566   -0.0226447147457209 O
  -0.1629787588911719    0.9431713000775078    0.6719029866729651 O
