Li1 Co1 H90 C51 N3 Cl6 O45
1.0
  13.4750832216000003    0.0000000000000000    0.0000000000000000
   0.0000000000000000   13.1258310510000005    0.0000000000000000
   0.0000000000000000    0.0000000000000000   13.1690212258999999
Li Co H C N Cl O
1 1 90 51 3 6 45
direct
   0.7723286706027686    0.7584972709245333    0.6181065755282587 Li
   0.1857089169429905    0.3965887577383841    0.6589547138046276 Co
   0.1534701550106232    0.3016667680252012    0.1867707987411119 H
   0.0449810291210974    0.3286204899362452    0.1144700572002440 H
   0.0681571383045565    0.1704697418476623    0.2659285419111065 H
   0.2975160186301227    0.2690044551907435    0.1462431094888285 H
   0.4218781448182399    0.1714738687443738    0.0685805419786069 H
   0.5942199375781850    0.0526752956146974    1.2156270643345353 H
   0.4949564318911917   -0.0320332455572759    1.0731130560566167 H
   0.6088610345388146   -0.0008580766548219    1.0011061860141397 H
  -0.0491512281080634    0.1948011536081137    0.2191467811840183 H
   0.7089516965273092    0.0444838142843166    1.1426353071256159 H
  -0.0102460880522567    0.9971838720111222    0.0821343207248175 H
   0.0934541991385544    0.4283688407197372    0.1914203470218586 H
   0.3622250809535586    0.4858384970842788    0.0628845985433822 H
   0.6142673091273994    0.5065232064139266    1.1041510499202847 H
   0.5992187935327088    0.6212160585579671    0.3168913271088450 H
   0.5808574969135240    0.3734222246009007    0.3278162088849519 H
   0.3572388408765921    0.6057054216155170    0.3730807725738348 H
  -0.1104027978703166    0.3902805857317292    0.2123467313956651 H
  -0.0364025127810495    0.4700449066293562    0.2795225666247971 H
   0.8836452372860497   -0.4558959311566108    1.0946818571943480 H
   0.0400749369721429    0.6209395046402841    0.1072386921377663 H
   0.2234170328517298    0.7964758185732951    0.2253947777958073 H
   0.1808028247940361    0.7547390326988294    0.3419228001656038 H
   0.5113102455468103   -0.1097753706871173    1.2404390829648468 H
   0.5492975434047912   -0.2236302568420130    1.1801111370703177 H
   0.6229002799289101   -0.1603557870752606    1.2774425923100676 H
   0.4863875052210460   -0.2004012514696811    1.0063639799543471 H
   0.7064099682547077   -0.2234222700113588    1.0953683167151376 H
   0.6951202420616892   -0.0165172756191680    1.2603798208143338 H
   0.7820510595368863   -0.1381613828605419    1.1646893379467371 H
  -0.0544647388910787    0.7704667987502043    0.2333255114629832 H
   0.7485514519592197   -0.1078052097198215    1.0270154767766870 H
  -0.0741640606417967    0.8782222615856218    0.2995832830188468 H
   0.3249362574459931    0.0158204863366864    0.3033891846982690 H
   0.2591192242288363    0.1056700353227790    0.3662207335132001 H
  -0.0006810265323846    0.2034383210041822    0.4498373502010319 H
   0.3750168386863567    0.1325155736076219   -0.3700678511638544 H
   0.5500717872315956    0.1680729412277424    0.3662488297546484 H
   0.3999740129367484    0.2658785578787501    0.4052980492204524 H
   0.4801245383352667    0.2288637587310051    0.4937759231651327 H
   0.5727483076637802    0.0451953882763716    0.6252035342465109 H
  -0.1224672873674506    0.1957397608438865    0.3959298510921538 H
   0.8975345763663450    0.0393877560050274    0.3975427272228587 H
   0.7202473596038840    0.1576210315949769    0.5153521660100584 H
   0.8958759595227641    0.0254709229077369    0.6430902090387677 H
   0.1378932567794094    0.2900857870260271    0.3813038590236478 H
   0.1120299656762158    0.4230244172140989    0.3655312365609026 H
   0.0367718033834276    0.3398106385393547    0.4417788166031602 H
   0.4112422179268747    0.5334891180293312    0.5384402144522631 H
   0.5194624029912936    0.6076778681523805    0.5784286077403156 H
   0.6162762021008104    0.3991341203801999    0.4713023471169801 H
  -0.1139248540401756    0.3750678346895934    0.3546374884577518 H
   0.6748591427044430    0.5232886972346570    0.3549397128927897 H
  -0.0432217656560673    0.5806653309177962    0.4877453610878381 H
   0.0514900798302911   -0.0122059295580979    0.3412014101824730 H
   0.4338722822452301   -0.1355009798838222    0.4803439226416533 H
   0.6953280329861647    0.8100421976702159    0.4803109741033711 H
  -0.0485011393586331    0.7347745825255937    0.5207443662944913 H
   0.4491112233799935    0.3431071917123977   -0.1644975241394185 H
   0.5308457093113704    0.3793753714680507   -0.0597114526213591 H
   0.4951182119681047   -0.0327112978623391    0.8802209681462337 H
   0.6668873923090308    0.2010422822407849    0.6682720349551685 H
   0.8462109601313514    0.1688850802807731    1.0110340308977723 H
   0.8310310909879746    0.1167085744779026    0.7272597141968283 H
   0.8878121874322272    0.0350863140787504    0.8915688122598184 H
   0.1603606504883183    0.4889242445575341   -0.1054604866357549 H
   0.3448500491151876    0.6043881716880404    0.0042819137453510 H
   0.2708082058410253    0.6194005544647475    0.7123185886093758 H
   0.4178232533491902    0.5659866412979628   -0.2128648241136403 H
   0.6062599374306487    0.5515244713018361    0.8011186581012586 H
   0.8356908024693368    0.4680755075185829    0.6910436589700356 H
   0.9567898690327447    0.4909877329488415    0.7394291835333049 H
   0.7862706995246272    0.5534447306669054    0.9528140624697389 H
   0.8189473066192821    0.4427135324400878    0.8794395888908217 H
   0.2333242072865418    0.7678216329039355    0.6442975880631654 H
   0.3307425295641930    0.8539159910904143    0.6815828191807455 H
   0.2262036575710346    0.9769062988071214    0.6019071939386508 H
   0.1231883383205479    0.8993515903818255    0.5863935125119556 H
   0.2907991769964535    1.0215274734759343    0.7672528155037180 H
   0.1035253799816131    1.0083504030620329    0.6555603840945283 H
   0.1667687741770525    1.0243112972093060    0.8142122659740195 H
   0.0486292440665308    0.9243465791734118    0.8052966451404010 H
   0.1134963759146569    0.8208178963250621    0.8497767921423637 H
   0.0634751635098577    0.8057719918613631    0.7224970215924116 H
   0.2606969510339606    0.9263342628407262    0.8621968495782436 H
   0.2216352256743527    0.7307329336735038    0.8467674568758932 H
   0.6261581447805075   -0.0452674552103680    0.7029124225872283 H
   0.3491090209564899    0.7740749512409673    0.8439145493320804 H
   0.6039593950525275   -0.1912650680513471    0.9477666106614548 H
   0.8676408834387721    0.7348172464908560    0.8088914453300229 H
   0.0011549547074450    0.2098082033891631    0.2858594081081927 C
   0.3384500886413435    0.1524838330634704    0.2311089458200795 C
   0.6612540319244123    0.0061586219177978    1.1911005642659680 C
   0.0821563097306459    0.3438096234261822    0.1873456326539856 C
   0.4887921656945382    0.5579848622416951    0.0646250467974196 C
   0.4759488312858436    0.4755768230251922    0.3509857364273564 C
  -0.0666138289788920    0.3942993788881429    0.2819722551359336 C
   0.1414531605819407    0.6711237556367050    0.2063265421469701 C
   0.0860538737854499    0.8536219144727127    0.2562042049385045 C
   0.1590374675656764    0.7680959012520508    0.2658693119967022 C
   0.0781481712196033    0.9000776396478088    0.1489259208681978 C
   0.5672916437760103   -0.0602303173131098    1.0431882808406006 C
   0.5734648895090427   -0.1519327013620267    1.2110936978089666 C
   0.7216039374965310   -0.1444108919149610    1.1012913081555791 C
  -0.0219610435300052    0.8125502293424269    0.2906471595225497 C
   0.3311410428729192    0.0943214205629805    0.3305628063259875 C
   0.3396203968124070    0.2486743138866872    0.5520198873020786 C
   0.4081565226984141    0.2119909223262484    0.4654689599060220 C
   0.4128258816155555    0.1122715220906130    0.4055835677821967 C
  -0.0434711147654379    0.1705931626043142    0.3854173006432469 C
   0.7385099555339432    0.0447458929280713    0.6163752395687450 C
   0.0810557599413706    0.3485887493920936    0.3705536295592463 C
   0.5399585287263307    0.5227434365214731    0.4408525518648203 C
   0.4709910140389035    0.5852748676217895    0.5131080356762203 C
   0.6269870821470757    0.5842190868528496    0.3814382653678733 C
   0.4233772079162414    0.6800009078373744    0.4762961882591493 C
   0.9054692212395293    0.5888299948985835    0.6232254069769788 C
   0.4130871044920389    0.0185784069482916    0.4758742130869117 C
   0.6742387383727949    0.6667270816451102    0.4469756341058461 C
   0.7559087349065400   -0.0278658903789664    0.5284128177509585 C
  -0.0164248996136233    0.7469269559166749    0.3829182538701068 C
   0.4003183521830220    0.2954568755099543   -0.0106273188112684 C
   0.6363124419933563    0.0331207242505898    0.6778801901725925 C
   0.6121448732559714    0.1108818957934948    0.7551904156278956 C
   0.4478898580103445    0.3686057676653848   -0.0845872573133370 C
   0.8325190224293079    0.0384666714692730    0.6904817341410706 C
   0.2938247612789051    0.4575852765027334   -0.1364506409531734 C
   0.3930493803786038    0.5382658060543704    0.0058158166568500 C
   0.4003784631290310    0.4734344824838017   -0.0960209088670203 C
   0.9423721473159260    0.5085909307274993    0.9585403802200428 C
   0.7332558135864923    0.6122436742919798    0.7945137632872892 C
   0.8432031864995692    0.5191881873476355    0.9048978210744431 C
   0.8405560785438407    0.5863047452689629    0.8084973385918703 C
   0.8862433659524375    0.5293936821067498    0.7142260955963488 C
   0.1564393388992886    0.9515060023455423    0.6362506726408116 C
   0.0918222982709775    0.8559006273316384    0.7771267459780852 C
   0.2647585214970113    0.8105115012881022    0.7051874587866594 C
   0.2338147422903928    0.9762503403412119    0.8012105404043732 C
   0.2895917633031622    0.7408107717537007    0.7973302216530069 C
   0.5373773201780787   -0.1472648064484066    0.9732035808245207 C
   0.8309739484837438   -0.0457756135109041    0.7738402450865169 C
   0.0220379426172285    0.3221728981859650    0.2825850569426562 N
   0.6305981915702813   -0.0881508351512607    1.1326930344423205 N
   0.1866380392195737    0.8967262328051430    0.7277897459949602 N
   0.7622441317717078    0.1931883033498905    0.0496975896517527 Cl
   1.7385638905180949    1.5664903007595474    1.1395902820389272 Cl
   0.0796420395444929    1.2856547494197972    0.7128767166489558 Cl
   0.6818646653010442    1.2679042543010708    0.3875085722364490 Cl
   0.1782655491841018    0.5696831691453408    0.6214409159660765 Cl
   0.9802672750566932    1.0946702707791847   -0.0467097270517127 Cl
   0.1510441959673722    0.9037909283386828    0.0962173719112830 O
   0.2929141917634359    0.2471086987328616    0.2196540322458407 O
   0.3846976694355794    0.1153928482634711    0.1588621186884771 O
   0.3151032940556366    0.3018983724080542    0.0286474299439985 O
   0.1748459042555914    0.5856489391743581    0.2260053015288989 O
   0.5507620983671209    0.4794133039157613    0.0725284435810243 O
   0.5162779328626628    0.4027735089883872    0.2978352411860395 O
   0.4950353182314479    0.6393017705466122    0.1079137612904013 O
   0.3908668335611669    0.5054326088019064    0.3360339798296262 O
   0.9490971521644854    0.5282480022681498    1.0636803125087748 O
   0.0755589478785501    0.6844973850334224    0.1301675032331683 O
  -0.0121332749127606    0.9408880079908625    0.1372933175507458 O
   0.3475572680169249    0.2031648145125893    0.6428456958023803 O
   0.2746196850842609    0.3161976574796612    0.5474049657405222 O
   0.5057160982780819    0.1087098428477251    0.3528651471728812 O
  -0.0332106957590176    0.0663940460161268    0.3869382944708372 O
   0.7459622286181665    0.1469771341185306    0.5839909041891918 O
   0.5797005467304623    0.4508176288273329    0.5093053992356691 O
   0.3517813606673332    0.6742595570834914    0.4100908123967975 O
   0.9331499408214385    0.5331256362824259    0.5396963442523629 O
   0.7187735282609974    0.6463390392453406    0.5270287361485875 O
   0.1119156806677543    0.9411249453693734    0.3198816784283910 O
   0.4094240473377144    0.0302789994215049    0.5719216700924764 O
   0.4556885482500863    0.7631651658381534    0.5097591915029521 O
   0.4209141433507627   -0.0695996288273420    0.4342487960876664 O
   0.6626209993632830    0.7645296508700277    0.4214710051559413 O
  -0.0084427596719875    0.6518594516076862    0.3819424789981878 O
   0.7846195037854919    0.0054805696127347    0.4444349745210475 O
   0.8956421947327291    0.6825371282009197    0.6175203512472304 O
   0.7432809835819886   -0.1189702170576871    0.5495290415940098 O
  -0.0384878431302497    0.7928097649868188    0.4709006468000578 O
   0.4581556944230101    0.2215804103754954    0.0163010302221856 O
   0.5758845406135149    0.0881221940390493    0.8370028739358112 O
   0.6363013103366880    0.2074129264822883    0.7349626405009104 O
   0.2720185879760948    0.4165882533116569   -0.2174839980793078 O
   0.2264737857728527    0.4982372548747503   -0.0778115069770472 O
   1.0190559037727049    0.4865300342497910    0.9148241472423216 O
   0.3231188289672774    0.6426006092892228    0.7623845721544013 O
   0.4615955247556124    0.5236647496141842   -0.1702451039102778 O
   0.6757096012739032    0.5337574438965708    0.8133291327630922 O
   0.7043491275501779    0.6926530591072438    0.7573325641988553 O
   0.8983004343451260    0.6702872371749530    0.8304959362879721 O
   0.4791130417993380   -0.1021682333095268    0.8954665962423551 O
   0.8423816702374465   -0.1322379483977711    0.7434955449645313 O
   0.8260544983467873   -0.0225938432429698    0.8716523738623948 O
