Li1 Co1 H90 C51 N3 Cl6 O45
1.0
  13.5934063572999992    0.0000000000000000    0.0000000000000000
   0.0000000000000000   13.2410874440999997    0.0000000000000000
   0.0000000000000000    0.0000000000000000   13.2846568670000007
Li Co H C N Cl O
1 1 90 51 3 6 45
direct
   0.8395470847210645    0.7847040711848599    0.4766629275333318 Li
   0.1507351891676241    0.4081088692385188    0.5615814174344379 Co
   0.2966529928338700    0.2497087371606538    0.2199512161099463 H
   0.0121106273418798    0.1988768094325495    0.2568501744276178 H
   0.4265343451302255    0.1518512156035887    0.1345654954732524 H
   0.6353708887737174    0.1411927254610071    1.1080388888376396 H
   0.5300866088528552    0.0203589943377436    1.0312179358979299 H
   0.5829587132473533    0.0122184242784446    1.2175388943374805 H
   0.3305532521130704   -0.0003779731627881    0.3794502548290771 H
   0.7024217791865187    0.1112518311293523    0.9937739879676185 H
   0.7687406970724592    0.1232606635361538    1.0991775383956552 H
  -0.0883755910566786    0.2179311356776663    0.3357073109338896 H
  -0.0653533998726464    0.3093314836558274    0.1315582668786442 H
  -0.1724663605043335    0.3235629431787358    0.2182447362040698 H
   0.0950758510949646    0.3713988934112246    0.1961327612437157 H
   0.0353189381734455    0.4827294775662934    0.2392501714813015 H
   0.2004688602012238    0.4469648168464512    0.2892025343193985 H
   0.2979462669064545    0.4627068018518351    0.0888533625909572 H
   0.5394659356123713    0.6407816019733795    0.3124097577416186 H
   0.5767954310061064    0.4973808421780755    1.0738099279730533 H
   0.6309187302485292    0.5612505208257180    0.2929557362650095 H
   0.5317296848716933    0.3602834921557498    0.3011659596145442 H
  -0.1085037320691824    0.4361058144716826    0.1628168838047264 H
   0.8541232692911370   -0.4713725214828257    1.0171114368083285 H
  -0.0726061809202058    0.5002519809844989    0.3630508850763529 H
  -0.1607194888370823    0.4000264515026790    0.3688026331843381 H
  -0.0457696404379085    0.9957675515673019    0.1916621903742845 H
   0.2494006718837898    0.9200789040728271    0.2259739535280840 H
   0.0519549449296591    0.7336425550628390    0.1837169343502321 H
   0.5574339116722375   -0.1160323713732886    1.0437609772175684 H
   0.3743355083302833    0.7267118554214820    0.1202196224930166 H
   0.6679712531233064   -0.0983049754180122    1.2247660286896289 H
   0.7161460801524655    0.0212048463153310    1.2508555245245536 H
   0.7116946572780583   -0.1818260611799505    0.9900554124338603 H
   0.8416076425579866   -0.1961564551752374    1.0149329838539367 H
   0.7610818367939176   -0.2914779312495002    1.1232225704350969 H
   0.8242234789577353   -0.0460887203015885    1.1319160580544032 H
  -0.0415617179719342    0.8132848053275550    0.2203185571748196 H
   0.2562047059550829    0.0933575304534983    0.4257750493767420 H
   0.1633398296452470    0.3379031550987626    0.3535828196788607 H
   0.3351495981912884    0.1371764390174268   -0.3191210438435180 H
   0.0305386794000363    0.2519585523760404    0.3844108647010340 H
   0.5098612148071343    0.1176757748091368    0.3803482832929990 H
   0.5810864820103071    0.0550948120673472    0.6407946037843267 H
   0.4667097791344271    0.2147992176856528    0.5726520835022483 H
   0.4215451615350791    0.2605749141727323    0.4661567472535307 H
   0.8906306749373675    0.0399238526693327    0.6175482374617511 H
   0.8427640855853488    0.1315167830173910    0.6922976276749624 H
   0.6882560877521131    0.1331118181751273    0.4967573870796011 H
   0.1207824319780074    0.5432677077822093    0.4147624201861894 H
   0.3349759846070279    0.6078809809451488    0.3941657271184376 H
   0.4177749512836599    0.5238096382627906    0.5485747585700137 H
   0.5295275142594740    0.5837072111281821    0.5678939628648220 H
   0.5809503866158656    0.3770804509356802    0.4215688436343262 H
   0.6672716492307991    0.4723800254855233    0.5457871818662458 H
  -0.0541921062268839    0.3837294516595012    0.4348777308543787 H
  -0.0336284599521673    0.6668987922313513    0.4862683242912246 H
   0.2322739860568061    0.8138044001137872    0.6187330629455844 H
   0.2226560877490880    0.8336086647640328    0.3285765283364619 H
   0.0179561084458363    0.9393681052867204    0.3300436343517039 H
   0.3848303023686730   -0.1434523247217410    0.5466270229032931 H
   0.6417401532335785    0.7667372689109270    0.5236836376844298 H
   0.8317690490160391   -0.0284942439427901    0.4621721505469728 H
   1.0827252781122154    0.2432009635080906    0.9340486967581080 H
   0.3788082650773328    0.2625377438957231   -0.0975631948552307 H
   0.6167243484336737    0.3048492233995940    0.7157818623920050 H
   0.6153729579494089   -0.0261500256049049    0.9553958796653651 H
   0.6429127805781174    0.0015901431350627    0.7353405158522563 H
   0.7742176171352526    0.0728909334958026    0.8402321975833386 H
   0.0993713160038499    0.4576613703280241   -0.1046525763080517 H
   0.3320076337066422    0.4683416109500293   -0.2058889133444112 H
   0.2826476732696711    0.5587576742117710   -0.0037068000320222 H
   0.4701580686041837    0.3393229780611415   -0.0477794475878953 H
   0.7657002523955585    0.4687436172068773    0.8891563065390238 H
   0.8260567207034010    0.3924251120790920    0.7980647554274537 H
   0.9573416946894555    0.5501775632141186    0.7165172972698354 H
   0.9073196485497962    0.4704576002989619    0.6263373240876948 H
   0.3548517974017294    0.7020220403756892    0.7592545697251241 H
   0.2020115198884874    0.6561874363401706    0.8387997179799495 H
   0.1444483175952088    0.9336963656870048    0.8003877360139271 H
   0.2667105347551840    0.9675840657640810    0.7620721058026255 H
   0.2448006475516680    0.9145468810944094    0.8875725245707996 H
   0.2205550691192240    0.7482108449268224    0.9369798977962567 H
   0.0730386963063763    0.8290795805590402    0.8913302430049133 H
   0.1154864820072821    0.8289164519633626    0.6844171079861132 H
   0.1715570488663891    0.7045150380346321    0.6657211038298472 H
   0.0605157130654183    0.7094149377047991    0.9445570600073521 H
   0.3847824850679233    0.7991386862273853    0.8418724356578444 H
   0.3761606579173606    0.8263449109065008    0.7193799982323623 H
   0.7762156446558097    0.6812752549504175    0.7243925477220984 H
  -0.0310529465687100    0.7354112919659727    0.7960248081204730 H
   0.7998329773214806   -0.0099806587833453    0.9999630827122664 H
   0.3454354674079408    0.1395546424794115    0.3041596387436448 C
   0.3823585157453035    0.2689095770518883    0.0596580281624522 C
   0.5851671368912090   -0.0376302005257142    1.0303289404110132 C
   0.6970964031845629    0.1025327587353819    1.0758190126086002 C
  -0.0187970045611696    0.2465133802703213    0.3189451166047946 C
   0.0618972652316945    0.4099757853890511    0.2596398588260202 C
   0.3363832845506308    0.5027936906546511    0.0222328989342349 C
   0.4352475401077592    0.5412884896771528    0.0535916313554567 C
  -0.0986364481467851    0.3562362414879900    0.1900656116886364 C
   0.2453251665583532    0.7696161865346443    0.1696465671686513 C
   0.1006248649342730    0.8779819084632731    0.2332018406283162 C
   0.0818635630724300    0.9378788016261825    0.1322289654212715 C
   0.2066880519018088    0.8499388945063300    0.2435400828106312 C
   0.0296831175420069    0.7842177062977471    0.2432419945694635 C
   0.6565510104027148   -0.0172262872413576    1.2101958367804335 C
   0.7660688134367217   -0.1678445811254183    1.0507434684424957 C
   0.7741984902149527   -0.0525609983800923    1.0690390106182033 C
   0.3113159841960726    0.2348949991781741    0.5811167357040927 C
   0.3315206328897760    0.0775446298224934    0.4018806422288603 C
   0.4035916042305159    0.2024407161131165    0.5243158707999771 C
   0.4046082736095327    0.0979908357057294    0.4840078669605881 C
   0.6455765720552664    0.0655931945141711    0.6828551557123180 C
   0.8308656698572600    0.0535564187831101    0.6719598799480230 C
   0.7355407773365469    0.0456635625172474    0.6113546262286008 C
   0.1402087621456616    0.4130986406813046    0.3356523603237753 C
   0.6532015923978929    0.6697067187069495    0.4107068393353332 C
   0.4407376283195283    0.4755966797202915    0.3455509976251764 C
   0.5904542590525652    0.5927077558721943    0.3563709985810957 C
   0.5204231001967297    0.5217259121250033    0.4212488504239212 C
   0.4741368358519497    0.5733738453394858    0.5150927496289393 C
   0.4165736335586711    0.6700208922986248    0.4999197570542715 C
  -0.0830237316266152    0.4155878622153476    0.3692166446304044 C
   0.8939021139594283    0.6287448262423186    0.6035426066153734 C
   0.0277240795128304    0.7256809733237973    0.3406777065309353 C
   0.3931711109209834    0.0158064981583713    0.5666985989078163 C
   0.7261266542951007   -0.0628018491087400    0.5659503673125620 C
   0.6539298866708499    0.1690582615476529    0.7293072399609462 C
   0.8505266726239782   -0.0181771154911635    0.7570076166951102 C
   0.2304701703423710    0.3914637106795663   -0.0711688360463846 C
   0.3383415869290265    0.4205149499847944   -0.0604391648605161 C
   0.3964190091180598    0.3218470720242013   -0.0383678382966849 C
   0.8264539721250139    0.4668086552856481    0.8313625669124330 C
   0.7971780136537007    0.5416198823983719    0.7413632532703940 C
   0.8887488802401713    0.5401986245085310    0.6751590593039891 C
   0.9251665364911486    0.4781269854932458    0.8900550877510294 C
   0.7055284324336881    0.4877384317235709    0.6841784868435624 C
   0.1881798139085490    0.7391443690420573    0.8617991829310527 C
   0.2218961604925581    0.9134940974723050    0.8085919373787918 C
   0.1846597249225897    0.7841663509991079    0.6777342104985209 C
   0.0819621402770525    0.7495060557675032    0.8775767827665939 C
   0.3439244407042502    0.7797195863169339    0.7782900632671644 C
   0.6763363381513821   -0.0076319090955802    1.0957276939277982 N
  -0.0333216935765885    0.3574816074799915    0.2844466719262234 N
   0.2309439294451835    0.8045098462850654    0.7843278556469772 N
   1.7236926538370603    1.5493678529735313    1.0666851673602959 Cl
   0.0144029151747427    1.3062382751657460    0.5787207385534950 Cl
   0.6436947773580702    1.2785517273993579    0.3272291092665374 Cl
   0.8874968026113097    1.0260936106387510    0.3316138668544204 Cl
   0.2444181091456703    0.5199693721052964    0.6535815354831024 Cl
   0.9962024471833524    0.1960160172083520   -0.0584797615984973 Cl
   0.2761592333833262    0.2056375834534090    0.2855569753497646 O
   0.3242641735883127    0.3056459857534822    0.1236619394800361 O
   0.4154922269109469    0.1273675769773327    0.2473979167398844 O
   0.4336270485678906    0.1873868165870004    0.0672103496867835 O
   0.0809329648347627    0.6481057738293107    0.3502835248277550 O
   0.1909031930989400    0.7165117868417538    0.1170008716868727 O
   0.5043912392877113    0.4703413711745416    0.0674587565544232 O
   0.4703974493682446    0.4026644523577798    0.2877452140292454 O
   0.4471626551085713    0.6318027321862931    0.0729530648177636 O
   0.9230279996714655    0.5105559383124745    0.9840883783739207 O
  -0.0054802541277664    0.9892265480156192    0.1268799375380961 O
   0.1435412601825258    0.9363472053667653    0.0651380342122012 O
   0.3426981108527153    0.7808765909862767    0.1584057800339120 O
   0.7488692981824423   -0.2183653561617672    1.1378996525721856 O
   0.2921471318016861    0.1939172469889633    0.6773578364566426 O
   0.2524734851950441    0.2952042451801574    0.5446100344128669 O
   0.6045471210596751    0.2398915676457798    0.6784214694989908 O
   0.5036984269232121    0.0822949949466228    0.4433313176593919 O
   0.7485228066647022    0.1195570402342888    0.5338467153876546 O
   0.1283397724488035    0.4707522135636555    0.4250399908729535 O
   0.3573140205649490    0.5103322633301512    0.3365022129103367 O
   0.5688908633667894    0.4364139462635180    0.4733770315981169 O
   0.3395274559876193    0.6715041541593229    0.4348705797475830 O
   0.7327224991954373    0.6991884362507712    0.3740929467169805 O
   0.9631305306832931    0.6103354621301124    0.5376467382640753 O
   0.7267137036181509    0.4931777885969441    0.5850129597856176 O
   0.4057507392720604    0.0212735717885100    0.6594439375593998 O
   0.0890332155817631    0.9408423044476586    0.3166748283841843 O
   0.4269661721385344    0.7424167588803485    0.5586932735866801 O
   0.3772280872002503   -0.0718955130927848    0.5190978210833753 O
   0.6203349224656670    0.6946963580697980    0.5044938307852193 O
   0.6605573645547594   -0.1261750428545378    0.5728500562482762 O
   0.8410183862825940    0.7060315297944495    0.6053446855278870 O
   0.8028381107609045   -0.0820155278246344    0.5061498765694841 O
  -0.0301804647427231    0.7597537035209708    0.4123438405930789 O
   0.6993548510815106    0.1876503901050164    0.8075892769312277 O
   0.8080075287973383    0.0075284771527144    0.8444664055544703 O
   0.2074957964590885    0.3029369937502625   -0.0810554293784455 O
   0.1713039849978060    0.4718265966201875   -0.0767180949198392 O
   0.3844941099618635    0.4552099855654785   -0.1523745465739774 O
   0.6377499833987105    0.4372711266158053    0.7261991431231146 O
   1.0028203616071121    0.4550427787549091    0.8496746695459830 O
   0.7770432517841699    0.6365108047115431    0.7791338938690557 O
   0.0316090512860490    0.7052695077896408    0.7899704552828176 O
   0.9050972475411059   -0.0900571634115548    0.7497368229541039 O
