Li1 Co1 H90 C51 N3 Cl6 O45
1.0
  13.6419185222999992    0.0000000000000000    0.0000000000000000
   0.0000000000000000   13.2883422528999997    0.0000000000000000
   0.0000000000000000    0.0000000000000000   13.3320671663999999
Li Co H C N Cl O
1 1 90 51 3 6 45
direct
   0.8691512665038960    0.7236510351245213    0.3425396471680950 Li
   0.2974303617608699    0.1726981878344664    0.2905844633729147 Co
   0.1367836025519230   -0.0013363121796569    0.0910782677618239 H
   0.1264661387897754    0.2334837986072263    0.0012602384154157 H
   0.0468043230251129    0.2548212983949159    0.1030779072778314 H
   0.4856481696742321    0.0474252253897560    1.1262088163672483 H
   0.0278370495014491    0.4628453654599202    0.1390903271079698 H
   0.1706864586087134    0.4773206097258497    0.0633263823728526 H
   0.1980982921707389    0.5880299797888419    0.1739828905937277 H
   0.3164592102014801    0.4193903588827093    0.1431084586798695 H
   0.0403008389400136    0.6120915966493062    0.0228352872364209 H
   0.2882447036149750    0.3823932684523579    0.0171564979642811 H
   0.5117219949517071    0.5690624520714552    1.0886812526552290 H
   0.3711538632138339    0.5368574567563620    0.3687928902422155 H
   0.5973368590260518    0.4697529238485497    0.3332185120096111 H
   0.8114152524152261    0.5528069255438435    0.2417548263875359 H
   0.2512733641970229   -0.1258747962512000    0.2997413329323234 H
   0.2555528209247968    0.7016558159739750    0.1556729018310536 H
   0.0538891036475752    0.7852350901123740    0.2593709992637050 H
   0.5414471395006304   -0.0767031247541476    1.2538034330735894 H
   0.4259841276504147   -0.1030254449761201    1.1040022075717166 H
   0.4898035236229701   -0.2064965908746939    1.1481056457453462 H
   0.6380767299680680   -0.1603426020378882    1.2030686151674292 H
   0.4821271839769871   -0.1787677746696789    1.0148539918324964 H
   0.6666995368967056   -0.2021597067921498    1.0431549293608424 H
   0.6644476542198092   -0.0303865874249197    1.2243488859955731 H
  -0.0320254983260479    0.7276959339521588    0.0714189008588012 H
   0.0609782824783907    0.2409678021125015    0.4433081163958694 H
   0.0292180869243895    0.1943329406522800    0.5711246041716461 H
   0.0241682107000602    0.1163412709408964    0.4640715881474708 H
   0.2568561566668286    0.2932068238647074    0.6214783858936500 H
   0.5804264809422875    0.0891663236730238   -0.5919643456860164 H
   0.5044962517515212    0.2528308319020599    0.3902344263845202 H
   0.4316232904906155    0.1378059498731200    0.6107403661842385 H
   0.5334046490092341    0.1675222224137240    0.5266441051913721 H
  -0.0597342109519220    0.2462769669923121    0.3117049690293555 H
  -0.1868966769323687    0.2599167421087639    0.3455811860002871 H
  -0.1208245919447189    0.1357582903921895    0.3387510373921633 H
  -0.1882176055078139    0.3465528309518817    0.5178221424355575 H
  -0.2320486838874836    0.1969517774746387    0.5239274222083100 H
  -0.1361164293544639    0.1494492381821816    0.5946168350530910 H
  -0.1689241315312793    0.0839489685898591    0.4874945349495250 H
   0.0622149120603973    0.4010231317783099    0.3915973058069846 H
   0.2874882117782050    0.4111854227119686    0.5691594175525725 H
   0.1643332466423523    0.3796148932948439    0.5906534586808830 H
   0.0608653951306557    0.5395386038341493    0.4890825632526944 H
   0.5681650823914481    0.4647425923314284    0.6009114328039559 H
   0.6661783492068380    0.4732196467191130    0.4532411596626892 H
  -0.0899191148807115    0.4950605953097215    0.4910781352572409 H
  -0.0903779946189072    0.4247484388181099    0.3734283304352975 H
  -0.0826004961807981    0.3327474971857405    0.5839103183352831 H
   1.1152830693372922    0.7676587818298997    0.5823749225302282 H
   0.3300753302286127   -0.0242383412069108    0.5220133904470305 H
   0.6610712962739157    0.6266231308561301    0.5519755107254768 H
   0.4499364038251965    0.6945405567339170    0.4277309371476735 H
   0.4065528431454764   -0.1221655299588419    0.4886896834438378 H
   0.5595951734150170    0.7018898557014905    0.3501941240565096 H
   0.5284167875226865   -0.1141457184600267    0.6893388300924393 H
   0.7638229728587478    0.6883516733928027    0.6705945500883745 H
   0.9762872237822559    0.9126204304192572    0.4626145747858104 H
   0.7522351599172182    0.8854198968146145    0.5439213208793124 H
   0.1661174531643464    0.2773809220330395    0.7945153179167679 H
   1.2207000601842322    1.0012266671936780    0.7142756981602720 H
   0.6109199924905345    0.0746972502294918    1.0810327763366434 H
   0.4585128368106850    0.2157351588212117    1.0118424558494503 H
   0.3943060319856753    0.1011587902250666    0.9013569638687083 H
   0.5721950874021166    0.0260335427712590    0.9066292145349178 H
   0.3503356770081507    0.2932181119544590    0.7503173707683278 H
   0.9599383502982647    0.9982014591402637    0.6932399505526692 H
   0.8561457644031483    0.1242640048678483    0.9032126400883986 H
   0.8856445478288211    0.3274654237213336    0.8655395625580202 H
   0.0930492847560262    0.3775062781292551    0.7604500829962154 H
   0.1644915821430716    0.5411138191320117    0.6753417508945261 H
   0.1683876617093817    0.3857488412658342    0.8662993847126467 H
   0.3695661099982878    0.5668838507494068    0.6737861031662976 H
   0.1852401300498273    0.5376801327374546    0.8017947591908555 H
   0.3416514146145334    0.3975185561801132    0.8514562251688117 H
   0.3110215586073337    0.6675484765200196   -0.1029149043186596 H
   0.3946417618899783    0.4247093067736379    0.7395951025547183 H
   0.5858736619878662    0.4868039596879188    0.8689658879305119 H
   0.4047693696582078    0.6681113759289634    0.8006906543422767 H
   0.6964043030802585    0.4413663882806779    0.9014619738407200 H
   0.8214922807873923    0.5664670192218481    0.9557183761654109 H
   0.8689247587737003    0.6328970511400396    0.8469722993639177 H
   0.2755353475433505    0.6674860157567276    0.6829894771418829 H
   1.0168027860982529    0.7120536517137828    0.6694949456671678 H
   0.1241189615985572    0.8446601098004143   -0.0709678705478262 H
   0.6466011907915147   -0.0989519496544454    0.9491807553364622 H
   0.4616200977088283   -0.0424550604479562    0.9527255919630813 H
   0.6411716025793495    0.7167773410051465    0.8364758025901330 H
   0.9546758940035253    0.8773135432943707    0.7520867887967227 H
   0.7227686300194699   -0.0764826307343341    1.0550908128224143 H
   0.1514611568616552    0.1340319651995197    0.1281100343917031 C
   0.1264558763036177    0.2401851612230610    0.0828634876656047 C
   0.3617754169351187    0.2740102984332278    0.0949238829511332 C
   0.5466936889418252    0.0284198449447359    1.0710493282832581 C
   0.1823285161199339    0.3365538410499619    0.1290108699373166 C
   0.2883957087684387    0.3575052881681486    0.0947153631495674 C
   0.1625013928631973    0.3357012140040618    0.2424658939122999 C
   0.2400000231527552    0.6250924658858206    0.0198477535326918 C
   0.4546852226877415    0.6089685584847117    0.2811208146809865 C
  -0.0437958369142399    0.5964929616913027    0.1563187131589247 C
   0.1995606964482156    0.6517684795866746    0.1196754834254883 C
   0.1016235919408105    0.7115780468655842    0.1317328784261022 C
   0.1254904695700654    0.8079301708275163    0.0723504893247895 C
   0.0182650820551881    0.6590274738362357    0.0866280951622194 C
   0.6081315283945340   -0.0863122992899806    1.2066637065663681 C
   0.4845026563086117   -0.1516605559403156    1.0901296401977598 C
   0.6617273623532849   -0.1200983044556754    1.0297106526584472 C
   0.0118568924844106    0.1979978071249487    0.4868547391929077 C
   0.3856943400298878    0.1869144080675637    0.4656336864882658 C
   0.4617285868482101    0.1284187744357341    0.5323400710946481 C
  -0.1115473044581299    0.3330056181713925    0.5069119813791699 C
  -0.1201128152262077    0.2135881641504676    0.3533436731456280 C
  -0.1620116140693218    0.1594504857020516    0.5220334173488357 C
   0.2384474556040356    0.3718042877260907    0.6180438097376431 C
   0.4993863033314329    0.6543632351508968    0.3747837091454754 C
   0.5529160542096754    0.5794926470018840    0.4503312583311259 C
   0.4699347639938221    0.5072977123936461    0.4951024849196262 C
   0.6286770256823118    0.5188720982028643    0.3972280905204906 C
  -0.0683774234009083    0.4237964765823962    0.4513740073532008 C
   0.7127744345712907    0.5770211573777488    0.3502293774042563 C
   1.0363007767632166    0.7566197825922042    0.6016405020382075 C
   0.3459404007937395   -0.0451875307071472    0.3705818101225554 C
   1.0053989648728370    0.6726236016723147    0.5305093722468721 C
   0.3933193672450820   -0.0417378904790746    0.4735259359561638 C
   0.5515136121727489   -0.0356844642149787    0.5737603544691364 C
   0.4866835079206021    0.0148146866368555    0.4894395521532601 C
   0.8684504853062680    0.8347687330207927    0.5926441477217309 C
   0.9772218430573351    0.8618473552561188    0.6021415496189485 C
   0.5069105895842945    0.0278268439631213    0.9616169363075463 C
   0.1593434792655183    0.3584798265833655    0.7921128397713890 C
   0.2207505312597538    0.5237324185325808    0.7303444740917278 C
   0.3032909743916600    0.5993556212522949    0.7154608107015453 C
   0.3389604441370312    0.3762533001668334    0.7708903244278513 C
   0.6222915601880262    0.5478116448130576    1.0055876118737042 C
   0.6540348959433399    0.5135349463858631    0.8968677875652139 C
   0.8791505931951539    0.4705400799738909    0.8311757992884634 C
   0.7062973397363114    0.5606976765498327    0.7220981910039050 C
   0.7201319041116584    0.5899534702825053    0.8387327669171529 C
   0.8279701086570975    0.5660575625795936    0.8742883933690410 C
   1.1009141226470176    0.9234983862431639    0.7292628713800087 C
   0.9915226175181333    0.9224380583458354    0.6961082229310422 C
   0.5741130727615239   -0.0815261492353250    1.0979116291950455 N
  -0.0896442268586295    0.2261013879097151    0.4654897478194871 N
   0.2430105967705982    0.4077711518317843    0.7279569973709219 N
   0.9313903129116332    0.8933140342475292    0.3008161850029846 Cl
   0.6426596630722204    0.2638766039936064    0.3956866941456065 Cl
   1.3314044305065804    1.0928415561565445    0.7734458171038756 Cl
   0.7733604876729078    0.0576424516935389   -0.0974566359877441 Cl
  -0.0568797737306216    1.2102670386059800    0.8393290735439329 Cl
   0.5158965544102545    1.7696069365814340    0.8019882775678483 Cl
   0.1772815720345068    0.1138180066117674    0.2150545408611376 O
   0.1268722400277314    0.0645771014975722    0.0638026776030479 O
   0.3410855118064071    0.0198235883292750    0.3026036047408673 O
   0.2272071011224178    0.3012747978797959    0.3012182231815432 O
   0.4269700593562825    0.2828037203496824    0.0243864345372775 O
   0.3747948466956517    0.2172485153872357    0.1675765322297934 O
   0.1239921465910367    0.4271317308343197    0.1005044128923194 O
   0.0781422905771961    0.3622319876167794    0.2807885331266928 O
   0.2161610008430713    0.5432794015238800   -0.0197747591209585 O
   0.3697860204159534    0.5622917805845461    0.2948306165983253 O
   0.4943440873199857    0.6163697826651422    0.2014519991294964 O
   0.5245569931752913    0.5419247554997628    1.0182188113642385 O
  -0.0320768107568365    0.4946135117016286    0.1675277775999309 O
   0.6809885828018952    0.5788201778684186    1.0705137774259992 O
   0.7598000782849171    0.5177425893661450    0.2858320120681626 O
   0.0945336800752694    0.7287585194674377    0.2384380114144277 O
   0.1741060656034146    0.8778598868383456    0.1127013211414629 O
  -0.1176996649096898    0.6365137550964349    0.1961137421951654 O
   0.2951359630698914    0.1690950295857728    0.4711146069702867 O
   0.4238062814807991    0.2475367178085847    0.3966505356744269 O
   0.0342672301139932    0.4197395371256904    0.4645221559345233 O
   1.0689369488142528    0.5942398589768941    0.5411639840356572 O
   0.3848249608453828    0.5045194877439956    0.4701540657548723 O
   0.4986673282119168    0.4492542796372634    0.5751779890912926 O
   0.5915737400137603    0.6415663040692271    0.5242010481925230 O
   0.7251788481970856    0.6291456426459423    0.6538049557061824 O
   1.0148257914434384    0.9231680214831021    0.5225458660122521 O
   0.2930636739007553   -0.1308107016298928    0.3621052551675359 O
   0.4949825605659416   -0.0580469225521087    0.6514774846836687 O
   0.6403945857702641   -0.0508037316281998    0.5736920979873289 O
   0.5402605761903789    0.0317475738034917    0.3980876721485281 O
   0.7284012688506131    0.6702899772510118    0.3564069640434511 O
   0.8254044871176647    0.7888269602713160    0.6562456874842225 O
   0.8176936948395808    0.8724438613755536    0.5188042857023570 O
   0.9316915901838351    0.6803130484110681    0.4780566212014519 O
   1.1569802836308793    0.9860163425231280    0.6769424028964739 O
   0.4480001659011228    0.1139316400485996    0.9596570001870732 O
   0.3465004393240614    0.6233277611879954    0.8102983167101065 O
   0.6687659617880374    0.4804878972022703    0.6995052955256165 O
   0.9251206669039850    0.4724376831150575    0.7531863932179296 O
   0.8594370903208778    0.3934014135780659    0.8906849504274186 O
   0.2920198324515689    0.6923551825580176   -0.0274052337300562 O
   0.0904931926680255    0.8002851239084523   -0.0227322899755414 O
   1.1322432937823941    0.8778455885913269    0.8025260786387931 O
   0.7064967251816615    0.6931047117175204    0.8564719514748212 O
