Li1 Co1 H90 C51 N3 Cl6 O45
1.0
  13.0266690002000001    0.0000000000000000    0.0000000000000000
   0.0000000000000000   13.2705968909000003    0.0000000000000000
   0.0000000000000000    0.0000000000000000   13.2382719078999997
Li Co H C N Cl O
1 1 90 51 3 6 45
direct
   0.2953857582503189    0.3709912211089782    0.8176302034890763 Li
   0.5205230515948395    0.2938078051390176    0.9940958340677866 Co
   0.1085221786228157    1.1557848581714996    0.2266444574317520 H
   0.6310609795930017    0.1388908849054037    1.1296467588776289 H
   0.5372710782773820    0.0418568169892115    0.2712869911485072 H
   0.4243197167299742    0.1787692720156996    0.2610009054005072 H
   0.5446805702970624    0.2982944156878489    0.3080908884690668 H
   0.3840584649861901    0.3456788705974241    0.3000407441041967 H
  -0.0365548168831717    1.0356078975486047    0.1843693021929458 H
   0.7518293817053028    0.0835731018369276    1.0772743642914246 H
   0.9013879526623209    0.2472673213101766    0.1911677726146246 H
   0.2432726662549993    0.5961378384437895    0.1178417368032039 H
   1.0625742083327276    0.5260592272369556    0.2519861336213611 H
   1.1444938456539504    0.3965115502082845    0.3345475138078313 H
   0.2752631927659287    0.4700435855810975    0.1463794494766044 H
   0.3848668067042332    0.6147044486743328    0.2666851820586331 H
   0.4998730297054469    0.5382258992659069    0.2463570001122110 H
   0.5107096679894038    0.6711736494315249    0.2668989561841148 H
   0.9808971502925130    0.3838625336357816    0.0931376060620279 H
   0.8974997752626170    0.4815044867937848    0.0571404605648408 H
   0.9294572925675864    0.6435456532672065    0.2331052704891541 H
   0.1405656733944715    0.8397613940818162    0.0917658258080535 H
   0.4422634443242204    0.7412970966020227    0.0068808795085740 H
   0.3370049933741772    0.7412224955868507    0.0899498788198629 H
   0.3243133375105438    0.0224688420461680    1.0663990777735459 H
   0.6136981372580558    0.6828468244419289    0.1183773051953117 H
   0.4687950925909180    0.7868361183180999    0.1244241669425938 H
   0.0132453277270921    0.8187043156174995    0.1215657878230791 H
   0.7511185322932344   -0.0608936479077390    1.0334280069996082 H
   0.7365369074744045    0.8902851199934794    0.2978100904202837 H
   0.1015771952200278    0.9125847951650555    0.3715606529402580 H
   0.6064345766349566    0.9068420240880244    0.3585929483037069 H
   0.1610674609194251    0.1073610295839056    0.5940934744818666 H
   0.3180331441626706    0.3561697325491926    0.4133387644526793 H
   0.3310026914811299    0.1944008221038684    0.4380838370935059 H
   0.4523157454917706    0.1486236799757271    0.4920417105206057 H
   0.5984947111176542    0.2296727849136931    0.4233861483503182 H
   0.4896295054401147    0.2592170475586426    0.5869074912461520 H
   0.3790049858505040    0.0685933686995044    0.3232212620853143 H
   0.3728483851109927    0.3259269331258140    0.5671050576790063 H
   0.7988675001982646    1.0346282882584670    0.3349365373930717 H
   0.8959498778944034    1.0819102609653817    0.4907733425556012 H
   0.6910494540056089    1.0831272371219760    0.3899021707523451 H
   0.7861743090227260    1.0816713870077095    0.5641305757924014 H
   0.8570243475080693    1.2472539917741012    0.5221259996763780 H
   0.9817615308950928    0.4300181063681593    0.3683177825491172 H
   0.1624254442994993    0.6646569870152849    0.6777456314782150 H
   0.2320971308976670    0.3982062742802230    0.6514635002136071 H
   0.2427115097536798    0.6318219907010799    0.5654517452110144 H
   0.4526899010030471    0.6122622073594584    0.6842389261165207 H
   0.5969709140518275    0.3724011049411688    0.4155769719926165 H
   0.4304839940290111    0.4408354796317868    0.3986419821722145 H
   0.4847415329278000    0.3963819403637432    0.5566049711898439 H
   0.8848894909299546    0.3445892436485478    0.3245817115552525 H
   0.7688782527556526    0.5693428869488923    0.4468252348231403 H
   0.1238622475227725    0.6529453811788829    0.3857679453503620 H
   0.2044630519175015    0.8793134959439356    0.2935051478721561 H
   0.1827836801613247    0.9069467669275084    0.6373634725590450 H
   0.4903322944646812    0.7354171802243723    0.6495576623387297 H
   0.4383041052177145    0.7946511398165764    0.5144011243519051 H
   0.5804779026767245    0.9931930759224595    0.5134915645480447 H
   0.8874281291650624    0.7231034914473397    0.6774094848851431 H
   0.6290197824151513    0.8690637685866626    0.5470553864041924 H
   0.6768508895071050    0.9792261080819173    0.6028310197449287 H
   0.6880433132953936    0.8041654066606383    0.3805882662746451 H
   0.8835046395915409    0.9123285896584041    0.4274840397048255 H
   0.8138275794017055    0.8226483733287159    0.5084403010247374 H
   0.8582295673535847    0.9480911106589055    0.5534111253242995 H
   0.0878668599073506    0.0869685783456669    0.7241723859878597 H
   0.1657578387895516    0.1000576655531241    0.8234270326019610 H
  -0.0081477083587808    0.1030748621667486    0.9338742276869531 H
   0.5162041270870366    0.1187908093629908    0.8698537871116059 H
   0.6503421941533888    0.0885593131237292    0.7593620242760718 H
   0.7112234524388202    0.2519069016173909    0.9755730237111214 H
  -0.0919903238411602    0.1396263454186149    0.7634290203594406 H
   0.4179182337415971    0.5425504975090616   -0.0153493633847134 H
   0.1538392124701435    0.4002182410530446    0.9611255186794515 H
   0.1926142822897763    0.5661617188110107   -0.0299018670151181 H
   0.0429236745089182    0.3549196003858552    0.7319181099549592 H
   0.4405958652984797    0.4753957186150460    0.1008485822914165 H
   0.7075225830915406    0.5955802146940188    0.7457839680727744 H
   0.8036784000529424    0.4154428765130023    0.9049777068524084 H
   0.7422244704269031    0.4890998497475881    0.6794354290708033 H
   0.9152111334000240    0.4834548135358885    0.6394203875544042 H
  -0.0600504626230996    0.3432192977335703    0.8075238995144496 H
   0.0655127185688757    0.8420566940031701   -0.0667578859422439 H
   0.2701490688099905    0.7293526451728113    0.8175259602759438 H
   0.6128214741602351    0.5470831496945293    0.1069256594627949 H
   0.5850160543714588    0.6321452617668255    0.0052575558489976 H
   0.5307413199793326   -0.0058124781601115    0.8956751331587445 H
   0.8152845903996595    0.8956074126213590    0.8634639803008302 H
   0.9709821060092801    0.7024329818798234    0.7720396608412979 H
   1.0362121352659499    0.3060657315410732    0.2770543602228981 C
   0.1754249302001083    1.0212242189869500    0.1848965613434271 C
   0.4386764183547049    0.0902660939253924    1.0011821064039832 C
   0.6685172164861406    0.0829356022527302    1.0808435612628060 C
   0.8414086901211444    0.3312899172165149    0.0814004245718005 C
   0.2845948185252178    0.5307682844492091    0.0850519585738445 C
   0.3996733547171625    0.5367928815835568    0.0623050319285095 C
   0.4616594234495148    0.6076022813208335    0.2311382463804817 C
   0.9300015606379498    0.4586081542099538    0.2128314763061054 C
   0.9040041241486368    0.4197719960298037    0.1071281028042405 C
   0.8413058242235016    0.5329901136738024    0.2550869915192490 C
   0.9538380456208131    0.3853914776740044    0.3015681337922672 C
   0.0812135857665346    0.9460135854182056    0.2094397949512901 C
   0.0686048367457774    0.8826064902500143    0.1121053385385118 C
   0.1188333333775682    0.8791326449980639    0.2973515713596215 C
   0.0843202894065349    0.7724147624760552    0.3031680404981690 C
   0.0346368285010598    0.9466450566375406    0.0246505704196377 C
   0.5737420287554134    0.6187683201371893    0.0831211929740877 C
   0.4230231458261045    0.7272314142868589    0.0870779027595048 C
   0.6415571394323205   -0.0203114491997594    1.1218549563887825 C
   0.1918205260348318    0.2069420816544562    0.7025283223220417 C
   0.4336917211923679    0.1305740020321334    0.3298996261962102 C
   0.4155300560731907    0.1897416496108513    0.4280897834193971 C
   0.5615690012533278    0.2983742915222756    0.3952397254189654 C
   0.4535323266453837    0.3215737001495630    0.5446432135600204 C
   0.3907869694103567    0.3668700801799291    0.3844301574484961 C
   0.8188541905790520    1.1091019542227847    0.4911636502963659 C
   0.7626387451732651    1.0463285909107518    0.4101517925961168 C
   0.2576270649118723    0.5283638711238461    0.6852715382350134 C
   0.2400039872090094    0.6354465450745899    0.6502473293937289 C
   0.4452368828908567    0.6524457804409127    0.5284282572958345 C
   0.7463682772588086    0.6036589771552248    0.5845091419585042 C
   0.3279098056482757    0.7110799177293093    0.6760497908008073 C
   0.3012898001814387    0.8162002835627856    0.6360596770092877 C
   0.4320361943650824    0.6757702776390947    0.6393486259221753 C
   0.6508749473844637    0.9469638064296393    0.5314436810820901 C
   0.6895264245957348    0.8825251073243721    0.3691396420845380 C
   0.8271732781369179    0.9024556351050304    0.4898230674677710 C
   0.1224881433676946    0.1486553288912546    0.7711702120129256 C
   0.0481368260827363    0.2098522747917733    0.8341519973849606 C
   0.0944771453148233    0.2726829075699990    0.9235579265148567 C
  -0.0038496026804112    0.2953955257346487    0.7668010616885932 C
   0.5308974612000827    0.0670644246612815    0.9358170794563483 C
   0.6395113363187548    0.1052149316928959    0.9709568622948015 C
  -0.0668449854591862    0.2570347794784587    0.6853840906897724 C
   0.7154302070588355    0.0461256528573891    0.8970673088239839 C
   0.7606129011144658    0.5673247411020867    0.6894948991380809 C
   0.8702426153551572    0.5181148219576200    0.8318646897808669 C
   0.8676364233962246    0.5811445414854259    0.7339568956958604 C
   0.8907029494586727    0.6913272267120915    0.7509991502718044 C
   0.8308741474841975    0.7538933649819798    0.8243599338209360 C
   0.4649992642023068    0.6240597173951492    0.1157304340444714 N
   0.4574303300412802    0.2947934427940179    0.4392435806088841 N
   0.7311295389445893    0.9457340199977124    0.4499188410192452 N
   0.5554626819787091    0.3638898073010866    0.1465101311858212 Cl
   1.0715005117490664    0.0118634411620141    0.5704896384091591 Cl
   1.1918774093255633    0.5284387735572612    0.3627339721761117 Cl
  -0.4587226020564624    0.0990170190687545    0.6764002897203250 Cl
   0.4691757731777912    0.3388781214870441    0.8435844974022388 Cl
   0.1484157231653247    0.7041977856932872   -0.0761156027848836 Cl
   0.1727450432697301    1.1188724265734979    0.2084706352233996 O
   1.1311343291115921    0.3262939098368118    0.3045435976801553 O
   1.0153503170992468    0.2236647657827169    0.2378536243858956 O
   0.0082855026176180    1.0366364873032494    0.0429981313165440 O
   0.4138511925049473    0.1813501657224089    1.0264142516812429 O
   0.8383925698835459    0.2444407717353250    0.1393309464205283 O
   0.7904685764213327    0.3301927548115604   -0.0033409984632213 O
  -0.0112206351368685    0.9965493680595935    0.2407346650734826 O
   1.0170844518960744    0.5125559160088917    0.1922268232292017 O
   0.2296060873316178    0.4995956624939999   -0.0033062507255105 O
   0.8538777257585362    0.6302191991932928    0.2284150812837981 O
   0.7700965227523614    0.4953955047725170    0.3025078334816637 O
   0.2495513242909672    0.9783429526295777    0.1426153630198016 O
   0.0359057637906374    0.7275117332529600    0.2389111642292678 O
   0.3846649131887106    0.0080263869271050    1.0135379487025833 O
   0.5616773175082337   -0.0413082440154523    1.1691640012820408 O
   0.7108403921184941   -0.0898222637911172    1.0949345242901392 O
   0.2141201638006751    0.1672596164021878    0.6170103628877435 O
   0.5358011706594249    0.0855617086959074    0.3321929768851231 O
   0.8122277843965756    1.2108961697434388    0.4677325709109293 O
   0.2147296826270057    0.4612366719990760    0.6186971389379222 O
   0.4524216820132235    0.5692543453399760    0.4898307724009156 O
   0.7794373603830812    0.5384010232651593    0.5120127461542091 O
   0.7063695638507992    0.6866311304842923    0.5615917247827056 O
   0.1186398840775237    0.7289389486341300    0.3898515599169838 O
   0.2101552208057155    0.8440581111374824    0.6733583518994249 O
   0.3485229032863502    0.8662002952770288    0.5747559052144433 O
   0.4545640562456210    0.7353983415841774    0.4721096527840868 O
   0.2282258419289194    0.2896798822994983    0.7249972670656901 O
   0.0940042692480479    0.2400822639398194    1.0074419868911446 O
  -0.0302170493388568    0.1382466034107361    0.8681148894548609 O
   0.6449854909164424    0.2116426991559022    0.9492886262897062 O
  -0.0730629986749020    0.3113842564409139    0.6067492048646229 O
   0.7186083027024237    0.0688126504713737    0.8005078780392769 O
  -0.1154882725489457    0.1709226016016955    0.6990898070598770 O
   0.1277235569641368    0.3638121921034834    0.9002301083412693 O
   0.2999387257049375    0.5036736177242660    0.7633738772104647 O
   0.9460570848856902    0.5481849087276912    0.6630760430794369 O
   0.9457937788939630    0.5210175549934201    0.8904894109982083 O
   0.7878025072981005    0.4534832151767564    0.8402585345948331 O
   0.0346368285010598    0.9103399827994244   -0.0683117141263987 O
   0.3416308881442888    0.7200908161073619    0.7820190600347202 O
   0.7787787115757868   -0.0126938566505260    0.9347867334946629 O
   0.8390028563658292    0.8528399316507642    0.8069505618422212 O
   0.7787472376817320    0.7161904640413977    0.8890700414512822 O
