Li1 Co1 H90 C51 N3 Cl6 O45
1.0
  14.2781706029999995    0.0000000000000000    0.0000000000000000
   0.0000000000000000   13.9344978052999995    0.0000000000000000
   0.0000000000000000    0.0000000000000000   14.4017858853000007
Li Co H C N Cl O
1 1 90 51 3 6 45
direct
   0.5477926419058631    0.6014097185126061    0.3412620477587124 Li
   0.6962145272386195    0.6294121629101062    0.5783425061958207 Co
   0.1465803886500879    0.2642529680043051    0.1825025704126589 H
   0.3201929661240650    0.1646899970680782    0.1694666871204605 H
   0.3515506247799944    0.0920250173789735    0.0779683125095016 H
   0.0379628323033282    0.2244574900654386    0.3650056308617657 H
   0.4915677919358449    0.1004113978307722    0.0779280397263469 H
   0.6754905837988467    1.0180670018336968    0.2068634380713084 H
   0.9004682850265563    0.2772494894814636    0.0539692055409147 H
   0.8164084966004521    1.0696433133765961    0.3260424075178637 H
   0.3218633481823232    0.3506679947117620    0.0788813937137863 H
   0.1094068588781100    0.4787880048438075    0.2825915462855267 H
   0.2991132348077323    0.5250868387891984    0.2477465621983642 H
   0.7060456186230093    0.3165139113246318    0.1338301345368079 H
   0.3145844044793979    0.6093576188637674    0.0901598560721105 H
   0.6179909206538006    0.5334972602939780    0.1357465635283104 H
   0.7828565792491253    0.3661690915591737    0.3054650984007710 H
   0.7785465032799342    0.3754388910026004    0.0539379594160532 H
   0.8693459506354380    0.4997171408682916    0.2079383047665424 H
   0.7918304179545600    0.5915801572385785    0.2352529727620946 H
   0.7250011282275194    0.5864734069994033    0.0446245311323494 H
   0.0599621492139976    0.7100795838466872    0.2231850249822711 H
   0.1430834420601999    0.7876589853511196    0.1186500727207836 H
   0.2888836329868021    0.8443456353500568    0.2112233140269765 H
   0.6279627863751756    0.9577670174538931    0.0293208735335398 H
   0.3645102682206689    0.7269930028513075    0.1088450387392595 H
   0.6484079826203210    0.8962334041166494    0.1875568046985815 H
   0.8739746948798943    0.9865007404480373    0.1883810080365936 H
   0.9389052819822229    0.8475556541555416    0.2534701579146522 H
   0.2520974077339928    0.2497924540471132    0.3765042048107805 H
   0.2109303691585818    0.1409998716963234    0.4276811911838596 H
   0.0459953739495180    0.3031478035106021    0.6434940094519361 H
   0.3632418984481299    0.1035704639568049    0.4586060364459041 H
   0.6557625662655070    0.3185462773557369    0.5093252393154296 H
   0.6555958782445990    1.0737345982435913    0.6571596757496753 H
   0.5475274818860490    0.9718234981923306    0.6144184487308585 H
  -0.0349092483665430    0.0441711220095706    0.5772643760164345 H
   0.6638063138290686    0.1309090882346820    0.5193224647391849 H
   0.7592513143050866    0.2894551679620551    0.5554407631323680 H
   0.0054537656374297    0.3295491855439088    0.4237087671764734 H
   0.2029706659753098    0.3454320686655252    0.5635476743814216 H
   0.4900283089998879    0.3884849298724659    0.5521913050184429 H
   0.6918645301887909    0.4028743253714365    0.6588171090839928 H
   0.2831265929369565    0.7635504738931591    0.3137612917306520 H
   0.0339574172126874   -0.0792197618259436    0.6113743818110227 H
   0.2231203061497696    0.9313254473917227    0.3597243414018498 H
   0.3925355671981111    0.9170888381667712    0.5981857396861684 H
  -0.0570381336968257   -0.1451776465550526    0.5436720837928842 H
   0.3903728251453223    0.7378035826156319    0.7100621425734368 H
   0.4970628936671209    0.7869241185376126    0.6517943689317987 H
   0.6188922966324077    0.8904341280229489    0.6771773320525828 H
  -0.1592809237986103   -0.1342134911089992    0.6845972451696827 H
   0.6888550410045833    0.8713067792139646    0.3784393814771999 H
   0.8145959394655372    0.8846305460690129    0.4093043036153435 H
   0.1923201418830953    0.0849569478025773   -0.0721859820497077 H
   0.2289396791149968    0.2712822848385827   -0.0988743388313704 H
   0.0710924266436992    0.0073588875704583    0.7425157565712027 H
   0.3507080798675900    0.2685215107843238   -0.0652632294970702 H
   0.4385764794604899    0.2645608370111356    0.7130992659099701 H
   0.4716741369363508    0.2414520027711587    0.5997730428291301 H
   0.5390563686487141    0.1868336009719548    0.6965568730499865 H
  -0.1162579051584680    0.3073359702328934    0.8167433564337411 H
  -0.1402602797993757    0.0764220151726576    0.8167725194836117 H
  -0.0625668531802176    0.0883858478366946    0.7160287637053139 H
   0.0461473542038753   -0.0139953086235964    0.8623217315899778 H
   0.2305897504480182    0.6057894960153725    0.7968152723554364 H
   0.0889784715090226    0.5288414771501231    0.7185867797939715 H
  -0.0013244136329361    0.6154834226919852    0.7074735747182479 H
  -0.0157352233732796    0.6166718401169534    0.9661859337044395 H
   0.1671600559036968    0.4301525240773436    0.9930319098270699 H
   0.5049896094311291    0.4118063300793967    0.8126362269102856 H
   0.6157084153590989    0.4341942915516317    0.7854604305807842 H
   0.4317954987107812    0.4199923445015751    0.6560736993211572 H
   0.5369794219008045    0.4816171703114718    0.6151746049525056 H
   0.6837318356560893    0.2864920184767328    0.7128590179277020 H
   0.6021408509009956    0.3240685431076273    0.8200922466605585 H
  -0.0764853029260306    0.4543730596657616    0.8978221899409006 H
  -0.0947663563787157    0.5199218876725084    0.7973658985113282 H
   0.0730051366651260   -0.1119206173836290    0.7964403188570989 H
   0.3193805371145978    0.9855426865456626    0.6870990182335897 H
   0.2928848458584286    0.8662488287241240    0.6662696570426146 H
   0.3023440408600362    0.8240284338293590    0.8131361649080687 H
   0.3483786497938934    0.9407430813698977    0.8690146515353011 H
   0.4676205364010105    1.0200907561443311    0.7719433569657195 H
   0.4146560480903648    0.8223412542604579    0.8769622769833945 H
   0.5277266258897916    0.9332401199097270    0.8239494071851223 H
   0.4921286481003116    0.7558817368139258    0.7735112180754342 H
  -0.1686203555583051    0.0305925917572616    0.7054300781523090 H
  -0.0567040572851740   -0.1904315199856512    0.7089754717865885 H
  -0.0669798835152635   -0.1623852993424247    0.8818748621699450 H
  -0.1215758133212999   -0.0427462550586821    0.9019216815227232 H
  -0.1782630474568787   -0.1318086681675327    0.8339717753240162 H
   0.1599308384591095    0.1864231089628474    0.0598025098733829 C
   0.3392283178898504    0.1699603699961982    0.0974686718563695 C
   0.4343700582269895    0.2238561049192288    0.0862131233229438 C
   0.8510186727735936    0.3210652055934413    0.1738987763424751 C
   0.1088584692967196    0.3481017020114683    0.3290448129378842 C
   0.1675956859415318    0.6231909125133370    0.2085125391056628 C
   0.3905199028108294    0.6209411005403447    0.2158588502397557 C
   0.6788488571612566    0.4561292047627662    0.2680697361665836 C
   0.7666037968407654    0.3677558010559157    0.1272434514160135 C
   0.7263395349836331    0.4607174576652628    0.1683189128005498 C
   0.8478116792957052    0.5809977880667297    0.0935240221821936 C
   0.8081091140468425    0.5311734592892742    0.1804597682050501 C
   0.2337070965869310    0.7059265816496515    0.1738022605345697 C
   0.2507519972795215    0.7848960583667429    0.2503691536117355 C
   0.1618008259205558    0.8377347046019847    0.2739738650487378 C
   0.3275545534676085    0.6613767163675395    0.1397099608774031 C
   0.7524878428012716    0.9706860334468146    0.0942649025205752 C
   0.7094886367355447    0.9463744289144181    0.1907411320011287 C
   0.7868227736289642    0.9183124201169951    0.2657637721518084 C
   0.8122833182678985    0.8095822727396185    0.2490214040927115 C
   0.0633743510537601    0.2877751648268796    0.4017330203822482 C
   0.2250302146918534    0.2174898905612015    0.4453667061629412 C
   0.1280191872631038    0.2655310908508440    0.4800789289373590 C
   0.0716555239916403    0.1973506645969001    0.5474927210692767 C
   0.3007983246325412    0.2148869980489070    0.5146901850669746 C
   0.6829950465888827    0.2775573584882942    0.5656812292227947 C
   0.7346487227149432    1.0192109253695660    0.4129205217993090 C
   0.6613256038708505    0.3307713322073876    0.6545134761530753 C
   0.4510979014949371    0.7839458985414665    0.7151885901257059 C
   0.5746782290495931    0.9578337582875417    0.6869164019927327 C
   0.7550736082348519    0.9210875470387053    0.3707917188277766 C
  -0.0404778889305725   -0.0882929269852874    0.5967824415007239 C
   0.2854917418722763    0.2282179413376810   -0.0646848290079682 C
   0.2606272119635634    0.2257549892830367    0.0410423365065663 C
   0.3073341759397382    0.1390507522964359   -0.1217944129547418 C
   0.5005700656566108    0.2506507555207014    0.6710232341715371 C
  -0.1110352472932978    0.0427308117608319    0.7534977279225082 C
   0.0616297297929127    0.5959398407269129    0.7471089369258365 C
   0.1257016634766148    0.5020454630262426    0.8857820164942873 C
   0.0394476163551132    0.5553377316372831    0.8474631576808613 C
  -0.0175267694131221    0.3877880981577049    0.7699505485578890 C
   0.5659088983361967    0.3809805331255500    0.7793806290410756 C
   0.5030220604515634    0.4115886688444976    0.6219758447973486 C
  -0.0427575927459311    0.4772087229559715    0.8309235422541988 C
   0.1333616083701868    0.6835066850473372    0.7442710944300862 C
   0.3538135197192951    0.9159391734839215    0.6653294958634500 C
   0.3672333061420558    0.8678427146545916    0.8306666296720047 C
   0.5002373899846307    0.9511431691251149    0.7582811624596316 C
   0.0362203121519881   -0.0450549137882249    0.7932080808297641 C
  -0.1119926528587648   -0.1030189689903284    0.8564870385408492 C
  -0.0825091838832961   -0.1193690379474849    0.6902784850278252 C
   0.5559264570303020    0.3421215797878813    0.6791555589354780 N
   0.4196083631989364    0.8836653157329125    0.7405979388630397 N
  -0.0685998389453478   -0.0562415386797736    0.7746673246953080 N
   0.4825065470749090   -0.0355023628560074    1.0416036637450339 Cl
   0.5905343219829855    0.6730384211717265    0.4793749190263140 Cl
   0.8348618410327311    0.6099604392967223    0.5287573362948502 Cl
   0.3403923325568629    0.9938537144433419    0.3879319542101093 Cl
   0.8687989617937192    0.2603647762117460    0.9301778994141007 Cl
   0.6623593497484140    1.6230999293062123    0.7247019936085231 Cl
   0.1183351735442210    0.2124297871412432    0.1350306800898179 O
   0.2544261374378537    0.3290389411060149    0.0630680771005699 O
   0.1722860627315338    0.3231858417593718    0.2747376592120178 O
   0.5108597031798612    0.1730914480307008    0.0813880272860051 O
   0.4305775555664160    0.3152544472057796    0.0845438858970119 O
   0.9140911787016838    0.2724190319407262    0.1273045549490759 O
   0.8575146030001530    0.3328718743588864    0.2603290295009063 O
   0.1921149335212212    0.5384036445035328    0.2196604620978992 O
   0.0729049837786141    0.4334923645689255    0.3269596548721299 O
   0.0825868963879896    0.6432382801259503    0.2405634252718812 O
   0.6080106504943966    0.5051892433484396    0.2715387503845352 O
   0.3611596989264522    0.5468114107278340    0.2720345222323370 O
   0.6627004298584231    0.4931468287351067    0.1032783680056091 O
   0.7113880397300923    0.4018013767651141    0.3359196547657342 O
   0.9289362177401909    0.6078354972705562    0.0875983681918015 O
   0.7905158237728617    0.6067654910020612    0.0250998692439226 O
   0.1985415271340416    0.7524248486882784    0.0929338176014773 O
   0.0865867085199444    0.8330499286658782    0.2291398420225338 O
   0.4684761081923599    0.6525819968367512    0.2378783416087869 O
   0.6964652596398172    0.9755258203513953    0.0213163107023657 O
   0.8705337778768661    0.9769661306001340    0.2565426935260284 O
   0.8364341713139846    0.9877982396656354    0.0877969546742543 O
   0.7508552807141438    0.7509823855094221    0.2484013421037942 O
   0.9026163193127943    0.7901635607213727    0.2437880253575831 O
   0.0549678119152811    0.1161005172417959    0.5181204957515977 O
   0.0291220638666857    0.2334187028586621    0.6243991553699368 O
   0.2896883579280762    0.2646555659363142    0.5854671781508963 O
   0.3770608956772668    0.1591368726511676    0.5015276577589211 O
   0.6334172666559782    1.0349818561250623    0.7139581871644950 O
   0.6562514244108587    0.1820332844528652    0.5717008298952703 O
   0.6769788696998105    1.0325440215884578    0.4735662644145698 O
   0.7748884716278243    1.0933599915531360    0.3750238328506779 O
   0.1461006353126008    0.3522941745939951    0.5248609445246269 O
   0.1626692845168829    0.8999651496539894    0.3474675281561971 O
  -0.0851930010938811   -0.0006830240625091    0.5687426551008868 O
   0.2405258973077701    0.0707784676908036   -0.1225019640932711 O
   0.1215736836647182    0.1336002508818021    0.0031546742162285 O
   0.3799142023881027    0.1300751866357610   -0.1658854725675734 O
  -0.0886773410267257    0.3278634412617528    0.7546941073255368 O
   0.0565331384981771    0.3811269323735533    0.7249075236742784 O
   0.2049043870918090    0.5059487970939628    0.8519737093941948 O
   0.1052144450413246    0.4574796660612597    0.9670462436756249 O
   0.0076886457833004    0.6334460363072960    0.9021001316135987 O
   0.2202403853851752    0.6706859861964573    0.7774794759328387 O
   0.1170051712261363    0.7636164970834352    0.7130784351600625 O
