Li1 Co1 H110 Cl3 O55
1.0
  12.7459357243000007    0.0000000000000000    0.0000000000000000
   0.0000000000000000   11.7944807256999997    0.0000000000000000
   0.0000000000000000    0.0000000000000000   13.0061293133000007
Li Co H Cl O
1 1 110 3 55
direct
   0.4335231231133064    0.6804151492157964    0.5504072721527982 Li
   0.5484852594126776    0.3775251718541202    0.7633876242062998 Co
   0.1400742872723102    0.0982708259783273    0.2225326295687615 H
   0.2749831740888124    0.2111524382309924    0.2271973532954401 H
   1.0275666020526160    0.2656948988073414    0.2343270686601163 H
   0.0576411083573347    0.4482658868889045    1.1392219621750452 H
   0.1115057295864446    0.1481060000457397    0.3258308490187353 H
   0.0607987423569531    0.4589090006401078    1.0181482774478205 H
   0.3661745958205295    0.1948855075824951    0.1361126061379155 H
   0.3333908121079415    0.4330562304256816    0.2337365778372896 H
   0.4311050974252244    0.1856769631348078    0.2924242920382744 H
   0.6128359683556293    0.0227600832239325    0.2057105609325327 H
   0.6177944116874523    0.4143712196036456    0.1545100858366075 H
   0.4877521742360290    0.0297019318651868    0.0806779735402894 H
   0.5573076795497582    0.1561953769516770    0.3296313648224228 H
   0.5166923798026358    0.4890188467841756    0.2757267800599855 H
   0.7196770845715036    0.1052920761652519    0.2125665591970445 H
   0.7078348782976845    0.3469193310040495    0.1148741582226292 H
   0.9609335969621526    0.3775819780854060    0.2847325339763505 H
   0.8653737238899940    0.2350593830603304    0.1825230319809633 H
   0.8178173880421378    0.1777291778799859    0.0824233813747930 H
   0.1913165039386640    0.5880456735824942    0.0772485904451675 H
   1.0566111546070602   -0.0212555891972193    0.0173165398539971 H
   0.1722782783231550    0.9263793478497152    0.1402314334007830 H
   0.2536893274956149    0.6803083195868111    0.1429455383546605 H
   0.0645717097592849    0.8964670517338502    0.1730920939174329 H
   0.3646360661727913    0.6530930476757243    0.0014755471161105 H
   0.3379098997015016    0.5541925511529517    0.2152337631871298 H
   0.5825957405420555    0.8626334299508686    0.0330443321181276 H
   0.4883492273017754   -0.0607365982242075    0.1706547815367553 H
   0.6260237015778781    0.5477488592459060    0.2936583255937909 H
   0.6694304793906060    0.5446677570893002    0.0365062844726960 H
   0.9564066637304092    0.5860591511958878    0.0404763972369292 H
   0.8359211981500200    0.6032154808983970    0.0257660944718819 H
   0.7597682956879839    0.9397330514728690    0.2768524031909988 H
   0.9509853277457736    0.7078746031359925    0.1758700149367982 H
   0.8999180688109066    0.8089447585522032    0.2499158726090874 H
   0.7152803889336022    0.7673702279387838    0.3264051936081253 H
   1.0655473364977981    1.1800488454377431    0.4936993937184523 H
   1.1062112792016567    1.0563045251965162    0.4775977546408023 H
   0.1133867997972641    0.3464250320064432    0.5628652445515739 H
   0.0215340692230796    0.3812599695976118    0.4878775232621460 H
   0.3105639278137341    0.0456265413811223    0.5034063554869238 H
   0.2294478746369650    0.4026801580633491    0.6528143732907198 H
   0.3212120279560603    0.4974982366213288    0.5220337267950236 H
   0.4423832023136667    0.1510743375939722    0.4778922311839567 H
   0.6108094400128921    0.3880216068290183    0.5523571220573403 H
   0.4675473022226685    0.0600608351800039    0.5671178548914881 H
   0.6364128956601567    0.3602179241043142    0.3835313363753067 H
   0.4932237223050374    0.4332927817470061    0.5711013613407911 H
   0.4398012027875545    0.1885206661158909    0.6654030532935067 H
   0.6461195192204912    0.0744761370448436    0.4906546754132525 H
  -0.0359701435592465    0.3402034778993509    0.6439231807449294 H
   0.6798871459612605    0.2628088031163436    0.4685074252159596 H
   0.6724228057937028    0.2202770451130485    0.6633071184197757 H
   0.7686150373034326    0.1062052999222360    0.4942860401999845 H
   0.9461131864339665    1.0553634070364082    0.4698637088246395 H
   0.7507473809048667    0.4644861855564956    0.4536375130890495 H
   0.3175771437857540    0.7988340972375294    0.6634201420538324 H
   0.0265796775951187    0.7188382057741515    0.3368056745461145 H
   0.1347714204242419    0.6831113255663761    0.3663824987290502 H
   0.2782571589026885   -0.0410454388250542    0.4161436524443355 H
   0.1657185402381278    0.5152539992420330    0.6161101403478846 H
   0.1011782022202865    0.6842949300271965    0.5401121261662768 H
   0.2136585277931456    0.7118646049931711    0.5955698248116694 H
   0.2935412466475056    0.8543948307060313    0.5593092288542132 H
   1.0198464940802838    0.5449526360999274    0.4091946211204983 H
   0.3973288404824534    0.5307315776319171    0.4307813663570612 H
   0.4377589831684508    0.7861095014295107    0.3548148757740677 H
   0.5536971168578200    0.7337392433091948    0.3779785698096116 H
   0.5393505828759030   -0.1164948817209122    0.4903348262175547 H
   0.5858367736755620   -0.0539452860958606    0.5891889871311510 H
   0.8480740916958964    0.9104057747538281    0.3541505735983877 H
   0.8684335227814670    0.9796585056706038    0.5469927282150729 H
   0.9111765596038908    0.5017824438853159    0.4375251098557751 H
   0.7178600347682595    0.6356594696503723    0.3672959142206101 H
   0.7835091968305414    0.5570786468439496    0.5448983310778597 H
   0.1653239046375096    0.0408949723279465    0.9301974373135267 H
   0.2217795478766425    0.1229247303563636    0.8453143815321995 H
   0.0998759047382465    0.3279045048988765   -0.1101505151063659 H
   0.3738758742612217    0.2512830731447147    0.7499139768375318 H
   0.3354510766948666    0.0950134549338958   -0.0118145713992607 H
   0.5867021475671760    0.3355996296026064    0.9798663268377454 H
   0.6101354996929497    0.2359123243838157    0.9126749296934502 H
   0.3479421172464416    0.4385460863596450    0.8123299332258684 H
   0.4286470589824077    0.1843441363350873   -0.0031141350685005 H
   0.7847817593438670    1.1416580073389233    0.9024028497546954 H
  -0.0673926305906564    0.2347753519039014    0.9185721492391276 H
   0.6867512948077985    1.0566351883338514    0.8593616046220984 H
  -0.1323725597159059    0.3149832069168532    0.7133550599956265 H
  -0.0084939340776368    0.3591403014182807   -0.1726571979492514 H
  -0.0611498562882330    0.1093968774808797    0.9620900926922356 H
   0.7069216460131525    0.2282197432426807    0.7843669635183405 H
   0.2888723073646451    0.9308984107266302    0.8245856932725565 H
   1.0301478170149099    0.7132499987531860    0.6970827321645033 H
   0.3535062438460126    0.8226918665233662    0.8315285736503227 H
   0.5433251831795446    0.7686827062377452    0.6905312057305116 H
   0.5980053584978048    0.8472474198144003   -0.0826727012701967 H
   0.4649150906121834    0.7131635176249598   -0.0467534828196871 H
   0.4319995001781165    0.5407828891527102    0.8284300345670007 H
   0.5604004301216009    0.6396181009022139    0.7005580166946809 H
   0.6540341990197681    0.5450645528541025    0.8637672197455315 H
   0.6551357266206985    0.6646102991053702   -0.0177641508733684 H
   0.9916884986405484   -0.0721766949218085   -0.0718454984485242 H
   0.9535194688789679    0.7350661351295271    0.7902211264415201 H
   0.7043780901141382    0.5357110253385066    0.7536829690426049 H
  -0.1614704626099964    0.8276314650826359    0.8757538759016084 H
  -0.1020366151164963    0.7544998012086581    0.9679950009205018 H
   0.8578811394249767    0.6368608790493570    0.6924218527791192 H
  -0.2194756193903240    0.9357566152828632    0.6992955350135853 H
   0.8536915686351136    0.5024624229523489    0.6858880103150820 H
  -0.1200933513952790    0.8631574038454152    0.6713241077552096 H
   0.3431876605073835    0.8594607595408469    0.2400881985239703 Cl
   0.2289277088254145    0.3115349838923855    0.8068171478096355 Cl
   0.6187845312261802    0.9322380203599369    0.7534100208106993 Cl
   0.1375330850647509    0.1709828020241486    0.2559038186093136 O
   0.0750339467330496    0.4997102882246817    1.0798807099540049 O
   0.3454605418890752    0.2331974952408735    0.2034631590118007 O
   0.6632536084489220    0.0637731647872407    0.2542891952656471 O
   0.3691088645010703    0.4969708713099890    0.2588278245978679 O
   0.5920379660956140    0.4755905319915716    0.2784055170739542 O
   0.6477804408238883    0.3917072290290088    0.0840414646256245 O
   0.3911574614874977    0.1227068318274016    0.0355698798201953 O
   0.9787275043617960    0.3308202754868147    0.2221028322120427 O
   0.8019480156888492    0.2025399352847068    0.1518482639243343 O
   0.1027758095235446    0.9598102388885064    0.1426333778415517 O
   0.2634124268961343    0.6140824281579503    0.1025852599539831 O
   0.5353304778707983   -0.0256696029389654    0.1188768863784045 O
   0.9045862235299488    0.6455556238528772    0.0324253393489440 O
   0.9672885638905966    0.7679247245844690    0.2273688109171723 O
   0.8025999882218784    0.8712221929796019    0.3018629187843937 O
   0.6705021935664399    0.6957926808102818    0.3305309406853227 O
   1.0712432698188481    1.1193000921298712    0.4433269897373502 O
   0.2100644409413923    0.4525797690498319    0.5923044413161686 O
   0.0449473992802096    0.3161413757517249    0.5389618992509790 O
   0.4857578130098432    0.1824347686805258    0.3514141714650024 O
   0.5591718031821018    0.4085108513850271    0.6037282859067389 O
   0.4149634814269765    0.1179254428615341    0.5457225578513886 O
   0.6823130172875258    0.3433956489559334    0.4452407028337246 O
   0.6977548023598266    0.1380139915234284    0.5063303614754781 O
   0.8761693220301656    1.0133267958849177    0.4763860182647934 O
   0.9760521417413028    0.4761755513883955    0.3980867813843312 O
   0.2572543854860901   -0.0172135290922654    0.4838740262381119 O
   0.0707506205668965    0.6954535391309635    0.3956371671115114 O
   0.1358219513769810    0.6789246215351928    0.6084975757166263 O
   0.3171228813349430    0.7821618922822470    0.5892843267952532 O
   0.3900457345569293    0.5357296781308691    0.5012819724876140 O
   0.5631919081872064   -0.0449080081962289    0.5165924461268673 O
   0.4864882419247051    0.7730059147948538    0.4133395899041680 O
  -0.1516139873603615    0.9395041308393294    0.6617955234228003 O
   0.7828234880533242    0.5407956069656847    0.4673264435703063 O
   0.0236716918024918    0.3602408161676683   -0.1004581618348133 O
   0.2352505086373072    0.0594856508918802    0.8945373274662627 O
   0.4221022276099287    0.4669008743132411    0.7905748058406089 O
   0.4475550470040746    0.2365880641798572    0.7268425469930545 O
   0.5564124922330478    0.2954817125018586    0.9233160663964717 O
   0.7053525183764997    1.1323485682416390    0.8813512368263191 O
   0.6983118426708383    0.2712831058283070    0.7179205997169085 O
  -0.0713672308942980    0.3636619078577906    0.7096537281973357 O
  -0.1079679175830441    0.1736374335190118    0.9524561734083585 O
   1.0353337838540475   -0.0059373226111948   -0.0564527559055697 O
   0.3068027288686772    0.8610776174969963    0.7855902329182326 O
   0.6340419438011743    0.5288222099773557    0.7868234976054903 O
   0.3966454853966911    0.6715448985932290   -0.0634094759119959 O
   0.5139087473752136    0.6941953235006930    0.6690421067628275 O
   0.5790903094017731    0.8009579720042596   -0.0235194373384548 O
  -0.0910417377664698    0.8143235455861898    0.9099070039614504 O
   0.9504988981784112    0.7311066560234872    0.7136087865210600 O
   0.6975790600645214    0.5951701924107711   -0.0104015453130748 O
   0.8064106146874899    0.5664186086923727    0.6732109104625228 O
