Li1 Co1 H110 Cl3 O55
1.0
  12.5840810330000004    0.0000000000000000    0.0000000000000000
   0.0000000000000000   12.5865438989000005    0.0000000000000000
   0.0000000000000000    0.0000000000000000   12.5654271824000006
Li Co H Cl O
1 1 110 3 55
direct
   0.5430258672588126    0.1332579430121865    0.6433558504579187 Li
   0.5199872362106077    0.5488946771324401    0.4106721575314073 Co
   0.1537046298039362    0.1381544420428208    1.1348433192365512 H
   0.0806668769803685    0.0387517775743528    1.1355038618412328 H
   0.5434788204768548    0.1805854703131528    0.1072220682785149 H
   0.6543554110154147    0.1173584235247528    0.1398998271831328 H
   0.5696030959911255    1.2127917776486736    0.2662528732796328 H
   0.5088898823685761    1.0193868191824544    0.1437755410202408 H
   0.4589720537760304    0.3328194763588836    0.0491980162971208 H
  -0.0558521898863237    0.2713744914438754    1.2358585876850341 H
  -0.0907470700804728    1.0279753563431160    0.1732890620980947 H
   0.7992408416812521    0.2906959193079020    0.0003183410513574 H
  -0.1666572614957191    0.2346424064717326    1.2203716490258718 H
   0.2962577487242409    0.3594097780881176    1.1509112170540481 H
   0.2115721847005052    0.6171111793666267    1.0272146663966171 H
   0.3299534948727312    0.4683229166757329    1.1029621906298686 H
   0.2973758279835133    0.6555744782585735    1.1113184524963231 H
   0.2162813088586061    0.6533697427709847    1.2643494614773265 H
   0.1562332212772871    0.4699182712195450    0.2725821447676244 H
   0.0484370304833208    0.3790648956475630    1.0487499469781656 H
   0.0717883581829284    0.5625560921627430    0.2987014318587708 H
   0.4280186612336160    0.4255764721933027    0.2488248943640625 H
   0.5716540999486108    0.3584126814982351    0.0513049880391626 H
   0.5121614760504698    0.3600056525442227    0.3245238726950422 H
  -0.2462554456915503    0.4839292659307629    0.2444844132002870 H
   0.7224628872588094    0.6543636613637680    0.1003992998397243 H
  -0.1805041208367432    0.4125133151169293    0.3128672853085699 H
   0.8954814806936725    0.5997521647113730    0.2967317415616780 H
   0.7629648514994587    0.4092749360728168    0.0181046762674843 H
   1.2265664434393984    0.9880994377405626    0.1909573830216334 H
   0.0291891013445288   -0.3123473037537796    0.0425754002258934 H
   0.2223874360997211    0.7778248761723706    1.2560648247125845 H
   1.3309761334719465    0.9273440781960867    0.2111779450695263 H
   0.5623312102046284   -0.1436322047514565    1.2008975797047154 H
   0.5192720469189623    0.7177321290230836    0.2900363862204892 H
   0.4507322784815065    0.9545556783582195    0.0595721960291546 H
   0.6328496690156366   -0.1400553690162762    1.3006713463901820 H
   0.3874372315161172    0.6847747101055478    0.3054540872813295 H
   0.7054294622961207    0.7749321043127990    0.1550676362224430 H
   0.9488584414934768    0.6970481349027632    0.2346351658803593 H
   0.9796433672249701    0.8493083594245627    0.1396666476853356 H
  -0.0427791653588599    0.9924850737374963    0.2805484477469777 H
   0.8848251602481555    0.7693141999406401    0.1016497945321777 H
   1.1488253674375397    0.1984354855202371    0.5700260713246947 H
   0.2752462819904666    0.0638225994405188    0.4497516088601929 H
   1.2178649737243790    0.2946056502392262    0.5311033993852131 H
   0.5507967962399245    1.1902438882296567    0.3865854316599681 H
   0.4587718007743696    0.0545432451604127    0.4523229500116704 H
   0.5828738306249908    0.0376744365577148    0.4570048441602754 H
   1.3519788590032675    0.2192982419773889    0.6574214287653203 H
   0.6897453611303362    0.2389914955020250    0.5667862292239009 H
   0.9106911729626653    0.1827353853507800    0.5360741814440584 H
   0.8616132944604188    0.2121699944838223    0.4234596256904731 H
   0.8776176414979066    0.0570554518673518    0.4308314403256129 H
   0.1669475515209041    0.4799448520676068    0.4757467457750376 H
   0.1907498458016327    0.4883967353530016    0.5873529792634040 H
   0.3498357571804743    0.5162622084183004    0.5214101356201259 H
   0.4174267078243472    0.6155881242568221    0.5764874513336227 H
   0.6875537032788273    0.5997863281801897    0.5123447852467179 H
   0.7209482752700580    0.5102097129428222    0.4274220854840995 H
   0.7903105113929061    0.6578721701613148    0.6412866808528918 H
   0.2878113631899084   -0.0297317558660964    0.3726646952249183 H
   0.1461077302171247    0.8515329573940218    0.6465710216903449 H
   0.2740932379213805    0.9150293394365814    0.5521548126129707 H
   0.3621878709019594    0.7627413074401634    0.6177880766499583 H
   0.5418569300943566    0.8045033673211082    0.5957553995287399 H
   0.6471645800153042    0.8906620466782567    0.4729477959670071 H
   0.6591781708054105    0.7746548240658915    0.5911881055428749 H
   0.9722530778779673   -0.2307808302050143    0.5163534034392256 H
   0.8189959592260359    0.7164196162211027    0.5255198247894945 H
   0.9313601434912184   -0.2617376999485865    0.3976220639993958 H
   0.7429292208213961    0.9519417757441052    0.4138801662536624 H
   0.9054782376813386   -0.0785174276861156    0.4394105358418396 H
   0.1236309200902457    0.0703765034083275   -0.0347836092124422 H
   1.0337752500548445    0.2489831183819953    0.7014581329670720 H
   1.0163723106248055    0.0161103279207346    0.8100378079908550 H
   0.1306246767077696    0.2427049851124720    0.8519957925740183 H
   0.1922374395282551    0.0587093610077172   -0.1422027984215904 H
   0.6626992860846115    0.0076904311761436    0.7795310855025882 H
   0.6484924481334592    0.3039918646717937    0.6682853650261745 H
   0.3455962739905539    1.0681611296628437   -0.2386698729113317 H
   1.4335740106323265    0.2646824240521777    0.7455473622434130 H
  -0.2311943538642660    0.0406088401792862   -0.0777091693362945 H
   0.9784911178106525    0.1423843561818922    0.6743496236378301 H
   0.0239019524597176   -0.4230703116894048   -0.0034646580707561 H
   0.1834795493246726    0.4376782851471599    0.7481091533813289 H
   0.1550142208624158    0.5599731750203462    0.7387270608914591 H
   0.3210772011086429    0.5602742902454979    0.8106442338520204 H
   0.0805229650017941    0.3526493837587866    0.8640367680063473 H
   1.0604677037285890    0.6544447002897983    0.8412997773849565 H
   0.3399105191219727    0.5931228627623850    0.9390600828778394 H
   0.4383992364744653    0.4230165955298752    0.8338030167390516 H
   0.6349229233066398    0.4104190150285386   -0.2026058383646409 H
   0.4620418051467263   -0.3484954317589394    0.8409177768424899 H
   0.5055125996024726    0.3406206647382116    0.8814416677224769 H
  -0.0535375989421285    0.4018288888693274    0.9834596875949344 H
   0.7504696999196445    0.3901179695586752   -0.1565588563081592 H
  -0.2060594235367715    0.5464118668986688    0.7663170500711015 H
  -0.0900120144196150    0.6087045825398960    0.7698370259030375 H
   1.0613338774262486    0.7054364582461735    0.7256912923797900 H
   0.2923448686441719    0.9245712757270109    0.6703433929487127 H
   0.0284825420036692    0.8799045264973727    0.6877546593405501 H
   0.5749169524280511   -0.2827156588005852    0.8515978753422823 H
   0.5185139462698182   -0.0246790582780351   -0.1554550339073238 H
   0.4480161484827908    0.7312163707151046    0.7101772953488698 H
   0.6173753567087349   -0.0393023735803466    0.6780502538929742 H
   0.4727426262592789   -0.1424340998450478   -0.1361433148167157 H
   0.3499184012763977    0.9850882854890449   -0.1565166770815953 H
  -0.2352256375048407    0.7141409923009567   -0.1480816276032570 H
   0.8939954762765870   -0.0104416312734972    0.7818883471833917 H
  -0.2834166812854470    0.7510407166200839   -0.0336715897166330 H
  -0.2679248865736384   -0.0761045333885273   -0.1207662013135125 H
   0.1436323806132630    0.2977820583399038    0.1886033046786836 Cl
   0.8017614866069179    0.1402185511587689    1.0788643230759407 Cl
   0.6707070221867349    0.5092539303152296    0.1278365683858264 Cl
   0.1483788535454832    0.0622225573509853    1.1091617411003143 O
   0.5724503440266427    0.1225854342537068    0.1501780292788719 O
   0.5252565919804977    0.3021104903890512    0.0202782832291526 O
   0.5524290171344132    1.2465977217917030    0.3315383576560832 O
  -0.1264493195194129    0.2783668795614500    1.2685912591676316 O
   0.2819523735817953    0.5947452302815405    1.0584591274325224 O
   0.1457668233214404    0.5369748045125137    0.3141947371936409 O
   0.3595297507013439    0.4022841369537917    1.1331879835525298 O
   0.4740053326864174    0.4312571420081713    0.3158930479386899 O
  -0.2111261423406952    0.4807457073366121    0.3191925776242442 O
   0.9510040093684130    0.6538106898685024    0.3040502352877651 O
   1.2538707812848839    0.9294256662960805    0.2338035188660312 O
   0.2646948559743910    0.7119410238090167    1.2527064032767332 O
   0.4744280890232567    0.9473336799502258    0.1341857357354049 O
   0.6051583342978939   -0.1916406179309322    1.2422491384267129 O
   0.4672912945474038    0.6679209969890711    0.3118008671275176 O
  -0.0347928054700091    0.9783191516676910    0.2034511882636781 O
   0.9596577997973228    0.7711351922784974    0.1253066106264494 O
   0.7420225197305435    0.7329920765942977    0.0990023716059922 O
   1.2174040739586518    0.2164571125706798    0.5453066570547953 O
   1.0069159188797159    0.2090873372975719    0.6401494334045906 O
   0.5197702954588087    0.0825528403941616    0.4926956323435978 O
   0.6304100788763571    0.2520649810689709    0.6136561041156124 O
   0.8452990320632180    0.1733753893942811    0.4883153594566487 O
   0.2180692820877197    0.4502790436455957    0.5245695984401092 O
   0.4231196145858448    0.5436207909462726    0.5367864532888657 O
   0.6632706428631593    0.5276680400074268    0.4846943126478517 O
   0.3074862206030742   -0.0061352068542619    0.4459419492835531 O
   0.2655618243268189    0.8742556366534963    0.6191457702446412 O
   0.4353000828773351    0.7285214291749599    0.6298600896263629 O
   0.6140505211573520    0.8429603102188565    0.5944128267888629 O
   0.6638801430705950    0.9376090088265906    0.4138292328480002 O
   0.8691784078564905   -0.0175058421255144    0.4002976594655882 O
   0.7596114083764102    0.6896735926340065    0.5760712299092270 O
   0.9139095247750698   -0.2199057241314588    0.4688007025778553 O
   0.1212008658081882    0.0794287897956938   -0.1154245603946893 O
   0.1035182078996392    0.3020723544238605    0.8072690998924363 O
   0.2988181263883316    1.0108697869565255   -0.2089947974373930 O
   0.6008751450957063    0.0172678100792223    0.7328227650069614 O
   1.4163300021559866    0.2009079672634359    0.7013443286387955 O
   0.9609610336176544    0.0092825282729289    0.7517302001901257 O
   0.0229936080228036    0.4241487569964749    0.9884575280255377 O
   0.0660179725815025   -0.3571499123594098   -0.0116681197202240 O
   0.2125742443635773    0.5061402876572618    0.7255130254599723 O
   1.0630344386308277    0.6349993305389018    0.7620219314717438 O
   0.3750453850562073    0.5642253351391121    0.8700453182055599 O
   0.4906612966340710    0.3734096498094882    0.8143456599416280 O
   0.8121770266575811    0.3675224101831698   -0.0277466817195313 O
   0.7070473794047764    0.4186277815358424   -0.2176184596835740 O
  -0.1700122939283047    0.6181265494398298    0.7708843440569665 O
   0.0747009268404160    0.8187201373445010    0.6709617563268304 O
   0.4945614622378441   -0.2780169900893778    0.8306674289529724 O
   0.4720226690390226   -0.0655655005082151   -0.1145571008295050 O
  -0.2900862187574250    0.7599105065240269   -0.1126025313872181 O
  -0.2372106851165411   -0.0090147105759442   -0.1432397707274942 O
