Li1 Co1 H90 C51 N3 Cl6 O45
1.0
  15.2053530463000008    0.0000000000000000    0.0000000000000000
   0.0000000000000000   14.8112551051000008    0.0000000000000000
   0.0000000000000000    0.0000000000000000   14.8599911201000001
Li Co H C N Cl O
1 1 90 51 3 6 45
direct
   0.9294863447211507    0.7641735269688734    0.4361691409716255 Li
   0.2264701130394298    0.0998375250447768    0.3165993521581822 Co
   0.2599977791480476    0.1504672653793274    1.0184234593000321 H
   0.0748590328507353    0.0995046700662475    0.1631806871284107 H
   0.1216425569053181    0.2852154677320628    0.1131941162081045 H
   0.4979678998668486    0.0992832168553802    0.2475972920820454 H
   0.4207530074256833    0.0064821685818470    1.0444012675557750 H
   0.4896139537523972    0.1170453847562904    0.9678460401127895 H
  -0.0358993293439397    0.1372145060009267    0.1865440927451473 H
  -0.0071772076891405    0.3287634314544556    0.2628826309603953 H
   0.1866643947402891    0.3042374883508953    0.2002971292273538 H
   0.2085047294558851    0.5948367636626779    0.0744228951929924 H
   0.2423191366869697    0.6140653839233561    0.1880138109854536 H
   0.0433523655250086    0.6363470877801997    0.1607190436654802 H
   0.5412749048403528    0.5471464096050545    0.2881504791687375 H
   0.4405832605662621    0.6412831988309657    0.0613212722898227 H
   0.6523398695838672    0.6728227271616303    1.0863824501122152 H
   0.2496481345511210   -0.0073289499593199    1.0188844286199084 H
   0.2735009184289841   -0.1922525084669909    0.2460488389360084 H
   0.2170826295942669    0.8472130797463081    0.1309242748515793 H
   0.0374366857163186    0.7567467424580778    0.1723159550369077 H
   0.5547632467009784   -0.0044446569202182    1.0157606044113452 H
   0.5369499805982286   -0.0515129165007282   -0.7105620960982744 H
   0.3919453895646440   -0.1037995049434144    1.0156670646515455 H
   0.6638548932381589    0.7371319294028381    0.3491040822146259 H
   0.5413105501817236   -0.1191061078201643    0.9651926064948739 H
   0.5446656186135227    0.7282987819705891    0.3536390781951312 H
   0.2498585867510967    0.2207138442558024    0.5165458377237809 H
   0.1220582000002700    0.2829550245918679    0.5495889261100071 H
   0.3037152777142354    0.2163003087697050    0.6240268575367491 H
   0.3525520260448305    0.2733562431927786    0.5320156316248726 H
   0.1069049839388996    0.3559434372772831    0.6490450420696547 H
   0.1488566570146669    0.2511042464739783    0.6665780269748467 H
   0.5402197501227248    0.0633483824187812    0.3990105723333769 H
   0.4618829304268583    0.0794253453979691    0.4771145221015642 H
  -0.1139034372649074    0.0511650800099350    0.5880423138261738 H
  -0.2929344661210518    0.1478820692073423    0.4455764144262451 H
  -0.1474416259835239    0.2325831962285104    0.4495221099200124 H
  -0.0734571550820907    0.1462535779127933    0.4981456921388918 H
  -0.0897205064983326    0.2501360638386619    0.5578740589209863 H
  -0.2989520837141050    0.2609778188999670    0.5543653085066287 H
  -0.1779815285156126    0.3560264822313583    0.6024110976480690 H
   0.1991317145994704    0.3889480676432590    0.4685689584485528 H
   0.1327833702415281    0.6197806321855276    0.3824338464114612 H
   0.2138318007677683    0.4717729188321089    0.5541093864156084 H
   0.3012970504038904    0.5911740085743992    0.5290094387113671 H
   0.5554649732552721    0.5980984723873736    0.6015887552993263 H
   0.3903551601285781    0.4256870202937087    0.5451126784822392 H
   0.3555529428838580    0.3850510312617760    0.4359309847054880 H
   0.4058062975855390    0.5300602816432951    0.4363549418901917 H
   0.7079183226080566    0.5168132543922124    0.4701351774194726 H
   0.8713331405628844    0.6458992829855393    0.5449653701842524 H
   0.7062090561463796    0.5433253289742501    0.3523813385471769 H
   1.0478558422605695    0.8715351238569358    0.5364462533841915 H
   0.3335034712945362   -0.0427364826956524    0.4663360499809885 H
   1.2361059928018963    0.7739282708426894    0.6568095150809430 H
   0.3738708339023619   -0.1592843368613407    0.4495181395273302 H
   0.6032722814964239    0.7531103186967009    0.5012966361483175 H
   0.5934467944100615   -0.0575461661724073    0.5994393596676696 H
  -0.0320625226731339    0.0091477090589944    0.3928349293428593 H
  -0.2056888759686543    0.0703309101833856    0.4558421675324942 H
  -0.2990112733953482    0.0610251491913587    0.5369563479016604 H
   0.6817775287185837    0.6748090544371540    0.6055739528355413 H
   0.2850678974701446    0.1105786809340721    0.8809563515817164 H
   0.2757632795787220    0.3101606865793690    0.7352315000324493 H
   0.5343605635764659    0.0846139671221022    0.8578755840881157 H
   0.4174883676735613    0.1205076166627777    0.8638069469864945 H
   0.3758188320783863   -0.0415819552853378    0.7989011208520904 H
  -0.1352005422393163    0.1287621500654129    0.6825504456715816 H
  -0.2492130215761145    0.3454966521195065    0.7032476316600703 H
  -0.2977682900892421    0.1974551806546751    0.6548720980416382 H
  -0.1093609580610583    0.3215911831037118    0.7392066033499810 H
   0.2442053145292513    0.4331171806156456    0.7050592074397884 H
   0.3450290175588266    0.3860820039843201    0.6696022548923999 H
   0.5552562309794213    0.5623214233635176    0.8527066711742913 H
   0.9523026515141337    0.6179144837866329    0.6934979623077090 H
   0.9949613124491942    0.3475504956178557    0.9034738616727823 H
   0.6696975724399823    0.5335732857493471    0.8914126162419174 H
   0.8615069958133972    0.4802983948369425    0.8134946692766699 H
   1.1644864784976894    0.6928534401494745    0.7141177592862914 H
   0.9931053871106590    0.8738941406824556    0.6820766903413730 H
   1.1606128426918878    1.0224548119008146    0.7334710682940605 H
   0.2711504304205062   -0.0393816015834576    0.9069758826080175 H
   1.0195907964775921    0.7967791364579512    0.7693573616094507 H
   0.1445134497376699    0.8452584850955123   -0.0587306164079408 H
   0.6062265042535818    0.7887075720191729    0.7989892770285923 H
   0.5942392784755948   -0.0302419304995811    0.9067955325675404 H
   0.4184899886128203   -0.1361748841126575    0.8526743696745045 H
   0.4927581096200331   -0.0735758677956173    0.7898553550159197 H
   0.7695485917077952    0.7005658182828215    0.9081824782146426 H
   0.7775516942749936    0.7472674647733896    0.8025444608488935 H
  -0.2192433129733347    0.0459406746877044    0.6499972633654576 H
   0.1469001092180185    0.2522223151239672    0.1729572743972612 C
   0.0654702340793225    0.2253711133062996    0.2354021300166470 C
   0.2059207710380593    0.1828163132216686    0.1327614226519621 C
   0.0348836374653642    0.0603162288516918    0.2935246411957915 C
   0.0331723980143123    0.1279668089605296    0.2143442439472040 C
   0.0927842989836597    0.2500388404777932    0.3369156496283497 C
   0.2985059281017136   -0.0006840033088426    0.9616751077576575 C
   0.3934764293194667   -0.0328932925699352    0.9902538596941621 C
   0.4127801573622314    0.1069699388240537    0.3498248094286222 C
   0.2300241245665183    0.6448980174010385    0.1219410931712458 C
   0.6117054957473224    0.6478288966338898    0.2511666078085034 C
   0.0773713059879444    0.6977888760380122    0.1820124615042030 C
   0.0802321405813631    0.6895404190954313    0.2822736250512492 C
   0.1632081817267551    0.7220353019790753    0.1329323514216681 C
   0.1341716970982423    0.7457706301133500    0.0328670157170803 C
   0.3140570303536629    0.6805107994547601    0.0722923421028781 C
   0.6082317191214747    0.6896160372649958    0.3481067734087037 C
   0.5425047348839602   -0.0460643573187172    0.9542491275462199 C
   0.2899826140027006    0.2565386272491960    0.5648161895835317 C
   0.1495728521577090    0.3048755166565955    0.6132018174206473 C
   0.4732434032467928    0.0511866852012392    0.4132286158229331 C
  -0.1161901319502676    0.2014298606924073    0.5096483235078162 C
  -0.2549149608692042    0.1046818140325004    0.4971994600795078 C
  -0.2549478440254505    0.2326493621268793    0.6059158103749532 C
   0.3373488275859659    0.4313901156357715    0.4890559828040527 C
   1.2045381628055516    0.6607643297650110    0.5809507887271137 C
   0.2422599470057265    0.4137974134541531    0.5230936209097607 C
   0.6284272383616362    0.6341784667030472    0.4344429622819691 C
   0.5546676224826144    0.5710086682382410    0.4642122936647878 C
   0.7107712652439763    0.5735999408702805    0.4209798317603505 C
   0.7948133783148699    0.6298223200063515    0.4384531934805191 C
   1.0891932579776578    0.7820693769909780    0.6353364201496553 C
   1.1771728001774704    0.7312357376634946    0.6528956500234242 C
   0.3148633253448195   -0.1051187719374231    0.3329795772897274 C
   1.0172376778166148    0.7111719417264660    0.6167260456369861 C
   0.3674704563706030   -0.0929692276399896    0.4170294256311976 C
   0.5228486967051739   -0.0964658928201178    0.4899685136319922 C
   0.4648755607105117   -0.0522231871648515    0.4084089628755552 C
   0.4738344450971618    0.0883266842152718    0.8991003731912116 C
  -0.1626645543361362    0.0902562978636222    0.6250302228738813 C
  -0.2032949821939315    0.3088893561035664    0.6535578307690566 C
   0.2793804267658032    0.3666049240236443    0.6872435844114606 C
   0.6197026793463964    0.5865275421195540    0.8850613338463081 C
   0.5979458678476656    0.6234096291623935    0.9764765970871153 C
   0.8154850456574761    0.6115672836788157    0.7969085220839829 C
   1.0452909560733663    0.8354517537301208    0.7121083368203782 C
   1.1063674728219191    0.9063053034497962    0.7564078249344445 C
   0.6377167300011855    0.6440648672113728    0.7258263800111489 C
   0.4357450960214473   -0.0696470987894064    0.8339489210688441 C
   0.7537291629008771    0.6823816739892524    0.8378836475116421 C
   0.6557136814147265    0.6616690471508716    0.8262382838905341 C
   0.2412451728039690    0.3374885529301840    0.5977186318561022 N
  -0.2002631551880325    0.1596440703857579    0.5605698882573722 N
   0.4577459663058372   -0.0173659116445462    0.9177612187972979 N
   0.6068091937822644    0.0496797231077759    0.2289949929443229 Cl
   0.9337585243806560    0.9293789726003819    0.4828251715436905 Cl
   1.2555333615121469    1.1311410770807113    0.7546655627896859 Cl
   0.0087908529840105    1.2912814556758572    0.9690385038132577 Cl
   0.9675729316117405    0.4299898291743723   -0.2113626053283176 Cl
   0.6369979042056436    1.9132679068327121    0.7170417179649227 Cl
   0.2444979746198424    0.1202996666964754    0.1745689846470476 O
   0.2183039100172504    0.1970197010174512    0.0493670255770020 O
   0.1057856413002792    0.0210521694675716    0.3100710844616570 O
   0.4348289712884285    0.1299821682118682    0.2689263761601163 O
  -0.0407568291846272    0.0474199551298092    0.3371606026684008 O
  -0.0086247242270979    0.2797459785209759    0.2144869089045964 O
   0.1339520376145178    0.6269717850786625    0.3171780873626984 O
   0.5512690167519455    0.5823489630888891    0.2314714412613224 O
   0.3784238357162097    0.6287643407946772    0.0915063508928160 O
   0.6609480222259955    0.6796364643691710    0.1934108532415233 O
   0.6652294091692497    0.6645641427856255    1.0168258809564026 O
   0.3143516634336288   -0.1882015350974660    0.3029553332377566 O
   0.0217593121443839    0.7334023332539622    0.3233597868844261 O
   0.2744472956657494   -0.0412173676820806    0.2987480628905063 O
   0.1990435877407306    0.8009914736000289    0.1747749067081894 O
   0.3170868843701871    0.7528598335100186    0.0324841083550225 O
   0.5027682218177921   -0.0919220510239674    0.3282507723105003 O
   0.5267152297492261    0.6179151589488613    1.0174120185879532 O
   0.1542534406177920    0.1984004077742310    0.3647158008304064 O
   0.0566772780990906    0.3132677831537946    0.3776000615579264 O
   0.3383313762946021    0.1282064915515598    0.3800105609795276 O
   0.3440326579245669    0.5201675346100241    0.4528367148616921 O
   1.0139414702344964    0.6455259182733148    0.6736042761264207 O
   1.1508827167586397    0.6234447375982628    0.5298629385484460 O
   1.2911195132017761    0.6461436917121673    0.5731701649659319 O
   0.5118769685583818    0.5235463164650991    0.4056687189769622 O
   0.5298771425212351    0.5619048482686848    0.5458484124346782 O
   0.8269231227261518    0.6026814735927628    0.5187701324580686 O
   0.8261168277349952    0.6947979073668463    0.3935926686920282 O
   1.1016632084893390    0.8388066348423157    0.5595382591079265 O
   0.5618052403774130   -0.0332362749818883    0.5396914773961204 O
   0.5324764902561840   -0.1786614928122348    0.4986344542075430 O
   0.6463143600333149    0.6951240107230930    0.5056796804902419 O
   0.6934826170159782    0.6869450954900224    0.6715874512334730 O
   0.9633717795697270    0.7153262149169138    0.5500365710612212 O
   0.2991379423647654    0.0980476699776751    0.9464442776601979 O
  -0.1329112169014564    0.2747808354943949    0.7005854497192958 O
   0.5641967665648860    0.6143158691100384    0.7034878740647358 O
   0.8629979181175995    0.6242549322721678    0.7311823724445726 O
   0.8049538860380706    0.5294724854073771    0.8319334420717209 O
   0.1477853237841660    0.8384420472390585    0.0085776337731178 O
   0.0992103253772906    0.6954703689461875   -0.0180549528012231 O
   1.1076683304830186    0.9843121969778245    0.7106884167255768 O
   1.1476029507546444    0.8954135863836002    0.8262443404217441 O
   0.6038668089613550    0.7386800763922249    0.8425613084495399 O
