Li1 Co1 H90 C51 N3 Cl6 O45
1.0
  11.9651747347999997    0.0000000000000000    0.0000000000000000
   0.0000000000000000   13.6463906724000008    0.0000000000000000
   0.0000000000000000    0.0000000000000000   13.6341464474999992
Li Co H C N Cl O
1 1 90 51 3 6 45
direct
   0.2087259419736126    0.3859671734924528    0.5472370604518549 Li
   1.1046359673259654    0.6215181024645513    0.7363905956533845 Co
   0.0783066180115974    0.2641019829140034    1.0556118990741097 H
   0.2724400135937077    1.0089443550848110    0.0546332127624009 H
   0.3598720840136543    1.0205305688900321    0.2024943207358783 H
   0.2322650883916618    0.2951732024165760    1.0932424175649886 H
   0.5279959137601010    1.0947333397404957    0.1559853586646756 H
   0.5521401495446217    0.9995448000611207    0.0677312090827166 H
  -0.0371802035875104    0.2620032594722126    0.2131521202952078 H
   0.6767241220347582    0.2378005227978189    1.1165141347364129 H
   0.7172425441009198    1.0811216819432670    0.2008631221796915 H
   0.7436926383966209    0.9654639935559521    0.1294123713937025 H
   0.7527923801399092    0.2720059043676188    0.9454473203244506 H
   0.0984258394467722    0.4321821775283209    1.0715996985919864 H
   0.3766549563453017    0.4159904968631257    0.2371932292316681 H
   0.3533431363190760    0.5786012599045252    0.2181131936018836 H
   0.5333879787679238    0.7136479579099757    1.0116590192728310 H
   0.6547932262629810    0.3602753983984645    0.9883352269676434 H
   0.5770528989700885    0.4346912658888976    0.2937812967700998 H
   0.5840242639395775    0.5715980894476447    0.1990060202263351 H
  -0.1759286996852358    0.4822436931627588    1.0668065859280114 H
   0.7760640837440484    0.6539112832412126    0.0652616742182019 H
   0.3806599124836041    0.9080883827592037    0.1414703319439315 H
   1.0206371940295886    0.6859915607672998    0.1010497598074887 H
   1.1768814647097903    0.7494764792924733    0.2173019950393195 H
   1.1251212511126796    0.7815963277214434    0.0854455559932477 H
   0.4730421822372667    0.9580759594288104    0.3174256078563367 H
   0.5134434309205840    0.8220832237266588    0.2063222097937642 H
   0.6102745283077602    0.8420394162861163    0.1150227650655430 H
   0.6643991871074735    0.8174614888288326    0.2457834259448239 H
   0.5941169707053863    0.7589280627255098    0.8879072313265176 H
   0.7789357509584074    0.9719734070801934    0.2567038015307339 H
   0.6048866420939047    0.9504380423779080    0.3672336396693234 H
   0.9350137056387086    0.9398770080751538    0.1193853410602366 H
   0.1991464746828730    0.1861495026181338    0.3129684164777636 H
   0.1026857020170828    0.0183432265871058    0.5359161464075216 H
   0.3807911266141788    0.0543527482105679    0.4594358178431178 H
   0.4011410174763510    0.1502953334282120    0.5425423037799595 H
  -0.0566425186110187    0.1373585793634867    0.4040243549466979 H
  -0.1876401876581143    0.2851119339613433    0.5313280337419524 H
  -0.2998616996511395    0.2985308668056420    0.4481358071975485 H
   0.2922951352501463    0.6132778283364310    0.3877967164324755 H
   0.2981295673873521    0.4789960945072672    0.3963099006238689 H
  -0.1851989362223919    0.4112998792825034    0.4030730669397851 H
   0.5481336054646114    0.4443192329575622    0.4268683959139350 H
  -0.2816588731293886    0.6171337929840226    0.6568051222115202 H
   0.8888163025709263    0.6175426923138129    0.5327573128006040 H
   0.4770220656117651    0.6605100976941894    0.4933355637333161 H
   0.0247929824657892    0.3697584919949078    0.5958156056912195 H
  -0.0736284803294789    0.4035315248109868    0.3128107241712977 H
   0.3756904906976386   -0.1056998292389002    0.5526452464563055 H
   0.1744071786374026   -0.0674340333566134    0.6179768756440887 H
   1.1458422188791519    0.8559449246769755    0.3494437471422063 H
   0.6919148738648473    0.6508841091706689    0.4931311431624551 H
   0.9624441449991485    0.7138993064227320    0.5931297023131819 H
  -0.0900711988321844   -0.2229601391929736    0.3437895611396689 H
   0.8103293585174765    1.0164540330985929    0.4876693417738060 H
   0.7418021520057945    0.7704673776828697    0.7022975189954590 H
   0.5556973896972629    1.0661785365434779    0.3261749637811349 H
   0.6938546700244884    0.8646549200782060    0.6222206323194918 H
   0.1848992945306101    0.1108922404852901    0.7037270180898870 H
   0.1800869953978167    0.2685947459802111    0.8141937793058901 H
   1.0471725357222237    1.0493154695593689   -0.0803998094432233 H
   0.0320498760694789    0.2990738675285355    0.8169229563866324 H
   0.4498841418290392    0.3391687184774108    0.7411595043819483 H
   0.4887918059725485   -0.0146259306648516    0.7827616686380030 H
   0.5449168534444293    0.2803267858905006    0.6544294692782969 H
   0.5035459574089295    0.3206444063667169    0.9242102006327303 H
   0.4753229679846430    0.2023684432386484    0.7446008639258458 H
   0.5405200935837486    0.1954545271516039    0.9108679646005394 H
   0.6961036969377130    0.1450661118916832    0.8015241192970911 H
   0.7774648154819023    0.2473583614330411    0.7946795397438833 H
   0.7005181748848153    0.2028572171687023    0.6821437087765301 H
   0.1052172154024998    0.5063754733459275    0.9548956565658161 H
   0.4033683146609454    0.6145184494212604    1.0307735271742615 H
   0.4121880772084218    0.5201762873868814    0.9327791272208279 H
   0.3019071971338312    0.6011852535332081    0.9401334563228442 H
   0.5160520848426382    0.5759595357398409    0.7772314361228736 H
   0.6891317970825962    0.4017391094692899    0.7043724563675149 H
   0.5929036160890283    0.4386156735425868    0.7860702732634339 H
   0.7236929304689121    0.4066019337569027    0.8406604159515723 H
   0.6050896479048384    0.6405436460117623    0.9321080181026127 H
   0.3743039668592739    0.6061294180100802    0.7581624022819123 H
   0.3537016768414740    0.7843846107856940    0.9765237064870541 H
   0.4127781229166108    0.8166598116482046    0.8564729203008660 H
   0.2157070351754576    0.8295877721789559    0.8565447986545107 H
   0.2703205292934708    0.7507273595002725    0.7630750677177660 H
   0.1078164252501878    0.7316365972427543    0.8930876069570692 H
   0.9126228918028855    1.0065906191577749    0.7081673400589311 H
   0.9525729978894885    0.8134487061587049   -0.1274067858218229 H
   0.9014028300005666    0.9586057698507429   -0.0028672697957684 H
   0.4698579412341505    0.6977946817438792    0.7415386993700547 H
   0.4017820444709416    0.9874031280265431    0.1407559491230117 C
   0.5241790869262083    1.0161257411635642    0.1437616378295103 C
  -0.1884976761802133    0.2527773767445084    0.2777898299892821 C
   0.7177297914775120    1.0000431003196464    0.2002792939194737 C
   0.6717354777965427    0.2840178717760802    0.9692471233593885 C
   0.4473609860315569    0.5296507340082502    0.3269333537573475 C
   0.0780675909966653    0.4357494944232166    0.9889285901115080 C
   0.4567549148701464    0.3408197044810262    0.3368870388319922 C
   0.5154960545173434    0.4390927227606753    0.3511864304918015 C
   0.5244912428355688    0.6200407887569220    0.3272912786203956 C
  -0.0506668432377167    0.4333683519819615    0.9892718459227919 C
   1.0363845612161282    0.7666517167326586    0.1057101175529969 C
   0.5503155209467204    0.7017334521697259    0.9326192345565973 C
   1.0239501418868990    0.7974693893389814    0.2137682204693071 C
   0.5574913459474438    0.9881351897298770    0.3127205095029474 C
   0.5982771272516361    0.8555125759232547    0.1960194012871300 C
   0.8453284295115699    0.7790571947864557    0.0295021932798555 C
   0.9658607269468491    0.9312410249182044    0.0450997960208026 C
   0.9665669431273303    0.8234682053275612    0.0303192594631253 C
   0.3567513606788418   -0.0136535123662286    0.6535302564051471 C
   0.1837200388730256   -0.0189113128881729    0.5517075273222747 C
   0.2710401176146475    0.0503311720064662    0.5904878060904371 C
   0.3365243263593095    0.1059400152689417    0.5089261913401493 C
   0.2634071325538968    0.1718922528683153    0.4498283223901098 C
  -0.1394294416568657    0.2660233700873187    0.3817648023470081 C
  -0.2255326555951969    0.2507204225890941    0.4628804779236622 C
  -0.2589337557761781    0.1489330684567424    0.4897411252997326 C
   0.3746758795223674    0.5446015737502666    0.5117573916759119 C
   0.3509670740692442    0.5470639098218816    0.4033451778500123 C
  -0.0073795522887929    0.3903148432480897    0.4561173849530049 C
  -0.1025240048548697    0.3762144115208073    0.3850682728043215 C
   0.8825857207656164    0.6755704902136318    0.5853096308176501 C
   0.8716573387822181    0.6215532766004472    0.6864578769004015 C
   0.2134153845637661   -0.0821119071481874    0.4637735297950709 C
   0.7932957585477886    0.7468376863057804    0.5577158975796604 C
   0.8267578691206928    0.7993167642680157    0.4620284260519346 C
   0.7662673191670070    0.8185548182195980    0.6407278414778814 C
   0.1197452105093682    0.3294056973827957    0.8361709526591177 C
   0.5129018592224162    0.2760604563241230    0.7289453184304299 C
   0.5728289071671936    0.2682166240193298    0.8970350487868340 C
   0.7010279877488312    0.2139986247137393    0.7612414362472324 C
   0.2553378814029553    0.3552169179799305    0.9689185365998689 C
   0.1260886197517965    0.3456070509353623    0.9483583936470696 C
   0.1300693388850885    0.4135898620882282    0.7662912573170819 C
   0.3857647271941118    0.5959919389270730    0.9535681073811498 C
   0.6668914198295975    0.3903133776590941    0.7798351928110314 C
   1.0819133572491353    0.9797329680177359    0.0431708157138012 C
   0.3636714434887636    0.7618116090744785    0.8976606838445800 C
   0.2586382928783637    0.7560804233069349    0.8410132066465029 C
   0.8610398590699901    0.8830942280271515    0.6853775012379630 C
   0.4497362125225952    0.6367433737460058    0.7872371963312815 C
   0.6032370213873561    0.9653665318877406    0.2144980057945795 N
   0.6130264312870150    0.2913384888094214    0.7892864628627498 N
   0.4397890113627294    0.6721395463747826    0.8924135640285010 N
   0.1200795140267557    0.2646830889507841    0.2132232651962645 Cl
   1.3121849630608371    0.7153817496918460    0.1635567897328030 Cl
   0.6401012552808339    0.5247000476603474    0.0765744469388061 Cl
   0.1650341437686498   -0.2797399880629846   -0.3795897892272512 Cl
   0.0187094942081297    0.0805039854546968   -0.2033609354994425 Cl
   0.5833971941168379   -0.0460195797464703    0.8325344947267556 Cl
   0.3511342258279379    1.0351131793968880    0.0584442324107580 O
   0.0892918315929515    0.2577691728637396    0.9806383755069314 O
  -0.1231037293852459    0.2613759873820685    0.2002330864064162 O
  -0.2876429060906254    0.2359626741972564    0.2588579517823167 O
   0.6450460221823923    0.2227188792379395    1.0484908078951454 O
   0.3934512008176444    0.3409376843951771    0.2551496154963096 O
   0.2908626446781408    0.3304191521732972    1.0569350475432469 O
   0.3938272922747054    0.5160815782918959    0.2342425494692854 O
  -0.0891518641593687    0.4737445227385545    1.0694125429739338 O
   1.1519349004835395    0.9448131118125499    0.0997214771702341 O
   1.1088364910219397    0.7695367286706229    0.2671481663868933 O
   0.5859557025112840    0.6276090903305305    0.2476390609930039 O
   0.9418677635039464    0.8328164647364035    0.2582792576902164 O
   0.7635644752289289    0.8122007571288971   -0.0108024933476497 O
   0.8402829536753987    0.6937445265543619    0.0855585076918326 O
   0.2412595245269731    0.1368353640920347    0.3601066808696534 O
   0.2305918992871372    0.1260757424803681    0.6488889684269326 O
   0.2268878163144834    0.2482604314598722    0.4840652291005840 O
   0.4733990512420778    0.2739404818418952    0.3961192029509334 O
  -0.0357243117692877    0.2133566967336385    0.4006167342218583 O
  -0.3404628618378545    0.1285408631710748    0.5404564379643393 O
  -0.1736454066614790    0.0847944972395029    0.4758713168208398 O
   0.0883942266487660    0.4137371537822924    0.4300710899856278 O
   0.3306623141819193    0.4860963602351103    0.5689743948087368 O
   0.4428871692101183    0.6140260115187174    0.5474400801282724 O
  -0.0363528023819763    0.3743714333587599    0.5472995506123707 O
   0.7682204874673436    0.5966661098650784    0.7106566781433277 O
   0.3124636664541358   -0.1100606892954981    0.4538182311247321 O
   0.4055638530113879   -0.0882966927098891    0.6180758917434974 O
   0.1284446237905851   -0.1094766520807260    0.4108065910299077 O
   0.5196380750977748    0.6826016534203294    0.3917602942191810 O
   0.6886010902487434    0.6945747827204056    0.5499893412891259 O
   0.8026487352054981    0.8870520511099419    0.4439138340640155 O
   0.8708759043103248    0.7348059334458775    0.4027151420767369 O
   0.8475248036208061    0.9780900427535967    0.6733400773602040 O
   1.0997860590474660    1.0486669464287877   -0.0197491480186772 O
   0.3752951767883279    0.0140395245013387    0.7414059444515879 O
   0.3200832793741910    0.3872158553167584    0.9068493778697180 O
   0.1245265865668033    0.4005761646012305    0.6755961775215485 O
   0.1467937081011930    0.4974701002756849    0.8051055682853374 O
  -0.1135526778934842    0.3919174648148482    0.9285185011358961 O
   0.9462479753405164    0.6001322278398236    0.7475596116666987 O
   0.1793172615490319    0.6891315851905099    0.8816912206414087 O
   1.0022329496386120    0.8026539104111425   -0.0717428685445400 O
   0.9228241636359660    0.8493790859764012    0.7464227601549680 O
