Li1 Co1 H90 C51 N3 Cl6 O45
1.0
  12.2068875431000006    0.0000000000000000    0.0000000000000000
   0.0000000000000000   13.9220663299999998    0.0000000000000000
   0.0000000000000000    0.0000000000000000   13.9095747550999995
Li Co H C N Cl O
1 1 90 51 3 6 45
direct
   0.1887408861157496    0.4133895449555727    0.5499214398840914 Li
   1.1203698504890833    0.6274080627081742    0.7463090396558545 Co
   0.0777371601277990    0.2645574714051804    1.0536872359901726 H
   0.1858687371034637    0.3623511442500073    1.0972500343264646 H
   0.3990041486335416    1.2243366940631433    0.1560645394068622 H
   0.3288290120989047    1.0675122724400925    0.1966746953566613 H
   0.4471736757078178    1.1067212509825759    0.2461909467249835 H
   0.6183346692553507    1.0548453309229420    0.2563472600909405 H
   0.5834093864185326    0.2673401043191266    1.0191017070671107 H
   0.5123514695713918    1.0054733495153516    0.0583361743106119 H
   0.7058407592581044    0.1994450104735279    1.1350879991288771 H
  -0.0318788247230117    0.2883980416289254    0.2044463204353047 H
   0.0604985315865747    0.4693274338824386    1.0618787157446650 H
   0.4222574143818976    0.4035447419822773    0.2237244079916250 H
   0.4135852610892397    0.5692297735949661    0.2094939226256058 H
   0.6232472237282473    0.4289387454024578    0.2921542497918575 H
   0.6648507855048988    0.6020950099150978    0.2278072071425608 H
   0.7169238465334085    0.3191944758533556    1.0146580054379624 H
  -0.1988501343876200    0.5246017718836712    1.0653583332636876 H
   1.1193122508385240    1.0061679303175681    0.2698473133496607 H
   1.1877039679779107    0.6986582619593078    0.2279416469103412 H
   1.1724396346790165    0.8214625899573630    0.1138806473518688 H
   1.0963686463356455    0.7178838563255143    0.0672508968800085 H
   0.5440309618772406    0.8658963676263421    0.3249194498805875 H
   0.4893923820062394    0.9807219949511619    0.3210839623880285 H
   0.4018263258575362    0.8880755465413732    0.2654388392532462 H
   0.5010118877565135    0.7954104227429003    0.1447672853378704 H
   0.6043358510146936    0.8606442737010003    0.0665664762440355 H
   0.3958559259711871    0.9496784709687560    0.1066345595472761 H
   0.6432377413060008    0.8111164246263147    0.1837454719140783 H
   0.9496056001721978    0.9972224191378349    0.0329723507421994 H
   0.6814594418297947    1.0214063291996971    0.1491843865851585 H
  -0.0851897115237872   -0.2117856117842530    0.3136595801320480 H
   0.8384724390604762    0.7025075468807941    0.0417734824917602 H
   0.6994673082268481    0.9449270211169867    0.2476173023360870 H
   0.9541890781310511    0.9668799405152669    0.1540651971919032 H
   0.1956230663360047    0.2379507888036330    0.3416446197075588 H
   0.0535647411587401    0.1012649007397740    0.4958092392415787 H
   0.3450780353900318    0.1503768632741459    0.5917751996323213 H
   0.3340187051944072    0.0778948066540350    0.4745820410562610 H
  -0.2571205163739000    0.2797455903946983    0.4556172628625006 H
  -0.0037660073657339    0.1511131045588116    0.3612404739877237 H
   0.7903774600638148    0.9984269817079661    0.4020706222847999 H
  -0.1419633974902593    0.2274667129099937    0.5171372600634394 H
   0.3594903906590410    0.5829814678809966    0.3834697660720580 H
   0.3429620168792690    0.4649696037613980    0.3757657203419245 H
   0.5950016124876576    0.4211671260583629    0.4200690157948681 H
   0.9209578389173093    0.6646862933743831    0.5292292904066626 H
  -0.1875917362484742    0.4056399769358088    0.3941667142260945 H
  -0.2519594956159419    0.6526794550188011    0.6512155502222525 H
  -0.0147131058401140    0.3651294674588725    0.6027007672845085 H
  -0.0615194680665740    0.4132595355189634    0.3230221956176329 H
   0.0522204181327386   -0.0218985693483620    0.5475666590531396 H
   0.2460912956716825   -0.0898080288775639    0.5072873543393435 H
   0.6538791107411951    0.7053354316980904    0.4945379926138904 H
   0.5295837901983563    0.5914213069978959    0.5085415263975944 H
   0.9753836700437325    0.7711266711799957    0.5795426186227823 H
   0.6963059782101876    0.8872143238093594    0.5829165535436032 H
   0.1234891995422761    0.0939865271421961    0.7041553426289188 H
   0.1045195810230254    0.2787830895932816    0.8173845410573273 H
   1.1026732837567956    1.0812738790478094   -0.0316629825321237 H
   0.4957449431915706    0.2638765380023872    0.8471970987595645 H
   0.4566224397431018    0.1404918363867614    0.8230144759315972 H
   0.4806162710097425    0.1721150157025577    0.9398325691234273 H
   0.6105849460219723    0.2390382710523977    0.7118737669438415 H
   0.6101021857786922    0.1104926976023106    0.6995908608875397 H
   0.7322111177023382    0.1718679259445821    0.7221810554500867 H
   0.6445897649026568    0.0726211642032882    0.9596340371660799 H
   0.6152612404335045    0.0141607330641126    0.8484911713906059 H
   0.7496660175896103    0.0616249516891937    0.8670970601080241 H
  -0.0211799467708000    0.3433783859152177    0.8324123189499160 H
   0.7834240086045213    0.2167994745504132    0.8887346734282766 H
   0.0647510488492034    0.5235822393183498    0.9540932495175041 H
   0.3019908849478782    0.5557783939246610    0.8422062919791813 H
   0.3872476710307706    0.6338065381850539    0.7590923204628257 H
   0.5427561897500250    0.5463143533952693    1.0077455008004825 H
   0.6804903168208003    0.3076559587832390    0.8612514464619141 H
   0.4171193314939747    0.4832963373045501    0.9771263044915629 H
   0.4516309953814766    0.4483268156502168    0.8300650149830546 H
   0.5886889468119950    0.4765591908367240    0.8562965861435042 H
   0.5164687353217762    0.5358893204612393    0.7425080607667901 H
   0.4163697546696046    0.6065225136016142    1.0201865712894673 H
   0.6326617448004070    0.6425552394994227    0.8870976715500092 H
   1.0409302720890896    0.9222019462250328   -0.0835905225696198 H
   0.1728473998101709    0.7737692386788103    0.8750764557368735 H
   0.3523288599501409    0.7680976667922540    0.8677642264422500 H
   0.3153816857906693    0.6900920048267002    0.9661971421931784 H
   0.5234140766055928    0.7228823959352592    0.9152473459213581 H
   0.5538735199884534    0.6890404367869436    0.7911846027834142 H
   0.3516161475597563   -0.0553512184710299    0.7485226227841748 H
   0.9310767164414838    0.9572455948067589    0.7609248710942282 H
   0.7416361246579427    0.8087216651696559    0.6883252397050845 H
   0.4137540182759284    1.0838288158766443    0.1766632999760842 C
   0.6691459016690219    0.2523653157311168    0.9990867170403364 C
   0.4650406380460825    0.9952435462214896    0.1248924865127921 C
  -0.1635266337427950    0.2313583765981095    0.2707315963142057 C
   0.4976282242424389    0.5153588910533512    0.3356401226995265 C
  -0.0842033831122663    0.4549672092389750    0.9891568663848116 C
   1.1184930411944036    1.0075362616807759    0.0912286248747277 C
   1.0910699983574752    0.7889631039417695    0.1085771063523173 C
   1.0545078527307401    0.7723089669405417    0.2099080258675391 C
   1.0062449357570342    0.9630205996152583    0.0842859252091903 C
   0.6422565739152378    0.9919753532017542    0.2119217466672875 C
   0.4871339029383640    0.9114233738175272    0.2845458216505732 C
   0.5763902998825522    0.8401193032528814    0.1430742069789245 C
   1.0198790418641290    0.8593183211044219    0.0486320674362799 C
   0.9016457907668164    0.8226240554766844    0.0342635476562830 C
   0.1015237313544773    0.0351870658699843    0.5057628936442222 C
   0.1987811195140886    0.0660309068503052    0.5756977850501103 C
   0.2511474575951932    0.2098515116757097    0.4732290881205072 C
   0.2937316133158570    0.1241731380976692    0.5280158816362893 C
  -0.1920334909388947    0.2225514942651476    0.4531899420712866 C
  -0.2506487601853493    0.1273996706349552    0.4404387974013197 C
  -0.1153939711025042    0.2578314583421468    0.3713860034150887 C
   0.4982663066342441    0.3357028011660105    0.3288433656696010 C
   0.5583762238763964    0.4253137806304361    0.3463349140658446 C
   0.5746613087760576    0.5963322159376609    0.3530180802759342 C
   0.3984724815745075    0.5162321809595918    0.4013797312856716 C
   0.4023457047719085    0.5094580428564873    0.5119266047216271 C
  -0.1086559717796144    0.3718339319965012    0.3816321829359791 C
  -0.0436901893719388    0.3950503132676857    0.4692382400192993 C
   0.1421098347531315   -0.0012134215280671    0.4148618113134052 C
   0.2560848341203066   -0.0194887259239197    0.6230198643795777 C
   0.9030097748242768    0.7218013782441158    0.5780148939889139 C
   0.8460583203650305    0.9186916914365829    0.6504599555915722 C
   0.8007076936761724    0.7726099280120294    0.5492232158067206 C
   0.8168453044556990    0.8099118620561837    0.4457319139268990 C
   0.7609743875170476    0.8463267151378383    0.6178903042559774 C
   0.0675429153163655    0.3457379494470488    0.8368840588194035 C
   0.2169208786638453    0.3692531369371805    0.9610783660081701 C
   0.5076284802101447    0.1860590664920356    0.8662408153838184 C
   0.6929414842017854    0.2385203881585012    0.8949706656514176 C
   0.6445028467594157    0.1712703135066876    0.7352224318540267 C
   0.6625291453734617    0.0689801816940489    0.8869833618009338 C
   0.0379227522139062    0.4523801651072870    0.9870295547652274 C
   0.0920995436085169    0.3624926462334991    0.9407599878423404 C
   0.1014721211468977    0.4206018364085757    0.7657395402109419 C
   0.3606200807582829    0.6159320363617317    0.8322311487815701 C
   0.4593962835980933    0.5519807536357284    0.9767848131028160 C
   0.5151191693540523    0.5072840839568101    0.8177749196343582 C
   0.8942860113240393    0.6808361948811372    0.6801682685540865 C
   0.3095800430910091    0.7014236560529302    0.8879877059484700 C
   0.5510803427858606    0.6687711755069623    0.8658763182594084 C
   0.5422542600010725    0.9341103796479326    0.1893581524866009 N
   0.6262193163171158    0.1621840186276429    0.8439554468188056 N
   0.4688958386313128    0.5866044932857319    0.8759406086827134 N
   0.1190916821726381    0.3421063046321516    0.2204338688625824 Cl
   0.6888913117212545    0.6272536316094394    0.1033821236679253 Cl
   1.3023515384629087    0.6731361884698046    0.1629058700496347 Cl
   0.1885409989625843   -0.3134953699793211   -0.3834817898041235 Cl
   0.0142008985491135    0.0471630180058193   -0.1584655650016781 Cl
   0.4471343536449000   -0.0921798032404576    0.8103562888122934 Cl
   1.1603382698160707    1.0601469864567152    0.0184909590716061 O
   0.2509180788948396    0.3652860534101478    1.0552077713316463 O
   0.4097489023258240    1.1633400014838169    0.1156822840259743 O
   0.7071662404622912    0.1796447887631921    1.0655301573519200 O
  -0.2578741892464907    0.2060769283089603    0.2576744034669974 O
  -0.0985084219178957    0.2456091347325164    0.1951405003596378 O
   0.4388120028702814    0.3328418752764267    0.2471212411608545 O
   0.4551454047547529    0.5114513532848539    0.2346737003087146 O
   0.6646156723370363    0.5927695264040592    0.3055385554430234 O
  -0.1226882137737517    0.5019890438203364    1.0693613312690422 O
   1.1762997505221113    1.0030419575655045    0.1668944894702002 O
   1.1142421623510632    0.7165844802436019    0.2639981050573534 O
   0.9113083685192158    0.7275993681463806    0.0377172837226847 O
   0.9678510373660461    0.8145857372164955    0.2417760022654138 O
   0.8192546000190570    0.8696659230038304    0.0209461024243876 O
   0.1503052080329114    0.1290323305764626    0.6475971793600127 O
   0.2391476747281185    0.1892216717372873    0.3773840300599658 O
   0.2344863718530737    0.2909723721306247    0.5074291990782904 O
   0.4992641859017471    0.2638312860990370    0.3774997776675200 O
  -0.3398033457549662    0.1092155883299832    0.4756692777451076 O
   0.9040714705230567    0.9677598386359649    0.5971973639563851 O
  -0.0100509837554252    0.2171593349246742    0.3794883359438871 O
  -0.1866979785267389    0.0645232283561459    0.3907496435509056 O
   0.0386772442961411    0.4455760027254518    0.4684037069581254 O
   0.3191254738642993    0.4823899344976041    0.5530582000488119 O
   0.4871445526637376    0.5521695905466929    0.5595499872953553 O
  -0.0808978721982407    0.3569388729524893    0.5559551254192461 O
   0.2126781919169461   -0.0655077567785155    0.4188295817860261 O
   0.0892249369672986    0.0275423673405239    0.3400636943099698 O
   0.2689054650507899   -0.0994553037013148    0.5840589321051169 O
   0.5501445596093819    0.6591461674927963    0.4177181171818094 O
   0.7194707693169786    0.6929874083569317    0.5436073719455443 O
   0.8848970495927759    0.7621452457912545    0.3911551196419652 O
   0.7549015864251835    0.8774190824444952    0.4226327174628091 O
   0.0523359266925596    0.2786379961888890    0.9879835738660008 O
   0.2880954509643090    0.3805244522922769    0.8980793156828748 O
   0.0951977944825800    0.4057620852464363    0.6771696146962678 O
   0.1359813274054672    0.5016611901891435    0.8006227058391432 O
   0.7973923522464174    0.6476852251141372    0.7095854151746166 O
  -0.1457555189328924    0.4250135378431285    0.9246674757461004 O
   0.9758506195408813    0.6834414116025835    0.7336803286353690 O
   1.0723494195700369    0.8638894816269705   -0.0459797394068789 O
   0.1973835478612193    0.7122525083530471    0.8588272170664297 O
   0.2968413331249378    0.0002468502102015    0.7133526043894262 O
   0.8658127417233484    0.9068421573164563    0.7448158236254807 O
