Li1 Co1 H90 C51 N3 Cl6 O45
1.0
  15.0717086645999991    0.0000000000000000    0.0000000000000000
   0.0000000000000000   14.7089355597000004    0.0000000000000000
   0.0000000000000000    0.0000000000000000   15.2021941148999993
Li Co H C N Cl O
1 1 90 51 3 6 45
direct
   0.9386240900494112    0.3196697178198734    0.4200944290824831 Li
   0.4249935407685243    0.7426439007407544    0.5064754008076714 Co
   0.0004106256919984    0.0532799451475729    1.0209109908870606 H
   0.3540181773372679    1.0938494641231642    0.2312716855821524 H
  -0.0443752718476363   -0.0626427871996737    1.0471249700658565 H
   0.0724495712529738   -0.0383391930647293    1.0531635720798924 H
   0.4003075540446777    0.2983343874197720    0.1915122932581467 H
   0.6128939350119238    0.2030528495877723    0.2644471598714647 H
   0.6340501295148689    1.0128639981684615    0.1229070648209054 H
   0.8385704044615322    1.1444533978326392    0.0652107879959485 H
   0.8384416864745294    0.9947722743370582    0.2327313433021029 H
   0.1777369036525956    0.6171263204572185    0.0816880147769491 H
   1.0286225122711694    0.3457953336702046    0.1330569154828415 H
   0.3431786631431197    0.3899997560338078    0.2317781914155737 H
   0.5557233766382844    0.4013690355660522    0.1893790485597242 H
   0.5891428124307934    0.4484999103452833    0.2879996811255558 H
   0.5414855085388286    0.5245306329941770    0.1011878315638860 H
   0.4384823896126839    0.4798215514069426    0.3590446889604070 H
   0.3898429144003055    0.6687174092154780    0.2165909100103383 H
   0.9960502266116767    0.4571981604314785    0.1486428235569774 H
   0.8209015385136734    0.3795720810074629    0.2972601864799782 H
   0.8279544880076929    0.4660102188890005    0.1309723479684102 H
   0.0898643187007189   -0.1785539619464868    0.9362218999394499 H
   0.2375396785109644    0.6715061902141783    0.2792660733978483 H
   0.1888311998416360    0.7901211636035637    0.2859947073849478 H
   0.2744061023760350    0.8707374662032458    0.1312420458797124 H
   0.3914346383736030    0.8873865295570181    0.1588249064083131 H
   0.4786627708472539    0.8591485922627663    0.2908696615816820 H
   0.6665474402644062    0.9286818359056435    0.0575342645205891 H
  -0.0285721532165397   -0.1729451264420308    0.9332841661056063 H
   0.7347945131670258    0.7813537038865378    0.2956518660089196 H
   0.8101661929997284    0.8287024734268813    0.1965194652113973 H
   0.2207811273990223    0.1342028640881653    0.6498928367068144 H
   0.1389237861078023    0.0613321933554245    0.4453953821615532 H
   0.1633304415299572    0.1720111744001415    0.4883454323362214 H
   0.5857072364684196    0.1349051582792080    0.7576549128662252 H
   0.4625807190113327    0.2431611223860000    0.6290109825743995 H
   0.5461889566731800    0.0344961250078622    0.5404231123090117 H
   0.6166134867394378    0.0962422653940074    0.6095085345883279 H
   0.4274166236991131    0.0961953551334247    0.5960039050297051 H
   0.7929113477935692    1.1991691178610173    0.3398494334733066 H
  -0.0145611339818069    0.0921869073595735    0.6426017839046821 H
  -0.0064737961283164    0.0729788552980712    0.5255603893170362 H
   0.0575096593285300    0.6607358663279249    0.6095947063599878 H
   0.3445647037351240    0.3521948450160767    0.3970859082494823 H
  -0.0042212313557674    0.6053532047686533    0.4377833230649929 H
   0.4001012071686061    0.4025037199850749    0.5740987117738439 H
   0.3148673409502868    0.4952281727141218    0.8142691090470546 H
   0.3314467484720705    0.3978942769886856    0.7422814741222128 H
   0.3231908829448752    0.5062431778001394    0.6923544705421120 H
  -0.0147668173631000    0.3205276996873428    0.6223454973665317 H
  -0.1121678508270759    0.6345640200758598    0.4515204190671626 H
  -0.1839573223513861    0.5693227253468773    0.6160049652517939 H
   0.2899458135801207    0.0283807946608826    0.3869229015918728 H
   0.0866881691966858   -0.1337757387143066    0.5514390879460984 H
   0.5047331394261590   -0.0801987822580453    0.6491712303441350 H
   0.6188415022051872   -0.0554675569070642    0.6664568930592587 H
   0.6467122638651858   -0.0965153946346444    0.8123332042837313 H
  -0.0755628439046811    0.7641587138769983    0.3762369441062505 H
   0.6685631374010789    0.0590791411297558    0.7932951629449266 H
  -0.1404612586608928    0.6796699352732700    0.6258798556041585 H
   0.7754879749137055    0.9558999849263579    0.3194550089805866 H
   0.1077355505559790    0.1319790457930046    0.7689651223465447 H
   0.0920810547552362    0.1350506480728994    0.9556743551419629 H
   0.1897833148485898    0.1201766961739312    0.8855607918007800 H
   0.5152458857594365    0.3766622851336361    0.5595010163147066 H
   0.4367214744709033    0.0926757258720224    0.7762785403413216 H
  -0.0489686461982569    0.0639999594789985    0.8795261365854461 H
   0.4407236749740007    0.4333256647927008    0.8853187214803916 H
   1.0310814239197899    0.3747369248731973   -0.0239256872890149 H
   0.4820499780402848    0.3562760376867735    0.8038942908591054 H
   0.5540201191927439    0.4485082726091263    0.8417434326113508 H
   0.5667089923826288    0.4271326945651627    0.6880814031474304 H
   0.5337534057896748    0.6053865178522555    0.7766903230058952 H
   0.4179850454246552    0.6159698805550271    0.7288722255322214 H
   0.4295119402091897    0.5987368184499423    0.8352174009576199 H
   0.5043617813987081    0.5201055677176433    0.6364638541233131 H
   0.9567593928264606    0.5602404909827529   -0.1285895264673680 H
   0.9400572387706796    0.4084403154406458   -0.0848846510409454 H
  -0.0526324643643882    0.4644745537208229    0.6716521957506373 H
   0.7421931434405734    0.3699058478920260    0.0393296555076868 H
   0.1638021863173747   -0.0291767353564198    0.9517091380460362 H
   0.1371237247740981   -0.0377042048997400    0.8416993600258453 H
   0.0362313817863658   -0.1566625070078830    0.8360403084869835 H
   0.5373874993897353   -0.1458670283442155    0.7985707172099122 H
   0.4362550376417127    0.0037529078549533    0.8651242681219055 H
   0.3996851959425713   -0.0231892184730570    0.7537929703363336 H
   0.5532299632611889   -0.0612626737361530    0.8889958222710735 H
  -0.1046955726331297   -0.0453675738459493    0.8847477512681713 H
  -0.0260674604282120   -0.0147059397549235    0.8019629906942678 H
   0.5775373598645006    0.0862510597487365    0.8703452250048470 H
  -0.1461693042391666    0.7173932632291183    0.7675442748138304 H
   0.3415557549152389    0.2562810384544838    0.3128493835530323 C
   0.0123263284166547   -0.0213739953461603    1.0197170842797105 C
   0.5372755014711473    0.2867013226541058    0.3258218530866709 C
   0.3866926411926287    0.3275044111960370    0.2532566699517720 C
   0.7591003173828693    1.0393750939861899    0.0572323344198873 C
   0.7424923795856160    1.0926461139603900    0.2733590313405452 C
   0.6899097549054147    0.9775249351961439    0.1012279573506895 C
   0.8602374899438183    0.3074349779728201    0.0410688781356945 C
   0.4721568064485185    0.3659565478380400    0.3039638240752984 C
   0.5268050230727256    0.4340727616818944    0.2440270811871819 C
   0.4843458026723833    0.5202465704429311    0.2196562570022127 C
   1.0092411663003504    0.5209139878750189   -0.0202124075102314 C
   0.9667861259171119    0.3900045150457509    0.1432389983341772 C
   0.9279199287900494    0.3667682993037757    0.2325886007490478 C
   0.9086314720882016    0.3991132639049874    0.0601266534680091 C
   0.0325788430314667   -0.1462110369218222    0.9062893785836013 C
   0.1917233735805289    0.7208136330985628    0.1552833123730659 C
   0.2305530784947814    0.7411053801654109    0.2455064729006423 C
   0.3131668038333374    0.9675439274336084    0.2351941456921411 C
   0.3251926466912023    0.7859046790219109    0.2409814681888173 C
   0.3239943751214752    0.8787557214686462    0.1873747326188998 C
   0.7700274128877619    0.9912689616880326    0.2559898280528961 C
   0.6482024731373934    0.8762035313494065    0.2312578717866955 C
   0.7292457063355596    0.9296234404115431    0.1871563430907234 C
   0.1369087524659079   -0.0258712616324605    0.6080166446789779 C
   0.1721409886918655    0.0949872459587073    0.5017378412517511 C
   0.1257096241018857    0.0754657789678045    0.5874610592392602 C
   0.2733159804551814    0.0893015864043115    0.5018911743813231 C
   0.5538848989569130    0.0572442020962374    0.6072509657307928 C
   0.0260241781159993    0.1074232240250719    0.5807666308409112 C
   0.0155482590603950    0.2061292108796103    0.5627148944977323 C
   0.3478211361073392    0.4716211007685920    0.7503046580835633 C
  -0.1221415043354580    0.6076858004796579    0.6340280215244051 C
  -0.0431697018353472    0.6403067877735737    0.4834145651578757 C
  -0.0412442399885320    0.5857046041729828    0.5677165409328002 C
  -0.0395728966418307    0.4841408986324529    0.5390537704993583 C
  -0.0126502690201158    0.7352966661593416    0.4859087445975946 C
   0.5524042440095137   -0.0242341615240084    0.6688874632598972 C
   0.3668050487059175    0.8068327739714464    0.3339285776205466 C
   0.1202875447730873    0.1010930582818005    0.8933965028237860 C
   0.4423976722998155    0.0191931821751592    0.7929313996645605 C
   0.5956344453423161    0.0771674656669140    0.8011256115696634 C
   0.4634900386050819    0.3785006234613995    0.6116582242813420 C
   0.4839986622043427    0.4261320103252828    0.8273356439497572 C
   0.4632115034971243    0.5852987284401149    0.7755161503920550 C
   0.4996606554960811    0.4538601894545357    0.6695373694461574 C
  -0.0989881905496344    0.5915432319684091    0.7307627421104718 C
   0.9704904172647235    0.4202810090988041   -0.0207557501315379 C
   0.1188252022815709   -0.0031082276494066    0.9028405343178507 C
   0.5721678293221486   -0.0827550515303792    0.8201708887060886 C
  -0.0440773626921504   -0.0076680409498171    0.8672509348224914 C
   0.4484613510792929    0.4814702091158282    0.7538837467064792 N
   0.0268475751359502   -0.0414577056052068    0.9238361878128396 N
   0.5373853098569666   -0.0021380690718480    0.7676830705681835 N
  -0.1570061644542015    0.7277311968873917    0.2987376047940876 Cl
   0.7868848247216803    1.3015354647587063    0.4157187449215499 Cl
   0.5387258347071753    0.6594726885864365    0.5035900738825922 Cl
   0.3617790757598029    0.7671059019875216    0.6312356614427512 Cl
   0.6131586694284914    0.4390056135327648    1.0203137086834937 Cl
   0.8027582737992836    0.8190811109954801    0.7299589107748344 Cl
   0.3212926243839731    0.1755586778743538    0.2969839105708392 O
   0.3576196269942329    1.0347969244968558    0.1957116870770579 O
   0.5697243771018640    0.2542312640246736    0.2528948800707568 O
   0.6744755393710891    1.1230024914282037    0.2400796246854139 O
   0.9067418389594182    0.2378079138087775    0.0325122185497926 O
   0.8064386793348740    1.0981536504963412    0.1095201814235584 O
   1.0476276567026552    0.5411826877268850    0.0486658078372305 O
   0.2131761502494031    0.6358258380996502    0.1309335377811740 O
   0.4344164936108634    0.5606606437514502    0.2692444936937266 O
   0.5045890947097760    0.5598509318622615    0.1455880013616415 O
   0.9644181130531274    0.3304923908375017    0.2962083646258994 O
   0.8392737089265990    0.4652584309737486    0.0689648513613192 O
   0.8401382426228087    0.3905715173258378    0.2364742240711513 O
   0.1470297018150870    0.7701489501957574    0.1075204700812197 O
   0.3839318394198521    0.7298074858123140    0.1928094744315322 O
   0.5676014592090075    0.9011346352020010    0.2241352157291812 O
   0.6741723222573762    0.8134430415605161    0.2874010833224215 O
   0.7901664698954733    0.8690466572457207    0.1478146536293443 O
   0.1575507385156201    0.1269256549682020    0.6596506386976869 O
   0.3113514821197309    0.1120211094210278    0.5698810311209468 O
   0.3286262321692410    0.0543432443874479    0.4419320663005620 O
   0.3098851586595444    0.2916343784626309    0.3907841863219808 O
   0.5413133316438430    0.2576767886715320    0.3999854896958733 O
   0.4808203895170189    0.1204309633834666    0.6271257283944183 O
   0.0118983742846093    0.2394817262950769    0.4888863410983283 O
   0.8088060287040802    1.1355771606997695    0.3106687772701860 O
   0.0005433246476714    0.2545460386717721    0.6356271327984923 O
   0.0390525615839736    0.5960010664414659    0.6137520009927446 O
   0.4439257007743900    0.4176930584041057    0.3798462915192150 O
  -0.0313528598326672    0.4532591262461128    0.4624383167565049 O
  -0.0473079187680094    0.4284591671654952    0.6083073921833573 O
   0.0415108097378158    0.7600129346156442    0.5462318132986571 O
   0.2662597134872700    0.9722152375852590    0.3024548313715731 O
   0.1219814469422530   -0.0785949952331954    0.5363429118109004 O
   0.3456548256559777    0.7569148178406374    0.3976016232798749 O
   0.4335499694303188    0.8631284859649584    0.3418103346284091 O
  -0.0327017447170832    0.7938977795098974    0.4234880181664059 O
   0.0724794285180002    0.1355788983985918    0.8233342478657288 O
   0.4612912832590582    0.2983935351396371    0.6644512615188670 O
   0.7695205028770911    1.0323936234655526   -0.0244861327046967 O
   0.7753148027765522    0.3068047488197739    0.0363952106727615 O
   1.0000836113693574    0.5769228674201273   -0.0858818755129801 O
  -0.0694261806995836    0.5168811331684877    0.7554966717760235 O
   0.1466103731151603   -0.0605325053323002    0.6807054941732055 O
  -0.1112893837405207    0.6550032965129464    0.7929590272554744 O
