Li1 Co1 H90 C51 N3 Cl6 O45
1.0
  14.3071870326999999    0.0000000000000000    0.0000000000000000
   0.0000000000000000   13.9628158152000008    0.0000000000000000
   0.0000000000000000    0.0000000000000000   14.4310535287999997
Li Co H C N Cl O
1 1 90 51 3 6 45
direct
   0.5959367130808361    0.6275475895099379    0.2387571189812161 Li
   0.7387607353942131    0.6983592376105785    0.6410472212536555 Co
   0.3231598219225536    0.1263915123537510    0.1206167492155883 H
   0.3675948320015422    0.0742716527472253    0.0202214456358035 H
   0.3445595561470541    0.3184308571026090    0.0950614424416229 H
   0.5248050505343136    0.0572693515536820    0.0593488730875228 H
   0.6426111570839617    0.2939902281838702    0.2582865316770773 H
   0.6575651798077161    1.0005404062117460    0.1846002967893862 H
   0.7564120039086180    0.2467884310161003    0.0002506237256193 H
   0.8297115279592301    1.0468791969372995    0.2919056987761230 H
   0.1522282478534835    0.4466914474951600    0.2835487205583291 H
   0.2916267190862751    0.5630534350414899    0.2094661182128786 H
   0.5847888892888171    0.3415930905861971    0.1096896190732672 H
  -0.0704081091550460    0.5526687102181378    1.0051869557167545 H
   0.9606317427938379    0.4348402562891668    0.2082042560789978 H
   0.6761733100706052    0.3769584500191023    0.0336203287883130 H
   0.7053467596834486    0.5412774548936313    0.0827317812949224 H
   0.8056411080218309    0.3727479812441721    0.2345682356208044 H
   0.8038217426958234    0.4868009789401236    0.2709439582215403 H
   0.3037472008835466    0.6682299280523993    0.0667793770203093 H
   0.0540684910270594    0.7295499376644962    0.2234484653504115 H
   0.1880466095502125    0.7577605797880710    0.0456132161859381 H
   0.2958371903593714    0.8405805507241008    0.2498630302495895 H
   0.2256542817481246    0.9807020008595493    0.3054909855057955 H
   0.2414910775824236    0.7580098131838315    0.3238811882356490 H
   0.3475587480847793    0.7800168355543116    0.1188032988013290 H
   0.6183555155517135    0.8841025743648098    0.1642012317167977 H
   0.6107020194626690    0.9393464456733672    0.0159064453570139 H
   0.8448109321612056    0.9396637169214186    0.1680290880745998 H
   0.8842854982453129    0.8022788208239030    0.2595622528129777 H
   0.2604395962101862    0.2868448213174852    0.3520773278444413 H
   0.0695914585742368    0.2120182237437611    0.3763929468877572 H
   0.1043488150597174    0.0253352484399962    0.6181535358175464 H
   0.2305042917355109    0.1657252690450143    0.3878966115140919 H
   0.0979128888507747    0.3125982226914794    0.6099746457757037 H
   0.0167355059490555    0.2908526089113802    0.4657672948815484 H
   0.3924061383183374    0.1230648194706840    0.3805305519406965 H
   0.6617476931042314    0.1819368987761451    0.5962764081795718 H
   0.5344860590850113    0.2955830301153968    0.5510876768995884 H
  -0.0693561902861864    0.0244493239843764    0.6398172348244197 H
   0.7342063810091705    0.2797309267195296    0.6042585003927367 H
   0.6871517085245435    0.1949471685100081    0.4460116339777179 H
   0.2579799932204740    0.3508097129139018    0.5304438618513344 H
   0.4972358995126285    0.5405544631895504    0.6218005321989932 H
   0.4440871569777029    0.4290383463397560    0.5897107059728058 H
   0.5816426383942760    0.4581305441726457    0.4640780904203945 H
   0.6511005966727779    0.5412760225177936    0.5359517757289576 H
   0.6901397172716363    0.4209046001453554    0.5058901728713265 H
   0.3118263571660367    0.7376772381676270    0.6564210121939520 H
   0.2632479749577462    0.9181308109532185    0.6334601105980480 H
   0.2621562159722586    0.8286703456335942    0.5422358630146861 H
   0.6254792079845485    0.9378739633122078    0.3379841086907520 H
   0.3470520097592489    0.9493215110071360    0.4742888487483246 H
   0.4260948011490099    0.7643888989770451    0.6117388967327936 H
  -0.0176017819382959   -0.0752669523332065    0.5803548401844523 H
   0.7255310208760909    0.8905396713794503    0.3927604282728561 H
   0.3225775970602545    0.2986475982201639   -0.1291460274802941 H
   0.1491640536202075    0.3027578006864547   -0.0245403590869674 H
   0.3283103801581855    0.0993554184170930   -0.1546251097431519 H
   0.0717554059616051    0.0151610828647866    0.8161411598186601 H
   0.5606012555346023    0.2893672351676814    0.6724974545366401 H
   0.4177304735053937    0.3211022380399264   -0.0542235696124584 H
  -0.1048809932288151    0.0693235104158778    0.7822455056293242 H
  -0.1411026487377249    0.0261345141574349    0.8984684824655460 H
   0.1619066003964059    0.5139364081411263    0.8287791837602958 H
   0.0855379894666162    0.6124016474020587    0.8126105790541774 H
   0.1843652429839113    0.5027587916728133    0.9930367686462073 H
   0.4870121567415525    0.4436108367810105    0.7068303602396931 H
   0.6485697008427841    0.4121916727809792    0.7513052836206592 H
   0.6448310204244919    0.5309061944031537    0.7086673709573857 H
  -0.1229572229872510    0.3450200497779033    0.7749487410660265 H
  -0.0639819682379066    0.5731746027107044    0.7854129805408944 H
  -0.1219640158692115    0.4796348742428838    0.8488879027405745 H
  -0.0882445992642999    0.3542452663606342    0.9342385666780272 H
   0.7347634436925466    0.4442306974247768    0.6733892813165988 H
   0.0171856293720093   -0.0245028364570674    0.9334292009600850 H
   0.0781605783963087   -0.1099111105318278    0.8648590166679140 H
   0.2647975458097472    0.8008772410667099    0.8048543885739313 H
   0.2759332078819536    0.9202793747097741    0.7600614010966165 H
   0.3296977947460170    0.8908068094731821    0.8676668504770767 H
   0.4066234683591828    0.9764607360041085    0.6867791561177955 H
   0.4667944158719546    0.9537432552181274    0.7972589625171121 H
   0.4141301850711774    0.7036532987067314    0.8075762965705728 H
   0.4839005737379717    0.8039862128224459    0.8513686641020756 H
   0.5131239562969888    0.7455180635032173    0.7418416640916036 H
   0.5073016098210806    0.9083813448138880    0.6839803306599456 H
  -0.0027148583583359   -0.1666733002283512    0.7236122257851769 H
  -0.0413968158063723   -0.2060335558726120    0.8821654454398381 H
  -0.1202802467296217   -0.1360218896773291    0.6957175194703100 H
  -0.1576328023912323   -0.1820362472756426    0.8439464755705007 H
  -0.2024165882280687   -0.0144776379689790    0.7915483607349530 H
  -0.1108227622016889   -0.1329523082571300    0.9501376137948651 H
   0.3638386778478869    0.1430607861650281    0.0587252179966427 C
   0.4550262045796034    0.1764824115861693    0.0969677481694132 C
   0.7079769063303047    0.2640979768268311    0.1302224235153445 C
   0.1559711219682628    0.6449967919648449    0.2053534593635745 C
   0.3938683404935230    0.6464212897354412    0.1779126353648482 C
   0.6261585868154665    0.4385643618484046    0.2684070679018601 C
   0.6589169479754067    0.3588217071620977    0.1094664891407523 C
   0.8567671608460639    0.4742814411682579    0.1320254796780891 C
   0.6854211097741806    0.4434511268751066    0.1762876673780549 C
   0.7862284869828239    0.4427732550099133    0.2066284875493739 C
   0.2296753377298847    0.8005191471072839    0.2634351509273434 C
   0.2191030288857852    0.7315008335554485    0.1773118476273003 C
   0.3178960338817686    0.7070451646904139    0.1332007230493476 C
   0.1431950256201671    0.8699034326856526    0.2702170535656145 C
   0.7339358875857495    0.9436851120857719    0.0769837602073104 C
   0.6829677973291992    0.9298025254667474    0.1693969715739303 C
   0.7450114400083068    0.8992871906203069    0.2504998513923882 C
   0.7486201158354974    0.7855594138583063    0.2589822535784592 C
   0.2496310424639774    0.2352184151870485    0.4135149767472464 C
   0.1671599041959730    0.2735000918255183    0.4719282449343332 C
   0.1411373185438067    0.2017523861149385    0.5525768266665900 C
   0.0753172521780225    0.2832080190655554    0.4177606820159382 C
   0.3420062939357956    0.2340911354027756    0.4614270712190832 C
   0.5853622374935517    0.3119916115242118    0.6017160664722486 C
   0.6726603903132045    0.2552874330491154    0.5694650600525738 C
   0.7202854055200835    1.0379913048643477    0.3717141478059541 C
   0.0745882479386734    0.3563114685065218    0.3435353319496863 C
   0.4974903869944570    0.4567936361845250    0.6353075155672553 C
   0.6320192776562555    0.4675038111219617    0.5158692433329948 C
   0.3092821812971672    0.8728140203878667    0.5873699205317023 C
   0.3587321534253700    0.7946528518639684    0.6452444200152789 C
  -0.0159914024872311   -0.0349641933877366    0.6462464258612930 C
   0.7024076773953726    0.9401485761424814    0.3399299125742981 C
   0.3144418258751879    0.2247857057731333   -0.0007506891702938 C
   0.2238936281729370    0.1790377700806327   -0.0461513938861664 C
   0.3768188674250237    0.2615963324262815   -0.0844729203704483 C
   0.4358220801509491    0.1960866234889014   -0.1430937271127780 C
  -0.1318702259212690    0.0081410088842006    0.8252146484408651 C
   0.0405263461206447    0.4262341125434915    0.9532579680995688 C
   0.1143172316096677    0.5659769141262432    0.8671270423484149 C
   0.1701073738770234    0.6217772634477485    0.9339385192843038 C
   0.0220006918886695    0.5205632233354707    0.9067804189267764 C
   0.6599744584395826    0.4547989812117306    0.6897602274522027 C
  -0.0158362357172067    0.4313802808344016    0.7541068808789131 C
  -0.0540464023104390    0.5057542476434113    0.8243138133095939 C
   0.0315420503463452   -0.0455616260229877    0.8603340525085280 C
   0.3090899702081728    0.8643945152138441    0.7979727011211195 C
   0.4541093926325714    0.7689187875637832    0.7889830594611327 C
   0.4489981852489773    0.9275816267303877    0.7276396517720607 C
  -0.0524681745324424   -0.1062427960114685    0.7176625562181803 C
  -0.0987386257739727   -0.1555659417948776    0.8771110674033049 C
   0.5941935332410118    0.4192179775964592    0.6104500095449745 N
   0.3910494775047452    0.8364402683652182    0.7403476636738950 N
  -0.0640497663311154   -0.0750234484407968    0.8204679402491662 N
   0.3691947272113891    1.0086856114128484    0.3208412161426588 Cl
   0.4898139653646159   -0.0716043673161980    1.0171410379087249 Cl
   0.8467064829733963    1.6294092616213542    0.5488394695919756 Cl
   0.6410902431579560    0.8064083603640029    0.6049521434438156 Cl
   0.7926371541646002    0.3176072409959294    0.8830752889224222 Cl
   0.7396288305670525    0.6671635242412289    0.7880967762819819 Cl
   0.2913757962464607    0.3030593158002914    0.0556935613048642 O
   0.5335777044258951    0.1254117672807616    0.0890417849144275 O
   0.4550458450581516    0.2539223788757838    0.1396333788367259 O
   0.7080335212328812    0.2317212695792948    0.2126696265296996 O
   0.7500382841975678    0.2131361930850889    0.0608491100561401 O
   0.2080107016772794    0.5703649975050485    1.0023902091092076 O
   0.1579847952315083    0.3907651207187285    0.3248028118699497 O
   0.1834013917412818    0.5585636529782075    0.2127583241426248 O
   0.0631268754392985    0.6595662027980483    0.2098867389241722 O
   0.3636387783153329    0.5662161208911397    0.2185811838411424 O
   0.5970284720663236    0.5109410237893203    0.3071478291972337 O
   0.6095843993488440    0.3507194732361265    0.2988442081372151 O
   0.6581474046700151    0.5316654968347204    0.1314233060403392 O
  -0.0007941453672222    0.3884024167744362    0.3122555643915421 O
   0.9465646868771153    0.4571906191479446    0.1433226451743324 O
   0.8256052001488979    0.5223235416212167    0.0690848220062629 O
   0.1759009655740180    0.7850158272278976    0.1072358827657043 O
   0.0624530882036968    0.8398092163354973    0.2605649516090928 O
   0.1588878378750741    0.9634146568743031    0.2875248682377405 O
   0.4736839602509239    0.6717191955930457    0.1791855847003447 O
   0.6801957639511944    0.7348884024116179    0.2519765280575722 O
   0.8221460994964155    0.9630687381094976    0.0780668412151389 O
   0.6840693416064899    0.9553310438342221    0.0009837649324540 O
   0.8364969288754351    0.9364623569241508    0.2416023720958315 O
   0.8337318849915757    0.7506108757941728    0.2674868301677614 O
   0.1600466960043559    0.1163663138656625    0.5532977026566374 O
   0.1009917610217557    0.2421031296509714    0.6236867423738552 O
   0.3670202955828030    0.2873418557331684    0.5271340549890234 O
   0.4062865747413820    0.1748802992116976    0.4314506042108583 O
   0.6652766886981663    1.0732148590893202    0.4254212453822493 O
   0.6882413706617875    0.2614731481042390    0.4747603319970300 O
   0.7993547569875965    1.0849975827302711    0.3454319363760629 O
   0.1923849885661668    0.3654571882302602    0.5092021486674536 O
   0.3701005656526130    0.9292238456283151    0.5373662947700839 O
   0.1479436879424475    0.2345824403151080   -0.0479696949511325 O
   0.2215185980623823    0.1008150093957131   -0.0819886942584424 O
   0.3895530268082479    0.1201076795537447   -0.1845224418498451 O
   0.5182416918681146    0.2160997786932979   -0.1543257552995294 O
   0.1196243545141532    0.4077918439203047    0.9882907534046094 O
   0.0645010099882539    0.4330566618960581    0.7265184585086784 O
  -0.0757914175457147    0.3594834647991167    0.7238942564762749 O
  -0.0223224862839952    0.3596352966379133    0.9614964518500954 O
  -0.0179750209256520    0.5881343359596821    0.9701333819086845 O
   0.0722006367386572   -0.0041050883402474    0.6707727017353061 O
   0.1826646990583728    0.7105229732243586    0.9279826131663984 O
