Li1 Co1 H90 C51 N3 Cl6 O45
1.0
  14.1678851422999994    0.0000000000000000    0.0000000000000000
   0.0000000000000000   13.8268668943000002    0.0000000000000000
   0.0000000000000000    0.0000000000000000   14.2905456126000008
Li Co H C N Cl O
1 1 90 51 3 6 45
direct
   0.8762780715403626    0.5917108343953722    0.5393260702029803 Li
   0.6430767174345489    0.5900018427502915    0.6172474477477390 Co
  -0.0203688078214581    0.1274523694031132    1.0183671919054351 H
   0.1666760456188061    0.1427696500003039    0.9990446266594634 H
   0.2919106859464987    0.2016745346879375    0.2681677040323140 H
   0.5524875443074970    0.2429846886343437   -0.0096978238240118 H
   0.4525895718306934    0.1828329560431473    0.1062718560557250 H
   0.5476569009678173    0.1084430014812774    0.1364568477064055 H
   0.6240795278542622    0.1984265103637492    0.2759182828417293 H
   0.4863329989687815    0.3283503762498500    0.3009012337855487 H
   0.5137893339187732   -0.0162765038978408    0.2402506453828356 H
  -0.0928072832672995    0.2132657361672885    0.9609495101567036 H
  -0.0411030244705572    0.2331646765493229    1.0772081922979326 H
  -0.0948125225612841    0.0399495381942031    0.2132593736388156 H
   0.7331402651824278    1.0146916907751344    0.0047697833342277 H
   0.1148235642765739    0.2033039710723499    1.0986041563351918 H
   0.9843725390362633    0.5554972797392252    0.2456696127266521 H
   0.2968464967113118    0.4941116450550657    0.2152173114781749 H
   0.4015360805908162    0.6239553047738201    0.1505164928344997 H
   0.9082920239012419    0.3761739363560512    0.2864875084048756 H
   0.7430027110306665    0.5332124047667886    0.0974184502145620 H
   0.7512248273754839    0.5738767146424977    0.2551367110213957 H
   0.7504406595276779    0.4623637441491155    0.3167704669238585 H
   1.0443342052600826    0.6914738545028882    0.1900622187514811 H
   0.2375666541967460    0.8097059899893391    0.1537759904955919 H
   0.3479268091737063    0.8290733565841816    0.1757870465131215 H
   0.6111284064866723    0.7369165426261841    0.1096090274481141 H
   0.3667602481323089    0.7417686902972994    0.3429794032481489 H
   0.8314033429824780    0.7999604705574894    0.0079998909348291 H
   0.7754450971301760    0.7593106252746290    0.1185247122269837 H
   0.8491836960464573    0.8541875059178352    0.2460159955824359 H
   0.1350778222069438    0.1761177688131120    0.3395582602543576 H
   0.0110910745479470    0.2512389085434866    0.4229427602100035 H
   0.4154400611794125    0.2554242384842743    0.3695711101221639 H
   0.4937736295880446    0.1100775004731869    0.4766950115811983 H
   0.3823532599178446    0.0753400575172557    0.6265494018930583 H
  -0.0632291214039707    0.0048446945799135    0.3658728608437457 H
  -0.0941356396035469    0.1820518680293144    0.4685183468710017 H
   0.0202738141518679    0.0476794166125786    0.5849554686652104 H
   1.0167944563080622    0.6042002870906309    0.3569886654154018 H
  -0.0392883570207739    0.3628607250980557    0.5485157123314243 H
   0.2758172466145233    0.6640750227287736    0.3690637816970261 H
   0.1410688363313158    0.7627611538986998    0.6382424473883029 H
   0.1084556413936704    0.8864645216301928    0.6199114468022212 H
   0.2289711582016232    0.9249931343717832    0.4243156958929281 H
   0.6220361741914374   -0.0505713303126001    0.6698843463233102 H
   0.6301502998245407    0.1090331568695067    0.5735223152763054 H
   0.6012956051475316   -0.0027897175256602    0.5238326799572794 H
   0.5054642240794897   -0.1549536181463666    0.5953056683013662 H
   0.4266781534141263   -0.0551262306006735    0.5478123102170126 H
   0.0572878070472724   -0.0086102696879999    0.3347949711648227 H
  -0.0074261563136105    0.9105675959237183    0.5241205625974197 H
   0.7910755174629068    0.6493898448390736    0.3796931869078438 H
   0.1409657863711181    0.2106903154105674    0.7387207663360396 H
  -0.0000729064140220    0.1963992976759960    0.8345631531230343 H
   0.0931124904705320    0.1345523148029253    0.8785831658680584 H
   0.4923507637335062   -0.0378222381757061    0.8314653007946412 H
   0.4212715596119715    0.0854139232067721    0.7483054248727460 H
   0.5742806345887100    0.0623342188572962    0.7205073259919207 H
   0.4187722451663540   -0.1411724773097138    0.7771370742141624 H
   0.3367995309372872   -0.0099648788082859    0.7134649076876631 H
  -0.0038970480876609    0.3620854229213624    0.8935853922218914 H
   0.1093400359150934    0.3315658552401286    0.7733359597240267 H
   0.2493969307917743    0.3332705075073545    0.8198527280840737 H
   0.2098772710559455    0.5078668219475549    0.7766430412925800 H
   0.1887407360690882    0.2727390793538783    1.0168333106531566 H
   0.3735516640023263    0.5230401075229363    0.8926812979801285 H
   0.4579456288030527    0.4357861396339890    0.9297386654422273 H
   0.4294442684416256    0.3777021205905224    0.7399845389371413 H
   0.4733192712212633    0.4724732867568934    0.6630770485029787 H
   0.5558679359128051    0.3626784712281614    0.8300615755245359 H
   0.5259298755925940    0.6043066018480693    0.7038683531740914 H
   0.5788026927051129    0.6260432687515382    0.8266278367905343 H
   0.4516565461979170    0.6498071483427602    0.7901099868674443 H
   0.6239164830542234    0.4546789952604282    0.8828755142263965 H
   0.4826321643365572    0.5536704016624273    0.9483453727862460 H
   0.3428731261941464    0.5725640528414730    0.7030006466262695 H
   0.3105775509968365    0.4672447559152605    0.6579547808174496 H
   0.1052018036093449    0.3979561667269937    0.9587858418939090 H
   0.6225733044634270    0.4455725215406365    0.7542177253748000 H
  -0.0008274297527300    0.3738053592770674    1.0154470794666766 H
   0.0439633060293771    0.7303959041699647    0.8639567124304999 H
   0.2070836289842838    0.7379420822591610    0.7768053863886241 H
   0.1212895963681587    0.9555785159504787    0.9133271157115287 H
   0.2714164486567642    0.8667268614584221    0.0153844935148001 H
   0.3835390402817636   -0.1451046768756483    0.6261820261369241 H
   0.5414299306674583   -0.1398373953897736    0.7592364280852664 H
   0.6312965541763291    0.9801198674073215   -0.0411717795562148 H
   0.6767331167637850    0.7243699547891727   -0.0043523316314221 H
  -0.0325209390866929    0.6833187170547592    0.7760097554653390 H
   0.8762321931334253    0.9535910808930597   -0.0320482650638749 H
  -0.0753551372683336    0.8801572359184925    0.8007708814287878 H
   0.5154940054175485    0.1812584851115601    0.1506039632526270 C
   0.4895536631357831    0.1778889582074423    0.2570932493340650 C
   0.4190510447162041    0.0875756566080188    0.2721990406629605 C
   0.5903038446669889    0.2526463134276706    0.1240724360262835 C
   0.3528569733653579    0.3218933820021651    0.2479851296353155 C
   0.4379649473423584    0.2709338981663534    0.2976550316280119 C
  -0.0316337212786892    0.2016051046422635    1.0083563774916129 C
   0.0028280205477086    0.1141095057297777    0.2788726836843937 C
   0.1390050138407805    0.2149161462113316    1.0254634919872589 C
   0.2261549298373154    0.6191516134887481    0.1934280804410159 C
   0.9575887250662415    0.5990718656961043    0.3083810041804422 C
   0.8245434624128771    0.4504183047908984    0.1866179835673043 C
   0.7964962276979652    0.5082780503222450    0.2768601643041230 C
   0.3052782420847506    0.6870230992833258    0.2184152299649054 C
   0.3028749193828789    0.7723967424248990    0.1499923700890816 C
   0.3365990775900533    0.7466750801915977    0.0555026258480059 C
   0.2907107891496759    0.7256276511373722    0.3208346924317209 C
   0.2286584792128041    0.8091765858910747    0.3490435523960717 C
   0.6309139988446362    0.8785733630015538    0.1096643087523705 C
   0.6989403831863955    0.8595705041464999    0.0278003945454479 C
   0.9333381049808062    0.6978180249263528    0.2673335861250529 C
   0.8525158800333988    0.9025802477526349    0.1173372138304888 C
   0.7937089380211104    0.8215915459331623    0.0757852664033419 C
   0.1438695366194294    0.1073494782619114    0.4654592614319227 C
  -0.0032505154606670    0.2246030840421439    0.5729214984682731 C
   0.3953975497425994    0.0335308751175674    0.6922760736005293 C
   0.5682301902818131    0.0036296687806179    0.6619455311740852 C
   0.5786095093208243    0.0539006379968287    0.5706485971473215 C
   0.0343330755024059    0.0935401314692035    0.4553907865184710 C
   0.0016323586807569    0.0465858933932126    0.3566086939190573 C
  -0.0166208948854996    0.1927028709734963    0.4727517051793550 C
   0.8703421115043155    0.5397730378222348    0.3459988820818999 C
   0.9149055727166715    0.4561130873184180    0.3985343149724436 C
   0.0066366341451534    0.7783677263528657    0.5734114727624545 C
   0.0826077469251704    0.8156769739173058    0.6369177953761846 C
   0.4467715545915575   -0.1083978796033589    0.6051142511084784 C
   0.0691943123799812    0.2098672800774732    0.8668173449849319 C
   0.1348378428475792    0.2559876343757334    0.7981817570522227 C
   0.4822706424898909   -0.0932990143581844    0.7722471279591793 C
   0.1075303092168265    0.6409895325421582    0.7730896430265803 C
   0.3372766663694356    0.4954217755523418    0.7222903229950256 C
   0.4470113222044285    0.5069614107581870    0.9032890105272509 C
   0.4316619600508123    0.4545922077033356    0.7310898470586222 C
   0.5797110851624723    0.4400145017385018    0.8192761230877791 C
   0.5170920569102446    0.6076963791821753    0.7822068596488151 C
   0.0403706738553604    0.3533813541746231    0.9564745235653158 C
   0.0349033793917193    0.7177061168637506    0.7908384405096076 C
   0.1148242700982191    0.8781293000010969    0.8005560540818675 C
   0.0381579229976900    0.8152090443386486    0.7416814650488092 C
   0.7018250762502867    0.9528656815616945   -0.0309510361388873 C
   0.7675751857863085    0.9544148394557963   -0.1204388719897769 C
   0.0566342162038265    0.2498459682521513    0.9631859538073799 N
   0.4768722362188204   -0.0408764369557210    0.6813772595018798 N
   0.4980113121636003    0.5030963992260351    0.8089742071224295 N
   0.6407503292920029    0.5990877767482379    1.0697997977642311 Cl
   0.5743085145436951    0.4783085711070494    0.5216789483339842 Cl
   0.6459063564101153    1.7392202536507788    0.5706905829480226 Cl
   0.4997267410900699    0.1551361536563483    0.8848306530123757 Cl
   0.7757189559285097    0.5326016373337498    0.6882531341300231 Cl
   0.1728886877397678    0.9537928619632998    0.0402120969960257 Cl
   0.0639458226263489    0.1780538545659181    0.2632945520976112 O
   0.2765265973679392    0.2671846756999557    0.2385369249508874 O
   0.3395868206141422    0.1012786886432883    0.3026709352850983 O
   0.5693045214079565    0.1654949718249853    0.3103375424931114 O
   0.5902713768713104    0.2883355265930500    0.0366013181357347 O
   0.6444071912357320    0.2851359586549050    0.1843668448863826 O
   0.4515759413660362   -0.0061751554819117    0.2709282704284086 O
  -0.0662606253700615    0.1067781268443855    0.2126680736122757 O
   0.2340989524539280    0.5248800760562623    0.1960598903816272 O
   0.1500765321672296    0.6551207165257509    0.1637742091692038 O
   0.3568872149593923    0.4075004113493529    0.2156980488962020 O
   0.3999176315583957    0.6488741821040154    0.2164195049049152 O
   0.7936397674998817    0.4764477663277248    0.1074957421461609 O
   0.8783969481192229    0.3808351514015630    0.1898501904579408 O
   0.9856387830677340    0.7278949760664147    0.1976315588545368 O
   0.6176212598007744    0.9591599491398309    0.1366450840462153 O
   0.5858247710887783    0.7975354815663954    0.1413139050841729 O
   0.8837971895265709    0.9692273057625654    0.0657261683187135 O
   0.8578158947671300    0.9163693441153545    0.2103252659331566 O
   0.8662095257717285    0.7501053583856803    0.2915132087487922 O
   0.1819133232951661    0.1675952307066247    0.3988464094243214 O
   0.0189652208216857    0.1707210292212410    0.6380933977958142 O
  -0.0287476165715076    0.3148433394476811    0.5955722781358179 O
   0.4972181803809004    0.1103074874994821    0.5425951546218992 O
   0.0006293861229420    0.0248007701037004    0.5231725931939243 O
   0.9353744004271790    0.3803274441925717    0.3547130350174045 O
   0.8200530251061788    0.5925946210184311    0.4139515009898720 O
   0.9417310301637594    0.4674536824943680    0.4806030499104528 O
   0.1932417607004643    0.0599388822815421    0.5196936847360019 O
  -0.0181369997793676    0.6922520495981513    0.5676069358155333 O
   0.1517542702178460    0.8201812481304086    0.3125795842505479 O
   0.2606307880966170    0.8605765165791308    0.4206006522942295 O
  -0.0234292504750016    0.8401018854017160    0.5117260953180298 O
   0.2238137194402205    0.2683042351864495    0.8414082381639968 O
   0.0878668240034805    0.5555464593549110    0.7675167277468600 O
   0.2715773759918675    0.4686814299030740    0.7934205672527226 O
   0.3784472429333636    0.6697429734365589    0.0390798799037871 O
   0.1993831148352618    0.6664689128452428    0.7733821441047979 O
   0.0810055317905893    0.9416744260746116    0.8603536309670041 O
   0.2004383181948207    0.8598207416027834    0.7837624335647894 O
   0.3139160873785848    0.8125461127951925   -0.0116508633199560 O
   0.6625588064850810    0.7895879110256462   -0.0348158290934197 O
   0.8576951992658025    0.9408926148311364   -0.1009035786869198 O
   0.7362578793892317    0.9732376141298832   -0.1992931040497787 O
  -0.0559062218351253    0.8593361777423500    0.7385479247898201 O
