Li1 Co1 H110 Cl3 O55
1.0
  12.6169943438000001    0.0000000000000000    0.0000000000000000
   0.0000000000000000   12.5356917660999994    0.0000000000000000
   0.0000000000000000    0.0000000000000000   12.6616139340000000
Li Co H Cl O
1 1 110 3 55
direct
   0.6222521353398215    0.4343029475104733    0.4458334061064415 Li
   0.7797341747112974    0.5528612231709459    0.6712280528612743 Co
   0.1329755428498269    0.2289556840302661    0.1138220194133428 H
   0.2384808608144127    1.1053516743743990    0.1394317088013023 H
   0.2170494491301493    1.0436159509344816    0.3088840401694718 H
   0.1897703689767108    1.0746553229340574    0.0295903404536706 H
   0.3014776394719683    0.3273914164193610    0.2872509370415621 H
   0.0691990222242617    0.3296385999434629    0.0835322789427264 H
   0.3311661682763003    1.0096569155702575    0.2702854853132343 H
   0.3362965502227588    0.1891844444925930    0.0156230057266884 H
   0.4956506677894355    0.1313304374276418    1.0287780479565520 H
   0.3462925917967946    0.2076126257457979    0.2818298271927077 H
   0.6230708723320494    0.1282623977280692    1.0411698331442745 H
   0.6291032123590069    1.0989379876389429    0.3311545028032127 H
   0.4077121326861666    0.2958215591363175    0.0244445272627438 H
  -0.0374070333345218    1.2327558918519699    0.1607544249579708 H
  -0.0493301582801967    1.0381515536536514    0.1865836756131187 H
   0.8052362864847019    1.1972093892484976    0.0687738918228811 H
  -0.1350304423998723    1.1984139498169726    0.2385035969933404 H
   0.7064203588535178    0.3056790127420426    1.0956889492378674 H
   0.1511779763091757    0.3372089839135471    0.2276882301124819 H
   0.1808902825672994    0.4549097081759332    0.2403517026236317 H
   0.2872721959950064    0.6260777649562218    0.2562999064665685 H
   0.1933686903171900    0.6309526455085068    0.1675158062831518 H
   0.2248936311360352    0.6479529039686189    0.0011430981133562 H
   0.4160009530779576    0.3334198033173512    1.1799041216130639 H
   0.4092362674742154    0.4488581873332506    1.1252033541113653 H
   0.5950134768578290    0.3676085826840391    1.1323904315624980 H
   0.5499631277404647    0.6063756213004642    1.0809593894066996 H
   0.4251402137336988    0.6458828147797497    1.0510263965058280 H
   0.4446615032966945    0.6493385474834804    0.2242866100485227 H
   0.6991563467201497    0.5174128404018592    0.0883188725251809 H
   0.7060850967550547    0.4176321483316724    0.2653271916606836 H
   0.8883503762136323    0.6514668703951965    0.2972583500507164 H
   0.0033835849360572    0.9735041440713940    0.2755628536130661 H
   0.1216218086642842    0.7000776699721218    0.0435147106736922 H
   0.5569362623557809   -0.0010139142806918    0.1765707340828482 H
   0.4734591701656303    0.9210778390646569    0.2945169933657843 H
   0.4114713481306364    0.7248652928490898    0.3146526570599195 H
   0.6367088272451826   -0.0564998031313552    0.2629570356792716 H
   0.7547749814661370   -0.3289393352867086    0.1314050859292295 H
   0.9847362480673033    0.8704862951887096    0.1058650559073348 H
   0.8623140643117073   -0.2644426952060681    0.1247503260827191 H
   0.8113684918175845    0.9204955018361889    0.2700935666516271 H
   0.7640513587720770    0.8058476605509906    0.2593105811087353 H
   0.1177960163491977    0.2483108185156352    0.4923859232715095 H
   0.0705175612951914    1.0615966100162200    0.4293331399406101 H
   0.1812120707752805    0.3261342061836547    0.4144527304618416 H
   0.3114602071555222    0.2578308356177412    0.5744726150169475 H
   0.4656348027045709    0.3062015208032022    0.3743433097634044 H
   0.3827695836586605    1.0391167975528930    0.5818429234536475 H
   0.5971360108996357    1.1814623524129377    0.4208902984073563 H
   0.4797784248016745    0.2824557231596304    0.4943477584790495 H
   0.6365859770672587    0.0342927132479855   -0.4941494477413277 H
  -0.0114108260713255    1.1633620349965825    0.5675817083398998 H
   0.8191025049542354    0.3129374873198926    0.3641629330221845 H
   0.7729742445983137    0.2015148370137301    0.3787163699663629 H
  -0.0603525932762414    1.1966908697984917    0.4519440015173661 H
   1.1367930650653035    0.6157464643454146    0.3355512566680980 H
   0.2511217478318800    0.5418710039975160    0.5879416720336088 H
   1.1309675888863340    0.5979436973211396    0.4601151557271924 H
   0.1569178536544950    0.4549113036203948    0.5443326974685817 H
   0.4943175452135135    0.5985890546058391    1.3916069909291233 H
   0.4356839293267370   -0.4158591495522908    0.5803754959916471 H
   0.5885888088433082    0.6281207315892445    1.4738634872517034 H
   0.7907597800345143    0.4859969435093560    0.3437018763709210 H
   0.9703508885233174    0.6070768191413181    0.3885871495250726 H
   0.8162492104992299    0.6225861347521060    0.4695791940894918 H
   0.1068274769150808    0.9374231675733002    0.4155410593330131 H
   0.2328059751761240    0.8145045421993945    0.5800303583162465 H
   0.0948057547943497   -0.2505200491122979    0.4576289008023391 H
   0.0558372028078296   -0.1519447153328168    0.5409950502918248 H
   0.6622339238905857   -0.0015966503702753   -0.3753123067699435 H
   0.3464645820458880    0.8682606501648387    0.5777439199403092 H
   0.3608594525713907   -0.3024836752251835    0.6170643416965835 H
   0.4841820092438996    0.9807713935937824    0.5496424471063800 H
   0.4234845103680026    0.9367530808994466    0.4001038487989647 H
  -0.0277237445360263   -0.0296114585318561    0.6267692656218056 H
   0.7026769950449092    0.8878766398196722    0.5359253964282180 H
   0.7720025393200255    0.7180024884977059    0.5488305442910213 H
  -0.1163358156470350   -0.1022250818551099    0.5773277012791282 H
   0.7688187382573153    0.8573238783808709    0.4365897188000615 H
   1.1198238888759515    0.2905637719132591    0.7372085830175968 H
   0.1043395626666747    1.0183201789965077   -0.1499997980431236 H
   0.3600327897612321    0.2756918363648629    0.8489668475939807 H
   0.3816108290772110    0.2663552953758360    0.6743327123624175 H
   0.7341749880827905    0.0511311138674728    0.8056651008452710 H
   0.7769545903630463    1.2090715188201679   -0.0601147323688411 H
   0.8596272120332438    0.1772688675314604    0.7822944625093953 H
   0.7483511060334094    0.2301642332098949    0.7387147101274111 H
   0.0294817023662047    0.4388563460037547    0.9256000481525974 H
   1.1175650307657388    0.3579904457475475    0.8338660870592929 H
   0.0992796412416190    0.5129503822428866    0.9890990621164519 H
   0.2904496564033722    0.3433211316457689    0.7708496340100145 H
   0.4043095790485727    0.4513167672485087    0.7959893991030922 H
   0.5818035161129467    0.5569830539373763    0.7993807519135498 H
   0.4048517049950237    0.5693317940698214    0.7388900432256696 H
   0.3827513542774202    0.6090591588848018    0.8989683721468615 H
   0.6596588256449433    0.6628368053504768    0.8181255976525812 H
   0.7266890530473664    0.5968181112535117   -0.0113455941516468 H
   0.2805257397725045    0.9010470338498188   -0.1325762688508774 H
   0.0629270847212631    0.9339610530917233   -0.0659812830619197 H
   0.3190555184783882    0.8610093550870657   -0.2455981953966912 H
   0.6601399227933289   -0.0498773524881046    0.7926770251657240 H
   0.3599416428550306    0.7310643923044664    0.9035254531241182 H
   0.5668039056793415    0.9666357556643945    0.9628464847015450 H
   0.4933054182637795    0.9128134367537957    0.8847521749907747 H
   0.6453757091522617    0.8046486840381311    0.9057447594579295 H
   0.9282251662223339    0.8191528696381386   -0.0027896548721290 H
   0.7589344507161006    0.7810273310625606    0.8729053440273691 H
   0.9054622171257345    0.7143417411806652    0.8048579367622978 H
   0.9038453502678980    0.8314617236590448    0.7780122280104895 H
   0.7071630079936123    0.3979459591205304    0.6325260356812898 Cl
   0.0042975902598106    0.1128272702847436   -0.2613813333948711 Cl
  -0.0592057274216878    0.5639280236785305    0.7514508432018031 Cl
   0.2238648599686471    1.1319397563262330    0.0688828826677444 O
   0.2766904364759013    1.0708980512270925    0.2631718582140747 O
   0.0809712395965384    0.2815878013725439    0.1396299457727566 O
   0.3705479724097204    0.2832757816128703    0.2839772627520077 O
   0.5547598327520461    0.0837016339168043    1.0473143894706274 O
   0.7476124198022801    1.2089598377078590    0.0142426919617055 O
  -0.1095616190617762    1.1939307508799997    0.1641497267120828 O
   0.1894525436776950    0.3858373333795496    0.2782631412839917 O
   0.2174837839527446    0.5986337270507627    0.2342513744662087 O
   0.1596681124764031    0.6303575447243464    0.0393814303294331 O
   0.4336121205196858    0.3780332167958474    1.1151651393417061 O
   0.4729820359262100    0.6184212269852135    1.1075594738631998 O
   0.4132316722930162    0.6468951242906072    0.2983743215274692 O
   0.6725866272714972    0.3632131331924518    1.1433448012599938 O
   0.6921213907249750    0.5900366745696670    0.0568109619160340 O
   0.5741019988298111   -0.0137576864618182    0.2524267825302657 O
   0.9742424651272276    0.8055533010478335    0.0603674595501215 O
  -0.0526227808230937    0.9659337601013097    0.2194933822407288 O
   0.8105473770799774   -0.2929181879559233    0.1762184883088696 O
   0.7532064620976769    0.8735734802218208    0.2997153827925267 O
   0.1741723592893476    0.3056295539637343    0.4907170996831311 O
   0.0926354280704215    1.0060272794202172    0.3731294044840208 O
   0.3850704486039052    0.2392829960299195    0.5975494519449308 O
   0.5247289086131135    0.3025718846531619    0.4289674677582062 O
   0.6464742275174389    1.1243693723561490    0.4002499597141800 O
  -0.0026443958910384    1.1665449466973874    0.4930611926364236 O
   0.8443383092451727    0.2399195783700804    0.3729185308928721 O
   0.1978000151221721    0.5187282843604123    0.5335275978412247 O
   1.0965457616138652    0.6382916900316653    0.3997460745038698 O
   0.3756656730474899   -0.3844512298820953    0.6256019578775446 O
   0.5446980068891866    0.5696811964069022    1.4497828288467542 O
   0.7266581423574372    0.4411250680280877    0.3394196418720153 O
   0.8929949055209467    0.6136715888231608    0.3676553787901965 O
   0.7674047723385015    0.6424757431320965    0.5320459541820682 O
   0.1182747357522042   -0.1761324510922397    0.4988629806535688 O
   0.3019983657100068    0.8087721102490232    0.6158464874735454 O
   0.4105852416859985    0.8958698165720689    0.3363876429341144 O
   0.6157965566353716   -0.0177803603549630   -0.4405535946741495 O
   0.4077795021385766    0.9802688285883923    0.5432585847945662 O
  -0.0440753409922282   -0.1025553388586521    0.6083506026286332 O
   0.7685952301916732    0.8488361138453918    0.5131921175981734 O
   0.4026514979374973    0.2265098676707004   -0.0119418846434716 O
   0.3637951755328740    0.3218847398602998    0.7838961540556477 O
   0.7926255175753708    0.2142209567055637    0.8023629941614044 O
   1.1615453944624761    0.3420703031879089    0.7748191121714864 O
   0.0914184187271824    0.4368843766492712    0.9671508332849157 O
   0.4285546560981886    0.5272902370633538    0.8035105571873931 O
   0.6448581532413954    0.5924170777063089    0.7729409945694210 O
   0.1208094123264007    0.9816409108253304   -0.0801532520490764 O
   0.3566215177239145    0.6699740261492485    0.9490172840235961 O
   0.3395524762286373    0.8793649436172698   -0.1731777279286614 O
   0.5673476167893786    0.9142094506576574    0.9053024777686292 O
   0.7238888615724958   -0.0148052552952760    0.7586118576248164 O
   0.6957125788293167    0.7463830523020984    0.8994264496107799 O
   0.8909658961307206    0.7837148572580520    0.8369383652224693 O
