Li1 Co1 H90 C51 N3 Cl6 O45
1.0
  14.9614392819000006    0.0000000000000000    0.0000000000000000
   0.0000000000000000   14.6013203396000009    0.0000000000000000
   0.0000000000000000    0.0000000000000000   15.0909700594000000
Li Co H C N Cl O
1 1 90 51 3 6 45
direct
   0.8816834992378355    0.3665301181897508    0.4530737257305144 Li
   0.4122193074807428    0.7078828098694500    0.5402668614150149 Co
   0.0306296828176416    0.1221974197060099    0.9644114972340383 H
   0.1750790208311663    0.0719670307451653    0.9792905937477934 H
  -0.0615987434721563    0.0402705821202542    0.9645791471591287 H
   0.0778116408297958    0.0647806943345174    1.0993266148166749 H
   0.0075770878432228   -0.0353938081064084    1.1043839437822482 H
   0.2779314250020424    0.3351329575674561    0.3014388744921321 H
   0.3482989865824080    0.2835225564206346    0.0936563404563665 H
   0.5625987567842513    0.1909247660459431    0.2210053440284012 H
   0.4172415515699798    1.1015615913978793    0.2691009930915906 H
   0.6427358998364229    1.0371276923998265    0.1736021620471071 H
   0.8228048055906471    1.1858032881343059    0.1237292912483744 H
   0.8365113746002270    1.0290250005029071    0.3136415360357679 H
   1.0156311738057797    0.3967540972365724    0.0120711278985363 H
   0.1320691213238055    0.6581996316959977    0.1378523064794094 H
   1.0011419260859928    0.3686217098602090    0.1774938933121504 H
   0.2987355731949609    0.3932687959887131    0.1186096733778270 H
   0.5114154457690859    0.3846791618266674    0.1056807497081078 H
   0.5304882097340620    0.4285209504534032    0.2184746916018389 H
   0.5170180150420439    0.5360765662110274    0.0468150839156916 H
   0.3686252395765237    0.4483629231833801    0.2813878109217342 H
   0.9934468108079273    0.4851783609313013    0.2006746430335443 H
   0.7300897950984319    0.4220148949878327    0.0637179071931861 H
   0.8210309120834826    0.5264777767358121    0.1497773185423619 H
   0.7678983233651164    0.4098143544985690    0.3123593123003927 H
   0.2016025385571698   -0.0504431320640540    0.9953849865564726 H
   0.1237544132495298   -0.0559097609814075    1.0949617529329969 H
   0.2236191369467714    0.7359932814195348    0.3274444923189031 H
   0.3119736043942459    0.9028172359213597    0.1721463245553141 H
   0.2190734512865503    0.8522074292180678    0.2984072602340743 H
   0.3796094769151609    0.6573284776014258    0.2145902494639734 H
   0.4212491873909893    0.8865146006484100    0.1729845741807661 H
   0.5144238795936613    0.8284088964882859    0.3058567482098307 H
   0.6819814556239829    0.9410850080819769    0.1077250185575303 H
   0.7591317871028815    0.7684410319640570    0.2703308676408704 H
   0.8450974469412353    0.8607491225101291    0.2514135946705899 H
   0.1736680603211345    0.1582790881953427    0.6406536486153754 H
   0.1964038408560672    0.0924884625767340    0.4128445689824466 H
   0.2118522208979269    0.1973228175801346    0.4650220630004360 H
   0.3414781187449495    0.0448523595516117    0.4155269677838931 H
   0.4450189593560590    0.3140204832959379    0.4887712983769091 H
   0.5599843692735977    0.3124884300651536    0.5221063323753796 H
   0.0274702274263955    0.0647450811168148    0.4344932767006428 H
   0.0713503640650029    0.3084620818560429    0.3917385699150372 H
   0.7305422916712843    1.2235601475948046    0.3736747874724897 H
  -0.0212897873191482    0.0952286257311228    0.5302520645262052 H
   0.5319569186988862    0.5032798746199765    0.6271641248008876 H
   0.5124052903770118    0.4147689749244901    0.4850331026361482 H
   0.0117304315710000    0.5987337765674616    0.4676656968982549 H
   0.1049500726577554   -0.1107602800695971    0.5468932081380151 H
   0.0957972099271178    0.6578010376055567    0.6163623009712482 H
   0.6361609976397468   -0.1813491019040638    0.6156486291557449 H
   0.6062561207378783   -0.0581684608272396    0.6205084890395909 H
   0.7042821175932924   -0.0974628524750923    0.6698697956400240 H
   0.4358199780677747    0.0001296916823929    0.5456158217324943 H
  -0.0611048070359111    0.7509460387676405    0.3872332266712044 H
   0.7433679293913227    0.9850043239441729    0.3710056416295483 H
  -0.0998878404772173    0.6302624321474276    0.4857733466334545 H
  -0.1473398259863175    0.6069885095091884    0.6718988235871657 H
   0.0791270223000670    0.0330547963180446    0.7458006334516232 H
  -0.0491440593679719    0.1034189809331563    0.8173666093795443 H
  -0.0394705248053519   -0.0252365074958759    0.8168994425922371 H
   0.4640360468594123    0.2738227486836666    0.7324847233935530 H
   0.3335223333584460    0.3554003027881080    0.5875324776870254 H
   0.4381853922056253    0.2235868807662523    0.6254670834643006 H
   0.5523767455780821    0.2496893147335658    0.6658011373789366 H
   0.3588487737403154    0.3798919235239487    0.7011123200201131 H
   0.5490477877778621    0.4150811384750451    0.8796091289990781 H
   0.4257968782058905    0.4636988650565747    0.7694664414543062 H
   0.5239455236892493    0.5226594919024332    0.7908878609341388 H
   0.3746460506965459    0.4690940415315645    0.6207530061240113 H
   0.6057534952980185    0.4102365765892165    0.6612845291203745 H
   1.0138973833922211    0.5618569745059606   -0.1081862175773816 H
   0.9265414829755317    0.4691284356814304   -0.0412441988719144 H
  -0.0082556135123595    0.4809529211378415    0.7169323765877353 H
   0.3567259833187801   -0.0754723754132901    0.6492216862889681 H
   0.1690729141787996   -0.0049273852313804    0.8866053657939577 H
   0.0504513052172172   -0.1303263188493357    0.8911352270110249 H
   0.0503684254904318   -0.1579395750907261    1.0059403053579157 H
   0.4290418868634957    0.0083481265368457    0.7011527415435539 H
   0.4776340033238096   -0.1984550891840362    0.6708134062855922 H
   0.6029522942096511   -0.2571484114362537    0.7677846410200002 H
   0.5889208901418641    0.0329479566649367    0.7318180995807430 H
   0.5495153230108167   -0.0112631136345924    0.8305248092314030 H
   0.6672342113353319   -0.0222456820784262    0.8017778169378375 H
   0.4477486432608292   -0.1612009239888014    0.7754740075447002 H
   0.5861878643126267   -0.1886984372726583    0.8663455681271034 H
  -0.0887184605230998    0.7124385622571017    0.6617059732008390 H
  -0.0432188272877103   -0.1027945620869186    0.9506595648411482 H
   0.6887074128065743   -0.1829900493966696    0.7957033234069926 H
  -0.0735441182875466    0.7551271674998434    0.7931713456845796 H
   0.2306398518673656    0.2946386744308532    0.1820462845586765 C
   0.0690116853228895   -0.0068347469871847    1.0798725970269352 C
   0.4599427909335544    0.2582371718517679    0.2314970486290196 C
   0.3236208795471662    0.3274206413261233    0.1474560628601813 C
   0.7557243609161728    1.0669092457036500    0.1020852220656550 C
   0.7122659751453201    1.1047941757739641    0.3206172307449645 C
   0.4087704414306413    0.3496172641288580    0.2085044909183991 C
   0.4803351471936304    0.4136388031580886    0.1687800730950008 C
   0.4431040366363805    0.5096899113716641    0.1584301751503878 C
   1.0375321416088179    0.5389263769837660    0.0246196916591571 C
   0.8450540019231624    0.3569796120193053    0.0728034728964058 C
   0.9710973567413973    0.4550160201458882    0.0163080987326394 C
   0.9521406243939209    0.4254266412437446    0.1816109248717817 C
   0.8987754377326409    0.4047663863500927    0.2624400561468919 C
   0.9033084240798867    0.4425705702979617    0.0942904945208389 C
   0.1992651965848433    0.7528931229585747    0.1935259972158553 C
   0.2445743401256051    0.7841211207967819    0.2787246289101202 C
   0.3951113277484951    0.7882680060504246    0.3556103423820169 C
   0.3660633202800045    0.8886267384060044    0.2169320472318371 C
   0.3634472618071174    0.9758729579513046    0.2734307346352298 C
   0.3464803112873835    0.7960789435100107    0.2637633640536331 C
   0.7633840517948866    1.0183430898008321    0.3111281124552623 C
   0.7008512979353135    0.9982942179733945    0.1509296632843865 C
   0.6756685603055317    0.8752765758545168    0.2617853599967364 C
   0.7428940445018805    0.9474303246591858    0.2326937907820364 C
   0.2088164167119655    0.1235390791959993    0.4761804576786569 C
   0.1269125318709890    0.1101902863836543    0.5344119694066007 C
   0.2968173085508152    0.0994111242024682    0.5249129113980197 C
   0.0337463615757081    0.1160918074787226    0.4865290303274193 C
   0.1350634856463742    0.0090802521084632    0.5747615955474804 C
   0.4981762783154821    0.3529854526800412    0.5215496418533700 C
   0.0150021756243425    0.2136555871142173    0.4591068037660307 C
  -0.0176571154233533    0.6009965856307210    0.6002964020233552 C
  -0.0377547807839157    0.4954017514554551    0.5943345586398042 C
  -0.0013124312394032    0.7379889913500244    0.5004736607369747 C
   0.6360453670531833   -0.1165816714248345    0.6519922172644742 C
  -0.0804979947187978    0.6395937800550876    0.6760615778536397 C
  -0.0308971517773185    0.6394451633581363    0.5068927775743090 C
   0.0071179074214360    0.0539707130226271    0.9419397807926712 C
  -0.0033363006967108    0.0446653901586729    0.8388463418767995 C
   0.4822117046204260    0.2696964095171601    0.6626376561837524 C
   0.3782392878836284    0.3952323170493561    0.6341378315663083 C
   0.5011169044926189    0.4566955257953527    0.7642679684806531 C
   0.5332939558397046    0.4362054609901451    0.6659064983990528 C
  -0.0447180146036749    0.6239917663534801    0.7730652823363854 C
   0.1645613161481436    0.0015761362167766    0.9575597176868652 C
   0.0303128683781555   -0.1112800960741412    0.9543876220686527 C
   0.4308699195470282   -0.0603353881505304    0.6650457187441420 C
   0.5963279315308612   -0.0225881168640284    0.7773439999897797 C
   0.4815390420636775   -0.1365689049908638    0.7126245024256296 C
   0.6159924834804806   -0.1900750251107791    0.7963182606816325 C
   0.0677323966368634   -0.0137834336566246    0.9797988447064666 N
   0.4720703006324046    0.3670937658468520    0.6239350414611028 N
   0.5814051025307059   -0.1173316036053033    0.7360219380185831 N
  -0.1295347208102217    0.7221486430376378    0.2835361154954224 Cl
   0.7211601729222000    1.3584178148606640    0.4276898704520134 Cl
   0.5446051002297188    0.6399355299711186    0.5315672218634658 Cl
   0.3178941577802534    0.6997705297985338    0.6444267659017975 Cl
   0.6175591776706818    0.5082605200896033    0.9793595091320203 Cl
   0.8579919283052971    0.8667239246493162    0.7629148414172752 Cl
   0.1717484589072020    0.2613108664873333    0.1318778727852785 O
   0.2178489701617856    0.3086100136834231    0.2700419531454577 O
   0.5361061852788135    0.2423105299734095    0.1858319921556785 O
   0.6395858018336847    1.1254751822156235    0.2867181508325138 O
   0.4210787492431645    1.0369592144853101    0.2502069127986941 O
   0.7688186893633702    1.0675269980568765    0.0221937376047856 O
   0.7967752243008888    1.1274948625811052    0.1562772320412228 O
   0.8797465198166737    0.2827883762403035    0.0738994925647835 O
   1.0716912883573717    0.5590955803948643    0.0959245843045265 O
   0.3921711026022942    0.5384827869624970    0.2165159043347747 O
   0.4677434441862928    0.5591332482212806    0.0878078098680347 O
   0.3795506590445391    0.3814226070155906    0.2942995057453967 O
   0.7559756736361026    0.3621428437166154    0.0642407364062151 O
   0.8507018542726503    0.5226521637980214    0.0916067704235419 O
   0.8099711472518876    0.4267766561425027    0.2542059930276294 O
   0.1701623815550914    0.6639491117462587    0.1926963620134316 O
   0.1956298511494747    0.8006120952018128    0.1262440401247305 O
   0.4770323900812328    0.8154559582880969    0.3602455646192003 O
   0.3881454203891622    0.7278337453482056    0.2105500850636722 O
   0.5966795019848057    0.8943358111515642    0.2728568815319559 O
   0.6978388872206223    0.7909944718133892    0.2801320931033693 O
   0.8225374516332750    0.9056847848159925    0.2035836674254292 O
   0.1197715076695772    0.1699602236018050    0.6045651799578706 O
   0.3101662916424097    0.1249122426862641    0.6028237412102913 O
   0.0868067647255838    0.2497338312556941    0.4148159465600907 O
   0.3609067308271880    0.0630534532759399    0.4762468550007678 O
   0.4315189212785492    0.2101613825619324    0.2917688533188344 O
   0.7618313936874475    1.1618533992292879    0.3653201224308301 O
  -0.0541522673744468    0.2538622250309142    0.4756538513724539 O
   0.0704186355235607    0.6007589358895131    0.6287531545256575 O
  -0.0153264572999610    0.4424593474795981    0.6639145787357257 O
   0.9287317802713035    0.3718693613668603    0.3305337569464584 O
  -0.0697276405460583    0.4620119628157411    0.5271675046989193 O
   0.0373142001368402    0.7770491576045252    0.5622932121858160 O
   0.3104516919919045    0.9862548957811922    0.3341511519704446 O
   0.1188838925311015   -0.0530963167828998    0.5123284142283560 O
   0.3565615606349962    0.7549134881936276    0.4239584999848827 O
   0.4693033208505809   -0.0428691594761045    0.5819609339314517 O
  -0.0218064488417700    0.7833211931376151    0.4294803451460620 O
   0.0803481615003646    0.0528591697085624    0.8044012400739360 O
   0.5323808083982998    0.3826437294610480    0.8226465880480043 O
   1.0525293618476119    0.5810031882385508   -0.0552015521216348 O
  -0.0206862357603804    0.5496930060517990    0.7997819213869587 O
   0.1422118620816137   -0.0100625372762711    0.6523758904131989 O
  -0.0372528237289494    0.7010560299836845    0.8219938798416246 O
