Li1 Co1 H90 C51 N3 Cl6 O45
1.0
  13.5643056797000003    0.0000000000000000    0.0000000000000000
   0.0000000000000000   13.2127410086000001    0.0000000000000000
   0.0000000000000000    0.0000000000000000   13.2562171583000001
Li Co H C N Cl O
1 1 90 51 3 6 45
direct
   0.8122239796164535    0.7824138836878163    0.5468799652667802 Li
   0.1682912781386454    0.3444729601327637    0.5979433260971491 Co
   0.2946862474414839    0.2697897434286957    0.1295133112710846 H
   0.0829260536043064    0.2684047166588461    0.2034786053132154 H
  -0.0432669149426733    0.2505863094224702    0.1849491864702082 H
   0.3808403070443228    0.1402677919361090    0.0743399544026765 H
   0.6392494053622488    0.0677355293740697    1.1104681224902169 H
   0.4971428688747409   -0.0380335914382119    1.0784853935610559 H
   0.5775278532408640   -0.0776128127110438    1.2189145957814222 H
   0.7520506084706293    0.0132192106532865    1.1517212185635262 H
   0.2907501816183801    0.6103186311947885    0.0376839465689669 H
   0.3193495076112001    0.5051573327862589    0.1037736906896307 H
   0.0394376500008094    0.5201970508788680    0.2281809767431350 H
   0.0134724433535504    0.3482579431251231    0.1237997657629244 H
   0.5836240001393928    0.5519442182324833    1.0794909594657798 H
   0.5451007603703258    0.6389947400925097    0.3187558357441607 H
   0.5736836461556434    0.3703442006102322    0.3229795142892081 H
  -0.1246194018341664    0.4378865825746661    0.1971306405058260 H
  -0.1601641625749656    0.3505965948840494    0.2924889154122178 H
   0.8373944533629250   -0.4510084614101894    1.0701700499993385 H
   0.2255083608501849    0.8960428422076867    0.3006684736304619 H
   0.6113128482727760   -0.2062348752258430    1.1787500455449595 H
   0.3757792297123116    0.7304768935089168    0.1573606221284559 H
   0.3594385481297876   -0.0234779439858913    0.2663728676841345 H
   0.0420511269333629    1.0361954417927908    0.1847990682293680 H
   0.0097582834702769    0.7215181165282015    0.2367973111495524 H
   0.7029047092450124   -0.1282048889172533    1.2252293686159625 H
   0.8663800873705990   -0.1425039658367984    1.0281226096667089 H
   0.7760135010561634   -0.2849263442649511    1.1653955570143339 H
  -0.0723940969252558    0.8250863314133121    0.2558374337566241 H
   0.2594747142249482    0.0400009359417544    0.3344752523402844 H
   0.0832909819771171    0.2802304233686272    0.3671293643566201 H
  -0.0430848193707859    0.2801282492626547    0.5197314963104862 H
   0.5506148649449475    0.1117725690482207    0.3567184003272937 H
   0.3981622404737378    0.1390212678432444   -0.3904080145261964 H
   0.5940395719597357    0.1198980594313380    0.5512851435542705 H
   0.4809851306774955    0.1970834064638884    0.4643841078935261 H
   0.3938568229036075    0.2441183100917957    0.3625790466242169 H
   0.6159986760254726    0.0234282959530136    0.6363200359778765 H
   0.8920762054197249    0.0010877384708173    0.5840464505556484 H
   0.7562196386691034    0.0479568929934804    0.3479557194951327 H
   0.8593712509255255    0.1068038801170390    0.6663187901662846 H
  -0.0479962392084929    0.2413717187542088    0.3628475998590869 H
   0.7521722512615664    0.1916386618833978    0.4591432462532579 H
   0.1356003309961296    0.4465737278025405    0.2709163961493640 H
   0.0529584305207052    0.5020977859463044    0.3559866681985751 H
   0.0232119761478985    0.4738318871629321    0.5490836105187523 H
   0.6495300642690072    0.5570341537694190    0.3509098050787021 H
   0.3394227798028971    0.5950477650006604    0.3603053964840539 H
   0.3734798123490861    0.5140244406727863    0.5194395578220180 H
   0.4754757443687042    0.5738417942018966    0.5777761851392467 H
   0.5990269263881487    0.3950113003276839    0.4663803033151915 H
  -0.1305157596639443    0.4768059104919615    0.3221979942012157 H
   0.6611827064117265    0.4778060057781250    0.6041630491912579 H
  -0.0874416787786688    0.3874072763076410    0.4620372091041893 H
  -0.0119214107908232    0.6520117211934071    0.4866865412702222 H
   0.1091242246269355    0.8711766921948959    0.6593967551012098 H
   0.0933246691568217    0.7314138679029462    0.6915680747851950 H
   0.1934580657399367    0.7782096084383548    0.6026935500296662 H
   0.1847889895058334    0.8038371447519482    0.3717649251102039 H
   0.4093452677205372   -0.1490771666543631    0.4849200048805148 H
   0.6322553134978949    0.8175822109635535    0.4819289773855273 H
   0.0067673452713011    0.9805272046328212    0.3376254723088712 H
   0.3644937276295109    0.3498185579881995   -0.1413573267941476 H
   0.5750169985901191   -0.0236119055914997    0.9603280051224324 H
   0.6350014916569250    0.3212756538508573    0.7117110761264799 H
   1.0837874556233928    0.2700001464024761    0.9527692876690703 H
   0.7536437604173848    0.0636939758489349    0.7869602960274553 H
   0.7303782864998890    0.0370416710946988    1.0193207019575443 H
   0.0960140806800812    0.5086852381595391   -0.0509650236437919 H
   0.3426186676738758    0.5318256069748359   -0.2071958680293853 H
   0.4648741696625832    0.3958294500206934   -0.0794354383551031 H
   0.9768980921545458    0.4797942381958270    0.7719137712445451 H
   0.7537337023597745    0.4754614506264092    0.9401653903426459 H
   0.8228415521926554    0.3682886089671112    0.8860428611601194 H
   0.9066394277964982    0.4181245967891241    0.6845615510619587 H
   0.1131811960119402    0.7649489231735822    0.8707496596698989 H
   0.2234234771364299    0.6602832827058038    0.7923441848961823 H
   0.2302059842674573    0.9742839883352863    0.7267402505599462 H
   0.1920248924939892    0.8745809820368541    0.9102315113738974 H
   0.3276226918529814    0.9280097141629521    0.7952763939521921 H
   0.0826208407834102    0.9938915776940253    0.7953593738843149 H
   0.0123348989510313    0.8870659009414650    0.7716776556195049 H
   0.3234735668384791    0.8912671488100087    0.6640021413340217 H
   0.0473916140700110    0.9124588152339363    0.9851993538686746 H
   0.3139389837161338    0.7397020800103902    0.8541423578000620 H
   0.3250696677013785    0.6943065031494196    0.7213005388277911 H
   0.6668954942115451   -0.2366199406516081    1.0313173370534343 H
   0.5365975606693183   -0.1432320509475062    1.0029238673700913 H
   0.7080601518936293   -0.1449811202727097    0.9356014940758953 H
   0.8363527487350835    0.6483493471282148    0.7746113734015534 H
   0.8174863204752877   -0.2713788146582259    0.9947767467616772 H
   0.3397862337176358    0.1255562343665267    0.2177624690836157 C
   0.0145937687172778    0.3070363677044368    0.1927161081168964 C
   0.3326955648495683    0.0481120462655127    0.3006760172606548 C
   0.6993977107208497    0.0136627219577301    1.0873061603457030 C
   0.0592506803428051    0.4659340558248261    0.2816788933456831 C
   0.3451938086965582    0.5484612921711879    0.0381267576612946 C
   0.4465037490981957    0.5885827930509036    0.0597550997875765 C
  -0.1148002483039324    0.4131876953575784    0.2767687444530749 C
   0.2405227673969787    0.7546550712081594    0.2235107152906635 C
   0.0845265778414216    0.8707165302954050    0.2665644758910361 C
   0.0823864019499681    0.9016684727980100    0.1506460368936879 C
   0.1872675535248023    0.8264600055047203    0.2947127775931073 C
   0.6330957545989135   -0.1283903159984627    1.1829261992197913 C
   0.0024434969752711    0.7937968359383831    0.2751928801057622 C
   0.8072550559139401   -0.2000514497014327    1.0448083652905527 C
   0.3354410057795625    0.2184801779449904    0.5046480831759323 C
   0.0062903580850212    0.3082019093577528    0.3714066026760376 C
  -0.0176902279973764    0.3486515026444246    0.4725340950814137 C
   0.4178845916443078    0.0019755179249340    0.4765206773294958 C
   0.4082239423568097    0.1871240800898718    0.4267725484232723 C
   0.4103257823383922    0.0781035521719762    0.3804876247023422 C
   0.6480909931907718    0.0963102210110478    0.6113264804225079 C
   0.7245947247126162   -0.0163378660914866    0.4825593457553430 C
   0.8301408568779055    0.0354939226005227    0.6268339210102090 C
   0.7500357615152927    0.0764528727265982    0.5594336220161195 C
   0.4593793804887043    0.4656320745782850    0.3470572731391492 C
   0.5874502188361355    0.5985754206150149    0.3770401857041521 C
   0.5150856597368075    0.5224640142576631    0.4343735856420169 C
   0.4418603857379715    0.5661512627721302    0.5056630786183973 C
   0.9298790986977347    0.5770988019622083    0.6464481138749663 C
   0.3859419319733129    0.6625734963700469    0.4795978146087731 C
   0.6401687299701174    0.6785838003533241    0.4403501020987042 C
  -0.0297667768357849    0.7600173196586425    0.3829785313920629 C
   0.3608931010177786    0.3042519341053786    0.0037994684681568 C
   0.6531867202874740    0.1763322239634867    0.6912014543578163 C
   0.2281328962182781    0.4606149475524202   -0.0770078981590034 C
   0.3328098353501455    0.4884711660131042   -0.0614921595780901 C
   0.3854280833352340    0.3885402736160918   -0.0701054765324303 C
   0.8219074830040671    0.4535088520088166    0.8990797628596207 C
   0.8211562466164023    0.5076683106354732    0.7952009576502623 C
   0.9114070879721889    0.4788558257958618    0.9623851530760570 C
   0.7243477529855625    0.4722338841455220    0.7353890225761933 C
   0.9139107177783811    0.4903573000093567    0.7242086082671834 C
   0.1474041050912251    0.8402111264781611    0.8496667220065692 C
   0.2776864831007926    0.9078942816552682    0.7325956163157342 C
   0.2761840103254629    0.7222492290198270    0.7831190795331917 C
   0.0614387761215974    0.9205888466884302    0.8274703445267563 C
   0.1450626656729487    0.7936333573688271    0.6673507587766837 C
   0.5553360796913713   -0.0689174178701687    1.0283225158668226 C
   0.8145941709671334   -0.0444660190431033    0.7065746183280823 C
   0.7062819554588425   -0.1670363471034123    1.0172952372507302 C
  -0.0080008267774750    0.3757299112628275    0.2836990775113621 N
   0.6475705094913690   -0.0852463536950343    1.0796154293639639 N
   0.2132747822271123    0.8142119791569196    0.7529453131243067 N
   0.8770448426051036    1.0796406284975306    0.2977536149238959 Cl
   1.6949857134455624    1.6031073335134078    1.1473730701202947 Cl
   0.6770803133436258    1.2935727715827681    0.3608206264262341 Cl
   0.2685831789644964    0.4711986712407132    0.6546239002781137 Cl
   0.0982390379106726    1.2043445032595916    0.6573086782637939 Cl
   1.0772003141869007    0.1736537486965481   -0.0253362944261749 Cl
   0.3042709621382759    0.2147451467377732    0.2234511206121390 O
   0.2940028361251293    0.3263427326618643    0.0726056738213113 O
   0.3797528942162505    0.0911114511301207    0.1340613659144299 O
   0.4981745398154026    0.0768986545667301    0.3241721622227176 O
   0.2001211417671351    0.6792271187983362    0.1881378789527792 O
   0.5159538943724826    0.5280337366908888    0.0460724633435564 O
   0.5099771564609117    0.3989287312351929    0.2903970667597056 O
   0.9040952503933271    0.5335574202288085    1.0489234155608214 O
   0.0891431060647361    0.8403518996908343    0.0811163974050269 O
   0.3320490149850128    0.7833773476648757    0.1986589799829230 O
   0.4571740335504701    0.6722868480444999    0.1052205589606436 O
   0.0550735406249354    0.9996057591761914    0.1199487425494101 O
   0.8211031661258116   -0.2248411583460515    1.1477992852261978 O
   0.2604309002846159    0.2650685428875364    0.4825464084295620 O
   0.3664643408426887    0.2070397054569872    0.6005353174314556 O
   0.4346942983395231    0.0228788263164503    0.5648305613650804 O
   0.6969545336956079    0.0076382339314992    0.3916868980868345 O
   0.7887719867528546    0.1685503413145287    0.5194104394094731 O
   0.0579472594071902    0.4042296752220925    0.5208154405329150 O
   0.3699617553893837    0.4871014275168891    0.3317474756625042 O
   0.5674490476441574    0.4540462878062321    0.4992961038629216 O
   0.9628236526286280    0.5521523506705754    0.5598967254736663 O
   0.7209336453199335    0.5037200080110560    0.6402827049182469 O
   0.0102455918630605    0.6721793760219213    0.4185275869312552 O
   0.0749072133799385    0.9626876057300213    0.3206794614433696 O
   0.3311864570129148    0.6639085713547542    0.3961021848387835 O
   0.5858813954475673    0.7633618187274759    0.4534118977778424 O
   0.3888466143750790    0.7342868523938472    0.5389774091492223 O
   0.3970733531875936   -0.0882775188388854    0.4397314489865782 O
  -0.0896231394961373    0.8067351051354203    0.4354478740177987 O
   0.7155378660055868   -0.1008093621477209    0.5231396329953708 O
   0.8285056828760992   -0.1348885891383142    0.6986394737280909 O
   0.8992804075593336    0.6640251255200859    0.6651442469452383 O
   0.7245578632608173    0.6678820088092406    0.4766084851849420 O
   0.4069817114311813    0.2258541210152878    0.0038409584342182 O
   0.6284799636046349    0.2656278515120822    0.6583632777647720 O
   0.6849590800511572    0.1624448708487493    0.7792846523061020 O
   0.1984041353423348    0.3840196370607303   -0.1148165726861997 O
   0.1656844362674157    0.5314499090029489   -0.0455645387886403 O
   0.9961537773453395    0.4557105147812168    0.9383307794797140 O
   0.3714000892385831    0.5543188201398074   -0.1408677451946234 O
   0.6688351438052117    0.4079730317268334    0.7762890767564712 O
   0.8084736955104170    0.6041336919799193    0.8297930282631737 O
   0.7771827463072297   -0.0114501595998536    0.7936643201799531 O
   0.0177874449011485    0.9380469955955995    0.9213825055251547 O
