Li1 Co1 H90 C51 N3 Cl6 O45
1.0
  14.1383369960999996    0.0000000000000000    0.0000000000000000
   0.0000000000000000   13.7980299661999997    0.0000000000000000
   0.0000000000000000    0.0000000000000000   14.2607416490999999
Li Co H C N Cl O
1 1 90 51 3 6 45
direct
   0.7851363986982367    0.6766421370275688    0.4360930853054535 Li
   0.6864232331834395    0.6612479104227328    0.6273271786719868 Co
   0.1285372525213747    0.1746124982335813    1.0439338423496045 H
   0.0533282657577040    0.0681501986445512    1.0302767686298593 H
   0.0056946579164303    0.1925839043406440    1.0274711641960588 H
   0.2250662856301812    0.0438532518469839    0.9885931020557920 H
   0.4508653312237765    0.1612062365822346    0.2187425381692451 H
   0.3623730990507055    0.2811153833265836    0.2650444778752822 H
   0.6069216623614924    1.0094693602796967    0.0783199676414086 H
   0.0139735665343454    0.3075032083198549    0.3182352598601638 H
   0.7648065678221381    1.2343174007318385    0.0939867545096848 H
  -0.1988166647941257    0.1507909816254012    0.3290523690818105 H
   0.7227811160194332    0.9940787573805726    0.0243774715967833 H
   0.9797568834666376    0.5048814577272983    0.1843971996131041 H
   0.3317563440448371    0.3626864483813125    0.1641913781284841 H
   0.4932329732007101    0.5103853593847111    1.0375596998094276 H
   0.5866900042761812    0.4193140250653763    0.1759025502476803 H
   0.3901047905578576    0.4902045074310544    0.2484289324969004 H
   0.3867663498336748    0.5771909832497143    0.9829159779628027 H
   0.3769122913232269    0.4559889707815121    0.9991738981821646 H
   0.7631903947173166    0.3959209029464443    0.1376661097162432 H
   0.8873393664446266    0.4597258810597407    0.2476190166955908 H
   1.0205431513395189    0.6800723368543513    0.3395483168861413 H
   0.1730078292358380    0.7260288974324434    0.1812606166007596 H
   0.2450127616604095    0.8030587344891542    0.1232685415495864 H
   0.3554889796506058    0.8740391572305991    0.2762605845782666 H
   0.4089775901009441    0.7485668974775066    0.1981762866223973 H
   0.5765006163701114    0.9300043929846614    0.2466078490891073 H
   0.6372307432751957    0.8085689413945055    0.0615648783284289 H
   0.6739352015253525    0.7729044297790459    0.1788392839064548 H
   0.8376079164025210    0.7052310008701826    0.1390531343525985 H
   0.6993299845255766    1.0097367897612270    0.2620923172488636 H
   0.9312264233291215    0.9237600233021011    0.0943009036689807 H
   0.1261564916151037    1.0734741495259414    0.3115336448704532 H
   0.0478085218145849    0.1800234156024296    0.5596921970046153 H
   0.4368578139284518    0.1564425130535125    0.5098174276902937 H
   0.5063616742672642   -0.0339179953983596    0.5628364935007818 H
   0.3869445886181015    0.3137330831795682    0.5286950714078622 H
   0.5691787510030210    0.0752896236379243    0.5240427187019153 H
   0.6385236817590528    0.1631202779392033    0.7109139954961474 H
   0.5614376001144693    0.2205864525990900    0.6376485212516197 H
   0.6212097642829364    0.0018776943638669    0.6084249359532842 H
   0.5174239088174198    0.2084325436417387    0.7540190467708681 H
   0.5871993994053245   -0.0170315267814076    0.7589430543525096 H
   0.4996330894254797    0.0472704063332041    0.8109936431833399 H
   0.3689799581194748    0.0442402636170034    0.6472055277070728 H
   0.6581851171935512   -0.7151927877438674   -0.6527507057171515 H
  -0.0875100804034654    0.2055335790723049    0.5474539835726361 H
  -0.1334574927603214    0.3268190092459926    0.5299224269291022 H
   0.1092414895136565    0.3660644668458453    0.4979706525255069 H
   0.3429295110193954    0.5595718013378379    0.3985080835440741 H
   0.0707249369551615    0.4647367630602414    0.6650776697226380 H
   0.5012419773736362    0.4862639448918230    0.3115126080963931 H
   0.0141928285310608    0.4330391003452465    0.5208361533545314 H
  -0.0349239806234781    0.6641620945561562    0.5354863731776487 H
   0.1254817305026312    0.8408387654991583    0.3806050875932210 H
   0.2139772869704910    0.7431422100269536    0.5871869100881206 H
   0.1701531794979563    0.9090941615453353    0.5926683921823519 H
   0.2929505071100305    0.8723599320037545    0.3842325286669652 H
   0.0245639209756989    0.8487551129971397    0.6748345255316613 H
   0.4736588181868397   -0.0483794801529803    0.7290960793161965 H
  -0.0257404394449211    0.7320717890774281    0.6832071616075371 H
   0.1878455007425978    0.2626033203273215    0.8948897005861823 H
   0.0834202065649828    0.2750188608370642    0.8168481774042350 H
   0.1501020235467154    0.0911955174892654    0.7924925016233810 H
   0.0750684463804171    0.3062595525195679    0.9373173677361714 H
   0.3108253109196802    0.1678941478439185    0.5443013424894260 H
  -0.0475980313303914    0.0705744577657402    0.8948230841349925 H
  -0.0028940466839407    0.1372658624267077    0.7896546408026884 H
   0.3375731526286674    0.1711598314313857    0.9556137513619463 H
   0.2734743834275948    0.0103955770100058    0.8761816974146336 H
   0.3779074578696093    0.1468476650698289    0.7099736516956658 H
   0.3899067474640501    0.3095201629190386    0.7020329707138219 H
  -0.0643545989567926    0.2047783988019674    0.8784298273358444 H
   0.8244649279413422   -0.1160898708601038   -0.2601764527256658 H
   0.1675998381813674    0.6105413963976234    0.8479545539809396 H
   0.3066303338147802    0.3549317181580770    0.8818237602175228 H
   0.2799327101760085    0.4007139784914319    0.7702643449257940 H
   0.5975980764237430    0.5725990233717311    0.9080012206319719 H
   0.5855192866730736    0.4213225001931943    0.9604627277827739 H
   0.5592304098339853    0.5679012512869636    0.7927175951058228 H
   0.4874692826038260    0.3341867276992086    0.9391118045634884 H
   0.3505612430986182    0.5420247311696261    0.8269542436626540 H
   0.4373925302817319    0.4876246463866011    0.7541494747700400 H
   0.5702722317995434    0.3746077154319667    0.8417290713107867 H
   0.9252490583799545    0.5226479070393019    0.0199478282055515 H
   0.8089192523742209    0.5078612309341051   -0.0116529125615629 H
   0.1370615931162583    0.7500613137130497   -0.0009739448229101 H
   0.0897865847341288    0.0150447914382353    0.8803105149368076 H
   0.2628649319736241    0.6942337787760355    0.6903645733685476 H
   0.1705711918852428    0.7484277471781738    0.8423440463391404 H
   0.5000189905396988    0.6407833947859570    0.8684191277864974 H
   0.0655857186708581    0.1448285362472182    1.0124649320332662 C
   0.3993894751736091    0.2299428607469377    0.1214004760130593 C
   0.3820564606848755    0.3060957610213949    0.1948770192239889 C
   0.5350777106803157    0.2859972396615101    0.2828542107944693 C
   0.7180118139424917    1.1060976473080650    0.1313207174339484 C
   0.6854860649716721    1.0079133410470531    0.0928009816785034 C
   0.4708289238356840    0.3643939385127090    0.2292258639091399 C
   0.4326904213973321    0.5109737767181919    0.9840982446649742 C
   0.8695062931440292    0.3795468263171397    0.0562285499752115 C
   0.9132320863664237    0.5193666415172740    0.2168071549557261 C
   0.7435445198116174    0.5455900952194586    0.1790854141629567 C
   0.8452842081778505    0.5534151253335028    0.1380637047459770 C
   0.8609013207180953    0.4891687073903958    0.0496384298880188 C
   0.9263340516153139    0.5939520716490383    0.2885769145645886 C
   0.1808658962794123    0.8039769815165224    0.1641689389028201 C
   0.0966346319992850    0.8348799438266871    0.1056572555323651 C
   0.1942140008020345    0.8529687579988118    0.2641251708488606 C
   0.1845374737792497    0.9649934458554430    0.2601246776484526 C
   0.2960626128698619    0.8377245528104439    0.3124978303482027 C
   0.3269269217429897    0.7307128994355061    0.3186307512124916 C
   0.5346780880088828    0.8357786228432115    0.1614117190493574 C
   0.6369619705050285    0.8276999333293418    0.1366970156578797 C
   0.7028791996853114    0.9176540791777309    0.1561251777280821 C
   0.8095635997258587    0.8883317772990502    0.1450331879920516 C
   0.0555187638345672    0.2000168494966723    0.4295001603150528 C
  -0.0028487796910705    0.2907037086399860    0.4547125937807899 C
   0.3852845631139369    0.1772918662368806    0.5660402539449578 C
   0.0400515982082052    0.3292874775768654    0.6301902836215514 C
   0.0375845470967752    0.3582582800015024    0.5264683288736123 C
   0.5513048666791638    0.0274552587599815    0.5830540955788752 C
   0.5616489403874324    0.1740602454831042    0.6963895054593287 C
   0.4087696448524463    0.1103294083886710    0.6499978088506355 C
   0.5172530047004317    0.0105463231676164    0.7490396423508685 C
  -0.1775171300551343    0.2373402935869904    0.4250824377624549 C
  -0.1034242575844213    0.2641839807588053    0.4969915309381747 C
   0.4392307945703232    0.4444226094682708    0.2897816204924239 C
   0.3878053687794003    0.4191526252129730    0.3814058874591046 C
   0.0457156306910983    0.7762520091155997    0.5513107254836342 C
   0.0364747984746899    0.7724543655296413    0.6582259924112995 C
   0.1096885010682505    0.2592434203913477    0.8870850574099263 C
   0.2403311643821541    0.0707665141684652    0.9176921612156070 C
   0.1409545545031019    0.0798511443879285    0.8656815422554909 C
  -0.0199462643575260    0.1372767335438431    0.8663673410898465 C
   0.1188932611497154    0.6272263869769997    0.7150287885022815 C
   0.5399608168065202    0.5719257388504800    0.8635547243980258 C
   0.3402424906144864    0.3810803785743702    0.8158524367653954 C
   0.3987840291439692    0.4783675277752565    0.8196621965476596 C
   0.5310478166400395    0.3951157155372840    0.9096533086214831 C
   0.2242649183970246    0.7535676113597800    0.6633575628303329 C
   0.2630735845188856    0.8560126707967173    0.6852926071426841 C
   0.1247242156688177    0.7395279259500119    0.7142833854747558 C
   0.5141280615043409    0.0825754463420539    0.6686321833129744 N
   0.0759504454446238    0.1537537234153626    0.9081526854052038 N
   0.4764041198450692    0.4870808006333752    0.8943448481380286 N
   0.8440443169512633    0.5916126072415051    0.5750876796100978 Cl
   0.6577069845813589    0.7609976575512388    0.4997305890433656 Cl
   0.8609628555365285   -1.0297666805845553    0.7474359389416954 Cl
   0.5910661908119149    0.5313958949981397    0.6286756358892321 Cl
   0.2448125966763113    0.6696621550855144   -0.0648170479659685 Cl
   0.7292182238649391    0.7260477407021447    0.7662897970800600 Cl
   0.3756851314383843    0.2469648559575107    0.0392287328573340 O
   0.4306307732217346    0.1430587183775789    0.1531106080052856 O
   0.5134287784130744    0.2017170922166452    0.3017396240939240 O
   0.7417055482262624    1.1678724080592726    0.0661508950735066 O
   0.7268296826942684    1.1243690962480641    0.2157980910266485 O
   0.8029814960438153    0.3364225541233845    0.1052084710190853 O
   1.0150283584737447    0.6188983865101587    0.2985490466948256 O
   0.5218706694242254    0.4067786123706875    0.1551602910245306 O
   0.6127172520424147    0.3298643715261828    0.3106080268118136 O
   0.7147179329144157    0.4573635873062234    0.1834891121995145 O
   0.6969244682325796    0.6171488613925055    0.2072017639199348 O
   0.8690168437836193    0.6452296816943262    0.1030164391620344 O
   0.8636689729540545    0.6370082181754119    0.3332975900871163 O
   0.2169967368542911    1.0078017309111300    0.1919311696297883 O
   0.0879978312189893    0.7960149753265724    0.0175917095108327 O
   0.1214656994789215    0.8122730933730997    0.3206551901028646 O
   0.0422357306141960    0.8951863790234764    0.1349299266368406 O
   0.3767665881899257    0.6978538607821160    0.2435834622050828 O
   0.4762408757520307    0.7790669037125200    0.1213268473038493 O
   0.5119348191160350    0.9000479426064170    0.2256334841254957 O
   0.6851182706546011    0.9404160242357831    0.2562819602534945 O
   0.8313051949420989    0.8160265277493740    0.1869075879842629 O
   0.8651627837187735    0.9445905332157677    0.0966976934602155 O
   0.0892080159815055    0.1895704306707175    0.3489559622457686 O
   0.0736630477111478    0.1458352016939541    0.5004978001933335 O
   0.0341301097033624    0.2425439349891242    0.6537395497301057 O
   0.4003697884879560    0.2764038411601112    0.5885157329829100 O
  -0.0080304357811897    0.3461130679378593    0.3726321502244849 O
  -0.1524696297658368    0.1580630342478260    0.3799620635327873 O
  -0.2542758040278482    0.2770691535287963    0.4132780026115928 O
   0.3425044256644729    0.4904229444113613    0.4253811599541068 O
   0.0909720141099191    0.5903232927492494    0.6400053411721405 O
   0.3156618061891636    0.6782800520092989    0.3914670752661956 O
   0.3865400148693235    0.3360877237156149    0.4186031113519781 O
   0.1363783444426226    1.0061543942945492    0.3283223930219288 O
   0.0924969459322365    0.8419526926349631    0.5146172481824012 O
   0.2160043994949630    0.9306559352716417    0.6428929890247751 O
  -0.0012043147157050    0.7149686228589109    0.4957106017656620 O
   0.2950561295752618    0.1600995568578533    0.9036024311760280 O
   0.9307624366522012    0.3327488412727694    0.0134741116014907 O
   0.0614593493520271    0.3969145230526178    0.6879867166739668 O
   0.1325066019586869    0.5783752102763280    0.7923417380759511 O
   0.3892885700926654    0.3035649649522791    0.7781320984242301 O
   0.1274352841636890    0.7839922445159879    0.8018594758864924 O
   0.3285091446031584    0.8804400709999090    0.7417917724614002 O
