Li1 Co1 H90 C51 N3 Cl6 O45
1.0
  14.0076416587000008    0.0000000000000000    0.0000000000000000
   0.0000000000000000   13.6704804402000004    0.0000000000000000
   0.0000000000000000    0.0000000000000000   14.1289147983000003
Li Co H C N Cl O
1 1 90 51 3 6 45
direct
   0.8057213057410149    0.5650594179107715    0.3850853003766889 Li
   0.5500571413328883    0.8830914006942817    0.7646954881771941 Co
   0.0154840716863490    0.1884779200973206    1.0277362137428383 H
   0.0544392372520737    0.0607026010336663    1.0489735135838780 H
   0.3037338783547132    0.2271290854540423    0.1518975398845371 H
   0.1736613047985238    0.0935990308239145    0.3082237709879870 H
   0.5592863894211777    0.2610049980107209    0.0030184483174271 H
   0.5812760296122295    0.1797796157092518    0.3090079784206296 H
   0.4377393052307037    0.2754602324748220    0.1151310926792285 H
  -0.0708745052585916    0.0941696033092138    1.0398765658115363 H
   0.7592752289600659    1.0430996761582272    0.3015700398740227 H
   0.7087156831595683    1.1007055520778652    0.1438742768372123 H
   0.8323746146346013    0.3000160629350929    0.1527794193620394 H
   1.1478902530043915    0.4690749347216202    0.1864585806276488 H
   0.5162762386278203    0.3456128510455538    0.1733188595202402 H
   0.4099830269453779    0.3712520377247070    0.3310103759464044 H
   0.9888520612602184    0.4554933345128945    0.2685236235946791 H
   0.9858815398110096    0.3946052769467317    0.1528339175319974 H
   0.8732394521245349    0.5443074040191624    0.0523860048465333 H
   0.7555886697762844    0.4961581086904923    0.0728794400560682 H
   0.8564564699689350    0.6372990150719633    0.2032475558169210 H
   0.2173089090774543    0.6972939803979955    0.1227226169775352 H
   0.0523903555988102    0.7082621391730944    0.0747543186563120 H
   0.1491918039109768    0.7583386527963411    0.2133537813861473 H
   0.2185946358570807    0.9459194778607807    0.1709846392017789 H
   0.3746358919983270    0.6905978002307781    0.1994546247415317 H
   0.3574024414374277    0.9909083868234420    0.0969619690299807 H
   0.4229423818762811    0.8109110552911788    0.2337191105078589 H
   0.6635303467966205    0.9702207452122257    0.2511981599271189 H
   0.9033508734670441    0.9544773336370834    0.3116012419885016 H
   0.8352744603752132    0.8324655281781382    0.1787962794852407 H
   0.0328160399016561    0.2173152387068948    0.4924740150557922 H
   0.0399664227027318    0.2360856104668683    0.3650214806108490 H
   0.1615079385040437    0.3086543840618866    0.5166959744125843 H
   0.1496808227027836    0.0075076893273034    0.4582171024117839 H
   0.4844967834671069    0.1762157321856902    0.6291910968399090 H
   0.4814413797779771    0.0689393269111917    0.3484236029006503 H
   0.3586260592610143    0.2604929457803241    0.3618605867532844 H
   0.6061238240147814    0.1542918501896588    0.5482311635166767 H
   0.5317546314424552    0.2997907599537183    0.4947573468233447 H
   0.6668699525018353    0.1515260366423299    0.6604178404574080 H
   0.7731255261569179    0.2927566253144391    0.5712681061726804 H
  -0.1060952806054238    0.0258903643985479    0.4100277680064323 H
   0.8563936471168490    0.1403581774973761    0.5037717687954641 H
   0.7199188538162458    0.2514603444361249    0.4711307622791329 H
   0.1164068418745750    0.3940617700793248    0.6484799101628398 H
   0.0910506820973578    0.6256132516711225    0.4305643770908690 H
   0.3859539999184802    0.6050850777545154    0.6635327293663067 H
   0.5143215755469731    0.4073966342633178    0.5746689335317484 H
   0.6265291147099837    0.3817176538108310    0.5169116880780362 H
  -0.0259661605616599    0.6496306957862903    0.4568051751488069 H
   0.0390269355056257   -0.0917294959299656    0.6278321814331639 H
   0.1784244192203266    0.7524493206435917    0.4374077901470249 H
   0.0341817230384830   -0.0539429673394281    0.4757316110299387 H
   0.4804872577119190    0.6945362133857156    0.6621667362751514 H
   0.4229630848616278    0.8088313917325816    0.3935247312673293 H
   0.6311016188873889    0.7866375850608124    0.3907467401363529 H
   0.7395659869101360    0.9836401711645528    0.4527042232478886 H
   0.7385194153060648    0.8585267921957754    0.4792865195786153 H
   0.2308964925292189    0.1566648465259548    0.8420460855586360 H
   0.1285766277781230    0.2371916432845254    0.8744781588311803 H
   0.1006632923625819    0.0491960559134643    0.8036347844964130 H
   0.2497097950408750    0.2072146427107252    0.9851023661615310 H
   0.1291270416299231    0.0061939096047426    0.9150708022286057 H
   0.4435604135933206    0.2866968529192863    0.6901179275476416 H
   0.5304943907516865    0.1948617484039959    0.7446295451060312 H
   0.6642192564814287    0.3018704235123155    0.7719302971812302 H
  -0.0385535756523714    0.2223114054691949    0.8341721616523651 H
  -0.0759802897826824    0.1045503650257291    0.7822715018728729 H
  -0.1332061968647739    0.1387708155831461    0.8897305687350130 H
   0.1407142883595816    0.5310486893168613    0.6679860083971613 H
   0.3301494598648373    0.5317946031159122    0.8320764592985251 H
   0.5922571072088615    0.4017976357252035    0.7335444757828836 H
   0.3890944286267402    0.5949303505225609    0.9313239967080310 H
   0.4622776970867315    0.5252319222801911    0.8509434426306119 H
   0.5051490821943752    0.5771401930322041    0.7104952887328503 H
   0.5624108268579976    0.6456315678668915    0.9643597964607595 H
   0.7129690758042178    0.3818851680404893    0.6793520617913911 H
   0.6930121118261755    0.6088823107945007    0.8401528049789259 H
   0.8585481853849845    0.4764323059888533   -0.0912704633943408 H
  -0.0251723081580261    0.5162792742342525    0.6991469295496460 H
  -0.1779610539117225    0.5689949050529639    0.7305074414024963 H
  -0.0304337220202393    0.6434736334673623    0.6676434484717110 H
   0.2847321072867987    0.6683535198391556    0.7353662717500513 H
   0.2928569581912558    0.7310374908779572    0.8493559180174195 H
   0.0092503314088937   -0.0699065613736410    0.9594641621542718 H
   0.3450841651562215    0.7855871464853127    0.7438786027901163 H
   0.6225984030783221    0.7337433211640110    0.9000293073201949 H
   0.4529578555901497    0.7593964064037035    0.9075337761002571 H
   0.5084406426956650    0.7736446254660871    0.7962095857817443 H
  -0.1141951451482557   -0.0265884056884457    0.9331479159805218 H
  -0.0253022372384769   -0.0535150379754537    0.8364200342210227 H
   0.0413849341469948    0.0556040238252869    0.3054684284471230 C
   0.2896451398783525    0.3301891063628165    0.2493070026527318 C
   0.4981850262614185    0.2685292397848085    0.1679157552415460 C
   0.4585877112019272    0.2315927178967297    0.2609639488762179 C
   0.5840055397561623    0.2117667870389526    0.1299312385492538 C
   0.4151701956187621    0.1300322785198318    0.2375106260463661 C
   0.3798544720977543    0.3011220957527500    0.2998310528144534 C
  -0.0027738197011820    0.1139662740395396    1.0159171885463603 C
   1.0378667360162344    0.5412838818993068    0.1483799307327019 C
   0.9707547964831348    0.4650798593298732    0.1920258871846580 C
   0.8589936565179589    0.3959746509114500    0.0253973786538210 C
   0.8664560118913259    0.4848511176395077    0.1885068624959407 C
   0.8322054212715966    0.4845757066898729    0.0835391405461668 C
   0.8165039916263430    0.4057562383680824    0.2517905621122469 C
   0.1321896556691219    0.8244277711672813    0.0781650547735542 C
   0.1941729660046447    0.7693550907817347    0.1476452670909302 C
   0.2867024603749546    0.8209853171726423    0.1742644381574337 C
   0.3399812362163164    0.8418316949752815    0.0723790477682719 C
   0.3562730578919702    0.7630488018128051    0.2343603487154167 C
   0.7789230759500024    0.9798663462265285    0.1643195837927583 C
   0.7397944336449945    0.9768167094429225    0.2602632581196149 C
   0.7670152898954954    0.7854225582683995    0.3001955535615752 C
   0.1725176433321376    0.1993487889486443    0.4298459921232406 C
   0.0658851325645384    0.1913183469696502    0.4246155833441537 C
   0.0276510020057114    0.0877674874228814    0.4101671983893119 C
   0.0725936137128719    0.0127203810327427    0.4770897478913988 C
   0.0755698463304522    0.0403331633084823    0.5844445604621775 C
   0.6495294175339711    0.1962106402794983    0.5995950517105045 C
   0.7427221213314175    0.2291875354202374    0.5438627459218996 C
   0.0507669559892209    0.4618801619826335    0.5208467532117499 C
   0.0476579387070040    0.5610515119531373    0.5706615486187323 C
   0.0431246988121527    0.6410552839335169    0.4897832917735926 C
   0.5625108436941029    0.3473267630110105    0.5495343775471142 C
  -0.0364647158205077    0.5696093677294400    0.6405734289082822 C
  -0.1364508543958131    0.5561650706687794    0.6023086359133488 C
   0.3135963522361890    0.7437400437077288    0.3365366319338349 C
   0.0682559813347433    0.7455124759280879    0.5246578739360732 C
   0.6155622436446757    0.9214221676554124    0.4187984345274669 C
   0.7214023298007342    0.9110772495950248    0.4292634986962869 C
   0.7729570466899596    0.8975978403814227    0.3385360777796970 C
   0.1647204707129934    0.1627985007429220    0.8885783217130436 C
   0.1012415481601929    0.0703584430925771    0.8751689408296091 C
   0.5039842180154099    0.2339108514940546    0.6813331056577867 C
  -0.0673171612592146    0.1427640914770547    0.8481406796041999 C
   0.6444336275545304    0.3494027690536763    0.7067271295528965 C
   0.3938554013604037    0.5717256064473513    0.8579128384692681 C
   0.4501902233973372    0.6328975604001098    0.7008307106708161 C
   0.3244354359091854    0.7217525209344909    0.7804221029365056 C
   0.5737375015307080    0.6703753946460366    0.8923783304728431 C
   0.4875621103112820    0.7178082557540632    0.8484620064764199 C
  -0.0371778979708945   -0.0274011057284041    0.9134917708367055 C
   0.5912426609268797    0.2861935787271249    0.6331977739844844 N
  -0.0021070407938133    0.0797333879279559    0.9134443503511576 N
   0.4137709593677528    0.6631547266942558    0.8007109930665878 N
   0.6584209927922976    0.8368413802384718    0.6513909617607266 Cl
   0.4501238310650189    0.3031937127762980    0.9384717501938227 Cl
   0.1304320436028031    0.4084444394273469   -0.2369412406183382 Cl
   0.8443409401649159    0.6115566864435446    0.8572185176286343 Cl
   0.4114379470880088    0.9634784803442726    0.7112320756799450 Cl
   0.6210214067117511    0.9675544160982310    0.8816853648660168 Cl
   0.1223436013967141    0.0664178354280807    0.2611748638716399 O
   0.2624135751871552    0.2843538482136279    0.1676298167913767 O
   0.3613410059256001    0.1193069788025781    0.1725438530773308 O
   0.6125810137547704    0.2319570064834977    0.0462418670100984 O
   0.6296024371898790    0.1509159629849715    0.1814829684873265 O
   0.4502479061978890    0.0559566083610744    0.2867614007827052 O
   0.7618802356335008    1.0564452202887400    0.1120041717068325 O
   0.8696221408572575    0.3122972699295666    0.0540938500946980 O
   0.8039237154960959    0.3136095866457549    0.2217493306334450 O
  -0.0260868089935071    0.0168899491945451    0.2644044112679827 O
   0.2388414416299748    0.3951699974065407    0.2809584073348386 O
   1.1310244589074054    0.5249224232820756    0.1444220896105565 O
   1.0011346427391028    0.6133700828423354    0.1135449836029181 O
   0.8437455508621905    0.5710277524076391    0.2362196564099582 O
   0.7890568303291229    0.4272557022154335    0.3304979515951109 O
   0.0529864587975819    0.7763841048987099    0.0471555960674464 O
   0.1446942588184471    0.9107714812631593    0.0598855192475083 O
   0.2675493433451962    0.9155569751078103    0.2161204482220676 O
   0.3512250989476406    0.7800511303715372    0.0107430330826443 O
   0.3777955958998407    0.9311028808226566    0.0589066754935872 O
   0.8376881429082040    0.9173981686276799    0.1347454794850251 O
   0.8069577736934374    0.7657824292199378    0.2225144283181802 O
   0.2275961511065578    0.1413457067988556    0.3860952859420146 O
   0.2108645694663011    0.2678365062674002    0.4827946446333409 O
   0.1028021249176960    0.1164285137645619    0.6176304071244008 O
   0.5299237022521677    0.2170262949483138    0.3339355829131117 O
  -0.0736387107503813    0.0942566521883812    0.4181458720248528 O
   0.8053115294103621    0.1414444597290036    0.5557746303378386 O
   0.1358226726494208    0.5784225181177550    0.6174258620449481 O
   0.0865617037573854    0.3869559481277901    0.5690411835498768 O
   0.0191442167164125    0.4483878051626342    0.4391163431636305 O
  -0.1595532443544404    0.5663607620791656    0.5171773489623706 O
   0.0330487700127934   -0.0203223493947617    0.6462645949424686 O
   0.1444151254642917    0.7904706617569255    0.4904697563845313 O
   0.2355375307270816    0.7019916938602929    0.3497393444324937 O
   0.0232783887213076    0.7889403570912253    0.5903869842929238 O
   0.5658121131816243    0.9961466811404011    0.4242624068920882 O
   0.3642394238741192    0.7778302866979877    0.4117278278017458 O
   0.5778380490318160    0.8325503825477467    0.3987183360874836 O
   0.8681265286399797    0.9142124722514255    0.3638536626831773 O
   0.7334893037628959    0.7215608670996853    0.3551495263955979 O
   0.1933077239963676    0.1646374997532327    0.9841475865346043 O
   0.6215154227758828    0.5961102651620325    0.8354114641925789 O
   0.8689746371431425    0.4092129566748539   -0.0649343997042426 O
  -0.1985405352422545    0.5335894924840902    0.6702020313859733 O
