Li1 Co1 H90 C51 N3 Cl6 O45
1.0
  14.5460720016000007    0.0000000000000000    0.0000000000000000
   0.0000000000000000   14.1690615493000003    0.0000000000000000
   0.0000000000000000    0.0000000000000000   14.2156844445000008
Li Co H C N Cl O
1 1 90 51 3 6 45
direct
   1.0007840947850901    0.5605624796507708    0.4455867213661123 Li
   0.1782156379065671    0.1129434204821462    0.2438117022878180 Co
   0.4898633459270804    0.2771709518471264    0.1841930463371436 H
   0.5579452308435767    0.0673857102728988   -0.7026464195513676 H
   0.4701675132673434    0.2621981888831260    0.3318756998313448 H
   0.6565777688814874    0.3098971841658016    1.1016655782380678 H
   0.6329205231341718   -0.0447720352821349    1.0117184494176397 H
   0.5209512574918148    0.0619633328110833    1.0560075585673288 H
   0.5814255216026512   -0.0791659856721715    0.9098605328570184 H
  -0.0487088541237845    0.0343503537412501    0.1969831445353591 H
  -0.1114020677899681    0.1162287474487935    0.1336706812126228 H
  -0.1165292251415745    0.3014562581677133    0.2514729584464785 H
  -0.1229838886403990    0.1248355277620616    0.3563838409173546 H
   0.0654697364824847    0.4158286881526800    0.2270513415095382 H
   0.1958870752521080    0.5524793049393405    0.0878881511810277 H
   0.1404741775357115    0.6616099622252771    0.2286967072385904 H
   0.3709247073853698    0.4952858911638153    0.2237141824592503 H
   0.4891170963554568    0.5217018255358762   -0.0343324852423007 H
   0.2378798551539819    0.6645247635941822    0.0943078209729601 H
   0.4778105388200679    0.6714292434469663    0.2801799828316384 H
   0.3449699341683479   -0.1626803381141270    0.2690774572644601 H
   0.6173596211961707    0.7917794864088401    0.2339395079135052 H
   0.5676101768155570   -0.1570363510567096    1.0790757408472804 H
   0.3706091582804640   -0.1089103691328264    1.0170716914860820 H
   0.3778578505726788   -0.0137184613761243    1.0952008877506847 H
   0.7524386995744349    0.6947822367873295    0.2990872680242265 H
   0.2338732752337403    0.1784890458412147    0.5950680923332449 H
   0.3047638909193064    0.0860587888730176    0.4162895038015276 H
   0.3310452127743028    0.1797410694800615    0.6644555357483687 H
   0.3796638364083815    0.3198759678352807    0.6152113363056297 H
   0.3586856644340893    0.2277124892974580    0.3822355683832230 H
   0.5061589823005238    0.1737456124270715    0.5722798825031276 H
   0.3903711943798578   -0.0049550016672395    0.4402355192979325 H
  -0.0268720310993239    0.1999562403298311    0.4059656955759743 H
  -0.0490429649407435    0.1403870164215830    0.6158430329386733 H
  -0.1495539482384464    0.1777839885609395    0.5409812136464098 H
  -0.1161463038966235   -0.0071485132058731    0.5861068635934436 H
  -0.1228037712864005    0.2421996872876552    0.6378138357670127 H
  -0.2375426506083520    0.0227158499721459    0.5594194394682703 H
   0.2138740617025546    0.2889910712966233    0.4207137719572782 H
   0.1867148396145197    0.6376965930285190    0.3398492870646950 H
   0.2148461454374931    0.4116428075427585    0.5107362400977498 H
   0.3331914966643156    0.4062056090570333    0.4739278822558982 H
   0.1386558172253066    0.3311223019305598    0.5970011684441621 H
   1.0069850815525199    0.5364994181125248    0.6298268830147005 H
   0.7372455945234155    0.6258094260899069    0.4076603026906756 H
   0.8401826623335639    0.5043164821845961    0.6436728572109097 H
   0.0222202599275219   -0.0594413201375082    0.4292458268487278 H
   1.2205004553014174    0.7336507248720050    0.5866478153872191 H
   1.0738808043217296    0.8181524398115629    0.5750514690668154 H
   0.5910638624540219    0.6804503066666624    0.5184698107484781 H
   0.6396962355044362    0.9170806571195929    0.3684585321269228 H
   0.9664889256187937    0.7942560089278445    0.4130142482074845 H
   0.7577253501555361    0.9042901134855330    0.3921985075968039 H
   0.7150361623162558    0.7308806049269803    0.5407173501641663 H
   0.2172564181211526    0.1518119085668216    0.7129006178468567 H
   0.0639229271447112    0.1263437433856331    0.9652634227477487 H
   0.2454076605978128    0.2693285129097721    0.8196489074508170 H
   0.1092162544379853    0.2991625282769284    0.7135885903492136 H
   0.3580903147067508    0.2834042510457147    0.7761828328898370 H
   0.3856517072226068    0.1631267016773026    1.0207472092006171 H
   0.3951779903308409    0.1571001910504066    0.8943347239618026 H
   0.5447563782118218    0.0860700810817107    0.9323800254111640 H
   0.4441774727974202    0.0227419632047487    0.8092048095546061 H
  -0.2018147922598690   -0.0435510652171940    0.6682689293427216 H
  -0.2938808840441455    0.1771664458980359    0.6280668552019222 H
  -0.3026048887091878    0.1030563860082984    0.7242366882716859 H
  -0.2480540793970437    0.2122647478053044    0.7457080427598682 H
  -0.0886825322367515    0.1670133387568571    0.7728280876303887 H
  -0.2144505058724362    0.1071505174225886    0.8727733280827187 H
  -0.0524933809702035    0.0501375672572399    0.7439452011536243 H
  -0.1250490509740308    0.0222077005809566    0.8941011791041518 H
   0.3301480633583942    0.4248525744245494    0.6552558380123517 H
   0.2867315313949518    0.3908609089692043    0.7931711109388362 H
   0.1596463636743009    0.4129647017228940    0.6911211529741831 H
   0.3505515097298513    0.5691889507529475    0.9029069457549747 H
   0.5557373495683798    0.5120254048694154    0.6903846425345432 H
   0.6239009060179104    0.4442789844971063    0.7780898814111967 H
   0.4010386790439603    0.6557231926809581    0.7447358771174782 H
   0.6845647058329354    0.6296163119455664    0.9018292628576220 H
   0.7705755546629413    0.5724852170467661    0.8576316019955672 H
   1.2439019619048881    0.8107906255067084    0.6873281593824562 H
   1.1314447982238567    0.6997395164035982    0.8408733515623865 H
   1.1072767616596670    0.9580078560016281    0.8020528500132323 H
   0.2972147738801552    0.1124338595648703    0.9458700547339657 H
   0.2820477927201738   -0.0102531648334308    1.0045517174605709 H
   0.4211616373221679   -0.0881581126070915    0.8758881974492184 H
   0.3274524902857676   -0.0151313989888478    0.8367736544829013 H
   0.6317222615005098    0.7412009779094255    0.7298136269206491 H
   1.0230526494824936    0.6845557302896457    0.7898219932663193 H
  -0.2217239471140554   -0.0788999130048405    0.8296843018461389 H
   0.8963971510223354    0.7701577298137370    0.8654715340392979 H
   0.0296318828033155    0.2561984972518762    0.2476729303710875 C
   0.0340117593770732    0.1041086787058862    0.1035750497521533 C
   0.3748116673834903    0.2172100294498366    0.2315942110598669 C
   0.4115232964707973    0.2116796702423934    0.3289641270427399 C
   0.5169061792058330    0.0346375992998807    0.9852455770442238 C
   0.5646951630582118   -0.0567297785250789    0.9802074798439367 C
  -0.0456585461096952    0.1098084210437258    0.1709217894562980 C
  -0.0487707264972954    0.1857534648460912    0.2478248752182338 C
  -0.0501656047845587    0.1464946897984606    0.3519422679317901 C
   0.1182448086748648    0.5246173326678245    0.2769054306859618 C
   0.2733162258761468    0.5822448612912949    0.2143752019466824 C
   0.1793609642873363    0.6072986729897514    0.2668264224919220 C
   0.2556599128885753    0.5921889919953472    0.1106524437666868 C
   0.3285771925420331    0.5526212338873518    0.0398616208605586 C
   0.3444515811724896    0.6636834940465466    0.2357551081472305 C
   0.3297390182224052   -0.0279057100729112    0.3087885244454998 C
   0.7221659221571661    0.8670964011026522    0.2555592900070018 C
   0.0090723805564474    0.0623402102762154    0.3679098424011166 C
   0.2577161381015888    0.1951231750091866    0.6642135495103209 C
   0.4419237372187435    0.1105473549500802    0.3566595926769905 C
   0.3598976754840870    0.0421695024981749    0.3858998309238953 C
   0.5079882527727911    0.1175097073724164    0.4420927636749499 C
  -0.1146957404732004    0.1729219869555189    0.6077407146542686 C
  -0.1853911144467987    0.0090021682774256    0.6156516949830075 C
   0.3119074001765527    0.3584833235939284    0.6144199568934093 C
   0.2759155530344230    0.3699449154174195    0.5120566126815167 C
   1.0779726306232531    0.6455312685723968    0.6313822073528511 C
   1.2135638747600244    0.7413760071441684    0.6653341427580250 C
   0.5902306478240744    0.7181394647059527    0.3921626317301165 C
   0.8567857700298158    0.7114269524009512    0.4066670335972932 C
   0.6990524658259299    0.8697500701455294    0.3585743791303808 C
   0.7550077780167723    0.6989293004298686    0.3809130854543569 C
   0.6819825654450787    0.7710519315896214    0.4136438344954288 C
   0.2909732263345350    0.3142545651952495    0.7775770675520779 C
   0.3719407892525828    0.1239956697405127    0.9566285940499654 C
  -0.2601054428153409    0.1549130313791628    0.6931646704786280 C
  -0.1153165266207601    0.0918552207477918    0.7571848028579810 C
  -0.1714107079165937    0.0518441022959838    0.8422633655344289 C
   0.1565238712244489    0.3367211201532048    0.6717531091015910 C
   1.2741644272599046    0.6640815444029782    0.7031508234883005 C
   0.5196484315469195    0.5357532148468243    0.8398681238467750 C
   0.5912047939714633    0.5198492610658392    0.7629966932613281 C
   0.6576990337836690    0.6010463181889935    0.7503719054292208 C
   0.7286425847221278    0.5816282361203476    0.6667297843169987 C
   0.7192984813803426    0.6259096444420581    0.8382093925987608 C
   1.1103146951990541    0.7304246820009965    0.6871959110895696 C
   1.0796239355251782    0.7301515517032323    0.7906780899282502 C
   1.0466569599769167    0.8265919542835647    0.8160331828474275 C
   0.3549155744748229   -0.0329723829608942    1.0272667686605808 C
   0.3980990538313740   -0.0155675605496186    0.8597644574425471 C
   0.7785880270326078    0.7159396012999292    0.8276773636567478 C
   0.2509005524239505    0.3010278600004189    0.6837834830640750 N
  -0.1717269444923163    0.1074850491051215    0.6668936877863743 N
   0.4116965391166279    0.0273174250145820    0.9594191737195464 N
   0.7049853389748122    0.3032735980042582    0.0209775494640623 Cl
  -0.4032299921624774    1.3285214557720628    1.2222907937663596 Cl
   0.9302585261032384    0.4522482490533449   -0.4395496960273005 Cl
   1.0972307506139409    0.8354351652163444    0.4279162390913607 Cl
   1.1210165534039962    1.0982203882916124    0.8436864415796930 Cl
   0.5046534074623413    2.1760934673844554    0.6995470575071402 Cl
   0.1155375485983529    0.0796963350375020    0.1187828999857482 O
   0.1153244326451485    0.2330960497918909    0.2608534424126651 O
   0.2928788954386720    0.1873626045848572    0.2120531188891360 O
   0.0015658867079370    0.3412690572043487    0.2388087775058519 O
   0.0909666541355256    0.0449516204149361    0.3421509701196153 O
   0.4192181573231076    0.2568922623234581    0.1652154163079136 O
   0.4914122864243859    0.0655175554972349    0.2843739419922237 O
   0.0104775709059625    0.1317230693018061    0.0190775354263668 O
  -0.1316797070019530    0.2363778479433216    0.2351220046174541 O
   0.1116945867325068    0.4693649789903379    0.2053140835388498 O
   0.3080864373768438    0.4977695418895571    0.2436759367530993 O
   0.4032420230117665    0.5159368354046818    0.0603066441821369 O
   0.4209162102405745    0.6277841510851119    0.2625431253888016 O
   0.2773530545123271   -0.0082600899990996    0.2390739775399915 O
   0.3256059436718745    0.7474681537340931    0.2197854233328047 O
   0.5218772806820285   -0.1395602465780588    1.0278731411524333 O
   0.3652379487888978   -0.1132571637166245    0.3210897260290547 O
   0.5585164503452460    0.7247447010283699    0.3116930627504405 O
   0.6621153463107164    0.8248656578796077    0.1940800131271513 O
   0.7900653523188869    0.9071724497544454    0.2219358649889451 O
  -0.0255507121894570    0.0005224253119548    0.4228304480918305 O
   0.4757948743852449    0.1729353964533420    0.5042147109823600 O
   0.5874876392650895    0.0828708572063483    0.4381568997200034 O
   0.2579656900080829    0.2791837880466705    0.4737504022330509 O
   0.0769498116520309    0.5046732454029935    0.3480226536341079 O
   1.1000995663323982    0.6308358704844207    0.5474200172339088 O
   1.0310286858988704    0.5817362178659754    0.6772646270524776 O
   0.7170855128211013    0.6188922425023430    0.5877740362218546 O
   0.9008629614481916    0.6380113633458391    0.4068703301751880 O
   1.0601767610598736    0.8115006231282869    0.6463128989300773 O
   0.5479688605915913    0.6737660248833937    0.4616577027453023 O
   0.8923561975612544    0.7963521251665002    0.4159560692758454 O
   0.6936200714316696    0.7903580796395968    0.5114750015721622 O
   1.2510585331076531    0.5843471176684275    0.7250006331976159 O
   0.2979414305335003    0.5716455707541303   -0.0463980316231055 O
   0.4428045248292125    0.5737718230747357    0.8242867425306121 O
   0.5436658432551505    0.5114871758573200    0.9251450589625529 O
   0.7889344628252704    0.5145829885085231    0.6936542705416550 O
   1.1163390019665693    0.8871781827372346    0.8281894740675002 O
   0.5977034556025623    0.6811172527425984    0.7278404542528463 O
   1.3586064676859999    0.7037489562526902    0.7184761495990871 O
  -0.2322491253190828   -0.0160277180538622    0.8075939127955084 O
   0.9662441860080171    0.8408900077781525    0.8449723451935054 O
   0.8554699508864831    0.7140156912438432    0.8829634811186525 O
   0.7586843719449556    0.7792190215269021    0.7702478390223667 O
