Li1 Co1 H110 Cl3 O55
1.0
  12.5025490958999992    0.0000000000000000    0.0000000000000000
   0.0000000000000000   12.5049960049000006    0.0000000000000000
   0.0000000000000000    0.0000000000000000   12.4840161032000001
Li Co H Cl O
1 1 110 3 55
direct
   0.7460467042723945    0.2302146279272659    0.6528897018653118 Li
   0.4726400594529819    0.5527665102644930    0.4840233705042342 Co
   0.1496931172710805    0.1373645382874903    0.1304224168120584 H
   0.0628057960002336    0.0612216910905060    0.1749032950334235 H
   0.3328581648493361    0.2437492184168334    0.2883002971117154 H
   1.0146767231780098    0.3134717516874047    0.0989065170609239 H
   0.3557518961840016    1.0539214084783222    0.2663882779554856 H
   0.6101840104352604    0.0659070984250659    0.1654335860052770 H
   0.4733967051519859    1.1169682099080123    0.2510590763253350 H
   0.6687712628732617    0.1913397654475407    0.3090211931648448 H
  -0.0980067698675807    1.0939214212575346    0.1146262180271616 H
  -0.1033568788323145    1.0849729977669431    0.2404070554611586 H
   0.9184563451756947    0.2672062431040113    0.0421220661166249 H
   0.7475056067618062    0.2927352396646586    0.3087168039387666 H
   0.2768943774142241    0.3343210186442145    0.2222029776931280 H
   0.1622513562986312    0.5094918063151311    0.0656603247643911 H
   0.1020692290997269    0.6263403042616673    0.2287129020098042 H
   0.0340598980842751    0.5915566066235745    0.3215964733232674 H
   0.1210317621145139    0.6387257540402447    0.0428550834344778 H
   0.3213301157375542    0.6200908020651550    1.0598741176173589 H
   0.5151089988610361    0.4779676059199026    0.2768624714296900 H
   0.4285882428373916    0.5690975830549184    1.0806126362046296 H
   0.4213969093492884    0.4110287600640543    0.3248141878526249 H
  -0.1424521062336043    0.3566632888768896    1.1841370140423610 H
  -0.2506708374396827    0.4226249253041855    1.1993644855890591 H
   1.2095729784383931    0.9714103865159244    0.2303814355832799 H
   0.1719325820288060   -0.0065550598711011    1.0173477386371270 H
   0.0908546360655767   -0.1644124473685861    0.0087114235355819 H
   1.3149194953684422    0.9069241603960586    0.2234221366459988 H
   0.5992406420908907   -0.0018719716096532    0.2726370683571580 H
   0.4221327592891232    0.7596358286542262    0.1359230505370020 H
   0.4745748648926128    0.8211024616462570    0.2387921905143862 H
  -0.5008854117640402   -0.0784244150990309    0.0655154995747202 H
   0.6465214002359517    0.8709945207685095    0.0496859781798106 H
   0.6584077762749576   -0.1848322859594935    1.3088164430925229 H
   0.6721497739013731    0.7413695293358982    0.0712826340773379 H
  -0.0023629942800775   -0.2274528513552088    0.0451426485708828 H
   0.8438475599715721    0.8212863881344461    0.1173200626779531 H
   0.8372249105130588    0.7715230775539262    0.2800769818619309 H
   0.9071626482730124    0.9107386358250239    0.1757315541380677 H
   1.3159032947445257    0.0147386854364272    0.5750341470530377 H
   1.2092850371575881    0.0623119753252757    0.6289238564573337 H
   0.4169186225958806    0.0808574430654595    0.4100944367083681 H
   0.4381734881406314    0.1188263476387958    0.5316386567299249 H
   0.5779529832336038    0.2788399933221637    0.5687044531991708 H
   0.4212009493109629    0.3019923397832544    0.5833359626821792 H
   0.6718498350672013    0.2808016093027196    0.4774862113620667 H
   0.9357888106063694    0.1932573990070080    0.6187099958738541 H
   0.8226758774634984    0.1369143182316188    0.3782649359519451 H
   0.8768248349926482    0.1982138180235125    0.5123620074521084 H
   0.8617958998084131    0.0321110860285486    0.4240939380351247 H
   1.2141640421934494    0.3837972439670827    0.3987455247213286 H
   1.1615187780196143    0.4918876423542839    0.3838288505949418 H
   0.2932150491776259    0.4726913147500257    0.5325037629514101 H
   1.0399355721997314    0.4231775044491362    0.5200934937944930 H
   0.3345218255828757    0.5425729844168997    0.6343499949243160 H
   0.6058744892658799    0.5604634339550152    0.6420342208342306 H
   0.6345654383874180    0.4534542034462126    0.5604987604835276 H
  -0.1404829078076550    0.4953606542595242    0.3384652436179501 H
   0.9355088676944758    0.3672062750520423    0.5574740928054460 H
  -0.0786187236267152    0.5157668982839133    0.4459907377300507 H
   0.2247314148857371    0.8219821100680311    1.3671390208576513 H
   0.1796230137369710    0.7071272153173881    1.3625731824664793 H
   0.0426175129497977    0.8438133845356940    0.6385481631713568 H
   0.2015073509150370    0.8716742490944256    0.6277807948109824 H
   0.1918629176818540    0.7854703031213441    0.5286324126102638 H
   0.3497179266773561    0.7148377335744286    0.4458842015009233 H
   0.5787584189829664   -0.1223452607982048    1.3901764791260911 H
   0.5649140422344870    0.8792312287178474    0.5542804090044632 H
   0.4690975818621900    0.9467962243139221    0.4955380945170583 H
   0.4668516398719116    0.7698213576979852    0.4842076060884394 H
   0.8164115549322088    0.6937693541925587    0.3763528909976070 H
   0.7113585781412025    0.8739373445795350    0.5845735451934706 H
   0.8609400743349095   -0.1265011997508951    0.5360346779739165 H
   0.7959189339447000   -0.1505379927160604    0.4332592578371932 H
   0.1946255543037991    0.2591790514151322    0.9395122094318318 H
   1.1267898602069748    0.2035732759532663    0.7103872246229128 H
   1.0689376578719172    0.0963582876818069    0.7319708238246899 H
   0.5037865078302732    0.1297755714487313   -0.1335391138972237 H
  -0.4322658052006602    0.0036660549497206   -0.0177253414662994 H
   0.4722321426385082    0.3045761071021196    0.8486520254475091 H
   0.6530840619276309    0.0971821184128174    0.7724089325091700 H
   0.4616151077457175    0.0079077196395147   -0.1404231165522645 H
   0.3546545199693784    0.2664761349139390    0.8639515891793311 H
   0.4313356825584053    0.2510255102256710    0.6881067342982727 H
   0.8296264600473729    0.2644833313984292    0.8583684499536347 H
   0.9655667380629462    0.0433509136898229    0.8540749598173748 H
   0.6841033362392334    0.0266899887348400    0.6818851787220914 H
   0.1880588934276644    0.5395254024756445    0.7727405565607393 H
   0.0634724600489861    0.4923010771125176    0.7920828898294463 H
   0.2037364963306019    0.3428592060981059    0.8379102898640676 H
   0.3320679260009048    0.6490040460084817    0.7810583926754638 H
   0.6009171002146882    0.5136757340812416    0.8059197832275350 H
   0.5750119829849378    0.4270991370494812   -0.0506701884290149 H
   0.6555683553114644    0.6397165580353156    0.8038603498058327 H
   0.6494344061934283    0.3536428960686712   -0.1283164355971463 H
   0.4150701995404911   -0.3451977910115710    0.9263754112537229 H
   0.4902228738305786   -0.3625844419081251    0.8169787244255210 H
   0.8195589130987849    0.3791239118063127    0.7926892652087651 H
  -0.0924822964605816    0.5656381657161964    0.7616151303475835 H
  -0.0592393156242739    0.4684690023255107    0.6890094886608781 H
   0.2276804135033143   -0.0705491626830036    0.9240844818153454 H
   1.0803353335704458   -0.0087328294592984    0.8676282906206433 H
   0.3021732223582237    0.9531216961468603   -0.2564570905575280 H
   0.2578830543490784    0.6825946205144957    0.6758414505358822 H
   0.3609932273315425    0.8570640884891435   -0.1998991692793734 H
   0.6626309150600965    0.8308585623241137    0.7013140226129470 H
  -0.0020241033893079    0.9262444384597486    0.7290262585745236 H
   0.9736370922943955    0.7223507307767616    0.8726907640648901 H
  -0.3029513759911650    0.7584107183068101   -0.0959182076025248 H
   0.9458507586967195    0.7725682598150704    0.7511553553104039 H
  -0.2109757323700493    0.7365834422410643   -0.1679014534243284 H
   0.1866135881654019    0.3235149376229131    0.0836791256166537 Cl
   0.5714127169748762    0.4976861248145412    0.1179873159024875 Cl
   0.8734815167877464    0.1245728508741301    0.9494849617072865 Cl
   0.1343698421109113    0.0659524403028064    0.1445653014847835 O
   0.3107810669805090    0.3205985032645406    0.2911215046228923 O
   0.6102104050526674    0.0748257738053937    0.2433091664245299 O
   0.3964707924742748    1.1237814867748435    0.2792487227572867 O
  -0.0655085971442884    1.0604547972109524    0.1775178382805788 O
   0.9321095609071953    0.3138036190465285    0.1012539187109818 O
   0.1647556456047430    0.5916629641145708    0.0926060605932462 O
   0.1083631455959880    0.6126457776954135    0.3045715032941499 O
   0.3916293797722963    0.6377741343839619    1.0526809195905651 O
  -0.1966890458207779    0.3822898464443155    1.2360193566030997 O
   1.2640578674618153    0.9352808267925175    0.2752115603903557 O
   0.0606685518434590   -0.2413377018527191    0.0024875449889912 O
  -0.4329112735717980   -0.0408900568460509    0.0490631017003413 O
   0.4332696881611451    0.8314983066308584    0.1709774750412948 O
   0.5960748876758186   -0.1327019214440181    1.3101141024247505 O
   0.9101620366147305    0.8335374916086071    0.1623744742831917 O
   0.7026067628785148    0.8094543171812030    0.0450550966171714 O
   0.4225862668063911    0.0543853034605938    0.4898131739939520 O
   0.4507621209700448    0.2358203874151163    0.6122497350624853 O
   0.6500654775005258    0.3083002186477571    0.5529539127981858 O
   0.7206126909715166    0.2326264639636934    0.3580518892917988 O
   0.8908859675386225    0.0934101060122123    0.3843190774537834 O
   0.8835114714024517    0.2368311834197730    0.5838293936381375 O
   1.1723485695254443    0.4382658739237100    0.4373789257048769 O
   0.4857965764750939    0.4537356909411802    0.3469713204382756 O
   0.3572627880713364    0.4948656521021805    0.5734312974704526 O
   0.6042636177671544    0.5247633025975106    0.5676358868107808 O
   0.9681422128523681    0.4396149347305578    0.5413294484591177 O
  -0.1056364139720203    0.5523098927655540    0.3795345594344026 O
   1.2528281575104230   -0.0045069984410963    0.6145102255782550 O
   0.2257088155666916    0.7561708135528203    1.4026724578808776 O
   0.1769651557477633    0.7994471168629490    0.6039062661708278 O
   0.5102395918678682    0.8734335459379736    0.4921089095780044 O
   0.4241099560839838    0.6961803905486028    0.4722939719845971 O
   0.6593395862531179    0.8829977233238069    0.6437011523591479 O
   0.7898753663953609    0.7558533404405982    0.3427435142929062 O
   0.8030238850485618   -0.0962261001145856    0.4938951937205155 O
   1.0268182471852845    0.0117365893153817    0.8141398943802028 O
   0.2183887083391173    0.2664761349139390    0.8633267902415916 O
   1.0900213583219671    0.1485200796363511    0.6701966324406911 O
   0.4199292086540744    0.2544921246878439    0.8228430231731999 O
   0.5259787822114224    0.0536322444435170   -0.1232315334730832 O
   0.7842605114196647    0.3053533964348144    0.8054479799271138 O
   0.6922512746491218    0.1021514122834952    0.7031443630908115 O
   0.1408821140784496    0.4912542954906066    0.8154551762465720 O
   0.2760513493309785    0.6209896428161313    0.7268923298948601 O
   0.5773914977360342    0.3884201962636966   -0.1166375016070958 O
   0.6074573664734159    0.5850999872077536    0.7647471352790716 O
  -0.0840328195427391    0.4922634921344964    0.7596582280336127 O
   0.1583129594467326   -0.0559186901959823    0.9576153581406892 O
   0.3383962354834843    0.9292592335052831   -0.1861279598721753 O
   0.4289073777569504   -0.3249450856208006    0.8466895159635843 O
   0.9285102948971337    0.7148585252643979    0.8051556060652230 O
  -0.2889766258294322    0.7418061548252514   -0.1727108031963628 O
  -0.0230987656824883    0.8642052343131812    0.6752855396861500 O
