Li1 Co1 H90 C51 N3 Cl6 O45
1.0
  14.3499576848999997    0.0000000000000000    0.0000000000000000
   0.0000000000000000   14.0045569860000008    0.0000000000000000
   0.0000000000000000    0.0000000000000000   14.4741944739000008
Li Co H C N Cl O
1 1 90 51 3 6 45
direct
   0.5826499645987120    0.6517822735931562    0.3479666689626100 Li
   0.7042378492679453    0.6794568369790202    0.6016243081922378 Co
   0.1533080016964057    0.2042336645035806    0.1640635160237799 H
   0.3319907585590346    0.1687609251304881    0.1344777590566348 H
   0.3576124368993748    0.1086262132047995    0.0432540296545642 H
   0.5109750981925002    0.1396461162573758    0.0495797702797231 H
   0.6330453048414897    1.0146827212889031    0.0424885293692129 H
   0.8756362640931065    1.0949508797978624    0.2708756776807065 H
   0.6987012475758301    1.0420838022644467    0.1960991502579427 H
   0.8944272602703108    1.0238211753026887    0.1413962787836271 H
   0.0003054599320953    0.3648885143677475    0.2693958025803252 H
   0.2838853902256916    0.3477376683795372    0.0405036175282254 H
   0.2932833273458763    0.5704173292297531    0.2202276087106568 H
   0.6468641609213698    0.4246530610675612    0.0438316092922480 H
   0.3584403139050681    0.6457513795002954    0.1375183427712837 H
   0.6217937037186586    0.3478890476771558    0.2367190273129442 H
   0.8291357785410022    0.3791860034065058    0.2216446133002375 H
   0.7583439321602315    0.4258055430786763    0.0254547662506794 H
   0.8319971110202754    0.5011850785438333    0.2655268480695248 H
   0.8401309329145951    0.5774236201176468    0.0844183238800141 H
   0.7050761792661346    0.6091061646239496    0.1684630700103474 H
   0.0740408689997753    0.7305373531792203    0.2373055884521709 H
   0.1542836143293776    0.7666598810468077    0.1378306226710840 H
   0.3080478308135725    0.8037128203521168    0.3319491972878956 H
   0.3175335730707246    0.8341786180511458    0.2158328909172278 H
   0.7021291322483932    0.9189296031188288    0.1702759515525511 H
   0.9677605775599731    0.8874441373207462    0.2277382166547484 H
   0.0689258713383371    0.2712197177530911    0.6382805795278710 H
   0.2585438520842477    0.1979757014642919    0.3846319217997859 H
   0.0609300289449664    0.1226852084444794    0.3913735750348560 H
   0.2319193833304458    0.0940459590629424    0.4443791499829780 H
   0.2016370640691658    0.3280076619054860    0.5286952065483813 H
   0.5252362064475679    0.2225805497536358    0.6618832746979566 H
   0.5978549571701949    1.0565112490021040    0.6637493543646837 H
   0.3835867295199176    0.0835343805712299    0.4856488041303738 H
   0.6033720466096508    0.2577084013873425    0.5091323355015267 H
  -0.0048241719188374    0.2162026257615172    0.4460390696450583 H
   0.7014887122414639    0.1234056882147489    0.5368495117992073 H
   0.7043618914455660    0.2900871478520327    0.5682335726406671 H
  -0.1509402822266994    0.0044165619135137    0.5873609928573310 H
   0.3138025516157736    0.5905036482958405    0.3545404372073006 H
   0.4665260681670542    0.4765080965910677    0.5788341625578937 H
   0.4216641937186427    0.3663494674004249    0.5688524671854485 H
   0.5306347589521176    0.3942453873063914    0.5068905112633274 H
   0.6590384128485257    0.4531923429884067    0.5960930850112611 H
   0.2631710434291999    0.9611494320353077    0.3621104612385223 H
   0.0181717147064756   -0.0355668520966380    0.6049654267662078 H
   0.3326499939524570    0.9210324900598037    0.6376567106130043 H
   0.0012364731304170   -0.1722166584356102    0.6157715548918204 H
   0.4398133761565849    0.7873124443723835    0.6401860396244403 H
   0.5195257018036253    0.9193323291747574    0.6287118259609803 H
  -0.1744462748858234   -0.1226028076944125    0.5805579199694021 H
   0.8284354280437617    0.9136291855423067    0.3881713242924344 H
   0.7194190787031538    0.9674345290996412    0.3481124456414991 H
   0.2808407819446531    0.2882563152147967   -0.1159486122717405 H
   0.1645777213395635    0.2278031355214766   -0.1139885722811795 H
   0.0652715051616912    0.0066636876192008    0.7915105229281273 H
   0.1947401796202212    0.0607903551573295   -0.0950783662249077 H
   0.0018169626470353    0.0995962952911933    0.8450133276193605 H
   0.6271637543970023    0.2697344869085315    0.7135503986507619 H
   0.4466895636803871    1.0261732668421018    0.6715556609749580 H
  -0.1457883506584416    0.0317291002810162    0.7785529797406158 H
  -0.0791331018414716    0.0726150776505541    0.6869354460401244 H
  -0.1417569798857686    0.3154967341999432    0.7718127082750139 H
   0.7545021089848217    0.2734975477502762   -0.0220642857587604 H
   0.2385396119113263    0.5325901419413882    0.7852711428947273 H
   0.0940346561802007    0.5219610302780341    0.6906572421025677 H
   0.1460982243387438    0.3717141497731059    0.9794049169756885 H
   0.0265954329260212    0.6253051775757186    0.7195811314944722 H
   0.5300860465326876    0.3588219176103540    0.7947694262187426 H
   0.4791682657249534    0.4643018482841139    0.7499386067095751 H
   0.5916200955793384    0.5116833756443397    0.6911615879584398 H
   0.4176586069941269    0.3531059210186715    0.7310049105723450 H
   0.6785248814598056    0.4191909818260352    0.7166517802220089 H
  -0.0112255845234656    0.5522146827444100    0.9447397754436494 H
  -0.0683874255554530    0.4350808811082801    0.8636098720063639 H
  -0.0960871588040232    0.4986752526325148    0.7609775629905702 H
   0.2884219889690108    0.9632737405750023    0.7478486803890089 H
   0.2478086287907253    0.8449886708183516    0.6938871282343521 H
   0.0536240840563400   -0.1050692291424119    0.7005831830769732 H
   0.2952387338088185    0.7600056184312062    0.8389874309687887 H
   0.3097788463709311    0.8894727627194933    0.8797005774628899 H
   0.3404256266372427    0.7236281735388556    0.6784368729263105 H
   0.4492669928834656    0.9646604320654517    0.8228753080855065 H
   0.5237079789446342    0.8642017027099695    0.7914621609967423 H
   0.3992920023122653    0.7986366155088599    0.8959287689814960 H
   0.4476869185377509    0.7188361619052789    0.7416493716701850 H
  -0.1864344635465483   -0.1383598216592669    0.7948702953899172 H
  -0.0551609057170203   -0.0168722228940345    0.9351316414469169 H
  -0.0619943753448217   -0.1741296072012713    0.8051617143886466 H
  -0.1325025971958641   -0.2343742833337206    0.7172210692428839 H
  -0.2280513110044620   -0.0456971261311414    0.6717200915416670 H
   0.2450413732439173    0.2188810396547591    0.0140413504438177 C
   0.1673749421315271    0.1443831457875722    0.0473143592367026 C
   0.0689788331669842    0.2579533216660367    0.3308969798379047 C
   0.3362144643936363    0.1822465355777731    0.0601233622063887 C
   0.4180174930698272    0.2493611184196013    0.0438792803388989 C
   0.7097437888487387    0.2992448813046660    0.1023882358132145 C
   0.7696282859928839    1.0122685071132032    0.0732881708141217 C
   0.1719017847485165    0.6580523755383860    0.2917051615282290 C
   0.3281405729896278    0.6401417768489203    0.2062309748831017 C
   0.4033421884714313    0.6484076577415271    0.2831340455173377 C
   0.6573108816219990    0.4831926493472587    0.2406563794124178 C
   0.7098315939857062    0.4047741030770796    0.0792394519134139 C
   0.7269257210477057    0.4783739392611444    0.1593579001000188 C
   0.9102447285154502    0.4763027848484060    0.1455180971070979 C
   0.8262423902180742    0.4545152695200008    0.2034259828627712 C
   0.2440587919492813    0.7086766116858585    0.2243832803860970 C
   0.1886851095002980    0.8762549222562034    0.2660850829346545 C
   0.2714038203191496    0.8043811742321686    0.2652180225933948 C
   0.7440985939865096    0.9816991716870294    0.1750472015260491 C
   0.8242779244949687    0.9531170465687446    0.2374140573554201 C
   0.8373490431782924    0.8468509218003764    0.2260883839097856 C
   0.0611488449212187    0.1954836554799107    0.4107370014766787 C
   0.2358281056578309    0.1721269723426294    0.4558923295454396 C
   0.1389198059585701    0.2126552090135499    0.4818139102369629 C
   0.1087064764477646    0.1514094301676042    0.5666736239996071 C
   0.3100136902690108    0.1986954671812708    0.5211113648224781 C
   0.5802158807660639    0.2743815457241055    0.6544666270776988 C
   0.6395979374042285    0.2458772524145021    0.5711681746371094 C
   0.8207399349681129    1.0691349971275701    0.3774246122539518 C
   0.6254592197539671    0.4436595887475223    0.6648278254345694 C
   0.4883490593476851    0.4031202128452676    0.5682080099055066 C
   0.0004685266150349   -0.1003357698786688    0.6472427362982468 C
   0.7986903925967827    0.9681800007350836    0.3399917864772223 C
  -0.1683946890967323   -0.0624766644082118    0.6275967380001888 C
   0.2373897827367523    0.2273268619766106   -0.0913116626547498 C
   0.2885188533661416    0.1496721385114438   -0.1452911778124924 C
  -0.0806501794857429    0.0170403100389798    0.7451397213467144 C
  -0.0020109232050464    0.0254575702292051    0.8157591953245698 C
   0.0876269717800748    0.5812645127680728    0.7411616070479305 C
   0.1191950091183784    0.4571718333825487    0.8710479370533779 C
   0.0482177963373431    0.5247822548294067    0.8274082028257499 C
   0.1706808752249689    0.6475929229368912    0.7517708330243330 C
   0.4852476564740842    0.3883473071255922    0.7405833365255126 C
  -0.0195043545803982    0.3731786730722365    0.7373741769357505 C
  -0.0373490065036199    0.4600188352577139    0.7965360184837635 C
   0.3031056559614037    0.9003363694834980    0.7027083445189773 C
   0.3407789377836118    0.8239605154618920    0.8496187652566813 C
   0.4620548354701441    0.9087493453539794    0.7695127529952898 C
   0.4006104730991101    0.7632031490667534    0.6997361583930016 C
   0.4961012076426628    0.9707341693557516    0.6856448733568786 C
  -0.1226482127366820   -0.1661721973302269    0.7568702532465149 C
   0.5445676223368220    0.3733721815140036    0.6532810688740320 N
   0.3755414096287319    0.8501955474137981    0.7567569481501272 N
  -0.0938941209783358   -0.0795453942679969    0.6950098159272182 N
   0.5133488961330923    0.0022586928691584    1.0541676267037710 Cl
   0.8504863641474250    0.6386008498476897    0.6050144795823268 Cl
   0.3704751925989423    0.9622397914101357    0.4161894637979712 Cl
   0.6188919530017338    1.7263389350458387    0.4798263730339860 Cl
   0.7527968774756202    0.3266873773710674    0.8527028747095766 Cl
   0.6466990036399309    0.6852999350564390    0.7361837825389451 Cl
   0.1386166691761824    0.1435505596506700    0.1320783163752044 O
   0.1314974844201535    0.2526836083810127    0.2773803574519900 O
   0.2214740563621493    0.3119800217434739    0.0489579740190587 O
   0.0006023249189853    0.3274699797776238    0.3284284486830671 O
   0.5061794255144954    0.2123531644716034    0.0450302943058621 O
   0.7458769964431841    0.2417278887425136    0.0399502188562342 O
   0.6788544991565169    0.2631223534370786    0.1785955855202405 O
   0.8537518790032149    1.0185921630552319    0.0482511989361036 O
   0.7026587505348637    1.0228993325044549    0.0138029952105631 O
   0.9081067431169090    1.0074579300940694    0.2131778208841909 O
   0.8624034724591760    1.1351627908610233    0.3291870401210776 O
   0.4028125701849609    0.3341885071893840    0.0191124443919028 O
   0.6131107512852092    0.4085173846426733    0.2746119823225653 O
   0.6480251399546063    0.5630390165774287    0.2764020646685447 O
   0.9889850303902759    0.4432682161389150    0.1629359921377752 O
   0.7241891276122198    0.5715341085763354    0.1155710074240334 O
   0.9004070688442619    0.5459088781346475    0.0795026789970951 O
   0.0816346196151284    0.6780308725575849    0.2849089283991674 O
   0.2011004771210313    0.7159099715201801    0.1330490094265749 O
   0.1190479703572662    0.8666002077132753    0.2188810743639514 O
   0.1908300635605033    0.9438422083764442    0.3330200686257065 O
   0.4790901470276990    0.6912908421650232    0.2685985215972068 O
   0.7755593139351864    0.7883828102550734    0.2144082865955723 O
   0.9291548888071104    0.8260455510706006    0.2235106929669647 O
   0.0710060168450664    0.1944675576473105    0.6435333761610168 O
   0.1165225273702019    0.0657501693142098    0.5640022490868460 O
   0.1424633704147572    0.3167063404743105    0.4942266217231857 O
   0.3114136943973254    0.2638242678217911    0.5750331220164523 O
   0.3839449187294516    0.1439275797881351    0.5235012042061049 O
   0.6596133274358127    0.1446387768656262    0.5876173110936715 O
   0.7929879367570621    1.0842557896104519    0.4577269739567665 O
   0.2009311386425940    0.6053066870643815    0.3559415514479976 O
   0.3841504942485421    0.6050303484408986    0.3606333496770774 O
   0.2406030326300617    0.0628096978632981   -0.1508527999217682 O
   0.1430961248938560    0.0796192263785759   -0.0055521406144508 O
   0.3653476513465088    0.1503290675388451   -0.1766918889760434 O
   0.5770168469425491    1.0176253348996869    0.7157522482982478 O
  -0.0838048926210740    0.2998082693509916    0.7293647502136592 O
   0.2026015268434751    0.4512244835246943    0.8463460442713846 O
   0.0927531193001755    0.4065910116751479    0.9455771277413443 O
   0.2508657806627592    0.6033101940637139    0.7627614273739428 O
   0.0163528940121495    0.5866170562348126    0.8961560700590055 O
   0.0513237288410257    0.3708208691064981    0.6864905162713822 O
   0.1622571570054233    0.7327437778473402    0.7411809518204845 O
  -0.0100088561969164   -0.0480970592410284    0.8927921522888113 O
