Li1 Co1 H110 Cl3 O55
1.0
  12.5059324152000002    0.0000000000000000    0.0000000000000000
   0.0000000000000000   11.5723931156000006    0.0000000000000000
   0.0000000000000000    0.0000000000000000   12.7612266130999998
Li Co H Cl O
1 1 110 3 55
direct
   0.4308632118506316    0.7474754332480620    0.5743763533730896 Li
   0.5213962454870439    0.2191231781075323    0.6949627238416085 Co
   0.0519602366321926    0.1277038848436474    0.2336685098546046 H
   0.0757751742243719    0.1176653388973125    1.0280921422656968 H
   0.1535516220498693    0.0719055729863059    0.2922514362977855 H
   0.0572722755745474    0.4316989155048230    0.0015614334894379 H
   0.3724565312650067    0.1391405858507699    0.0174771448985201 H
   0.3669527433254252    0.4630027259078468    0.2356636158715971 H
   0.3739446250258031    0.0798427385390540    0.1812887488593861 H
   0.4866015588092941    0.1376871267579115    0.1328545333455332 H
   0.3968969320166136    0.2542153147073997    0.2384047316797037 H
   0.5953651403513464    0.4381738078846016    0.0653824143945136 H
   0.6311177723947244    0.1527816710112108    0.2230942912397986 H
   0.6193601524813716    0.2413312034859266    0.1336083793739491 H
   0.6488613514124949    1.0118926518331350    0.1085551450969398 H
   0.6704439084773282    0.4408016135334614    0.2395613603054229 H
   0.8881941656824762    0.4252309361290533    0.0265353650449547 H
   0.7103313781548157    0.3817438202859524    0.0544660656591189 H
  -0.0674466936487527    0.4448552262591441    1.1673342428781825 H
   0.7712984435991564    0.4246951783183683    0.2956484451680378 H
  -0.0291869314723274    0.0418607070258418    1.0507858854911882 H
   0.9469102994037424    0.4172066667257938    0.3190913326795641 H
   0.1766038816038715    0.7842301473120550    1.0305605570157070 H
   0.0726006008553565    0.9200361110656911    0.1042546180658107 H
   0.1632134366182209    0.8759786723918610    0.1792701341304888 H
   1.0067698904479203    0.7603336207045018    0.1913073782495073 H
   0.3178992237930162    0.5368362010987472    0.1375876206757117 H
   0.2248673760768142    0.5634020113792132    0.3223104589630696 H
   0.5476941646730034    0.6193921590978000    0.0214737669746178 H
   0.3770639446178861    0.7945218820302136    0.2550528178269954 H
   0.3859493276753655    0.6596007827897090    0.2458452389975919 H
   0.4929873281664782    0.7667454319226998    0.1355823275502271 H
   0.5864061922073580    0.8328423915022086    0.0813046298805563 H
   0.9840606680907916    0.9970124107041098    0.3280019181152363 H
   0.9876589603656888    0.6111561789467697    0.3240359984168864 H
  -0.0491081969748657    0.5753839755775328    1.1316166732573985 H
   0.7410863820386144    0.9558973193615417    0.0439329872901464 H
   0.7481910102302725    0.8665009438957431    0.2127198966761839 H
   0.8939834181425330    0.7463736732341533    0.2445804702971105 H
   0.8236176132761610    0.9024511571182076    0.3063778212814159 H
   0.2759759203084422    0.2924571887587942    0.3838037639400723 H
   0.1505106652673285    0.2497521064941932    0.3784915786733040 H
   0.2428460435232114    0.2412378779318073    0.5384754157994477 H
   0.2054038133516428    0.4494895313215693    0.4038676659271401 H
   0.1801358053768095    0.1894646626586122    0.6391546090269312 H
   0.4527272353334123    0.2989104780010451    0.3399568817425878 H
   0.3878316343453894    0.1232225299949177    0.5729799358859409 H
   0.5524774945370999    0.3706648672362873    0.5548562862547541 H
   0.5834156115166657    0.2587061749366416    0.3943074564191637 H
   0.5164665850704349    0.0742331814360819    0.5404548493418370 H
   0.6257371260129948    0.3904006295560207    0.3818282485163338 H
   0.6267542432960325    0.0723697812054994    0.3911275113221663 H
  -0.0690779194800394    0.2296594603425036    0.6530176964372272 H
   0.8757360782062769    0.3132454559388732    0.3501651480754082 H
  -0.1376005990811585    0.3541592060396839    0.6623867017550440 H
   0.7227662766363547    0.1642304697753487    0.3825397788633209 H
   0.8441590644427904    0.2309383660841388    0.5227065554773977 H
   0.8636618085727330    0.1414737247037529    0.4318242261243996 H
   0.1226175031728313    0.9539184719640116    0.6411144519760664 H
   1.0788716714318038    0.5529676959533723    0.3964161878770296 H
   0.2654065364663110    0.8520760969058001    0.5717919623110153 H
   0.0919897988735134    0.8441892234572163    0.5781878991965975 H
   0.3293665814628606    0.8965578212006725    0.4685550212282830 H
   0.3247943514122246    0.5634253427677430    0.5072832732203494 H
   0.3677971425792677    0.5347018111110183    0.6188752105140688 H
   0.6466352079250920   -0.0543566430829278    0.5396986524422306 H
   0.4928553907830653    0.7527388216752915    0.3779955448521115 H
   0.5842632092525304    0.7314277585670440    0.4424431112918248 H
   0.5414187429455827   -0.0825966101092343    0.4775471035318919 H
   0.7250515920411672    0.7367844725483929    0.3582568467130609 H
   0.6950570272581301    0.6020785405576634    0.3394099123789346 H
  -0.1741200671893424    0.5179472817700966    0.6220214597906693 H
   0.9504606144483077    0.9580144268392485    0.4448167075704855 H
   0.8840121504385402    0.8729663308950095    0.5739046118875321 H
   0.9112552210620393    0.5834721902678741    0.4864647415811355 H
   0.9324451644586559    0.7604762014121841    0.5350266877630048 H
   0.7965624534714622    0.6281224190354621    0.4690651602766184 H
   1.0120473857844361    0.4986764189699577    0.7209476867337804 H
   0.2766683916662336    0.3252628492827382    0.6674512619230810 H
   0.2353296107712040    0.4636577330376843   -0.0072274551809401 H
   0.1340584733659932    0.2602581443366258   -0.0557660493756505 H
   0.2756416789371295    0.1365266062099277   -0.0695578270265017 H
   0.2160355675932056    0.4306317205109585    0.7159889157693152 H
   0.1292575518507748    0.1538626920130929   -0.1391953334310780 H
   0.0841124973873591    0.4343561014207203   -0.1193320391189316 H
   0.6615233421176052    0.0414200894328284    0.7267794145336460 H
   0.4119393929666949    0.2167891751290482    0.8691497410769383 H
   0.3812939370921541    0.3263680657986512    0.8012902769160998 H
   0.5576974171972174    0.4431753662849963    0.6679621845951467 H
   0.6771751138929024    0.1497892044008848    0.8058486161544520 H
   0.8058100646179477    0.4729548593040712   -0.0580134822337551 H
   0.8328764191097241    1.0617872582669281    0.9322941412533923 H
   0.8065497135855656    0.2564784593947932    0.9036840388651777 H
   0.8318529048626423    0.1940574896969844    0.7909292039558978 H
   0.1328134642388788    0.7495363725681969    0.8692124309753513 H
   0.1177702036682921    0.7849810723725151    0.7447847369815783 H
   1.0745057434715952    0.5986712937068071    0.7746556899516236 H
   0.2814965002786400    0.8018954649311412    0.9590392191638213 H
   0.2633419163210256    0.5985814246546921   -0.0129197763192099 H
   0.5462596454860777    0.5431443172568124    0.8358614050196567 H
   0.4678776450517403    0.8243696409638758    0.7851985636172231 H
   0.4418651903862561    0.8567034889642164    0.9704722893868850 H
   0.5329251739358144    0.6368362605886032    0.7528200147106594 H
   0.3889582996376851    0.9679777938669873    0.9273808204652766 H
   0.5700067752593878    0.8246288786142073    0.7189580660828991 H
   0.4598726441708525    0.5392548883763396   -0.0014632757466144 H
  -0.1735531362509198    0.5070722623386923    0.7450778122566589 H
   0.6965611134290371    0.5944802850264487    0.8154558430862382 H
   0.8610150646994198    0.9291699176123691    0.9290734477224264 H
   0.9504686106533630    0.7912511670085319   -0.1530787950583581 H
   0.7909843008248659    0.6539286630004568    0.8599108172983283 H
   0.8468697779565464    0.8463011461819165   -0.2159066112478266 H
   0.2685490450530545    0.9356940651457106    0.2969108629973288 Cl
   0.0643509960618262    0.0977901931342509    0.7197009413790927 Cl
   0.7212829805985916    0.8880461850147899    0.6728794235019132 Cl
   0.0864674597382035    0.1176376868812771    0.2998008673141662 O
   0.0410227075093141    0.0649210193859758    1.0807438206952815 O
   0.4018457833253555    0.1465729292857726    0.1388868688203203 O
   0.6043448786284785    0.1576665724689564    0.1479479100121835 O
   0.3873438658370145    0.3145234975550073    0.2951641657027977 O
   0.6452310743173766    0.3875593849083880    0.1050484289044648 O
   0.7021088804964229    0.4655000486060398    0.3075947889343575 O
  -0.0427426580164716    0.4934372260567591    1.1087113516247633 O
   0.8898253915137631    0.3643256425601823    0.2910078254380185 O
   0.2955306397712444    0.5192598884062749    0.0093152335746448 O
   0.1124575250295328    0.8523595300701625    0.1223343847681084 O
   0.3354620885765363    0.5365009204043186    0.2124276050248335 O
   0.5304551461942238    0.7742356717662765    0.0669611027612980 O
   0.4266947901552897    0.7317837782734993    0.2699275634729305 O
   0.6810588706882746    0.9354002624753349    0.0947808422552712 O
   0.9582888991974727    0.7001930782041087    0.2150315866801618 O
   0.7904917345934579    0.8349629554819199    0.2712981213769838 O
   0.2051799196100936    0.2975054099362486    0.4177213498526741 O
   0.2542126490093587    0.1947280510858417    0.6040568857767055 O
   0.5688489247673765    0.3413753333763390    0.4160953306125879 O
   0.4659457619103733    0.1425167241835865    0.5717786407076025 O
   0.6509307692808136    0.1468606830776405    0.3540926702109801 O
   0.5576926194741842    0.3702656412547769    0.6336888335090513 O
  -0.1392598116301389    0.2671020183053761    0.6445059754802075 O
   0.8312180061812492    0.2181536292952927    0.4491258544626464 O
   0.1375576126982043    0.8685325029488407    0.6363445343305704 O
   0.2183920492230104    0.5390725578956066    0.3971018586409214 O
   1.0046029188779266    0.5494282379008469    0.3757904276754356 O
   0.3366559219912967    0.8613179191401162    0.5368650690339648 O
   0.3818480741024883    0.5804529357670137    0.5568717664887308 O
   0.5934188640408797   -0.0155120414945127    0.4951692339757749 O
   0.5174501182922401    0.7773335616877374    0.4496563677279660 O
   0.9220500978867308    0.9929337383388950    0.3802766735306131 O
   0.6937288575984404    0.6667583343153604    0.3937205222452724 O
   0.9467903563279124    0.8448597848460736    0.5403247678026301 O
   0.8455983813527493    0.6064924936173069    0.5252580343428053 O
   0.1106378286450921    0.4059047692968436   -0.0446406298290485 O
   0.1502260003673588    0.1702015769879832   -0.0666012146926005 O
   0.2870178798693433    0.3938761423214643    0.7151308477847879 O
   0.4409768120046093    0.2758305499920361    0.8192407457029206 O
   0.3581665132106318    0.1208012503408219   -0.0610711820288473 O
   0.6261497301938497    0.1152319614862013    0.7557734925496399 O
   0.8261787977553822    0.3950090108534128   -0.0204504787284397 O
   0.8061363097842050    0.1814801430284035    0.8629826223205634 O
  -0.1422415964952703    0.4756854958875625    0.6840742721110076 O
   0.0902952430981885    0.7413937179712861    0.8062349426534219 O
   0.2216537012650783    0.7565323326251417    0.9723686588138769 O
   1.0762968934039885    0.5108718221670503    0.7636912267191969 O
   0.4014523700366335    0.8874810469370674    0.9084406349072610 O
   0.5754945707888587    0.5637079118066043    0.7692102886507278 O
   0.4942035509553934    0.7865027973799606    0.7233009087954569 O
   0.5409581615343959    0.5384944579353674   -0.0029690871064937 O
   0.8441350758276245    0.9910067384714311    0.9783555441123145 O
   0.8731293153582402    0.8134686977674382   -0.1498628032697732 O
   0.7674282803523782    0.5742709819321098    0.8427886387942888 O
