Li1 Co1 H90 C51 N3 Cl6 O45
1.0
  14.1928507654999994    0.0000000000000000    0.0000000000000000
   0.0000000000000000   13.8512315997000002    0.0000000000000000
   0.0000000000000000    0.0000000000000000   14.3157273791000001
Li Co H C N Cl O
1 1 90 51 3 6 45
direct
   0.9034590787545895    0.6398087589620509    0.3573610724851359 Li
   0.5237804582269283    0.6601434128137776    0.6457976912229533 Co
   0.1488326702225833    0.1781970998126592    1.0169985292438071 H
   0.0236083562799440    0.1494256510695285    1.0185415874073935 H
   0.1799335397584612    0.2392566520923509    0.2876775717042825 H
   0.4319667682551031    0.1732098176707956    0.0881725151767563 H
   0.4741310247450443    0.2837703832766128    0.0493816116275081 H
   0.5633650356513361    0.1220728487376257    0.2245085844741798 H
   0.5992242163338486    0.3289663642616942    0.2717007376990530 H
   0.8698872468603073    1.1486414897751469    0.1524591543134858 H
   0.8523713859450148    0.2989372656211799    0.2220448605525094 H
   1.0517640271245479    0.4485976034098353    0.1405596541701190 H
   1.1068692355792953    0.3879113031375761    0.3364372317281997 H
   0.2840091778670932    0.4720634589664661    0.1585615337236679 H
   0.4829646271038289    0.5992311398561676    1.0161588932489536 H
   0.4281507625142654    0.4215300464708466    0.1709416241868841 H
   0.6000711215961246    0.5852677605993953    1.0459436180281152 H
   0.4156374202030991    0.3796831539524546    0.2774943657700294 H
   1.0076312443348787    0.3625648205903055    0.2289638243869707 H
   0.8753625387015277    0.4569982282324338    0.0253863237246732 H
   0.7829420643604245    0.4084876683473076    0.1006678634928434 H
   0.8127979408859515    0.6060197058636869    1.0829951757976755 H
   0.9366356412211372    0.6041577775712916    0.1960629463856454 H
   0.0023187644289192    0.8609847589407352    0.0608452275272904 H
   0.2302588769159704    0.7035381099332034    0.2625443744540132 H
   0.2842283022735557    1.0185916825046502    0.2546474652012536 H
   0.1710375116041376    0.8645245163729236    0.0407659124922990 H
   0.1608732392966554    0.7569550205287945    0.1005882307944963 H
   0.2028288696234020    0.8800141137026404    0.2913106389332611 H
   0.5995469140128189    0.9495003534692792    0.2416792104221749 H
   0.6007355406163628    0.7551544586205999    0.9645946254718449 H
   0.3674582339847686    0.7613178094667333    0.0818885173317473 H
   0.3892783746398648    0.7613466877651807    0.1975494234214590 H
   0.7505630865501967    0.7130347383776263    0.9483132313220596 H
   0.7281454619829456    0.7390317045974244    0.2208852966993841 H
   0.7557706379590835    0.9276322619699962    0.1396802018260921 H
   0.8666271548066042    0.8921805408385239    0.1773611373255716 H
   0.2549741371406939    0.1244574742319186    0.5193747333058977 H
   0.2472153012437028    0.2684836559934891    0.4813110439403450 H
   0.0396354394754451    0.1196542912426572    0.5081370227977423 H
   0.0259024690369912    0.2903459718330826    0.5818602484538005 H
   0.6122053998215133    0.1602918328178187    0.6876789022940245 H
   0.5382786026377880    0.1313629973481498    0.5220888531665989 H
   0.4996914287818311    0.2039182782822847    0.6486644683634510 H
   0.6649051718657698    0.1101064038184902    0.5365124304345938 H
   0.5792123100091227    0.2828794877695110    0.7074124437704031 H
   0.6180548236879156    0.1786288303744476    0.4373060148337063 H
   0.0231391059432753    0.0978966592349354    0.3832500818372615 H
  -0.1286239214842959    0.1415888028283692    0.3566695253679106 H
   0.1365426797983899    0.3410728689282996    0.4778697937198412 H
   0.0655266438621809    0.5320402194458731    0.6393586191758999 H
   0.7666162392088459    0.2631260096740378    0.5249583545836189 H
   0.4976861938596702    0.3069979206753065    0.4870761718877025 H
   0.5486464985898608    0.3839333175264487    0.5709431643363586 H
   0.5563555206748363    0.4431905752000391    0.4112654239417445 H
   0.6635516735223155    0.4449296263325406    0.4809709983477538 H
  -0.1498141675433232    0.6412894937149406    0.6387054913429648 H
   0.7236368540184662    0.3731234484601309    0.3504274394694002 H
   0.0790341486734066    0.7446918510931120    0.6247683720673292 H
   0.6724385421355329    0.7527178521891017    0.3302622049440869 H
   0.8999671798528924    0.8836029642421892    0.4653084340880189 H
   0.7325138585104923    1.0121915296112483    0.3501193866626362 H
   0.1592033844949964    0.0989211168723564    0.7761948377015389 H
   0.1544622651024379    0.0138326544120560    0.8706126737084841 H
   0.0796555883084544    0.2585704580939626    0.7963873149920760 H
   0.2471941638411501    0.2623787837017117    0.8069058164983172 H
   0.0626139097904263    0.2878624381666074    0.9178544227367138 H
   0.2349126283779779    0.1143110840724296    0.8769874807709064 H
   0.0074593807297226    0.1288455316809989    0.7727797125943525 H
   0.0011371836262263    0.0369280735953529    0.8582332817777094 H
  -0.0584294259272996    0.1445336673125414    0.8807448867744972 H
   0.1071236429256176    0.0580778174207573    1.0093943050840952 H
   0.7487558386319454    0.2036973592991622    0.6345108040309063 H
   0.5626567917498054    0.2072298971567387   -0.0509611765494423 H
   0.2021045612959313    0.3694082553648747    0.8517034005132426 H
   0.3211158880482629    0.2945412666400266    0.9340631695125685 H
   0.5263356179055007    0.4877683440111081    0.8246660038270580 H
   0.5509017889842196    0.4911785822747599    0.9915754410302565 H
   0.6887932550706000    0.5179563454888291    0.8697863098300219 H
   0.7294475259801886    0.3341399114285434    0.6220077718579612 H
   0.4493754625394536    0.5833350804758041    0.8453083360100127 H
   0.5376150291136520    0.6013342019405986    0.7567637607723909 H
  -0.0847257638629611    0.5462892772700362    0.7003460895907555 H
   0.0421514949592950    0.8252500304844786    0.7151975878325003 H
   0.0426031307938366    0.7389782797452966    0.8803558042045029 H
  -0.0802636581840976    0.7702866870070302    0.8245682092852282 H
   0.3515276782609245   -0.1393782701707055   -0.3020605377490679 H
   0.4883669949062426    0.7335491596371880    0.9273397947617668 H
   0.5831649338284589    0.7458513147757745    0.8423891689363918 H
  -0.1406666042986232    0.8278043159821500    0.6921397304663486 H
   0.8181358396105797    0.6038632189271285    0.9181687623354526 H
   0.6913748365023630    0.6338612733968118    0.8189638835059366 H
   0.5827166095203173    0.1806228768822396    0.0782889796599675 C
   0.4874602707947426    0.2291117058477842    0.1058300182365758 C
   0.4868445382583841    0.2773521814466813    0.2034743755914642 C
   0.4779022896504788    0.2100303701486739    0.2871390031917767 C
   0.8935787522213978    0.3096641095794614    0.0832450673334156 C
   0.8283515462642733    1.0344047167769774    0.2115361385004513 C
   0.3046533743601773    0.3329999405973329    0.1923132242389127 C
   1.0487498335205405    0.4980824448888302    0.2744173303645976 C
   0.5474019283275611    0.5678144389752565    0.9984909122025095 C
   0.4077094850856868    0.3544117549811472    0.2095711667421131 C
   1.0077573641701094    0.4362972531649019    0.2004168990943983 C
   0.8631162322426098    0.4148715050020867    0.0917706557836528 C
   0.8393281994098623    0.4562695565668601    0.2582903118844151 C
   0.9030849467294076    0.4694615603742297    0.1712308166177238 C
   0.2860665517155508    0.6504742365361317    0.1582939957985191 C
   0.0877927837111379    0.8773905202886952    0.1734388776657533 C
   0.1690055026387433    0.8328147007627714    0.1160642170390687 C
   0.2623017700256112    0.8422116990775508    0.1678638902490107 C
   0.3106239860012146    0.9429283747001154    0.1382992031889664 C
   0.3290952575118867    0.7542130260912151    0.1464524738478086 C
   0.5965834501749381    0.8093871811473297    0.2187156549356449 C
   0.6931384004553388    0.7926023921322477    0.2652658568466494 C
   0.8009652229369804    0.9304839939416755    0.2029888955445232 C
   0.7565189020094470    0.8841603154022236    0.2916934347112808 C
   0.2047291221128848    0.1230106714797046    0.3949532943645269 C
   0.1461263781157595    0.2254290008382813    0.5886877743916509 C
   0.1668988081843296    0.2691435251130118    0.4915923936826487 C
   0.1305079513696096    0.2014145298068963    0.4102239120712566 C
   0.0382875777726714    0.1524831409176455    0.4362721868200766 C
   0.5735789808548171    0.2233707001164439    0.6609502569470456 C
   0.6124985051369101    0.1593525661608175    0.5102435172287570 C
  -0.0443202097234086    0.2227462069125191    0.4437905613427106 C
   0.6134391195505029    0.3970382893618725    0.4452047402708142 C
   0.7249191897733268    0.2669437207287822    0.5897900585845615 C
   0.5658809502191691    0.3312282569875857    0.5155293890532285 C
  -0.0784690927073780    0.6132039045599353    0.6561415596187840 C
  -0.0270417922967909    0.5916253180025874    0.5679771257359038 C
  -0.0407578528132027    0.8251951617174287    0.6012005860187790 C
   0.0199755413612293    0.7697264480171508    0.6674158732268813 C
   0.8385757078789881    0.8536908227103868    0.3558445585543317 C
   0.1691471232358460    0.0879661343563405    0.8477853320480743 C
   0.1063697422345732    0.2527760275104947    0.8686015988089976 C
   0.0050123740942114    0.1141897952189505    0.8479564724962764 C
   0.0944827716190503    0.1333577658134030    0.9958777023383278 C
  -0.0275941830835000    0.6839376868195013    0.7218147856521722 C
   0.2102354154778490    0.2929009792882151    0.8677899041118099 C
   0.0468834548107473    0.6298681266789994    0.7821505252989762 C
   0.5205115941511659    0.5686093141400208    0.8257131039570790 C
   0.6808667291133578    0.5953325695657705    0.8872524150008316 C
   0.7566097928404235    0.6343680875345633    0.9527251622234687 C
   0.5611586431148825    0.7182111733743203    0.9090550095693531 C
   0.6204419410161944    0.2504996956353794    0.5673077220970784 N
   0.0931947992235091    0.1486906983740426    0.8907101505869581 N
   0.5793154605335796    0.6099940816875083    0.9069112135059546 N
   0.6617106057599800    0.6067127850264242    0.6017391545312849 Cl
   0.4055555837655722    0.5688944873371887    0.5912688517635170 Cl
   0.5316804215149626    0.8160378532797626    0.6764269417240596 Cl
   0.4656502056348632    0.2904109480045892    0.8767031780671583 Cl
   0.0006101577225803    0.8586059091061319   -0.0857040845993767 Cl
   0.2698140028928215   -0.1033879687731896    0.7140526931606493 Cl
   0.2659655864680698    0.2531954847954429    0.1915692871885643 O
   0.3221621894746188    1.0154836556342501    0.1960636449180871 O
   0.1275466012719839    0.2545116132471825    0.3284069027790865 O
   0.6300347988746701    0.1380772017371670    0.1368001525692032 O
   0.5676685403530463    0.3360675378499065    0.2116541904830887 O
   0.5263918433962906    0.1279084308963813    0.2875972404734937 O
   0.9191824879334176    0.2760389408247864    0.0090909589260551 O
   0.8890299831920685    0.2572463881101500    0.1652499818523874 O
   0.8613399858481025    1.0780297183265211    0.1358690088244948 O
   0.8220526003035850    1.0761186969267653    0.2870558778312213 O
   0.2521769542028938    0.4128682896345377    0.1784403699479080 O
   1.0288221949739913    0.5852720923441624    0.2815088317121444 O
   1.1158857469281689    0.4585271897437306    0.3284585941797679 O
   0.3105373226507488    0.5803837183744812    0.1091487458668156 O
   0.7501797949839086    0.6040206056536667    1.0509618750888692 O
   0.8064813804231359    0.3685960532210419    0.2665183255145130 O
   0.9091908377467820    0.5689760685303026    0.1384542773910108 O
   0.8232496818681498    0.5233947788481869    0.3114821602505491 O
   0.2285030633439306    0.6424244108439229    0.2287340072136705 O
   0.2546944188469140    0.8376770842638501    0.2677756839094681 O
   0.3313308901218715    0.9504331225091298    0.0551738426336012 O
   0.0967409507917580    0.9272582880051026    0.2440877502809556 O
   0.5633430527526814    0.8987359145860806    0.2059415921753427 O
   0.5498788091586800    0.7424595586231291    0.1865112137786365 O
   0.0041182619662344    0.8780669944298253    0.1309017446319805 O
   0.1980955006117795    0.0825926049727432    0.3169698311120865 O
   0.2680701671822282    0.0963314554590871    0.4582147672899031 O
   0.2013520697650571    0.1657844851825115    0.6229689524976602 O
   0.0686458198988663    0.2523681215449253    0.6311878852060165 O
   0.4305167424399916    0.2342296622901222    0.3574190506777922 O
  -0.1283188383074526    0.2054618233342975    0.3991996730772669 O
  -0.0401984162256427    0.2929399649911191    0.5002098391489619 O
   0.0548099807679895    0.5471772849472932    0.5734045831009716 O
   0.6655449305830299    0.3413775349769195    0.3775402776592821 O
  -0.0649524283550461    0.6138551101899239    0.4939030691463554 O
  -0.0149441522358266    0.8457471247649720    0.5244033705587346 O
  -0.1267546705185569    0.8597855875977075    0.6318738440637088 O
   0.6950210384426944    0.9499920065003460    0.3418885789027717 O
   0.8477761146300696    0.9091097213458428    0.4276914143069496 O
   0.8840450790900695    0.7795378499146502    0.3369073440614246 O
   0.2569335743573242    0.2788437455614888    0.9500826139967381 O
   0.6103741961803691    0.1795529359247640   -0.0107424726894784 O
   0.0824147239216598    0.5528987978271817    0.7527723464008501 O
   0.0710885990538671    0.6713518023986694    0.8595500154302040 O
  -0.1025593903966284    0.7192168601177505    0.7772866439078249 O
