Li1 Co1 H90 C51 N3 Cl6 O45
1.0
  14.0794021401999991    0.0000000000000000    0.0000000000000000
   0.0000000000000000   13.7405136607999996    0.0000000000000000
   0.0000000000000000    0.0000000000000000   14.2012965563000009
Li Co H C N Cl O
1 1 90 51 3 6 45
direct
   0.7682837280366468    0.6858069911377210    0.2933745001157476 Li
   0.6720481076240920    0.7490921070705246    0.5617633746730605 Co
   0.1647836706201961    0.1762081382231990    1.0810645505032632 H
   0.0961678309431942    0.0659240515137526    1.0878090051113538 H
   0.2798666822328598    0.0565444894987110    1.0413195879385877 H
   0.0432266625201569    0.1923829338302986    1.0823883732912367 H
  -0.0220772467541427    0.2815826559263240    0.3023779033960825 H
   0.3207164281434365    0.2784699629764223    0.2769471268068994 H
   0.4490784837196350    0.1507192803357997    0.2188369397033208 H
   0.6092087916368130    1.0057331677362791    0.1029686460248798 H
   0.3307850374912186    0.3775062896810216    0.1963044900265308 H
   0.7045786082404693    0.9993483991486037    0.2700252236123357 H
   0.8006103847702072    1.2004857123688935    0.1106756887984811 H
  -0.2006054239430850    0.1696501592258728    0.2963256391074481 H
   0.7155712625065261    0.9836633960024075    0.0266143500842766 H
   0.5821199283312449    0.4159907316061143    0.2132346343303860 H
   0.4108310500120308    0.4890606345795628    0.3154281202734832 H
   0.5591926053678414    0.4069501671071036    1.0105738036879024 H
   1.0037979897205522    0.4900916731818836    0.1459013456965534 H
   0.7692425755690612    0.3712612538607957    0.1680993188710628 H
   0.9288629896762242    0.4323588242081856    0.2264749746932936 H
   0.9210395040691545    0.4818615587340795   -0.0045982929474866 H
   1.0692695197486664    0.6564179879338562    0.3066782149738241 H
   0.1757209248066023    0.7002191161054327    0.1709948291392262 H
   0.2581597946138619    0.8067085848488311    0.1318026330046353 H
   0.1647801193330390    0.7709049742892419    0.0016877528122154 H
   0.3498710751882839    0.8290097889787909    0.2961918485065359 H
   0.3895119629505872    0.6960678884724566    0.2149563081158090 H
   0.5597905000736091    0.8818622527168690    0.2639990132828264 H
   0.6469966177605465    0.8068468620666197    0.0557947843042890 H
   0.6726433033516203    0.7515017695341966    0.1588832589513832 H
   0.8604232938422138    0.6673084104969446    0.1413292279506427 H
   0.9323645588131150    0.8933836560579711    0.1311449465769931 H
   0.1391249106527882    1.0389131500320397    0.3410638077303793 H
   0.0828618682230088    0.1730597843066045    0.5445429751813315 H
   0.2955278585956275    0.0815464660245287    0.6793096841513636 H
   0.3090248805648643    0.1400501013211729    0.5679613298844776 H
   0.5035221307130940    0.1845957431443159    0.5195432367002348 H
   0.5879784867542965    0.1304194569896206    0.5996908975485022 H
   0.3655485874719742    0.2890387090644448    0.6282918072182474 H
   0.4243451181596217    0.0462719477666880    0.4841776418752188 H
  -0.0667737469132795    0.2088794059124640    0.5287877940179087 H
  -0.1045097242445195    0.3271253492672049    0.5082999323042592 H
   0.1386192073616186    0.3739824039519069    0.4506940794332350 H
   0.3430959295499873    0.5320755476017874    0.4442469920396982 H
   0.0332155840243197    0.4150226455266289    0.4735618506055744 H
   0.6635250184470756   -0.7475637318351859   -0.6365286215919397 H
   0.5105368674907308    0.4551824251114535    0.3693844612992662 H
   0.4349222718282991    0.4744915285809196    0.6390035052239141 H
   0.1118844073856124    0.7966376367448471    0.3864906458674795 H
   0.2137168563577414    0.7295513528725214    0.5922817149021949 H
   0.1752670703079262    0.8889842572078062    0.5396097636451693 H
   0.2892300059512437    0.8102819592664177    0.4048551662453251 H
   0.3874408522805722   -0.0360466633072844    0.5763780261717595 H
   0.5166439137377087   -0.0139696138251082    0.5564454095351170 H
  -0.0811117136813153    0.6813508258507798    0.5318548379196627 H
   0.2640528005223373    0.2513370617470010    0.6845824421494199 H
   0.1918601044207143    0.2676683289426507    0.9400731986177374 H
   0.0684805757516564    0.2848154317232525    0.9151677261773992 H
   0.1860281806513408    0.0585968145206242    0.8458937696692820 H
   0.1355558670599126    0.2168689180013162    0.8380965942803293 H
   0.3083231462226232   -0.0095301873592676    0.9306888442053314 H
   0.5123382507985905    0.2281748999926004    0.6355671992636424 H
   0.3509613203455106    0.1687768294293140    0.9872090356412269 H
   0.3656870876711007    0.2161724374885605    0.8227198292691709 H
   0.5129011582232865    0.0915213478508912    0.7602199021335566 H
   0.0321608517386639    0.1068883133961740    0.8374114455714474 H
  -0.0081412856922895    0.0306640887525211    0.9330449671035013 H
  -0.0408457993793642    0.1623251055572358    0.9288319714968813 H
   0.0695907081169628    0.4643228475949525    0.6453641920557039 H
   0.1841303727945918    0.6195525538966175    0.8416413410434458 H
   0.4343427017642619    0.4420511838453614    1.0371403920627245 H
   0.3360601194343603    0.5081671983137104    0.9219459805162467 H
   0.4605516981637893    0.3425585423220600    0.9562527072343693 H
   0.5217839572764447    0.3569844950115506    0.8258174337608175 H
   0.3722150637232638    0.4232621482697460    0.8197348905467136 H
   0.5877199530492604    0.5708877065330388    0.9661616616345626 H
   0.3851289643413064    0.5559297504424777    0.8208770397818693 H
   0.5074536186732223    0.6315506497516746    0.8848676758760688 H
   0.6209791777902726    0.4334490309042232    0.8500180409826655 H
   0.5496875852918895    0.5529502402865513    0.7367079644258777 H
   0.4587855720348253    0.5944385000469080    0.9980714241131843 H
   0.7827211308450811    0.4654140513425077    0.0073759658341570 H
   0.6100717544159858    0.4480900410561164    0.6927774685358220 H
   0.0220858500739992    0.8520562345351473    0.6626851457464342 H
   0.1495280512507681   -0.0143094846709357    0.9392528509858283 H
   0.2767401290197576    0.7422633958362652    0.7115581480986103 H
   0.1574012548780370    0.7681387021586419    0.8399084006811037 H
   0.5462966742628136   -0.0094887041939311    0.6901241896714154 H
   0.4248011034305921   -0.0063869278664864    0.7383458430454662 H
  -0.0316323399790095    0.7446250251611264    0.6832008781547367 H
   0.7481259118755716   -0.0720045621309325   -0.2422829287565027 H
   0.0990294581343774    0.1392837544246925    1.0617184296113564 C
   0.3760532948826469    0.2427493187475060    0.1489334632098588 C
   0.3734892655552278    0.3138449141608673    0.2274079880943919 C
   0.5293087370181571    0.2674616408907985    0.3144401823099051 C
   0.7365543978029090    1.0832914036441754    0.1413250029842981 C
   0.6894643300998934    0.9955894421492485    0.1005174613839565 C
   0.4670621308573965    0.3484083964093431    0.2706751642683461 C
   0.4402854256929367    0.4246618776011807    0.3441487373229920 C
   0.9434403131986479    0.5039188127408670    0.1910225779347279 C
   0.7631066616190408    0.5161398260264958    0.1788011586219254 C
   0.8574792767889862    0.5261887953305997    0.1241427690218821 C
   0.8810491696505935    0.3507088926484451    0.0631286217174508 C
   0.8591419894359358    0.4529893484373283    0.0309209991115352 C
   0.9637295269845353    0.5787578635496946    0.2652031286910363 C
   0.1975080715153505    0.7824438442262751    0.1716123783865947 C
   0.1128972344828145    0.8138924502003578    0.1162610943060375 C
   0.1996573105028214    0.8173573861682050    0.2786335925394508 C
   0.1954753147466320    0.9296559536083803    0.2705772858813629 C
   0.2948296755405435    0.7909893762856031    0.3302823977800267 C
   0.3245596311048395    0.6837262828974198    0.3400230576874936 C
   0.5409164742198219    0.7911283812782220    0.1649024276703182 C
   0.6392668861344241    0.8171827202088932    0.1323553994347200 C
   0.6999335246389953    0.9070177897319150    0.1613147270826985 C
   0.8034713017039589    0.8674654110205970    0.1670761728546131 C
   0.0747393642373121    0.1819793926287918    0.4081745814700630 C
   0.0176098077412027    0.2772589456585274    0.4265785348671248 C
   0.0802751106577843    0.3308188065318182    0.5924373344958875 C
   0.3416164633203435    0.1333538451060582    0.6365882327969198 C
   0.5213156206287419    0.1662507229927676    0.5917430316932589 C
   0.4429162192189090    0.0137127574013146    0.5496446924585374 C
  -0.0808467876593964    0.2616365311477512    0.4734289754140369 C
  -0.1664526953533490    0.2247871081567827    0.4154570151260323 C
   0.0717910856394959    0.3512991180359528    0.4877794961000930 C
   0.3813361896575342    0.3903813542067899    0.4292761758781496 C
   0.0367484044881930    0.7589832947913837    0.5449639226614649 C
   0.0303894697047074    0.7747156033015602    0.6509270644094225 C
   0.2318291311163326    0.8777568748982122    0.6607409570668624 C
   0.1279610843457596    0.2324192828038762    0.9129270856926482 C
   0.1764453873866487    0.0569127435629266    0.9251745589645757 C
   0.2771371629239203    0.0572438811107885    0.9628457672151118 C
   0.3397719247709509    0.2336135613006704    0.6800934154082862 C
   0.4840739327517486    0.0400050787015480    0.7098378826353021 C
   0.0123432488872380    0.1043374626153918    0.9116842414262795 C
   0.1267508056826232    0.6302915992949689    0.7091520297653627 C
   0.4843471687856151    0.4100746500092589    0.9844804115436750 C
   0.3830699280476256    0.4898360058839410    0.8628513762543770 C
   0.5451837008677816    0.4729570954061141    0.7328639492133524 C
   0.5143420077563842    0.5782942709826879    0.9435362626981916 C
   0.5480782840037826    0.4337510574588664    0.8289305297957276 C
   0.2186403608723312    0.7692325477288318    0.6631463712390526 C
   0.1212967388667642    0.7442895209642817    0.7084288563593792 C
   0.4449986940078267    0.0907535454047500    0.6289347062636834 N
   0.1075454447370796    0.1353093760755195    0.9558471104652879 N
   0.4850429369654322    0.4798790273184079    0.9016816336054474 N
   0.5410489372307815    0.7333226820439944    0.6534057113315858 Cl
   0.7921199674350359    0.6480573106814664    0.6140508539927279 Cl
   0.6464149169242152    0.7177402951488939    0.4063388335933359 Cl
   0.7348952364431166    0.9153253394216806    0.6125411326855921 Cl
   0.2534067518828125    0.6853936150340165   -0.0574462844688704 Cl
   0.7311145361356783   -1.0781263375810000    0.8508982423044563 Cl
   0.3313539536937845    0.2645061473042774    0.0753028622394053 O
   0.4228464749793296    0.1580174063357094    0.1525605968166948 O
   0.7903741546686105    1.1301317195077767    0.0854519355601833 O
   0.7313773313853030    1.1073851171815721    0.2270840740079729 O
   0.9552419506790898    0.3098865468579645    0.0418594369776952 O
   1.0559621365136183    0.5929189062008957    0.2768950188886494 O
   0.5174445471657301    0.3884178177141935    0.1936167072703101 O
   0.3696666600593359    0.6501452966700726    0.2668459364380269 O
   0.8220772053773857    0.3154474743375527    0.1247828514230884 O
   0.7275440720279399    0.4317191101322063    0.2048248388214668 O
   0.7237385127104021    0.5943962891067409    0.2073084148710321 O
   0.8664817897322097    0.6173248351405620    0.0898184382773236 O
   0.9035586481670939    0.6246608054316560    0.3104687139459845 O
   0.2144207214722766    0.9787873046382876    0.2017758214427831 O
   0.0382889528569387    0.8431293484646554    0.1541900255035941 O
   0.1218613935247415    0.7785604377309103    0.3206593327691510 O
   0.1121621180412969    0.8102957869881965    0.0247300150945866 O
   0.4945333257382968    0.7267392309276020    0.1245117494159768 O
   0.5052608409052054    0.8439859394401135    0.2361121229253179 O
   0.6790682920762278    0.9340073193197346    0.2587023138088174 O
   0.8250659686487928    0.7925453588731387    0.2100250682306076 O
   0.8668035363486420    0.9246896181652826    0.1261362489754741 O
   0.0929738032741073    0.1555124053692466    0.3261257350580013 O
   0.0934155833964493    0.1328880692145602    0.4848679309598202 O
   0.0855317259077091    0.2452361253432072    0.6205939185383927 O
   0.5014098251120568    0.1808280528469951    0.3191284866302923 O
   0.3608118806618473    0.3055060701533916    0.4443914154725777 O
  -0.1419992422470575    0.1861488146325296    0.3346622795572583 O
  -0.2504725982029451    0.2364278665700812    0.4417046185418373 O
   0.3571242240779249    0.4669791165599276    0.4842072870557367 O
   0.1070028080594763    0.5839650924616765    0.6349320459898381 O
   0.3072677036795361    0.6391879188225813    0.4131304669922746 O
   0.0059360165984159    0.3321273456769955    0.3410483161871157 O
   0.6173852751872972    0.2945021147167506    0.3275425071055559 O
   0.1648795553734375    0.9717249776834486    0.3525803618246915 O
   0.1015182001740662    0.8006520427096958    0.5010814505555260 O
   0.2075432987638559    0.9319469887746863    0.5872969587766286 O
  -0.0223599292118471    0.7035661525507444    0.5015795036714481 O
   0.3312239765838350    0.1381935477286549    0.9277517884347795 O
   0.3961713366275627    0.2431372227321442    0.7647032955862307 O
   0.0783702002267211    0.3966183845038808    0.6597079527956086 O
   0.1516233106734513    0.5784230871276804    0.7865294717224157 O
   0.4599050087724832    0.4338677925416732    0.6907030100606251 O
   0.2709422976070923    0.9193164565919545    0.7290389463493778 O
   0.1082926355549314    0.7851053167812880    0.7945716951593549 O
