Li1 Co1 H110 Cl3 O55
1.0
  12.8274678477999995    0.0000000000000000    0.0000000000000000
   0.0000000000000000   12.2586723181000004    0.0000000000000000
   0.0000000000000000    0.0000000000000000   12.4507439061999996
Li Co H Cl O
1 1 110 3 55
direct
   0.4714221072818459    0.4512132729768003    0.1947967905670488 Li
   0.6195791732397969    0.1432818835043496    0.7446121310457124 Co
   0.0307595956257003    0.1089111140550440    0.1899561159492062 H
   0.0497807464011315    1.2972991892049259    0.2725206605053030 H
   0.3087688054177654    1.1196535238758500    0.3252267481851903 H
   1.1469833406305021    0.3024255451812753    0.1303323693206748 H
   0.3676362303031460    1.0752523044064024    0.2196129784452799 H
   0.3727791003366354    0.2577600230274973    0.2433577443988051 H
   0.3643004199540022    0.0244590646702654    0.0332688517425640 H
   0.6514319133790033    1.0145687343837639    0.1926924986309699 H
   0.5960912952287306    0.3249859002363376    0.3275005079069611 H
   0.5994520520446126    1.0198466305801139    0.3114645182902622 H
   0.6781877785327690    1.1868549286139189    1.0814217250420826 H
  -0.0154903585382269    1.3028870700310460    0.1576447935872010 H
  -0.0792056614879181    0.0595254233137947    1.0918307416419231 H
   0.7550345897425950    1.0862730737437576    1.0420345202537966 H
   0.9004966577157387    1.0336409466048864    1.2925014821874612 H
   0.7817826591255048    1.0053915578445158    1.3156567251329401 H
   1.2640524315701882    0.3378339473912852    0.1517824932660408 H
   0.2016977906004836    0.4973055401765467    1.0577203299910567 H
   0.2730852234800797    0.5940729526024837    1.0825220609017878 H
   0.3423561045723599    0.3672319107798568    0.3202961191029047 H
   0.6544192527708984    0.3401066241769160    0.1841307612116565 H
   0.5224758310385824    0.5208464255605135    0.0145251524296427 H
   0.6479557791544575    0.3613079413551438    0.0523731720781187 H
   0.3875926241165908    0.6044182817465501    0.3015157151558312 H
   0.4355514268436240    0.6642828397473747    0.1915544140227929 H
  -0.0821205002108553    0.3565162315781176    0.0311264897920690 H
  -0.1830453292855223    0.3701979742373419    0.1067811660986744 H
  -0.1375577859197384    0.5735862315707786    0.0853888700233075 H
   0.0558227806451146   -0.0090873903885593    0.2007466358580688 H
   1.1229333875407417    0.6796376836583320    1.0509416185633826 H
   0.1243185282412149    0.8449092520163984    0.1561621512536126 H
   0.1847310749101904    0.8786160017587754    0.2771549217538431 H
   0.2846034749193410    0.9301794976739651    0.1581636380874709 H
   1.0101051959465432    0.6999979635910520    1.1114119009555121 H
   0.4033205918179171    0.9017098566766526    0.1747835285581886 H
   0.5217500447719189    0.7792936633843116    0.0790472409130435 H
   0.5500533704405361    0.7998758270520248    0.2010839650997303 H
   0.7451963269227319    0.7360663067628621    0.2194145967245885 H
   0.6827810467209332    0.8328932688676759    0.2810936422326717 H
  -0.1452428568292638    0.6944525017142689    0.0425808254586297 H
   0.9847299618113178    0.7105072582892862    0.3262122314697585 H
   0.2165534115430597    0.1085024237931628    0.5021960936797025 H
   1.0548996952832574    0.2977439615227201    0.4647284529094429 H
   0.3243143520810689    0.0544278892270295    0.5429462692372728 H
   0.1080273160955660    0.1893105222800906    0.6379695071187345 H
   0.0388234162664778    0.1657051927230926    0.5395657483369080 H
   0.5058786348868481    0.1997105066088797    0.3962666801493802 H
   0.5898702700859012    0.2005050461599221    0.4792183501685266 H
   0.5226379830723804    1.0042739816792918    0.6313217115634195 H
   0.8486235984420707    0.1741857195943837    0.5607114727999175 H
   0.8919914717121963    0.1146972218944119    0.4596845775817424 H
   0.0778035802343615    0.5905219970935638    0.6302085250659366 H
   1.0171603685709298    0.4243000811205442    0.6660232525520549 H
   0.2260096815909947    0.3582806967207305    0.4603118493382606 H
   0.2946576805919063    0.5497296513138615    0.4258777622483712 H
   1.0040400862208272    0.3980990381637339    0.4070507747393539 H
   0.6269446175442396    0.4387184451499855    0.3456166945139058 H
   0.3392370166530039    0.3876435829011965    0.5177100261366872 H
   0.6117795044986930    0.6215775625023802    0.6335039104910251 H
   0.6525989402760980    0.6296991598023585    0.5247216553740798 H
   0.3512300305373758    0.6487689247764036    0.4737536164536103 H
   0.6956300362452584    0.6226886126753984    0.3623016413383726 H
   0.7708943059713822    0.5464960221759433    0.4331295377792324 H
   0.9121981097701084    0.4828561776841285    0.5203484227053968 H
   0.9275557783557902    0.5609160177034360    0.4194773414702748 H
   0.1372626261699793   -0.2287159872003627    0.6151363332825563 H
   0.2232102202767214    0.8278682548692965    0.4315047352652295 H
   0.2650797463883861    0.9497819467617995    0.4144222218345188 H
   0.0461154088179183   -0.1539273007741561    0.5677953868748091 H
   0.6483705141639794    0.9682097172526102    0.6275861917944491 H
   0.4172578709536947    0.7214782669360729    0.6546705172404231 H
   0.4889805219800849    0.7051045524920025    0.5658348614488669 H
   0.3927729138501875    0.8735012553675675    0.5892013367528146 H
   0.6755294206709834    0.7988561407698862    0.5823326708606976 H
   0.9580528339431946    0.7463121145257917    0.4376915141902736 H
  -0.1722513049587533    0.8652214027566013    0.5242060235332544 H
  -0.1066880924854326    0.9257010355228120    0.4466090536430538 H
   0.2351050074483119    0.2742071548838817    0.9925113749184440 H
   0.0477142434627089    0.2066337685900886    0.8303925477056489 H
   0.2103838384878778    0.2044190099852833    0.8721169622397322 H
   0.1055834198900201    0.1036111926349999    0.7882006912224060 H
   0.3648819844598356    0.3005754263909629    0.9004526185392983 H
   0.3414369831884756    0.1242879831896956   -0.0474058458953672 H
   0.6198793104177405    1.1353893225818144   -0.0313427896228493 H
   0.5066324859285920    1.1250700974065708   -0.0844435525154806 H
   0.9223715907367656    0.1891889756752597   -0.0424082328636660 H
   0.8942678368020536    0.2569043022995265   -0.1383238672222944 H
  -0.1019396884572404    0.0179003609286467    0.9716290885298748 H
   1.2383809581424474    0.5537953444580049    0.9047495505461769 H
   0.1890733192768019    0.5999381880973454    0.6861023740795252 H
   1.3210161292126128    0.4792742237122316    0.8372676389166547 H
   0.4687091790240706    0.4140461158673575   -0.0295751843965431 H
   0.4495214482169954    0.3348515689532859    0.8171563907947405 H
   0.5884179179754888    0.5109913615808995    0.7930389563456653 H
   0.6235776241116731    0.4362189901352071    0.6938866479132948 H
   0.3452958897620352    0.6489532840562143   -0.2003257850045394 H
   0.9336442753940730    0.4972720944664925    0.7040025093388342 H
  -0.2212235578970242    0.5371312233607815    0.7918960527483218 H
  -0.1445404578751674    0.6305206190712493    0.8139035731072903 H
   0.1983744534847089    0.9536078096923840    0.8113334455517741 H
   0.1151366693273997    0.9180574671519003    0.7287391838958166 H
   0.0304039993338895    0.9008125327483706   -0.1164400342519351 H
   0.0151200475574191    0.8404307898652453   -0.0039936125322793 H
   0.3556837544272235    0.8331950960071890    0.8213810379641202 H
   0.3568344102055213    0.9586491386712777    0.8679405049620182 H
   0.4571137494533382    0.7052424140773478   -0.1715323247341470 H
   0.3681304821753958    0.9563731988895441    0.6807099252021077 H
  -0.1339039081196831    0.8154036097564330    0.8963805726935272 H
   0.7441322042009321    0.8378611804342557    0.6792987645411570 H
  -0.2496578525160168    0.7623725813439891    0.8853611507992516 H
   0.5275041032404933    0.2797012245720450    0.6559427303804037 Cl
   0.8003249001057301    0.1742199810534636    0.7269127870016781 Cl
   0.5889449120853325    0.6972415476331746    0.9620393000883551 Cl
   0.0351710040713434    1.2586653153472549    0.1987796851132378 O
   0.3664871336790193    1.1297688117946658    0.2772183717778700 O
  -0.0067548854636077    0.0418699224256247    0.1967131419256305 O
   0.6846255261053862    0.3234245566011268    0.1107648638097245 O
   0.6785339107587609    1.1069767840163018    1.0621698633215440 O
  -0.1233141329893328    0.0748495134864829    1.0226059622638166 O
   1.2022319686846779    0.3487339858728351    0.0968444104371599 O
   0.2134491355883295    0.5752960415286689    1.0403157474510454 O
   0.3640486165553638    0.3423523812446982    0.2473454579341607 O
   0.5073161750326348    0.4450878135427366    0.0329402769978885 O
   0.3982736097659526    0.5969207324512407    0.2154598129485379 O
   0.6040008843388995    0.3950016391131094    0.2869503203998042 O
  -0.1185228522214344    0.4048257046297465    0.0795509859139247 O
  -0.1373769240358867    0.6477957361887304    0.1070108712489486 O
   1.0763380651363663    0.7368698195531874    1.0851002201059150 O
   0.1498286292122434    0.9006167529822000    0.2036814002605238 O
   0.3543296290295925    0.9590325407133619    0.1453362920908617 O
   0.4913239306993011    0.7890793886967403    0.1504074750238396 O
   0.6510709691883855    0.9815716862937558    0.2630971271900306 O
   0.6837578568091494    0.7495326916792986    0.2718371672085079 O
   0.2818687185031699    0.0769100955254287    0.4754402626619178 O
   0.1124330959946513    0.1789651931360242    0.5565093142466485 O
   0.5814773431826805    0.2090540959493730    0.3987315931080924 O
   0.5940028082164951    1.0349869324973096    0.6394232355173233 O
   0.9001224607146663    0.1818398927026296    0.5019744201780392 O
   0.8501203864463605    1.0219675780469624    1.3493013011643693 O
   0.1454240186787865    0.6296379786254301    0.6273645182927857 O
   1.0595537704840958    0.3437171293647127    0.3998873473432137 O
   0.2976387833671168    0.3895279631505888    0.4532504238794798 O
   0.3208327608169240    0.6239334456886334    0.4073913166404599 O
   0.9695749832678837    0.4727311007770040    0.6339633207915736 O
   0.6950336597747991    0.5624447313776183    0.4149908625561768 O
   0.8905024794787622    0.4963853752755447    0.4421458665099276 O
   0.1185613514642982   -0.1548849901303408    0.5905369999168220 O
   0.2569144559941510    0.8753366906754173    0.3764084289587121 O
   0.4035747339478122    0.9526696983128163    0.6115461863534446 O
   0.6073530658068402    0.6770338127682627    0.5750937459676140 O
   0.4120604305242155    0.7277513769437902    0.5736416238987473 O
   0.9915824443934570    0.6871262597143587    0.4003804905679283 O
   0.7166762788243269    0.8650256229904307    0.6053754707256225 O
  -0.0954730965324572    0.8676033899116774    0.4985762296507302 O
   0.2606548668507044    0.2320655602156535    0.9307881553430003 O
   0.1116457231382280    0.1835064679621571    0.7940148016519003 O
   0.3887635488991134    0.0578768761077355   -0.0381218223164677 O
   0.5747347809696064    1.1474379356915654   -0.1042504011550384 O
   0.9481522049564860    0.2498921236745151   -0.0869365762443313 O
   1.2718014278007304    0.5418389109881595    0.8286095217140095 O
   0.3998506942100558    0.3668999009263925    0.8699805437092093 O
   0.6419140567413085    0.4971285226379674    0.7384478407367792 O
  -0.1475012916461531    0.5546331187074102    0.7942388846481470 O
   0.1217046062733067    0.9529470529815580    0.8007204250772144 O
   0.3271122542411710    0.9115070024754414    0.8084018938087634 O
   0.3941605610624979    0.7075469050749812   -0.2173207534653903 O
  -0.0265802323689688    0.8791217661547162   -0.0629691729913095 O
  -0.1809513852336877    0.7664782461903924    0.8543107972691715 O
