Li1 Co1 H90 C51 N3 Cl6 O45
1.0
  14.5451483569000004    0.0000000000000000    0.0000000000000000
   0.0000000000000000   14.1681618440000001    0.0000000000000000
   0.0000000000000000    0.0000000000000000   14.2147817788000008
Li Co H C N Cl O
1 1 90 51 3 6 45
direct
   0.9984824714153203    0.5660932245206218    0.4512633391507130 Li
   0.2050866450657344    0.1156044405642943    0.2184605391150896 Co
   0.5143667493051639    0.2709280474111445    0.1504151751375319 H
   0.4085943664975200    0.0862435393704555    0.9807100177641174 H
   0.5770017240503901    0.0554851386125936    0.9727162263877722 H
   0.5609184917409015    0.0466971249400417   -0.6880268203474055 H
   0.4808878195581878    0.2657918836094289    0.3094074154103046 H
   0.0120607692816540    0.0044629941763954    0.1906908549832714 H
  -0.0725963252893935    0.0662176529411475    0.1196296163572590 H
  -0.1011811145124450    0.2582693834309647    0.1893795439628096 H
   0.0708013182974150    0.4047118099676614    0.2144027912792400 H
   0.1943964825328622    0.5386565672971854    0.1090413426614594 H
   0.1302692576250789    0.6567212124090979    0.2566222223854601 H
   0.6774455259389379    0.3305575187075764    1.0875396563495503 H
   0.3575429793421772    0.5015091937850114    0.2992454584947624 H
   0.2153154853875604    0.6621199367349632    0.1106213880219514 H
   0.4270390047656977    0.6936582551788077    0.3507706954908262 H
   0.3532467014035369   -0.1682439544696099    0.2714736638838341 H
   0.3746490269324012   -0.0506994191701866    1.0690307545532252 H
   0.5773207307656293    0.7874467095055581    0.2556598439112157 H
   0.5248399322705157   -0.0104514317263187    1.0737638557043341 H
   0.7376360429771972    0.6782864657824133    0.2874774269763691 H
   0.6640334936094460   -0.0575584599596701    1.0812152539493616 H
   0.1692877664827608    0.2313625761684940    0.5983165287478638 H
   0.3077586813596483    0.0972329677602743    0.3728048008941974 H
   0.2910850803726255    0.1985813300821015    0.6177871055253965 H
   0.1547557730775695    0.3388952269650541    0.4118873565496455 H
   0.0988140954793481    0.3558635537421660    0.6546628035246276 H
   0.3559321329331143    0.2401731756925856    0.3312396183121347 H
   0.3410687575521789    0.3344288748230649    0.5824175861178011 H
   0.4751558051466298    0.1719003813350285    0.5615604245648766 H
  -0.0302536839571835    0.1910687112136859    0.3669320410235885 H
  -0.0848278952696063    0.0800013746511520    0.3409822933777868 H
  -0.1191898686050589    0.1459612366494647    0.5817985122454802 H
   0.1739656149536376    0.6182476259268230    0.3564007502637639 H
   0.1692155774631486    0.4467785936875553    0.5277668702581603 H
   0.2753052481998503    0.4547939594950888    0.4779627993257562 H
   0.3082007531654646    0.4416001519949887    0.6426422180060488 H
   0.9830759596011115    0.5033726676986143    0.6504587291371384 H
   0.7291473017852639    0.6209332248364737    0.3933109194217946 H
   0.7789604753756376    0.4918557890945560    0.6255360813249603 H
   1.2036127270022015    0.7176049042738475    0.5770548586988203 H
   0.0598347749465986   -0.0537407452415886    0.4432063740996696 H
   1.0642439182242314    0.7991454747952976    0.5649378946342098 H
   0.6216104130839537    0.8974814491680082    0.3883330026939042 H
   0.3815496096928642    0.0206062315644451    0.4368867554521308 H
   0.6356735216189012    0.6576338219728767    0.5419159443086645 H
   0.9517232371117829    0.7892260511221754    0.3979202057984393 H
   0.7476875045651188    0.9032429587342311    0.3840529510584484 H
   0.7248661491650185    0.7365332594798950    0.5435657058290964 H
   0.0703276208258639    0.0899977313810815    0.9375436850304607 H
   0.3122117125980182    0.0668020618497390    0.8946249818457326 H
   0.2122168576600117    0.1733621094143679    0.7060705571835578 H
   0.1261283579572232    0.3283045800164844    0.7752358820755870 H
   0.2633851222756791    0.2725457590276804    0.8161060135373620 H
   0.3688450297555727    0.2839904334875976    0.7466839136869269 H
   0.4242724465283655    0.0716862522452140    0.8458504026232769 H
   0.4201446096354873   -0.0840594277022856    0.7856229567628824 H
   0.5344127462826841   -0.0475486928803889    0.8626533338055355 H
  -0.2989707780764643    0.1289124477762424    0.6437234868035004 H
  -0.2437496156454209    0.2335908115844643    0.6100409436979798 H
  -0.0450221823409142    0.1075561135296698    0.6727249872426301 H
  -0.3270626194227347    0.0446269904848498    0.7960332467203897 H
  -0.1580289361854189    0.0450053034981409    0.6461336539473320 H
  -0.1766193275217662    0.2952410107858449    0.7887253610548547 H
  -0.3103353923068571    0.2224559867753583    0.7193243659955214 H
  -0.0696565134049918    0.2370831488788010    0.7815082259910577 H
  -0.2395420270737328    0.1744229386288764    0.8536458089632647 H
  -0.1259756364486147    0.1134665485544830    0.8529669381828218 H
   0.1589337985269402    0.4382517995042180    0.7257120827690156 H
   0.3109638738304343    0.3940159976478597    0.7797058768309595 H
   0.3714795852141852    0.5490521289530802    0.9346642880311313 H
   0.5091814876530047    0.5780395872078662    0.0252081879536423 H
   0.5915694682081514    0.4610760023585174    0.7777740849521032 H
   0.6648461357159386    0.4678660857200185    0.8821013988058930 H
  -0.1129946756933790    0.3030077204840829    0.6837817873008908 H
   0.7836603243096343    0.5837413854290808    0.8592245087445212 H
   0.3014177353797988   -0.0850715561744115    0.8231620486957483 H
   0.2722045579288841   -0.0868939520705266    0.9963655518034720 H
   1.2135473111297983    0.7953856363217867    0.6810881124632576 H
   1.1265457922075324    0.6906578659633216    0.8294667532909085 H
   1.1192141378728133    0.9459478633409094    0.8225943298151084 H
   0.9993239891296580    0.6787106563066445    0.8063760013463711 H
   0.3690994101103969    0.6461630326221166    0.7871847113044195 H
   0.3762323727625642   -0.1619961432874213    1.0201189941886075 H
   0.3829397639562552   -0.1756132943423200    0.8627799625521466 H
   0.5205566483554056   -0.1461112315763577    0.9351032676860499 H
   0.6063035908682570    0.7284835208295493    0.7715397296606158 H
   0.6953367150567547    0.6305703253653487    0.9338721548717751 H
  -0.2495041117802295   -0.0949500429916179    0.7769918006952612 H
  -0.2633369029668903    0.0116170626516172    0.8971012773350167 H
   0.8886465343179768    0.7973308427856494    0.8360514481146866 H
   0.0464529932538965    0.2413702258241934    0.2108037209033373 C
   0.0636154170308654    0.0819176429927292    0.0743661708811150 C
   0.3988701617985075    0.2005815895590922    0.1991911613460611 C
   0.4241335686049210    0.2118759269446979    0.3026686556114830 C
  -0.0068637540883273    0.0737366240803086    0.1566818911087088 C
  -0.0239945521995613    0.1546391442957602    0.2190170021071418 C
   0.1139421639321952    0.5123636717118800    0.2912861382772169 C
   0.2676834627577369    0.5885818157371974    0.2343869179735846 C
   0.1725177094745567    0.5976133331216625    0.2857693458831925 C
   0.2434953285863105    0.5931893294513103    0.1292470696623734 C
   0.3353328243081277    0.5836089758744288    0.0631215381820477 C
   0.3323888873368910   -0.0229583470164657    0.3023337929260002 C
   0.3291706320911276    0.6660089380469671    0.2663339437574961 C
   0.5624763995355820   -0.0129619902865361    1.0071740188197675 C
   0.6751368523402894    0.8793894762767928    0.2557716993040555 C
   0.0614641842464190    0.0689646571346718    0.3662637226386965 C
   0.2253916974964918    0.2207422852897783    0.6491776683172560 C
   0.3676363793129211    0.0529759916680974    0.3668180751516385 C
   0.4507907047499824    0.1117274379859208    0.3429921729837199 C
   0.5054242279359475    0.1300805597855648    0.4353414626476531 C
  -0.0248718206664688    0.1236294759395184    0.3250657634218060 C
   0.2835863600210893    0.3769806191239891    0.6058720439623272 C
   0.2320152119245380    0.4085394059957916    0.5146298412902934 C
   1.0578589713181421    0.6199394473687239    0.6362953038286848 C
   1.1931762573096809    0.7224905062850437    0.6587859762128929 C
   0.5909562052986831    0.7174291581165537    0.4209556631902897 C
   0.7507483189966802    0.6876172456997802    0.3629981079622032 C
   0.6830253933977321    0.8649070047847767    0.3622671786970423 C
   0.8522254551373926    0.6997592583259878    0.3804391073287744 C
   0.6854220688488604    0.7636249884018476    0.4096516556789226 C
   0.3031117710400340    0.3201983767372893    0.7651330185751301 C
   0.1458806487520922    0.3621403030466399    0.7100438858549999 C
   0.3859118890208643    0.0553164505339060    0.9094454696504904 C
  -0.1187312964519027    0.1114669948853529    0.6534225453008753 C
  -0.2601537109592243    0.1873653373690244    0.6715839215370566 C
  -0.1328308432538928    0.2581077534308832    0.7431629310381012 C
  -0.1960979875565809    0.1236245352844940    0.8217613940596220 C
  -0.2551761061783385    0.0344287727067836    0.8212330707890388 C
   0.5347251528589871    0.5299483804936693    0.9006250739559893 C
   0.6150673378491898    0.5076200429518469    0.8313901032533241 C
   0.6537187139785576    0.6021142698488221    0.7903047029223100 C
   0.6996714938058549    0.5846412904513685    0.6886225228866192 C
   0.7253047833984723    0.6335707145808349    0.8646955740911582 C
   1.0892852578560279    0.7139128233549560    0.6801735715155107 C
   1.2629589762682332    0.6483919738459475    0.7002969898311274 C
   1.0680699362636832    0.7205685914805816    0.7893725746486450 C
   1.0501519340814389    0.8265244675165216    0.8114481861411831 C
   0.3733826252740598   -0.1042095363150624    0.8404925996555531 C
   0.5075133850386722   -0.0659568676931610    0.9319431769650658 C
   0.3482952221726059   -0.0878630262631548    1.0091452063086808 C
   0.7681939987363182    0.7293276670308482    0.8344566294004233 C
   0.2350437131758920    0.3163601935912498    0.6825401220910652 N
  -0.1764419487878617    0.1679097436910956    0.7238569716311627 N
   0.4029196220415211   -0.0501926491262630    0.9224347650806443 N
  -0.3905614561026547    1.3487742894391515    1.1874300396206938 Cl
   0.7349079855503250    0.3276030070030304    0.0149132708541584 Cl
   0.8988189984530579    0.4528450828303511   -0.4395530797749231 Cl
   1.0784094664155812    0.8324461954671047    0.4228114074718756 Cl
   1.1435081492730041    1.0856357086514941    0.8315490926796246 Cl
   0.4918450127121782    2.1590205391925363    0.7140453542479112 Cl
   0.1478888785262590    0.0741114080542966    0.0875172697097163 O
   0.1336222657074519    0.2328200694006697    0.2213293837188682 O
   0.3286625588959515    0.1575350739478749    0.1699652466282151 O
   0.0293861339886049    0.0979691253588986   -0.0072981147944684 O
   0.0097438455093356    0.3233646308000206    0.2070878706833378 O
   0.4573506928407698    0.2320274471731959    0.1347814493823160 O
   0.5085292014220775    0.0734401847788491    0.2758662744051664 O
  -0.1117131487166426    0.1912317528294886    0.2024645144459585 O
   0.1141827939975695    0.4642292695566133    0.2150099057699366 O
   0.3090869593205146    0.4985141687092658    0.2516337532620188 O
   0.3737614457484063    0.6439524424026618    0.3428275556131255 O
   0.4127517665127157    0.5969230530339783    0.0905014871715183 O
   0.2795829632477332   -0.0051931631647163    0.2360682663313655 O
   0.3345091819700750    0.7461936516681705    0.2245879634649942 O
   0.6121350886239856    0.8256690283894529    0.2101016348526824 O
   0.3689027809712625   -0.1085551953128861    0.3170726755384976 O
   0.6476067103180501   -0.0610416217518188    1.0155054868537423 O
   0.7143712407423358    0.9418019479676406    0.2100502798610012 O
   0.1381784241166965    0.0680104049071166    0.3286634268116353 O
   0.2029684129759678    0.3267997976576474    0.4559455074059628 O
   0.4530509773297670    0.1721636476670389    0.4951280997712336 O
   0.5838796188332607    0.0963161233493318    0.4448589495922484 O
   0.0716531487288401    0.4897058983511142    0.3653118965600030 O
   1.0756862215900165    0.6088356781054850    0.5511694103165756 O
   0.6986113464892628    0.6477242796098032    0.6243521025441463 O
   0.9086813935610424    0.6327597413489850    0.3869858135285693 O
   1.0480467647666498    0.7922913746608384    0.6330733057204686 O
   0.5345017106554254    0.7229351652372330    0.3545252378278459 O
   0.5807713659030969    0.6637482354694084    0.4947790265264090 O
   0.8804520493202724    0.7891470006417862    0.3794739148823830 O
   0.0413578234982135    0.0252913841432259    0.4444116687194964 O
   0.7232718031032955    0.7883437912964032    0.4991376583340674 O
   1.2687753487055669    0.5642233277554872    0.6826210237902890 O
   0.3069797274623081    0.5651347374459029   -0.0294926166102137 O
   1.0090248183366055    0.5616025220074412    0.6889186934550818 O
   0.4522615732124447    0.5200314130319020    0.8756482571799831 O
   0.5602819908422628    0.5631553698815864    0.9825967860886231 O
   0.7367436491918948    0.5025592241392524    0.6812288110706034 O
   1.1338114451528918    0.8765485996378064    0.8096184007526525 O
   0.5799910369768116    0.6644046367797829    0.7841139641990998 O
   1.3223189758237150    0.6888213539099942    0.7652244726699047 O
  -0.2124814574362095   -0.0371846102550775    0.7655227537174776 O
   0.9764902584690527    0.8662706255714903    0.8272591921416547 O
   0.8583677094346901    0.7326244955477937    0.8495233397680361 O
   0.7180315677939153    0.7900737263627774    0.7973565171224758 O
