Li1 Co1 H90 C51 N3 Cl6 O45
1.0
  14.1081016069000000    0.0000000000000000    0.0000000000000000
   0.0000000000000000   13.7685223370000003    0.0000000000000000
   0.0000000000000000    0.0000000000000000   14.2302444928000007
Li Co H C N Cl O
1 1 90 51 3 6 45
direct
   0.6421285833148035    0.6804597065091721    0.3268111274372721 Li
   0.7106367374896568    0.6631492069387488    0.5913434762598543 Co
   0.1864499825273086    0.2014598662520222    0.1672608118296406 H
   0.3446952278626632    0.1118220699953097    0.1264505502565640 H
   0.3698977682119688    0.0539197054214722    0.0245317110733149 H
   0.5219503589695259    0.0836948686500141    0.0349482573297758 H
   0.6864619753917433    0.3465444258806085    0.0966021523449956 H
   0.6846863998608902    1.0170906017174877    0.2030957548102768 H
   0.7488530769393462    0.3420196120716073    0.2944504747279671 H
   0.8110364963989095    1.1064647531246548    0.2991671891901789 H
   0.1460717646867602    0.5065446747148636    0.2545249484808627 H
   0.3185535108353615    0.2984245199253004    0.0571186423965698 H
   0.3600544878139823    0.5867786295984131    0.2397683502996967 H
   0.3805852444012710    0.6871031209411037    0.0906409055060589 H
   0.6505039128447674    0.5811040918312017    0.1537410160104371 H
   0.8748523112467180    0.6962733134214327    0.1753534345571185 H
   0.8016284269294435    0.3995537454093031    0.0584988013959417 H
   0.8866228530692112    0.4620624140183650    0.2340621939479148 H
   0.8275808909959715    0.5706752312399579    0.2643926636892027 H
   0.1098152920405871    0.7493421890869391    0.1986264008204574 H
   0.1826450765593968    0.8368526691885048    0.1055246975664949 H
   0.2785247376002863    0.7693857343015472    0.3284259977939709 H
   0.3348165068353184    0.8747906546320330    0.2682675092709423 H
   0.6592293957927917    0.9410461305409145    0.0298049865984099 H
   0.4181296295183263    0.7967539580496669    0.1203276758362345 H
   0.6662445139679823    0.8822104777255735    0.1952174643102981 H
   0.8849854959928556    0.9853471807967479    0.2008449150572278 H
   0.9495469816823637    0.8819737057670286    0.2974216113111363 H
   0.2512517556838663    0.2652887927329947    0.3957916709898905 H
   0.0358351046928056    0.2643271790117879    0.3286318972780931 H
   0.1972374012914014    0.1598032537295073    0.4214897537027368 H
   0.0118850361850239    0.2844164807705319    0.6210639775635379 H
   0.0094332534460136    0.3727716412027345    0.3876969400765684 H
  -0.0558405888935971    0.0630579409503412    0.5022195683296925 H
   0.6381287538854208    0.1954047502446958    0.7282645250152592 H
   0.5173427014822700    0.1961426653056822    0.6892546541531759 H
   0.6175724800449942    0.1748760404033762    0.6077374321133913 H
   0.3469506695150282    0.1093533954950216    0.4857015808756519 H
  -0.0962223507970814    0.1131453783034960    0.6566459382428637 H
   0.7168998055098634    0.2967947154008383    0.5730584777040213 H
   0.7292806349699072    0.3250076194795950    0.6983479624280599 H
   0.1605825759712405    0.3407703857872603    0.5757806375389840 H
   0.5741041937306917    0.2951598268159166    0.5146736691773391 H
   0.4601986489043026    0.3088279602142465    0.5796656024127760 H
   0.5367205673084059    0.4131400980636692    0.5585311798698486 H
   0.7001101617576415    0.4196395609551604    0.6190661201117996 H
   0.2518769283857475    0.9661962513399668    0.3465212596238211 H
   0.3574921303113741    0.9166644291656060    0.5867778484498141 H
   0.6358967030484323    1.0162771520439593    0.5733149033755440 H
   0.4922659682790607    0.9386617061853846    0.5631632155339830 H
   0.5777212643630043    0.8557900681059846    0.5882655249272429 H
   0.4397065934842733    0.7568847559258602    0.5791441777806304 H
   0.6653620422969596    0.9264541507276489    0.3885359980425817 H
   0.7814357739462334    0.9357906646144405    0.4453744452252170 H
   0.1659270228784788    0.0072480304027850   -0.0808754729535605 H
   0.1774693270479043    0.1936166135516362   -0.1179605701398395 H
   0.2934721774384615    0.2355237976253718   -0.1271944241376738 H
   0.3576452338302021    0.2946441578264478    0.7074574334610830 H
   0.5973528921834718    0.3333454786332603    0.8028078682822503 H
  -0.1614600436947467    0.2869694054155784    0.8337707937768145 H
   0.0424873108233667   -0.0409227161571187    0.7738273402098998 H
  -0.0671879696015517    0.0991685698058362    0.8088070624663835 H
  -0.0806065006892079    0.0277665721231854    0.9065425582060171 H
   0.8117750791147373    0.2444506814979938    0.0383129219372059 H
  -0.0074166393761174    0.0202123845746425    0.6528252027644600 H
   0.2409059271615785    0.5429466928641262    0.8061458292023197 H
   0.0862628673942060    0.5074431734569368    0.7026845007096911 H
   0.0083884636925297    0.5953975646660564    0.7369579807083495 H
   0.1643974053153727    0.3247221857995087    0.9582521405938889 H
   0.4473259035087649    0.4042261422305015    0.8340806970959199 H
   0.4158635556771537    0.4293928225407649    0.7169667570758999 H
   0.5899046895175222    0.4473987489526197    0.7342440427981793 H
   0.0125165882001896    0.5605281728570435    0.9853198413768858 H
  -0.0502664867081168    0.4148080330415779    0.9248198267470880 H
  -0.0955993045329617    0.4953351929547732    0.8399674547016929 H
   0.3033360134014758    0.9488232904553263    0.7033766883952213 H
  -0.0137768147207658   -0.1547686294391636    0.7404575692098119 H
   0.2748055979554217    0.8340208475125342    0.6420059930117464 H
   0.3056538305615115    0.7751053023185431    0.7911987915665560 H
   0.4783094484377448    0.9711655572920032    0.7501137631051117 H
   0.3645200071131336    0.8792951321991961    0.8438535439412685 H
   0.4282691935777485    0.7622404504728225    0.8407573216646735 H
   0.5499852151833882    0.8632585529210665    0.7502922561732586 H
   0.3646256201886215    0.6924522788389038    0.6675508808865769 H
   0.4912948241533833    0.7073776277594458    0.6768676568609517 H
  -0.0111208939566515   -0.1242940447502576    0.8634688077648262 H
  -0.1538899252638044   -0.1079654951428794    0.6523290763624454 H
  -0.1879923164575774    0.0645018141208540    0.8468225723385934 H
  -0.2530995878392039   -0.1003147104456050    0.8397229051437594 H
  -0.1528756144515686   -0.1361152116130674    0.9006066095972116 H
  -0.1793561438955361   -0.1872797434892958    0.7771477329146006 H
  -0.2171486134180997    0.0035758861622857    0.6849651986887330 H
   0.1771999782647809    0.1123856744119687    0.0631058901942523 C
   0.3539395616244937    0.1270698936078575    0.0526176656190867 C
   0.4376871864234348    0.1939027735260738    0.0445981266675430 C
   0.8068020500031745    0.2925408093848960    0.1643824354236186 C
   0.1369131972479769    0.3771344913713815    0.3027630515118622 C
   0.2219827575219843    0.6666012839907847    0.1907937876804376 C
   0.4481087870112907    0.6968797692048222    0.2300608572155199 C
   0.3831341344647231    0.7352368264890878    0.1497164892337555 C
   0.6905298508294939    0.4692631794725903    0.2724979355317461 C
   0.7508625606239644    0.3796060710490751    0.1195666207464587 C
   0.7401077472388814    0.4747801622061602    0.1761032459890582 C
   0.8938981054638920    0.5599028334205186    0.1244013936159487 C
   0.8410561270906012    0.5183505167668596    0.2054119483244976 C
   0.2818093751292176    0.7590215139075748    0.1752754316808810 C
   0.2757093340040595    0.8213644421456553    0.2654235665670431 C
   0.1814549802255437    0.8770290938229386    0.2754058265395877 C
   0.7189369328853810    0.9458084426028120    0.2026839558420324 C
   0.7767569020583448    0.9456370371358900    0.1089687705073919 C
   0.7809041645058582    0.9381721837925650    0.2870767433733800 C
   0.8183372660467283    0.8314403236821361    0.2875285978726652 C
   0.0705718831520928    0.3226457102489574    0.3692116638655312 C
   0.2120055115450233    0.2308450094138813    0.4553216390398855 C
   0.1131970368939603    0.2827765081251508    0.4613640510338259 C
   0.0424192648149987    0.2104216122535096    0.5014431937561151 C
   0.2697049825781688    0.2202120601099040    0.5433440198664244 C
   0.5896495169861421    0.2135286994886473    0.6717602252889381 C
   0.7206295773435355    1.0691470230571918    0.3980671062444558 C
   0.6915661348319320    0.3421808494176102    0.6332485890147137 C
   0.5333975121372501    0.3345228017768222    0.5668026470297808 C
   0.5421621924213447    0.9200351612502889    0.6198812853049113 C
   0.7352530898293753    0.9633462723052123    0.3854383703087572 C
   0.2662466859653816    0.0822074178184194   -0.1490436622275264 C
   0.2474844167830743    0.1753619313244391   -0.0972321841905156 C
   0.2564168730065514    0.1742630479708245    0.0129008497705634 C
  -0.1119083733510845    0.0436818602446372    0.8392092105263761 C
  -0.0815648153070575    0.0372323664045199    0.6314074400440648 C
   0.0710007147673288    0.5588192022482826    0.7610299494066610 C
   0.1385746539522961    0.4356463621648842    0.8819091093445193 C
   0.0567613787037334    0.5039448314547191    0.8527184654163582 C
   0.4514674245743223    0.3765796024869389    0.7614108283158562 C
   0.5603054555712792    0.3703966586737724    0.7456971137613988 C
  -0.0390977267721283    0.3644105406298256    0.7765743063649634 C
  -0.0362433384836073    0.4429029142882379    0.8524935922596377 C
   0.1421995215230675    0.6355841574214094    0.7660678108458142 C
   0.3288539753520706    0.8923103269756492    0.6577028420794498 C
   0.3751358932311320    0.8105397511329178    0.8079230298690261 C
   0.4943622106243480    0.8963339976822089    0.7109162637028897 C
   0.4250526020571852    0.7418192321955049    0.6550879889039597 C
  -0.0134932896858991   -0.0962118736547466    0.7912592262274246 C
  -0.1475254970436330   -0.0349997857217407    0.6835421732438612 C
  -0.1821474478637992   -0.1227390485439861    0.8255397335122306 C
   0.5911883491128814    0.3190948571651360    0.6523241572621422 N
   0.4087151807355758    0.8368969731439380    0.7064644779284391 N
  -0.1152816124534117   -0.0516377367228002    0.7854146323385368 N
   0.5342069052305359   -0.0547288454822078    1.0448177650020480 Cl
   0.8532207687115592    0.6623713456884374    0.5261200712460046 Cl
   0.3628578415962274    0.9969548171202564    0.4117063659281670 Cl
   0.5987570499186494    1.6775289390664259    0.4965050495073950 Cl
   0.7476339192894194    0.2827125942222307    0.9022685627710988 Cl
   0.6778499024576656    0.6572102980276409    0.7376986566682976 Cl
   0.1510993723675349    0.1436119737545370    0.1500348252962379 O
   0.1990739347047508    0.3451818976774487    0.2509248697874909 O
   0.5231429077949307    0.1573629047089224    0.0331794894064464 O
   0.8321144563034910    0.2235936866098574    0.1044298463847121 O
   0.8219437044902334    0.2833655328441074    0.2518791752463234 O
   0.2507279431819500    0.2693574936893389    0.0395925907446683 O
   0.2542968145583352    0.5812304670483391    0.1978442638722391 O
   0.1316474285379142    0.6769437155542162    0.1905618872375696 O
   0.1183990124711781    0.4724835613635973    0.3088571140589869 O
   0.4295486002975847    0.2847556602326192    0.0502810929750380 O
   0.4177227710932925    0.6115590665726208    0.2725731274935245 O
   0.6459242747190822    0.5448227838031360    0.2990568607976630 O
   0.6959678609982383    0.5424616734962849    0.1156826396927273 O
   0.7002001809562117    0.3884733987848851    0.3243579018431747 O
   0.8946026651755359    0.6627693549929853    0.1177493645487114 O
   0.9427083578413777    0.5125301390938942    0.0712744076121233 O
   0.2432350853230089    0.8052421601340646    0.0890590633942534 O
   0.1052625887932143    0.8429520891512644    0.2463676747208277 O
   0.1820829881777735    0.9610141411429806    0.3151373996890207 O
   0.5264388863252567    0.7299682872642893    0.2468567738366947 O
   0.7315141034320701    0.9453232779761005    0.0274016547359599 O
   0.8636424401806737    0.9988969282158052    0.2700552508668700 O
   0.7641981606389221    0.7622941962548235    0.2838547326747445 O
   0.8645043562866687    0.9483962293767240    0.1015219553768706 O
   0.9119558149345555    0.8238200433476189    0.2898279259001320 O
  -0.0021423649150087    0.2246126775848219    0.5810289661982553 O
   0.0326475744883161    0.1343785936656392    0.4624050732037187 O
   0.2609298827490429    0.2708333238113118    0.6142868628028748 O
   0.3444613197088982    0.1659876501313766    0.5365350012266515 O
   0.6091836830758742    0.9950519259196812    0.6352991511125584 O
   0.6737990385220070    1.0955362020196722    0.4663635434906137 O
   0.7653613220944629    1.1353487531840722    0.3425543565935491 O
   0.1245834022942091    0.3673839897043121    0.5224479628696207 O
  -0.1011932534708828    0.0192231716680840    0.5350029825736319 O
   0.2035600095689300    0.0129610617706187   -0.1377529215743145 O
   0.1387022402179862    0.0370950967721120    0.0336559394072479 O
   0.3316013329399294    0.0623454461916526   -0.2014482432153873 O
   0.4073308697528388    0.2858102396308005    0.7541136943802770 O
  -0.0971664891631877    0.2900321886952828    0.7852368419990047 O
   0.2248789657531482    0.4534474009402190    0.8710983323351829 O
   0.0121522585303858    0.3750224273976133    0.7044188349308977 O
   0.1080120728188346    0.3631053896804234    0.9333917103898264 O
   0.0527289438953410    0.5735549883431184    0.9275920911322826 O
   0.2348682615440910    0.6087316026627585    0.7808194899266769 O
   0.1267119664934712    0.7188567099827627    0.7516421978421962 O
