Li1 Co1 H90 C51 N3 Cl6 O45
1.0
  14.0518754088000009    0.0000000000000000    0.0000000000000000
   0.0000000000000000   13.7136494925000001    0.0000000000000000
   0.0000000000000000    0.0000000000000000   14.1735315084000000
Li Co H C N Cl O
1 1 90 51 3 6 45
direct
   0.6760828660031009    0.7193021997313528    0.3104445601007953 Li
   0.7396103293508728    0.6655747072500147    0.5954695023747649 Co
   0.1118642283232596    0.2680824129500041    0.1569401213015756 H
   0.3089610513043079    0.1470664863793550    0.1768667006323949 H
   0.3534341185511636    0.0919046565240919    0.0771759496602327 H
   0.4978129250078068    0.0991149910199588    0.1697393308628968 H
   0.6575750161656955    0.2978768159806094    0.2584024843793813 H
   0.9490286393194568    1.0822099729482348    0.2439657154006176 H
   0.7483564928646081    1.0332055120738677    0.1967523586162898 H
   0.3022053694299476    0.3456102803919611    0.0994004742829997 H
   0.1507949748667003    0.3752785317369084    1.0191578397831955 H
   0.2109001192285037    0.5898027546003360    0.0796580410133404 H
  -0.0124266545083829    0.5769637214825438    0.9987486707748532 H
   0.5854059305100604    0.3420670951861138    0.0563618004254311 H
   0.5503688279399882    0.5408060961712668    0.1582347880534098 H
   0.4142615864252894    0.6372263088012565    0.1196043310162554 H
  -0.0185212146655537    0.4311352167439829    0.2310585581482715 H
   0.6873539593904515    0.3877828618274348    0.0094045548296133 H
   0.7749593475814877    0.4096711272497181    0.2156904757567442 H
   0.7255104320605852    0.5273472426326125    0.2442084213203075 H
   0.6948739520551903    0.5766691244825105    0.0521525460159254 H
   0.2129831152093583    0.7897203623457711    0.0724121404458542 H
   0.3120218527097250    0.8792217019177981    0.1782806037226815 H
   0.4269951180568000    0.7721422552101150    0.1086021330172895 H
   0.5973923020868053    0.9323198943718372    0.0754184483638735 H
   0.7000924725634263    0.9274203962450442    0.2286724202982970 H
   0.9141749286401486    0.9593754203427260    0.1006521030665168 H
   0.9925786980978573    0.8130576949919809    0.1828539170117220 H
   0.0818219750496767    0.3123361325985851    0.6827624963097443 H
   0.0439957074137476    0.0589681285599622    0.6228353003602654 H
  -0.0366220014004484    0.2551544173718059    0.4157754015438909 H
   0.1818933149307130    0.1914784425353797    0.3924622279848404 H
   0.2143060702925181    0.3219798091467080    0.3804638068504031 H
   0.3155011035981425    0.1311516855730954    0.4507024061303352 H
   0.4892966952150877    0.2349606680601108    0.6231203387078083 H
   0.5745765575208364    0.0919724721701392    0.5754494389324372 H
   0.5822772378109728    0.1686398830278402    0.4726452789997878 H
   0.5097401799203461    0.3346919613783471    0.4780485900909305 H
  -0.2347777577670490    0.0404464359836051    0.8378593399366969 H
   0.7326041471057366    0.1221540806636596    0.5087915280624417 H
  -0.0281925215940860    0.3808722287350673    0.4542248874519742 H
   0.7413161514780024    0.3103213516305350    0.6154772188589690 H
   0.1934241601229874    0.3953570673703727    0.5313691051335018 H
   0.6352320910495660    0.3342121474525502    0.4555499629978161 H
   0.5686192744134458    0.4491399790893408    0.4834883070700269 H
   0.3645436676653150    0.6583592683506818    0.3205859987334193 H
   0.7087881090137380    0.4388255110057458    0.6181194678974535 H
  -0.0251459531642812   -0.0886694496869721    0.5711318840616746 H
   0.3223998268774060    0.8130102969597973    0.2877071075605441 H
   0.2064580075399166    0.9521147710126950    0.3462528552810904 H
   0.2458555956834395    0.8797758942940986    0.6358461720608511 H
   0.3460479158571800    0.8057044371990681    0.6274699956696926 H
   0.3512842275849314    0.9587016390852239    0.5252300564462759 H
   0.9461130142652847    0.9205199719596086    0.3512417319035534 H
  -0.1707813178728531   -0.1136890478754519    0.6571633716466379 H
  -0.1500716267082307    0.0167000218596261    0.6571788935368504 H
   0.8151482891690525    0.9128363863424008    0.3584269559911172 H
   0.2158176123025404    0.0569292839755726   -0.0654688103137924 H
   0.2143060702925181    0.2320103228568061   -0.0951113873773141 H
   0.3306955167130132    0.2787192605724971   -0.0738725027830552 H
   0.0001460444987090    0.0138648903345522    0.8140826262926573 H
   0.5938739105154539    0.2209417885411949    0.6945280890909907 H
   0.5134843563003225    0.3740593085090475    0.7286381483739208 H
  -0.1035909982512654    0.0839162650999190    0.8346124427203803 H
  -0.1320804338855504    0.3444654356146036    0.7869757616575237 H
  -0.0851514666967988   -0.0033807013753236    0.9160769668804810 H
   0.7647713836382303    0.2526204456512217   -0.0198542082213755 H
   0.6894554582396020    0.3598501076609020    0.7151164653772436 H
   0.1284655710774024    0.5406971536172941    0.7458568634030835 H
   0.2370012615550511    0.6027526261933881    0.9009537070300362 H
   0.0366244493441569    0.6183757468015948    0.7525961859172636 H
   0.5504239095556077    0.4837689814026723    0.6686566258086972 H
   0.4586757291531103    0.3971669429992907    0.6218545991150068 H
  -0.0499106190808372    0.4293580822172964    0.9187883588844585 H
  -0.0938855321812637    0.5079892300083882    0.8301273219893666 H
   0.0024873689869262   -0.1417078477004104    0.6821522038081985 H
   0.3335890806549861    0.9751195882331246    0.7713565068607359 H
   0.4815192280215230    1.0009281813573374    0.7903672946690043 H
   0.2800118905577468    0.8522879524295964    0.7935591597291122 H
   0.3798861037265532    0.8043794798994131    0.9185378920196623 H
   0.4034950520233935    0.9313114100870694    0.9134043796020352 H
   0.5736001042289571    0.9132250502063063    0.7845120143564854 H
   0.5091349012829712    0.7226864192292611    0.7905662570799129 H
   0.5060249249468138    0.8576081992420808    0.9124236783567765 H
   0.5051155801349464    0.9449029781158379    0.6814374913179488 H
   0.3888607064988653    0.7162621628671467    0.7446200509693149 H
   0.4857457101295843    0.7656501832019533    0.6701361441621557 H
  -0.2631298451866758   -0.0786385676759341    0.8742885107255011 H
  -0.0538111660473777   -0.1892130723567857    0.7900575624052141 H
  -0.2849062978734372   -0.0503616308756989    0.7592988203273044 H
  -0.1759400598835176   -0.2060845842126587    0.7825738947012874 H
  -0.1187854113661361   -0.1733099387584482    0.8945805600167835 H
   0.2594082350614358    0.2150695369538956    0.0474430634172915 C
   0.1586024736388068    0.1604254394501763    0.0673661150457897 C
   0.3347206022161610    0.1647182427650194    0.1063810916359412 C
   0.4260194475785793    0.2217993283234703    0.1299856534067124 C
   0.7173442623030496    0.2728280497723243    0.1119344006297761 C
   0.0346140415389249    0.3491826336176135    0.3237348258252100 C
   0.2466113666884507    0.6313365564020739    0.2070433718273273 C
   0.5805462233170094    0.4201198411444669    0.2360848284153380 C
   0.6468269846320955    0.4401354467752013    0.1505295806437197 C
   0.6595384551514071    0.3589568370543652    0.0780211871363620 C
   0.8074710221237981    0.5262062626178791    0.1145110344050886 C
   0.7422982267952486    0.4747226586081567    0.1844046949520662 C
   0.2943224358870961    0.7233791596996366    0.1644012117106474 C
   0.2799264927040733    0.8201338565967434    0.2246600116783073 C
   0.1812990881989010    0.8545360775560888    0.2431056615747397 C
   0.4017963463840700    0.7074315448710962    0.1538470319064578 C
   0.4655151009240707    0.7073987308488152    0.2441653833519903 C
   0.8743048057062986    0.9534564999237383    0.3279532522607504 C
   0.7586682836956923    0.9562208990007842    0.1852598099946945 C
   0.7524257005921539    0.9286906635075645    0.0795677318339209 C
   0.8568936066398181    0.9279038561733168    0.2234351934324303 C
   0.8554283218005356    0.8169902732622287    0.2209171195156476 C
   0.1879700838683684    0.2636291855262320    0.4223926655577618 C
   0.1040211471121224    0.2976595142330600    0.4831777281576795 C
   0.0825763227571267    0.2198049649692838    0.5576725002879875 C
   0.0103147939248899    0.3185985064507802    0.4248324244830167 C
   0.2789095465965771    0.2637516912094142    0.4842143082077039 C
   0.5648041253005790    0.2376638142955657    0.6187417545868911 C
   0.6050838021076718    0.1620748909701653    0.5492459483076843 C
   0.8672779856465246    1.0607087671487676    0.3568860556172720 C
   0.6901685303177764    0.3676897421840680    0.6425177626904665 C
   0.5792927963197156    0.3681644517063990    0.4955451469549012 C
  -0.0213322273489755   -0.0764444033860814    0.6473069713615566 C
   0.3216675402821552    0.8788272044499316    0.6477006629405885 C
  -0.1241533781183009   -0.0534395861656517    0.6768126735750207 C
   0.2806879568993293    0.2199216370485050   -0.0575674626550506 C
   0.3248315307607611    0.1338132673803279   -0.1107990795991308 C
  -0.0730804800800391    0.0097565747449776    0.8393254530213353 C
   0.1358916261031003    0.4738801622320959    0.9296819036519354 C
   0.0956571389935764    0.5941342055414210    0.7969196489601673 C
   0.0553543336011136    0.5351124987052749    0.8808514481236273 C
   0.1661025401376885    0.6757638257684964    0.8164920469779510 C
   0.5233959870220679    0.4082989177579784    0.6609817566389684 C
  -0.0056894755023185    0.3969423492467900    0.7764342815816899 C
  -0.0301438625505272    0.4692769309744701    0.8526136021243574 C
   0.4319232858625457    0.8591679591011685    0.8905222912666200 C
   0.5031928474594859    0.9354729573127887    0.7558183892173327 C
   0.4548054984246239    0.7562442260152435    0.7439610761757383 C
   0.3327336788206892    0.8936139320902218    0.7525990080791205 C
  -0.2368628886942455   -0.0333617797326826    0.8153794096658841 C
  -0.1232858782547335   -0.1621174403586646    0.8182248543580625 C
   0.5919097598809617    0.3473603615802783    0.6020895885504927 N
   0.4316329331600556    0.8597243390789542    0.7856930890935810 N
  -0.1381372766573487   -0.0609138912407565    0.7907842690833553 N
   0.4867600943014703   -0.0461271636004664    1.1558915817480289 Cl
   0.3175969092570481    0.9933612678193510    0.3878070720019510 Cl
   0.6547099181749471    0.7287417001408387    0.4801685275237569 Cl
   0.8844201814739334    0.6489883127877383    0.5734565693372159 Cl
   0.7456009887860741    0.2933565021112851    0.8570514516442685 Cl
   0.6739835021002922    1.6422148063953808    0.7248987839135821 Cl
   0.1012172509165067    0.1979544721326484    0.1310954685569223 O
   0.2377001006576132    0.3107851231454390    0.0826636433908956 O
   0.0854442673429975    0.3032933172584512    0.2683421384392398 O
   0.4951913532297842    0.1720911889713007    0.1725593760983634 O
   0.4306038890232891    0.3094076634101344    0.1246418899307493 O
   0.7229022392796380    0.2438999369299361    0.1999442236763977 O
   0.7738086115032363    0.2307612024086447    0.0494750199542302 O
   0.9234071482710426    1.1190214723434968    0.2982394156103431 O
   0.2082791167695056    0.5669999259170579    0.1471853188433414 O
   0.5981281469259592    0.3412722666464199    0.2845688635757166 O
   0.5242229940700184    0.4821302491299618    0.2647805701758834 O
   0.5984761431796790    0.5218904894874393    0.1048655907188077 O
  -0.0227313288516609    0.4209813186094161    0.2994741114227190 O
   0.8944024789195936    0.5236639780116503    0.1250863804232047 O
   0.7677354008094840    0.5766990217028110    0.0494460927951974 O
   0.2628554617547257    0.7369452057110755    0.0691941703885703 O
   0.1227090440910229    0.8271385565529832    0.1801820352737404 O
   0.5493338059534645    0.7257060384796034    0.2393543029265094 O
   0.8233842005070880    0.9218536796652053    0.0305432526779537 O
   0.9326849134238958    0.9665755460316610    0.1683853987120685 O
   0.9363292668294155    0.7681017552665876    0.2047976365297315 O
   0.7833738827634572    0.7692859768706822    0.2351873809448567 O
   0.0777698468928656    0.2436972191922893    0.6470099388261222 O
   0.0768069860926961    0.1315418078379912    0.5348949730493689 O
   0.3030444033422905    0.3376649117970010    0.5355813228129571 O
   0.3329642530256078    0.1880067189780554    0.4890736476009371 O
   0.7058205335985813    0.1547741356129020    0.5637326695513144 O
   0.8153276246617670    1.0921723101127305    0.4205526160270895 O
   0.2485057757424428    0.6199982179032639    0.2911861275895875 O
   0.1255748537305519    0.3880584996145948    0.5277685910365207 O
   0.1525000853450493    0.9018881701084864    0.3181469453486286 O
   0.0474706884094815   -0.0017159366449368    0.6657004112636372 O
   0.3753785203501497    0.9521162294136852    0.5903613894138496 O
   0.4304615592671664    0.6810527169596901    0.3272018516663617 O
   0.2786263103818931    0.0506071156827767   -0.0983406460820254 O
   0.1358389640933350    0.0883804305311181    0.0210614943793707 O
   0.3981178338370808    0.1444311557899473   -0.1550512830551489 O
  -0.0653797286250246    0.3324081054275931    0.7551798750972183 O
   0.2151749934536467    0.5095231032498988    0.9482538452914623 O
   0.0742372223459021    0.3948604818331876    0.7383485017829094 O
   0.0271808700254208    0.6079766185405150    0.9504741811323464 O
   0.2451119227076988    0.6662193204877115    0.8661331684996418 O
   0.1102274361278494    0.3899456704959969    0.9652220934558289 O
   0.1476252911978495    0.7544285167823643    0.7809426851480227 O
   0.6638987272302237    0.9205899752071411    0.0375951296177809 O
