Li1 Co1 H90 C51 N3 Cl6 O45
1.0
  14.4076653509000003    0.0000000000000000    0.0000000000000000
   0.0000000000000000   14.0608756398000008    0.0000000000000000
   0.0000000000000000    0.0000000000000000   14.5324017523000002
Li Co H C N Cl O
1 1 90 51 3 6 45
direct
   0.5450453615380134    0.5955967134930950    0.3516865940821599 Li
   0.6819985702601151    0.6909904879891389    0.5560332706065687 Co
   0.1353742693626739    0.2606680703103162    0.1399198089041396 H
   0.3167818698547781    0.1774051192686234    0.1377254021884739 H
   0.3543889343446646    0.1300510271724450    0.0307479027703924 H
   0.5024408183972571    0.1624451690216705    0.0710536973653771 H
   0.7755897224113391    0.2315219480844725    0.0101965854389174 H
   0.8645902626633307    1.0503984032185123    0.3132476622716221 H
   0.7282767134402209    1.0472122574088452    0.1960605634680489 H
   0.1618275489688796    0.3990029827174974    0.9853079429099729 H
   0.2569081860211850    0.6007436191235774    0.1579161459486071 H
   0.2117509739292650    0.5912619905667732    0.3108413153651677 H
   0.3051103050381025    0.3588155851132869    0.0469145353755512 H
   0.6366636749740305    0.3733253500259721    0.0750647342878028 H
   0.6433149954805840    0.3138717269789305    0.2564580129027981 H
  -0.0113177829945789    0.3221094785220945    0.2515999033347203 H
   0.6924999246652234    0.5770367029585225    0.1665258721406453 H
   0.7594982881398236    0.3826782526025196    0.0400567563450322 H
   0.8326614255619564    0.5368616089977289    0.0992286685077210 H
   0.8193518437990777    0.3526161134563966    0.2512847455185475 H
   0.8358958149557307    0.4705994626088677    0.2832890905626412 H
   0.3553752148872726    0.9669853903987302    0.3339331625160963 H
   0.2424346405215338    0.8508980255848545    0.1049799545941225 H
   0.1096775314816213    0.8511796581162449    0.1898358525398857 H
   0.2763048053341498    0.8036406557721840    0.3387052573963542 H
   0.3686313528769067    0.8173716640639794    0.2615246220741519 H
   0.3656385015751997    0.6721964948716692    0.1506977933467464 H
   0.6088409854377997    0.9917292263384490    0.0256468877239106 H
   0.6441832832770671    0.9526584021541442    0.1840570417533818 H
   0.8843255905651713    0.9640894114395863    0.1564421982581223 H
   0.9178410830644358    0.8213899059891179    0.2057602677841432 H
   0.1040735701156700    0.2690530388585252    0.6346914318302691 H
   0.2876841645854222    0.2349378093174706    0.3884169301338398 H
   0.2732474050595628    0.1249190566004454    0.4335161512516617 H
   0.1017727115662361    0.1129155367398287    0.3812728942222556 H
   0.0174578714853540    0.1888183487225382    0.4373214410408218 H
   0.6162384365448483    1.0540745611850679    0.6559570151294021 H
   0.4172617161547595    0.1270362789386996    0.4806923862392124 H
   0.6523539339087218    0.2904279523204776    0.5289332766267251 H
   0.4555337044728083    0.3689387099915910    0.5981723478518755 H
   0.7446048272789633    0.2726907923889823    0.6120489254085125 H
   0.6869105388737933    0.1302096232696673    0.5249540995446679 H
   0.2092016365379918    0.3430505640947842    0.5372513786211781 H
   0.5607611624318658    0.4124687159229077    0.5348974662684188 H
   0.6925242172894256    0.4522661662620645    0.6097987811751394 H
   0.3302309606880751    0.9310793762262600    0.6445535318769677 H
   0.2508600166698226    0.8628965670926436    0.7168815625711127 H
   0.4648352114648227    1.0495940436402236    0.6714059411793900 H
   0.4199887367401971    0.7942721069438925    0.6459696776972373 H
   0.5012497857363737    0.9340286946799854    0.6272425598650506 H
   0.6976805002950799    0.8849940529078598    0.3511691297202343 H
   0.0437466553219622   -0.0514639840815983    0.6919696446259112 H
   0.8165949779896202    0.8778515389867688    0.3747220155978787 H
  -0.1082280016867962   -0.1102689988745291    0.6463302512685791 H
   0.1855843472886448    0.2397461869556759   -0.1251286026146507 H
   0.1453842186839212    0.0620701969249771    0.7488301700974989 H
   0.2296289571921056    0.0691110102097327   -0.0732830775017246 H
   0.2849293810008964    0.9803800042780318    0.7498403265912579 H
   0.2929549699623152    0.3036291216327638   -0.1098964335779692 H
   0.4668958506646459    0.3503822554233241    0.7723066749323589 H
   0.5521428334399141    0.2309522822823423    0.6762509765149193 H
   0.5888051230708294    0.3753181135435363    0.8181208501353412 H
   0.4580652735446649    0.9875858143993596    0.8250894160837724 H
   0.6589538928669620    0.2649010926003026    0.7306384076823043 H
  -0.1159468095082905    0.3023603528549856    0.7987930057234190 H
  -0.1675387907138761    0.0272110592328261    0.7230725557416503 H
  -0.0113531808184164    0.0576849792771183    0.7255470262808583 H
   0.2382549210088066    0.5823087786029562    0.8122512078384992 H
   0.1194848109095249    0.5311717784317331    0.6969000065317578 H
   0.0086500600246254    0.5944246669988246    0.7196629335164625 H
   0.0105837529111179    0.5569405149800036    0.9579181138380507 H
   0.5222425137484180    0.4717215271519423    0.7776155014646140 H
   0.6331412444647163    0.5226861760370805    0.7007300685510101 H
   0.4943204187939521    0.4858275184913850    0.6213302542830499 H
   0.7098517990953428    0.4207401069073211    0.7377535426587808 H
  -0.0455058341467547    0.4254481351763871    0.8935853204061575 H
  -0.0874869591429858    0.4917782147455473    0.7930128187019100 H
   0.2967703001120099    0.7901286950048031    0.8644222125301365 H
   0.3211198384623080    0.9143784248761675    0.8898206295496484 H
   0.0071911144225409   -0.1124722755973748    0.8562976091774035 H
   0.3432885932342287    0.7283672498255359    0.7272755774472905 H
   0.4013583762020664    0.8268340904027344    0.9123041808283134 H
   0.5186121615208982    0.8850637498474462    0.7971009247846226 H
   0.4690454008690491    0.7377855821821033    0.7397724794112935 H
  -0.2047502324667559    0.0132674041559657    0.8382943909579105 H
  -0.2612895801098573   -0.0550313294792078    0.7497866534260581 H
  -0.0516414569452450   -0.0113221028460973    0.8821412382210720 H
  -0.0487901969388877   -0.2021893054834270    0.7165347513498220 H
  -0.2375036306410495   -0.1821770383097162    0.8310891125885984 H
  -0.1251891119047494   -0.2184706528094785    0.8771145398648668 H
  -0.1756067182489045   -0.1179043697255529    0.9231048731485046 H
  -0.1736987061365686   -0.2013109818059853    0.6985907112355493 H
   0.1657268621908161    0.1693985055353124    0.0438063086164849 C
   0.2460785341518589    0.2359221007908142    0.0126827539756689 C
   0.0773037923198589    0.2509289897929988    0.3253475204366477 C
   0.3341330502099204    0.1978284561472421    0.0657641381231937 C
   0.4160068285959733    0.2701262294895046    0.0684416033256570 C
   0.7254844498069261    0.2626259853580872    0.1309722170183441 C
   0.3405088229505234    0.6061735796719723    0.2793117713978409 C
   0.6538489714096208    0.4506708886581215    0.2556673658923560 C
   0.7108880530363095    0.3636140060458370    0.0999071523652457 C
   0.7239047351588080    0.4427021104063004    0.1719564954708536 C
   0.9036875061292760    0.4367313585021754    0.1535933917975214 C
   0.8206435173316557    0.4237496634302605    0.2181642738853006 C
   0.1439558123808338    0.7203393002943923    0.2126951159749489 C
   0.2566000167313062    0.9258848206472847    0.2446801937289709 C
   0.2919700775696616    0.8187833826872362    0.2663641524696606 C
   0.2452616079036889    0.7463831975153772    0.1945446406099079 C
   0.3050568612648578    0.6521010180864113    0.1920811799507410 C
   0.7430632867545915    0.9661966770721854    0.0769405425997830 C
   0.7213408221930135    0.9711366254636917    0.1763810910123183 C
   0.7893108906357004    0.9169031609530244    0.2377487861256779 C
   0.7863027696844949    0.8084369431249507    0.2033862624003091 C
   0.7638543026967607    0.9235080127687340    0.3407303872063900 C
   0.2674629841995381    0.2005971315126516    0.4536755856654283 C
   0.1658573482865306    0.2207829298420675    0.4774408934161131 C
   0.1450677204943158    0.1534350615969666    0.5636183210255440 C
   0.0850406460907605    0.1856457155848317    0.4062832129703232 C
   0.3395516935569581    0.2315404391092608    0.5217106576963485 C
   0.6766181010368237    0.2513784639340054    0.5912436927185927 C
   0.3082065735114131    0.9158484613468332    0.7152851299651720 C
   0.5012985097997734    0.9823428976786305    0.6853719740113601 C
   0.7623023510477308    1.0203846252141431    0.3829794256286059 C
   0.2559531388525513    0.2361269244500071   -0.0936375932274673 C
   0.3089568685617715    0.1575450474527850   -0.1408087361454991 C
   0.6134350677119182    0.2811312340115559    0.6718291334434648 C
   0.5325392409687468    0.3960572202300774    0.7706331731661314 C
   0.5166011348004456    0.4148571162516143    0.6002373884770598 C
   0.0289524471828423   -0.0074773920766641    0.7553948110719270 C
   0.0796358842432669    0.5752786332171170    0.7456517553531714 C
   0.1418631763245614    0.4714762629103442    0.8763397195569835 C
   0.0578294366094472    0.5225726695926111    0.8345358931589244 C
   0.1368464023893252    0.6668945491102699    0.7603705887329427 C
   0.6634049956957763    0.4485278500044898    0.6804264735204570 C
  -0.0004818844504579    0.3708276392930365    0.7615197449622189 C
  -0.0273877009418012    0.4557509421220618    0.8228420243204095 C
   0.3451778653221800    0.8443970079852635    0.8637685009027040 C
   0.4677547684489368    0.9345663567853667    0.7743104730998154 C
   0.4052681005486610    0.7722770329582727    0.7181057236081679 C
  -0.1946445007986544   -0.0230525244944568    0.7703359064050253 C
  -0.1691539031858317   -0.1597168439313459    0.8580227197563228 C
  -0.0326133914451760   -0.0576990154015429    0.8257562019437538 C
  -0.1111896196145290   -0.1553181136115264    0.7051973273776336 C
   0.5791544269577833    0.3815986612321904    0.6763975455429646 N
   0.3851864292331951    0.8653807651536184    0.7679674059612117 N
  -0.1225509329163940   -0.0978821458461869    0.7876599526494911 N
   0.4919350219122947    0.0294577187445981    1.0436919605322299 Cl
   0.5667187549987029    1.7110436032732173    0.4605522879272677 Cl
   0.8148722838961979    0.6531322483149866    0.5098309283203919 Cl
   0.4364459485246996    0.9734608050409220    0.4258264381605469 Cl
   0.7731674007408944    0.3008369768897385    0.8788052445686583 Cl
   0.6480534453499610    0.7066246494476017    0.7002772872343253 Cl
   0.1145672896960290    0.1984265696798158    0.1143803277966029 O
   0.3026567499936836    0.9902634570273499    0.2873710035878306 O
   0.1486720518509402    0.2766101784508295    0.2859982091702222 O
   0.5022591789757226    0.2330424792766753    0.0792650035234328 O
   0.7052556345962928    0.2318391402789171    0.2082739610209971 O
   0.7615409507977372    0.2018395861397695    0.0710179152552439 O
  -0.0095062473040745    0.2797145370354717    0.3062969873782575 O
   0.2352141785336725    0.3349671414892759    0.0391394957141189 O
   0.2736145707225041    0.5758596781114246    0.3375671110471189 O
   0.4058233605304248    0.3577559071542681    0.0665196911410053 O
   0.6324089953637653    0.5299847257596538    0.2819734098977453 O
   0.6215356167708752    0.3726369149492404    0.2877797453843516 O
   0.9739834198205758    0.3868572242046635    0.1580709723866832 O
   0.7237374630893016    0.5293556042008967    0.1241158142228303 O
   0.8983153658057108    0.5061012914271973    0.0869326968544656 O
   0.1180092075079875    0.6438262844936707    0.2376896080204577 O
   0.0793075867790490    0.7932408767153172    0.2108791738856915 O
   0.1937640208950031    0.9414542635189888    0.1879999550430540 O
   0.2587620602852990    0.7853494762903023    0.1040606296107015 O
   0.4227442143997001    0.5950924774709847    0.2974223359477333 O
   0.6813294819820896    0.9692732991196452    0.0109163563465958 O
   0.8251029490601964    0.9514500848035584    0.0493552881571336 O
   0.8792650899063713    0.9597482877739147    0.2255980072654628 O
   0.7154099515127987    0.7647718104740276    0.1908535783261729 O
   0.8719273292473625    0.7686321674952048    0.1966895028653893 O
   0.1178231954140966    0.1985360934420231    0.6392770468673330 O
   0.1699544728769704    0.0693570830780686    0.5672074042953996 O
   0.1517468039999574    0.3141355796787935    0.5111826801047721 O
   0.3304225253817836    0.3016306685691110    0.5733458941004920 O
   0.4206474138935645    0.1859003227723007    0.5164298306652726 O
   0.8207594278528488    1.0864445224634165    0.3541349161562706 O
   0.6655594044250199    0.1534997801837254    0.5884354851906428 O
   0.7044470372478493    1.0421549621292596    0.4420839022760437 O
   0.1120519619786389    0.0231913949211657    0.7983044422966010 O
   0.2855901403791953    0.0665834293598316   -0.1219192225827080 O
   0.1430569852853536    0.0920818413495631    0.0095882895666538 O
   0.3706184895366440    0.1761448848099782   -0.1976465537395023 O
  -0.0553887677471736    0.2961701267104894    0.7653222822813688 O
   0.0704872819687307    0.3625521945070350    0.7126744121604571 O
   0.2244643452867249    0.4857453045504034    0.8670508213899180 O
   0.1045406825753288    0.4181525724655104    0.9454349742240988 O
   0.0311214314866073    0.5948869426185308    0.9060629550800888 O
   0.2270122945280436    0.6480536172375684    0.7812473856431288 O
   0.1084302787475844    0.7505479452522993    0.7498141781261606 O
   0.5911032053203545    1.0158365443094954    0.7106885050480672 O
