Li1 Co1 H90 C51 N3 Cl6 O45
1.0
  14.6356162903999998    0.0000000000000000    0.0000000000000000
   0.0000000000000000   14.2562849961999998    0.0000000000000000
   0.0000000000000000    0.0000000000000000   14.3031948977999992
Li Co H C N Cl O
1 1 90 51 3 6 45
direct
   0.9767255004202703    0.6189216897215442    0.4547401819226017 Li
   0.2087954196506529    0.1132499805826237    0.2344913478327756 Co
   0.0536328385238465    0.3200471932355575    0.1135805994050936 H
   0.4667665173540357    0.1640710745908538    1.0094245064171459 H
   0.5390601590433181    0.1582827503519658    0.2291946291247299 H
   0.5804360729771377    0.0362874338677918    1.0821781819026177 H
   0.4120728178119769    0.0404687475842256    1.0957248056733531 H
   0.5503478285696339    0.0251274437271340   -0.6820954772559669 H
  -0.0146738169776198    0.2210466471342273    0.0671581039595390 H
   0.0148090549041086    0.0825638656433806    0.1397348958873109 H
  -0.0867801074856745    0.0901072053022514    0.2035996482399831 H
  -0.0759202983156121    0.2980435646546464    0.2696233587988913 H
   0.1752225252640804    0.5466572814079754    0.0557872178629637 H
   0.1984255112717655    0.4741550832353443    0.1498263475546724 H
   0.0367275032724508    0.6062655173703254    0.1503765742736840 H
   0.0733894373757625    0.4062926632389793    0.3094382396048287 H
   0.2938031142576832    0.6476472658522933    0.2481071869086980 H
   0.4289480894164943    0.6156908339963481    0.0872731902780687 H
   0.5294196357335789    0.6347673325422518    0.2809131441338333 H
   0.0688880895204479    0.6770763913300619    0.2461481840285576 H
   0.3386519260177010    0.0392510390434222    1.0033272672602205 H
   0.5733144049905037   -0.0761268451976993    1.0221293602136881 H
   0.2820106487696936   -0.1721188936426322    0.2375466092839582 H
   0.3930486787203671   -0.0747365811839479    1.0385795310797923 H
   0.6759482791093057    0.6597794587795602    1.0831947380010203 H
   0.1516908889348399    0.2541050491039987    0.6387429882050504 H
   0.1930994629214046    0.2754135456780341    0.4320462312130350 H
   0.2895074290776037    0.0395989557693660    0.4263521187729865 H
   0.2569833460082607    0.1843961452580883    0.6428294877890692 H
   0.4857599778605358    0.1854686546814111    0.3864650862549754 H
   0.3659196537362645    0.1822062339306758    0.4020965589152822 H
   0.4850689922676275    0.1102176337958190    0.6090684991812529 H
  -0.2779548379844016    0.1991257890647303    0.6107569331411171 H
  -0.1649975174864332    0.2299781464718135    0.6240176068126457 H
  -0.3128559989512308    0.0743857182486648    0.4877985792512103 H
  -0.0971431832175441    0.0183002794254984    0.5941193915498602 H
  -0.0422783941941599    0.1296827328783617    0.5650776282957013 H
  -0.0782222170959028    0.0399777360758371    0.4766901030586334 H
  -0.1654566713660281    0.1732354536724185    0.3925923886252647 H
  -0.2313425200290943    0.2421510232097755    0.4647205395294157 H
  -0.2232253353719695    0.0114120894078202    0.4466591901703479 H
  -0.2564866610545312   -0.0053566550486579    0.5633087927187009 H
  -0.1091023652927675    0.2441550516090124    0.4806915237488320 H
   0.3688836560125782    0.3087616444377546    0.5957379110600405 H
   0.2787904222302130    0.4173313033925640    0.4703980123304393 H
   0.1834538151264021    0.4032722410173784    0.5354469057174062 H
   0.3431293596084534    0.4256890207103476    0.6253522736571098 H
   0.5455287626279923    0.6683686529512984    0.5593747066349928 H
   0.6809374779616900    0.5872290011901046    0.3922463120993299 H
   0.6942057952055204    0.6199584254492558    0.5027981161751600 H
   1.2120814930653780    0.8109513805371888    0.6456805990471750 H
   1.1496003524112726    0.7600285770022212    0.5600969229002266 H
   1.0129515116438477    0.8144340550216870    0.6095124559367453 H
   0.3641356495999217   -0.0710020879401477    0.4365671092729393 H
   0.5638112178858220    0.8244443767877039    0.3090977562348686 H
   0.3660706552353575    0.6587595577321362    0.5889492179957423 H
   0.5746119246591805    0.8474047763649605    0.4770607195564072 H
   0.6313700401711920    0.8062390729466835    0.6097096146848536 H
   0.6850240841430252    0.8255091703158948    0.3300266467477178 H
   0.8816218865797657    0.7914939973497779    0.4409356437469826 H
  -0.0144558555377525   -0.0639069716439343    0.3679915912150217 H
   0.1828135961008359    0.1644884343729840    0.9482913116136201 H
   0.1567381652868753    0.3695046781404916    0.7834693947730261 H
   0.3126420886151111    0.2420850873786490    0.8227340488599520 H
   0.2012856573134090    0.4464515124870551    0.6942697432884309 H
   0.1813534594331359    0.2010070645868701    0.7473117388300489 H
   0.3975343114875408    0.1400837595160533    0.9078276247146170 H
   0.5197885414767242    0.1491744868713598    0.8917424072758623 H
  -0.3274915288633194    0.0766485798573236    0.6992791136082761 H
   0.3796450750655845    0.2298785412801118    0.7130683405194144 H
   0.6563105683154991    0.1024442201730176    0.9397708376306539 H
  -0.1302958698125231    0.0929354315905690    0.7293933645205847 H
  -0.2213463574420795    0.1712994654393440    0.7708854929744368 H
   0.6974799996564414    0.0125828011328207    0.8205806838096905 H
   0.2721121930350331    0.4166817653114673    0.7981731026860287 H
   1.0066969065637701    0.5278206770561699    0.7023189938805283 H
   0.3883676322484848    0.3403392959872288    0.7724984193286423 H
   0.5286375026294533    0.6309612919072293    0.8336819525359402 H
   0.6414789414340002    0.5742742236972846    0.8483562963800756 H
   0.9303762393751476    0.3793263111982849    0.7960903512299480 H
   0.8390333144532302    0.5431169481434921    0.7566068649155117 H
   1.1724166105977512    0.6761967792850345    0.8030503346959715 H
   1.0611045915016646    0.7162857646099168    0.8400735315260343 H
   1.1944805943475720    0.9554034590800152    0.8094894555118506 H
   0.1612080829659082    0.7641628939028520    0.0040603131198983 H
   0.5092329627477755   -0.0120428289028848    0.8166144370791278 H
   0.3925813256643508   -0.0307173994569221    0.8607479334420345 H
   0.4813225152548373   -0.1081323782044834    0.9051925491060341 H
   0.6351970057658516    0.8618685725120606    0.8361310557083642 H
   0.7205005539887518    0.0259277924858072    1.0074494232135780 H
   0.7512228680395058    0.7518076414617743    0.9195459856261207 H
   0.7806251146864244    0.7989721026225342    0.8050820486037831 H
   0.1235533652509128    0.1910051601609971    0.0673140131823339 C
   0.0440548339343200    0.2384782571270298    0.1152795205324102 C
   0.0639091396385903    0.2336200489740319    0.3022852922576779 C
   0.4084884111864486    0.1727311147088024    0.2561067982415198 C
   0.0247423571385598    0.0390216665245036    0.2859169212977037 C
   0.0064534108660633    0.2062489631614229    0.2121676640487342 C
  -0.0154793860610162    0.0992835089490199    0.2093116587791505 C
   0.2157121082267534    0.5425220526288289    0.1188850087026044 C
   0.0761074643594361    0.5335052575777856    0.2827672753394480 C
   0.1837592344480969    0.6248460942927569    0.1826840414725737 C
   0.0823046752045642    0.6118588398958821    0.2097765898695479 C
   0.3184430059332078    0.5344164346483522    0.0969836081946534 C
   0.1866931730775324    0.7234797846528197    0.1299154114292195 C
   0.3131695689648838   -0.0546443902606919    0.3025146116526408 C
   0.5753573664488205    0.0021375834593741    1.0121497716658208 C
   0.4042795006234950    0.0014831352631935    1.0307155537793571 C
   0.6331759087779917    0.7083552273044310    0.2410199591442500 C
   0.2089095248558499    0.2301247484793180    0.6796023908892640 C
   0.4228151054533334    0.1483944800180341    0.3598570449943100 C
   0.4861436993170544    0.0337313682441239    0.4937246888096446 C
   0.4407535369338177    0.0453823698931701    0.3879018281959777 C
  -0.2084121566374186    0.1704359866295923    0.6191718363050607 C
  -0.1674559038834310    0.2006100467100874    0.4628007586555478 C
  -0.2488545943356689    0.0476676777422124    0.5085863334644829 C
  -0.0891305380597914    0.0713070760910691    0.5447779678300064 C
   1.0506007632412286    0.6465368783983234    0.6575863306838314 C
   0.3128928467606637    0.3571522314794618    0.6136611793809826 C
   0.2481979284727969    0.3669710587572071    0.5239415741340889 C
   0.5183391320648421    0.6703334004298643    0.4287604618212448 C
   0.6938491310311922    0.6524753118697758    0.4333242673532551 C
   1.2424594417064359    0.6753052426748035    0.6217929290237069 C
   1.1718112380719758    0.7488082625905327    0.6273392423171237 C
   0.3436752881051742   -0.0085545428582907    0.3975185607499861 C
   0.6259483347625822    0.7757283192604363    0.3235518695625000 C
   0.6120780613164851    0.7237294990770858    0.4184890503603972 C
   0.7955038868323460    0.6847684373314732    0.4236258048075663 C
   0.3409962072095019    0.2790505380651686    0.7585050422244273 C
   0.2209397664600583    0.3935165437907115    0.7470726314121302 C
   0.4649950852882057    0.1295150875204976    0.9412656085648939 C
   0.6579702182761182    0.0302283518542782    0.9628614829277267 C
  -0.2020372969698282    0.1197692105239986    0.7168632968482517 C
   0.5976584430501585    0.6346389681050588    0.8653566939651913 C
   0.5922620184355144    0.6480000926933209    0.9711820015845971 C
   0.8194912607176725    0.6584558320419474    0.8367679763449837 C
   1.1592214026770109    0.8255182891010506    0.8370259606643169 C
   1.1217907957841990    0.7334957179789325    0.7921919215155786 C
   1.0906147939714641    0.7370029430388501    0.6871832146684798 C
   0.4684777537996392   -0.0345276487620165    0.8791668952112348 C
   0.6337382356275553    0.7209819389651465    0.7174400910581432 C
   0.6491021257117393    0.7248055157254686    0.8215699732727165 C
   0.7544799908728824    0.7400977184317212    0.8456352259983816 C
  -0.1797492023978240    0.1223505281680979    0.5358549264457608 N
   0.2646577751386332    0.3168198447354213    0.6966775969355414 N
   0.4800090755186092    0.0276098576245437    0.9649931744985861 N
   0.6568756282238696    0.1192683787854424    0.2892602302815837 Cl
   1.0049750795152892    0.8289757115651173    0.4489998560313123 Cl
   1.2497088801923022    1.0840379526026132    0.8600872418925224 Cl
   0.5614072876855558    2.1411268087819715    0.7019666250541218 Cl
   0.9447931245826672    0.3209408341808245   -0.1299531023230269 Cl
  -0.0888217024145877    1.4272030900352632    0.6809433500341995 Cl
   0.1824091033973832    0.1397126951047140    0.1081160860178068 O
   0.1084122194595083    0.0403270556918049    0.3054055741470664 O
   0.1488444081872320    0.2119383836536212    0.2982994694812038 O
   0.3301924257449854    0.1885465953939948    0.2276767864220944 O
   0.4789634072190078    0.1698551901596699    0.1969619703870019 O
  -0.0803294054361867    0.2527870339264817    0.2190080938057985 O
   0.0886310230783283    0.4461679884132114    0.2520797259397323 O
   0.2328716179472106    0.6319882074047732    0.2669246610410961 O
   0.5221680791271368    0.6634017208214431    1.0164173496745206 O
   0.3758338245590659    0.6037978338181674    0.1296238681740380 O
   0.5722546614380458    0.6422861216257032    0.2245453182207564 O
   0.1391878281570010    0.7137423249964645    0.0508575500157581 O
   0.2885296772893592   -0.0048130351643706    0.2353100460385730 O
   0.2356559216069566    0.7912667291658952    0.1512770723856115 O
   0.3198177345131855   -0.1463267605519981    0.2940850264542636 O
   0.4899574779029696   -0.0072849273866006    0.3257646618949926 O
   0.6730416710679413    0.6418407040430937    1.0150728948071008 O
   0.6964626185154936    0.7216875926472018    0.1862678561633660 O
  -0.0360593188785750   -0.0104666819609578    0.3232701143302742 O
   0.0258301145437906    0.2795773232691682    0.3620950065286889 O
   0.2341035442045166    0.2736024146570926    0.4878395351358352 O
   0.4522843120410262    0.1014614957112287    0.5439754897765356 O
   1.2307141214828690    0.5917259651619311    0.6183489432322822 O
   0.0571031399441778    0.5466748876777762    0.3663003606771703 O
   1.0199276442490028    0.6333770685285005    0.5803063937258295 O
   0.4729024393554143    0.6399552198508820    0.3648573264356963 O
   0.4912901857037880    0.6643128978920098    0.5179897570325059 O
   0.8549697803575044    0.6238086571200332    0.4208937578572720 O
   1.3274507379606233    0.7134715672218389    0.6066047139743954 O
   0.5342339188223079   -0.0311326549040163    0.5213485171097659 O
   0.6185772751597992    0.7957861393781051    0.4899505949525929 O
   0.8106470824178557    0.7760250305005053    0.4314466448925466 O
   0.1273277194635354    0.1956957229561309   -0.0199245379886304 O
  -0.2715868109638289    0.0457555386395454    0.7193948990713026 O
   1.0478301248755182    0.5805787413204914    0.7257410336691021 O
   0.3455330848293090    0.4800294046327015    0.0407143616556306 O
   0.6160956577629408    0.6571504428746461    0.6634794196476800 O
   0.7912785779165498    0.5955544520373370    0.7714853589527239 O
   1.1705471983736859    0.8950490259139171    0.7757333609155124 O
   1.1808433141647814    0.8339784173905838    0.9198745835396346 O
   1.0218933967960186    0.8104098649879374    0.6788452173991882 O
   0.6007099032082999    0.8061710327805212    0.8590511097482083 O
   0.6807120006101031   -0.0238860264852146    0.8839497427141044 O
   0.8913317612567354    0.6569470238211708    0.8800869693690738 O
   0.6343436081533306    0.8077745360779155    0.6826345805720508 O
