Li1 Co1 H90 C51 N3 Cl6 O45
1.0
  14.8110854621999994    0.0000000000000000    0.0000000000000000
   0.0000000000000000   14.4272062933999994    0.0000000000000000
   0.0000000000000000    0.0000000000000000   14.4746786065999995
Li Co H C N Cl O
1 1 90 51 3 6 45
direct
   0.9470443112963108    0.9028286129559727    0.3724398621080193 Li
   0.2298402935954939    0.1198384920503240    0.3445953751280993 Co
   0.1171773828143322    0.2130346363804355    0.1195306197341817 H
   0.0332902157885977    0.2732535022046142    0.1781315754481990 H
   0.3102267043713015    0.3180300158873446    0.2553553971564284 H
   0.3749977842795463    0.1394833210100136    1.0771152664620161 H
   0.6550285767954064    0.0247597933678549    1.1220233447459518 H
   0.5081647695780724    0.1343783825692502    0.2987995396545747 H
   0.5190016795675283    0.1389399032588176    1.0570457362226682 H
   0.6272817920611728    0.1844351978190866    1.0249420873175992 H
  -0.0477234278813626    0.0641506489806966    0.2092327841337399 H
   0.7314490392178733    0.0789248190913374    1.0355585579264823 H
   0.2739255162259636    0.3355635559820559    0.1360960998057509 H
   0.1142322914426482    0.5979629369163839    0.1118613648224089 H
   0.1049210225047998    0.4229138006774902    0.2390849149992208 H
   0.1856767512495003    0.6228742047454447    0.2076175496518261 H
   0.5169674599907866    0.4835511813462762    0.2348817128657890 H
   0.5361904265131681    0.6201377082126365    1.0616275305272243 H
   0.7160322083189661    0.5146188385825248    0.3138202531300963 H
   0.6934167152914722    0.6228534106988429    0.2573222802060471 H
   0.0278733271881802    0.8277974546023831    0.1765398302615740 H
   0.2500926917580419   -0.1809792762507640    0.2795624976747248 H
   0.2576944303535922    0.7827221997834721    0.1253808359843297 H
   0.0005633774189809    0.7083696204839908    0.1599874765609015 H
   0.4932077564296860   -0.0025088262109732    1.1253982037896422 H
   0.5368504726674456   -0.0447186614081441   -0.6856250812487730 H
   0.3773217192867303    0.6739138852646637    0.0457162001509500 H
   0.4354042279722361   -0.0961326347661969    1.0649609378733464 H
   0.5534454751490187    0.7213222321123063    0.3158631309585903 H
   0.7172475142495097   -0.0343493635026697    1.0297815730087052 H
   0.2409805979588104    0.2210902500340066    0.5828645687824180 H
   0.1491054951195973    0.2600173984076262    0.6572952369361661 H
   0.4723389280923678    0.0603744501177939    0.5344139593381277 H
   0.5533538545852549    0.0647418930390769    0.4451007500340861 H
   0.3862825750146052    0.2264682836201414    0.6245214522537419 H
  -0.2376939744142881    0.3010717777486189    0.4396816314386491 H
  -0.2910864149628375    0.2382640531225053    0.6130890740643881 H
  -0.2494824419405611    0.1818657467939801    0.4224469137098389 H
  -0.1463455041449771    0.2296463070757965    0.4015203005371026 H
  -0.0270598512123141    0.2300115891611030    0.4986356865297862 H
  -0.0509628933562228    0.2570847447018734    0.6204771482943222 H
  -0.1376959017693136    0.0843790975150125    0.4909939417279663 H
  -0.2292678532958523    0.0938438543933048    0.5692753205962572 H
  -0.1159581296916568    0.0964126122835246    0.6107518891831587 H
   0.2710371391310383    0.3918689822357594    0.5931736059676692 H
   0.0544142583713300    0.5115949683256784    0.5598277878588018 H
   0.0608513287834427    0.3786252539550174    0.4579025541387733 H
   0.0930643628124241    0.6484515752006528    0.3839558345541360 H
   0.6658333216879007    0.6251060990807139    0.5743966778308282 H
   0.4683350351871958    0.6561301234758430    0.3567524671632732 H
   0.5476259827006105    0.5332102064846185    0.5274483469925779 H
  -0.1078074779174776    0.3978444980942550    0.4632126547696055 H
   0.8718222755553523    0.6218053907501078    0.4570453330330597 H
  -0.0892349026189255    0.4094967886750659    0.5927777422558914 H
  -0.2120982811771166    0.3360882590913102    0.6180135357355093 H
   1.0933826742428747    0.8268249863563015    0.4836296745896689 H
   1.1421927362633135    0.7208467415800098    0.6574085382428529 H
   0.3441040323551662   -0.0496309083503966    0.5107813102619664 H
   0.3744191636226153   -0.1612408740813660    0.4720692935582240 H
   0.5934767072631794    0.7099929423887115    0.4741260577054034 H
   0.6331814271840007   -0.1163874224262085    0.5720415305473191 H
   0.8315841713650146    0.8061917470481355    0.5889897479597694 H
   0.2190247459836172    0.1461568236994459    0.6762234637691317 H
   0.2673777179401792    0.2040114064249900    0.8260630601392410 H
   0.1883976861939952    0.2990686179259704    0.8224733431298210 H
   0.3035911339905333    0.3237837285820868    0.8518950672022171 H
   0.5398465393712162    0.1641644680566802    0.9415032744206203 H
   0.3837729682680326    0.1901854448393951    0.7357957709295009 H
   0.4214143687867755    0.2975922406172364    0.7226514376305738 H
   0.3639020411336831    0.0410851993549966    0.9704849196371657 H
   0.5965885656153324    0.0455275008440464    0.8367665793130178 H
   0.6897356886618480    0.1147591996003697    0.8826073207922415 H
  -0.1879001897600704    0.2220294478055252    0.6765267520230069 H
   0.9075124348856113    0.2559306751154687    0.8833417067008277 H
   0.3047990130515014    0.5356884409586313    0.6879453129798380 H
   0.1919814883491761    0.4044334383275063    0.6826139338109206 H
   0.2969420602105369    0.4737323018543538    0.7977322065745190 H
   0.4356450610974721    0.4970210795405580    0.6829420930833369 H
   0.4823295530453900    0.5439836713425449    0.8225603916947146 H
   0.4612433874974931    0.6627918428722009    0.8022760034896373 H
   0.7524522263775126    0.3634518381496203    0.8975389131179911 H
   0.7468928769152370    0.6051784710872387    0.8258171134003354 H
   0.6669649065432290    0.5783336341781571    0.9150888710068087 H
   1.0296094955375985    0.7065646972389470    0.6984774984703321 H
   1.0233891546830995    0.9701063644666053    0.6758393447049982 H
   1.2079866986630994    0.9973936986873752    0.7955366483266481 H
   0.1608561531280312    0.8426340068528295   -0.0766001598953941 H
   0.5773995601420101   -0.1021199339177670    0.9919168290032602 H
   0.5182168620043817   -0.0359213934257723    0.9080047758923759 H
   0.9844811353167455    0.8678772862926338    0.7382635286580707 H
   0.6678169710345324    0.7442442028164533    0.7627241753931602 H
   0.6976054697320793   -0.0066821913639720    0.8823896993800076 H
   0.0654782685290068    0.1397106692528609    0.2284877885158694 C
   0.0954882229738971    0.2343034803797325    0.1860840836266890 C
   0.2634705093734815    0.2945604686226813    0.1993403365090506 C
   0.1646472324613659    0.3018418506077754    0.2318011608748337 C
   0.2966362082180167    0.2015507775771000    0.1691109951956977 C
   0.5723587412100998    0.1380131819152601    1.0032089622825078 C
   0.6858014732966937    0.0234553135110299    1.0509709899440249 C
   0.1762743343668612    0.6391192070857258    0.1336103796749015 C
   0.2569969797834525    0.6173721000145853    0.0749956067283614 C
   0.5236550859755797    0.6184956716659741    0.2264953435860836 C
   0.5312562844351609    0.6492001608783208    0.3247462297474898 C
   0.6999658639171795    0.5876788946019772    0.3251061686547085 C
   0.0617661840811574    0.7439322921174250    0.2886162392852808 C
   0.0551231868308138    0.7592900818026921    0.1834069948253990 C
   0.1422592717108682    0.7437506907771018    0.1276675879668509 C
   0.1225922459048654    0.7717935420244070    0.0266580913322702 C
   0.4654520594519617   -0.0234290233622452    1.0547686563029128 C
   0.1562609463706535    0.3033889276749559    0.3384639781961126 C
   0.2163639011656881    0.2211339175318706    0.6521379548970359 C
   0.4194145153610698    0.1129133813970088    0.4051984478346684 C
   0.4843375760276288    0.0504660869119946    0.4578797557051107 C
  -0.2212468341542644    0.2589589814355902    0.6188909300007063 C
  -0.0712193425385392    0.2669958804472196    0.5465073539313717 C
  -0.1591311977042573    0.1151723079928605    0.5527235195848856 C
  -0.2028417010061428    0.2371494922246442    0.4464798480121855 C
   1.0538075869546446    0.6505614777958575    0.5703779357515756 C
   0.5662976729494980    0.5026436511147310    0.4005821104488053 C
   0.6050403431923018    0.5971991022712079    0.3824566648254136 C
  -0.0662338875434647    0.3777588353466054    0.5288621953104721 C
   0.7753310356899576    0.6306560301187577    0.3784365410229087 C
   0.3002260869028504   -0.0891215753869273    0.3711983837658469 C
   1.0484352595716804    0.8227140033431083    0.6057997930469918 C
   1.0687241169121449    0.7235880900570253    0.6414517072639125 C
   0.3642457026440424   -0.0879973106006519    0.4498653463249187 C
   0.5261658405110867   -0.1162224563231669    0.4891464879276583 C
   0.4665192330929713   -0.0510102467749884    0.4286870522617798 C
   0.9552462759875574    0.8351315148388687    0.5591168912455043 C
   0.2588206138492293    0.2771690211797495    0.8080612787469282 C
   0.6515777831226240    0.0506463019825443    0.8889991725572827 C
   0.3759639524943285    0.2512818194301734    0.6948138592669153 C
   0.2623706575063395    0.3894534071555068    0.6706578825089532 C
   0.3176366946978105    0.4632679751559087    0.7212538245608939 C
   0.6012371107996618    0.6010855095811006    0.6892441328369799 C
   0.5077634755598068    0.6124854990631419    0.8377683286709199 C
   0.4970970729924062    0.6362919098827559    0.9367964341617330 C
   0.6025476156947646    0.6245287177200682    0.7948278242982292 C
   0.6821096439476867    0.4670206074326625    0.8322117286118812 C
   0.6788222414055662    0.5734520931113867    0.8407673589899908 C
   1.0388471709496527    0.8964295916816852    0.6924960185112178 C
   1.1245802526498909    0.8999132876223880    0.7516420640482590 C
   0.5381351860700224   -0.0332763906980123    0.9815718670134498 C
  -0.1638661646436476    0.2240804339353580    0.5428614007855840 N
   0.2800702380447844    0.2879784597382972    0.7074932426914505 N
   0.6087861861382219    0.0456300848072824    0.9840458424966547 N
   0.6156553653256389    0.0697588033492256    0.2691912829431209 Cl
   0.8640733499082139    0.9841458115973127    0.2662247231204786 Cl
   0.7327933026110468    1.8641290697425776    0.6656981868948989 Cl
   1.3313334989136620    1.0237411420017397    0.8490936233082221 Cl
   0.9841820350238396    0.2822975262066616   -0.1748234115917549 Cl
  -0.1804598167852978    1.2340001442167221    0.9615893853389955 Cl
   0.1044038423143574    0.0993910128918016    0.2974157438174175 O
   0.2754797574771367    0.1286946764980677    0.2073315329386044 O
   0.3493514532952690    0.2048736662240815    0.0953414816181650 O
   0.4434868226143048    0.1546498054665434    0.3268727018327467 O
   0.4007170336196563    0.0489945615474677    1.0326700654675938 O
  -0.0073935005762727    0.1144119390221182    0.1802525206404468 O
   0.1413747990614170    0.3909783039063119    0.1918797218083719 O
   0.0887513770989170    0.6585512436351894    0.3117780661632283 O
   0.2659855174797454    0.5581961942544688    0.0149051533483877 O
   0.4952722236206989    0.5364842984355742    0.1974397761755413 O
   0.3267933497144952    0.6789404994632265    0.0943003531475730 O
   0.2101968987381406    0.8082392675035347    0.1654211032504875 O
   0.5519729969801727    0.6732609522013644    0.1644511335273878 O
   0.1975199075426479    0.2473538240270769    0.3908354346272315 O
   0.3399780687209706    0.1202079329449509    0.4368584254034307 O
   1.0658202109081070    0.5652824587689486    0.6029154457578602 O
   0.1034093169611959    0.3690551405739422    0.3627436191851536 O
   0.0255845010189897    0.4049671521902882    0.5124522972771095 O
   0.5348884287595790    0.5807995308511861    0.6432666007557806 O
   0.5550704742121477    0.4438929142941342    0.3402498554996828 O
   0.6245142703893405    0.6468788521426634    0.4652428898303412 O
   0.5386889604723734    0.4780533740517146    0.4848222399287107 O
   0.6778493214911699    0.6154638996714189    0.6414986858544901 O
   0.8414430031415691    0.5781430220843063    0.4193336839639671 O
   1.1168151229236785    0.8450003693561243    0.5445575351639187 O
   0.2525158767495536   -0.0250599697507199    0.3340044663993832 O
   0.2887508982386729   -0.1764323113938181    0.3434292007031761 O
   0.0327284743807020    0.8028640064569468    0.3454976404118372 O
   1.0366305879663336    0.6668487613642291    0.4895876928879596 O
   0.5997652402837811   -0.0689367943504754    0.5275449294479122 O
   0.5200007960764274   -0.2018634303879261    0.4908621253296989 O
   0.4788842957662912   -0.0715831833480089    0.3361765353519653 O
   0.7871485355245714    0.7149183588938117    0.3729835702077909 O
   0.8925553947304263    0.7804036635873617    0.5936129939618939 O
   0.9451774663530036    0.8879248266215133    0.4920297712898858 O
   0.5450850480678283    0.5922986386220298    0.9986285497012040 O
   0.4087306258916686    0.4490560760653828    0.7207895655481283 O
   0.6319202096960810    0.4170367099729102    0.7863737505791621 O
   0.7518330955228968    0.4329053400696971    0.8858433166490781 O
   0.0478016437692499    0.7555818101586889   -0.0106069847816859 O
   0.1913225224668368    0.8070124187540233   -0.0229637358268141 O
   1.1590760363184098    0.9898600156035113    0.7477808384197662 O
   1.1534457940101861    0.8372317135456592    0.8002414160006571 O
   0.4363405536747238    0.6956339600752216    0.9627521054557880 O
   0.6118001448459700    0.7266961068891207    0.7961473700041554 O
