Li1 Co1 H90 C51 N3 Cl6 O45
1.0
  12.9688448036999997    0.0000000000000000    0.0000000000000000
   0.0000000000000000   13.2116899206999996    0.0000000000000000
   0.0000000000000000    0.0000000000000000   13.1795084252999999
Li Co H C N Cl O
1 1 90 51 3 6 45
direct
   0.3269150387774256    0.3231086625573653    0.7630238464277997 Li
   0.5041867028923431    0.2851771032331628    1.0031337122802486 Co
   0.1018980812788335    1.1346846278091971    0.2574002840794709 H
   0.3256203976390560   -0.0044504934609368    1.0888030683415539 H
   0.6048865971209648    0.1185844861485359    1.1463742595813917 H
   0.5232986826986931    0.0232908478965949    0.2809019193457308 H
   0.5630335247605690    0.2754576804514634    0.3043512006107842 H
  -0.0332612198410250    1.0696550967532277    0.1474735741257935 H
   0.9117574140856786    0.2157711449111092    0.1920260703989339 H
   0.7207619910165924    0.0677825066872711    1.1208224719780284 H
   0.1565629346817935    0.4755920323678839    0.1103151320810287 H
   1.0344668785050519    0.5661168635725685    0.2289014973357271 H
   0.2405064174266413    0.5785498680546550   -0.0048029702821453 H
   0.3009073252836400    0.5538002711474733    0.1985763905788791 H
   1.0104631985542218    0.3379144899098162    0.1261495618082702 H
   0.3358957924037448    0.4805736812254521   -0.0189256517960246 H
   0.1221304153048479    0.3984760081412104    0.9708525386377409 H
   0.4061048213328463    0.4927458106778726    0.1385142111367060 H
   0.5048581428032838    0.6256573920531463    0.2565239236244916 H
   0.5390302303490893    0.5751657438231327    0.0912984895847973 H
   0.5301429314612872    0.7126167444823871    0.0482839869413047 H
   0.9506190095190831    0.4240152844961100    0.0436912511543004 H
   0.8511483149795078    0.5685394908210215    0.0736855413238142 H
   0.8718394408324013    0.3509506723386931    0.3137415356677750 H
   0.0914345433111893    0.8386543679805757    0.0797563292028529 H
   0.2861542765043522    0.7545311402427940    0.1537932331989736 H
   0.3000791867591558    0.7180657067598930    0.0166318200669165 H
   0.3769310586942451    0.6859857834083809    0.2768061671933685 H
   0.4785054872527683    0.7525662137151644    0.2268194773457155 H
   0.3894101963853544    0.8078937308146024    0.0881633195415292 H
  -0.0359091040990125    0.8580803461514592    0.0811281557851928 H
   0.6878461834437998   -0.1145272519020664    1.0118343402778658 H
  -0.0495733897530009    0.8712573129925624    0.2670053464167726 H
   0.7578231176840096    0.8921433617612107    0.3582818918826645 H
   0.1243549773561857    0.0855251271549773    0.5765028533321075 H
   0.4116488771904263    0.1599751033430262    0.2624035055860802 H
   0.3500396890095295    0.0587738181156812    0.3287314725929454 H
   0.3242887447230560    0.1980724249590433    0.4502193117695840 H
   0.4376461040138833    0.1424133832759761    0.5009384947944080 H
   0.5879429137531672    0.2215395212851712    0.4300234902403799 H
   0.4846608543042134    0.2837609331510383    0.5825148378039939 H
   0.3687360342638750    0.3398809302483299    0.5569167662285497 H
   0.6795193045556208    1.0466345746379246    0.4120198597298134 H
   0.6948414094159788    1.0944180151961900    0.5434489649819367 H
   0.8832714536480455    1.1013921419394792    0.5056732616754103 H
   0.8529510969815971    1.0845335870281179    0.3767689243377049 H
   0.8356905002678376    1.2533129039349027    0.4819180661175096 H
   1.1299025182041935    0.4199872608050136    0.3440431210617620 H
   0.2523548127406296    0.5922687791922846    0.5983697538795336 H
   0.3875403305363097    0.3213685369460323    0.2664711838537376 H
   0.3123586150668002    0.3834900372935454    0.3626052701272293 H
   0.4336427405080460    0.4283793742034884    0.3379548818489878 H
   0.6014961640742640    0.3480350725758160    0.4091699810554391 H
   0.4804279406691964    0.4062153662864387    0.5241090175594139 H
   0.9607139718678227    0.4454335891716263    0.3680417399626639 H
   0.9503491319738601    0.4895430636974351    0.6520940641611503 H
   0.7666874384265326    0.4671200654452702    0.7004448811595085 H
   0.8058651761271983    0.5317434410410217    0.4516956946036090 H
   0.1518423908764937    0.6766243769007835    0.3687504158630541 H
   0.0600608931396708    0.9080088567325681    0.3426037654054020 H
   0.1274770750150649    0.8490012653737562    0.5879497901321472 H
   0.3982506136881577    0.8107404521822505    0.4802387166846042 H
   0.5802028257561730    0.9424102090749276    0.5805777397593512 H
   0.5914921890121994    0.9292339991392665    0.4358412337802536 H
   0.6268592557743170    0.8250656445789832    0.5225531932192102 H
   0.4816775508114488    0.7761127851127103    0.6180783796960604 H
   0.7731336563638579    0.8448806721470938    0.6348771853005994 H
   0.8469559600841444    0.9679459279742495    0.6242235254318853 H
   0.7934253634498215    0.8007780627536447    0.4581737814369619 H
   0.8733168276228217    0.9047163180595370    0.4363367757829783 H
   0.7199114912097898    0.9655866537112983    0.6685521893810266 H
   0.0519769040421924    0.1024366654472840    0.7377232062795001 H
   0.1662954900412338    0.1146508485660663    0.8109770765184443 H
   0.0142688423449408    0.1657661868803506    0.9208218410789288 H
   0.5258400809881225    0.0548818103325258    0.8684693573796520 H
  -0.1132228521757833    0.1770122879387175    0.7694914624609114 H
   0.6947504221293036    0.2446947725691638    1.0057802449789219 H
   0.6785222997956971    0.1124406846752040    0.7816300032044261 H
   0.0790032124995195    0.3550917020122915    0.6909119004180709 H
   0.1983199306360900    0.6335254241235274    0.7020458513413323 H
   0.4599322832669145    0.6090894888315421   -0.0212557842265368 H
   0.4265199010109117    0.4876294780659415    0.8153998514899375 H
  -0.0175466359220428    0.3719040856916862    0.7800669707046362 H
   0.7977742473214142    0.4040120145445550    0.9387830572609818 H
   0.7097000959772539    0.5866835739352050    0.7282888635113501 H
   0.9723495494604352    0.6760778911716047    0.8285316007490955 H
   0.1392938561023271    0.8750267020941014   -0.0954687190672940 H
   0.3090213864504432    0.7648182421060505    0.8038235471941627 H
   0.4728585694965232    0.6501553935913819    0.6636756797324098 H
   0.5347549844934074   -0.0345344571616941    0.9693547589510491 H
   0.8217193252909958    0.8922251075489549    0.8871407669693764 H
   0.9295600791259857    0.7160629349601596    0.7114073537599774 H
   0.1589355438436536    1.0091518602408733    0.1975672482367817 C
   1.0310031929817904    0.3115090866575488    0.3032934980356835 C
   0.6436757111565095    0.0646042607359935    1.0939443830107660 C
   0.8547330598587692    0.3053463625481651    0.0957068482371176 C
   0.2824276531441735    0.5199211078696022    0.0347865184273414 C
   0.3433744847212231    0.5516054724370851    0.1253043102525585 C
   0.4904356940168941    0.6366582557482805    0.0529746019479560 C
   0.9355953121158715    0.4527358344240557    0.2065212999503844 C
   0.9403860240829293    0.3780758926663749    0.1111649361585844 C
   0.8338522486455190    0.5262850174454897    0.2173471968955319 C
   0.9425026351161778    0.3916472072427997    0.3047639625913112 C
   0.0537796860442817    0.9534950892741323    0.1876450268776778 C
   0.0384305934294014    0.9029065571475330    0.0859614164762910 C
   0.0836690097170740    0.7682197751627406    0.2703946989296668 C
   0.0362785127759235    0.8745702881125296    0.2682512198947606 C
   0.0523369977953899    0.9755891591283341    0.0018839255531213 C
   0.4439780480877743    0.6761475264722756    0.2261540504028438 C
   0.3384095089678215    0.7392643574761188    0.0893492514819038 C
   0.6124724693778317   -0.0463164472730509    1.1242474859120344 C
   0.1912182958032232    0.1819003832836451    0.6626597086075464 C
   0.4124184137336621    0.1158081569870007    0.3374138905031867 C
   0.3986855020753170    0.1807930306218877    0.4358329633655703 C
   0.5590637031782094    0.2856229205385456    0.3887822707305083 C
   0.8211641486265371    1.1135162533106544    0.4481582333800551 C
   0.7266676827847712    1.0522818461412544    0.4804645976434330 C
   0.4465422703067427    0.3314088876351720    0.5261610667806187 C
   0.3934406247535840    0.3538587030471496    0.3494052330404105 C
   0.4426473204662149    0.6763609738069410    0.5055640997891263 C
   0.7773383485184315    0.5507097505369324    0.6960418337826729 C
   0.7989686482287010    0.5872020541630271    0.5870681184016832 C
   0.2665997206561976    0.8071118474929376    0.6016065969106521 C
   0.6237487242959473    0.9077795143836190    0.5121164610163649 C
   0.4389468366739879    0.7076211685646847    0.6136146320279708 C
   0.7742463229288772    0.9267785978851717    0.6155972552910540 C
   0.7900349304031206    0.8797626594451716    0.4370829341132179 C
   0.0189084228866737    0.3136200959354991    0.7335576487921956 C
   0.1185795978884145    0.1525665128759852    0.7547989569628855 C
   0.0665433517759261    0.2412357146988759    0.8049115999148905 C
   0.1399192009285437    0.3048006337244282    0.8681916535471651 C
   0.4430956256227653    0.0745893573278616    1.0181828319893915 C
   0.6332175707397698    0.0963988307358428    0.9839486264757873 C
   0.5313433467824390    0.0446022775236901    0.9497242847595116 C
  -0.0620594671524159    0.2671786487260348    0.6604927082097792 C
   0.7237360415649493    0.0596669665373310    0.9174909125963666 C
   0.2744446753564785    0.6278266830501364    0.6711896170360120 C
   0.3262765856132982    0.5412365490955403    0.7267918425782988 C
   0.8597720591674320    0.5158354079838195    0.8651293238534018 C
   0.8771167034595609    0.5708686402473782    0.7627863565382685 C
   0.3384048824956176    0.7252313305800276    0.6613667924038367 C
   0.8310462932539010    0.7500752379052920    0.8438546305225222 C
   0.9042401678331683    0.6830974322414185    0.7838410113133524 C
   0.4044416045755722    0.6525790048169096    0.1227237891206237 N
   0.4469707587406866    0.2894074477489262    0.4219208359869783 N
   0.7315555506681092    0.9424995239170926    0.5133386613807638 N
   0.5232135556101427    0.3492415798504853    0.1543896135605440 Cl
   1.2022243027730404    0.5403258404676343    0.3699985656019641 Cl
   1.0298288401207203   -0.0188930062011912    0.5511247444370948 Cl
  -0.4227006862273506    0.0959764774991644    0.6879641425240495 Cl
   0.4865534669749269    0.3451240142455911    0.8373991545476615 Cl
   0.1827264060731078    0.7470408039880088   -0.1089297674065049 Cl
   0.1675029992864314    1.0919315808189698    0.2502634473352841 O
   1.0184191885873943    0.2234257296468249    0.2711193086565112 O
   0.0066035489819083    1.0601196019939527    0.0067035286786873 O
   0.4195084823860193    0.1604655780694915    1.0519223301292759 O
   0.8605948001410118    0.2133815944304749    0.1354253250655191 O
   0.7835447609798588    0.3241584904055249    0.0340361110767141 O
  -0.0328517770509867    1.0243051071912370    0.2076723292232880 O
   0.2067185198434283    0.4470996137401800    0.0627094111578131 O
   1.0310949513471663    0.5047788360481484    0.1884652395632472 O
   0.8028818726344337    0.5682622363575891    0.1316854283706332 O
   0.7909987787789168    0.5417908309507726    0.2977940516480729 O
   0.2378616174834564    0.9666326970322474    0.1621471107828026 O
   0.0731098579905508    0.7034801388910863    0.2053991033158265 O
   0.5679523128998025   -0.0621683179464510    1.2043969092374309 O
   0.6458995021291467   -0.1313403924869031    1.0779270936561218 O
   0.1702079433682660    0.1479985885330558    0.5728730517904834 O
   1.1218007942966006    0.3422909171759003    0.3270591795688982 O
   0.5097538086055213    0.0649774151189370    0.3433314101468091 O
   0.7895075125718848    1.2129002085715748    0.4460922989672259 O
  -0.0608766324256388    0.2900818504978160    0.5699516985231575 O
   0.4639263938283441    0.5911970010863048    0.4734762489867263 O
   0.8065660866660773    0.5069748458072438    0.5224176039436217 O
   0.1247089024797781    0.7479975324667930    0.3657730665770463 O
   0.1687760502211830    0.7897522211789221    0.6039928771105741 O
   0.3037441238232835    0.8795113668384024    0.5539536056356225 O
   0.4114638183022735    0.7507632649521392    0.4368886931812052 O
   0.8032581590403445    0.6779436630863223    0.5745577883742378 O
   0.2681295407982615    0.2368010057137520    0.6771928758410307 O
   0.2337764425274815    0.2956640281331274    0.8779188752206154 O
  -0.0190949619529219    0.2124808769544043    0.8705005408757382 O
   0.3854214062669591   -0.0029889090522878    1.0383322936711503 O
   0.6353079650971967    0.2084609521515380    0.9705778698198166 O
  -0.1231057678818478    0.1949728971737417    0.6973233686817726 O
   0.7439444721512440    0.1130235018656026    0.8322692211830593 O
   0.2916489833250914    0.4584117169530960    0.7145599751369810 O
   0.0899024099330236    0.3840312246846297    0.9057347836877520 O
   0.4015639388647950    0.5574857194354861    0.7953285414331682 O
   0.9003485336310533    0.5478768048483298    0.9463152046519600 O
   0.8052976622035294    0.4282150500320136    0.8644434105622317 O
   0.9657013089035428    0.5230927687435337    0.7165251470663286 O
   0.1054612359544771    0.9509692958139243   -0.0834037774269247 O
   0.3683636032514673    0.7656319154562824    0.7557132550998985 O
   0.7712892361119341   -0.0163217984144586    0.9463789399577767 O
   0.8717685015919426    0.8443425123777776    0.8540166180320792 O
   0.7455059065200339    0.7256052418684132    0.8808211078961964 O
