Li1 Co1 H90 C51 N3 Cl6 O45
1.0
  13.5809809445000003    0.0000000000000000    0.0000000000000000
   0.0000000000000000   13.2289840776999998    0.0000000000000000
   0.0000000000000000    0.0000000000000000   13.2725136748000008
Li Co H C N Cl O
1 1 90 51 3 6 45
direct
   0.8508613641034330    0.7468663867738053    0.3863469244063347 Li
   0.2792148805595432    0.1682293610551331    0.2910695691905711 Co
   0.1122865850804081    0.0818599170155081    0.0532284128470220 H
   0.6143497296989378    0.0932802951120147    1.1736100047856775 H
   0.6211482076864495    0.1215258503115161    1.0400309372902572 H
   0.3952035566675042    0.3246873315117619    0.2365199926943985 H
   0.4153493768492785    0.1748678148838014    0.9799194904650179 H
   0.7323772865116990    0.0919944820896320    1.0867379903164684 H
  -0.0350444514755574    0.2744930009343041    0.2616410818994562 H
  -0.1424453826719674    0.3268802436681007    0.3211656014710591 H
  -0.1334408784686444    0.1960893991227031    0.3039879962648294 H
   0.1332423614829408    0.3572174182873157    0.0881253443061625 H
   0.1190916899824533    0.5255838617661140    0.1853654023405685 H
   0.2988239206641057    0.5138272976122443    0.1352739112869706 H
   0.4248987606920208    0.3827121953630954    0.1107405027723317 H
   0.5338617292763553    0.5693371081681334    1.0765869365446570 H
   0.6286432480238136    0.4697079157631224    0.2783673784729156 H
   0.3947705982513169    0.5349493579578323    0.3280150952615690 H
   0.8508944986761003    0.5667258721278520    0.2399692262850875 H
   0.1554469431131157   -0.1850003331189662    0.3069218790962281 H
   0.2048262922735743    0.7134654848296538    0.1724989624043088 H
   0.2281022250866615    0.8345133287604184    0.1276431035529167 H
   0.0128578320677725    0.8544551473044971    0.2686103721383977 H
   0.4875302453746109    0.0129657377915464    1.1180093839777943 H
   0.5874974720092834   -0.0596339413946258    1.2378065858461103 H
   0.4929557003031697   -0.1126780750845956    1.0633467919642334 H
   0.6211754516684206   -0.1660238192366057    1.1737200065559354 H
   0.6445323801035836   -0.1450274979493031    0.9685350606801093 H
   0.0043842173509649    0.7143967732738485    0.0297573501958325 H
   0.7583047214620146   -0.0964100080330389    1.0154334866490982 H
   0.7237843873332886   -0.0768930142500295    1.2050207842517822 H
  -0.0667630734042961    0.7563894158484539    0.1471578696587353 H
   0.0928594169635977    0.2915200075946041    0.3920127690113985 H
   0.0578980248564769    0.1448231797352872    0.3757890147719254 H
   0.0614228070644503    0.2909583620474963    0.5272917405756945 H
   0.2818420840101489    0.3179007181578808    0.6184536733976046 H
   0.3711927726650379    0.0683275097687738    0.6048631807132774 H
   0.4495035371338378    0.0153226837079422    0.3717701829735996 H
   0.6099384135911523    0.0229801122304211   -0.4219912896555669 H
   0.4729413139263093    0.0931729550478299    0.5194587857528722 H
   0.0219602673414236    0.1210798599039877    0.5015415316571755 H
  -0.0898961593929950    0.2497919356007360    0.5742804282712374 H
  -0.1827134606727303    0.1929402532959857    0.4938225718195588 H
  -0.0618974454890489    0.0881377989384289    0.4001905718496114 H
   0.0926547189368969    0.5955902201199004    0.4962094595467984 H
   0.3481009208112139    0.4320735065692035    0.6077699398205031 H
   0.1427475658954600    0.4749362839880561    0.3846253213581206 H
   0.2130753282200808    0.4317953295014570    0.5927042179158681 H
   0.5859232116456637    0.4367110508915538    0.5634987479123994 H
   0.4772658174537063    0.6753068479279026    0.3987522610316504 H
   0.6703051870481181    0.6277438607548624    0.4973895675793664 H
   0.6796403006542779    0.4307680397322518    0.3965763356035355 H
  -0.0168624069672039    0.4485651735572804    0.3662407104261844 H
  -0.0395566439490191    0.4614300314330176    0.4931480198681075 H
  -0.1544172719386146    0.3290436751025859    0.4843723800116465 H
   0.2329133650379668   -0.0500814315981237    0.5305216487189721 H
   1.0687167614485125    0.8181046613430984    0.6351701752928902 H
   0.2951680728131368   -0.1701314664815367    0.5135818281613272 H
   0.5897454686838067    0.7040815442888785    0.3385082093326758 H
   0.4892849050783086   -0.2116561970862096    0.6528284731664113 H
   0.9360856939754761    0.8984471875535305    0.4653818401504172 H
   0.2227447328482628    0.3156594273810644    0.0092940071807354 H
   0.1999901173118092    0.2708343677606814    0.7543593536776576 H
   0.4119284163023295    0.3556239474753329    0.7370197595631713 H
   0.3581303877957149    0.0405876623364530    0.9021437182719969 H
   0.3474949262933192    0.3127960177815431    0.8528327877251606 H
   0.8589513541011360    0.9718428462297491    0.6955558731069915 H
   0.8324252878712961    0.2356578192618108    0.9493254364712390 H
   0.1811623167983600    0.3422049276203431    0.8640529682914649 H
   0.1186793486337035    0.3789658759398569    0.7456307885513725 H
   0.1764557348319163    0.5460060648932169    0.7376458655295022 H
   0.2312566364045972    0.5243130914710361    0.8547344621644133 H
   0.3228324956950608    0.6576252180592644    0.6899970165250554 H
   0.3945084669653260    0.5423729060869394    0.7122354565999305 H
   0.3980391397639959    0.4345566904484083    0.8405487544218415 H
   0.5654581950805270    0.4698933419444219    0.8463818619926398 H
   0.6285688793162713    0.3583535599525957    0.8951668936652297 H
   0.6568400330399270    0.6474808260778560    0.8391692116729225 H
   0.8420549310122774    0.5074276981038656    0.6750081451722445 H
   0.9233377193845749    0.3867412273497501    0.7863510329031377 H
   0.8014717064092556    0.5137375930670556    0.9799857929018857 H
   0.8636571997437427    0.5237458521459356    0.8591669307563801 H
   0.9844224085826674    0.7286858523814912    0.6876108822345984 H
   1.1338504954265602    1.0010945255519967    0.7869492617085128 H
   0.3334922558840794    0.7025145305349694   -0.0694989046687797 H
   0.4377468016923775    0.6807297889170699    0.8072528761257011 H
   0.5050824752889410   -0.0447983350587747    0.8885321293577575 H
   0.5447059385865557    0.0783350809641439    0.9250044971292900 H
   0.6819265861683279   -0.0260017291713155    0.9299477958598515 H
  -0.0456681317965603    0.9661062001234221   -0.0047440269524491 H
   0.7033491918835525    0.7820240373740518    0.6991708627898501 H
   0.9152676101304723    0.8743538786397129    0.7810355364019774 H
   0.1666361201409755    0.2053145973150361    0.1109070123012837 C
   0.1994776359212202    0.3109047160872448    0.0876160210411328 C
   0.3949841321640623    0.2297956911086199    0.1115014739227458 C
   0.6545751009171515    0.0778187903737339    1.1021043334973561 C
   0.3797525372707808    0.3300437518977724    0.1553469740486871 C
   0.2330753562821185    0.3766361429974798    0.2548187118331195 C
   0.2763881333490962    0.3668500551739839    0.1483083676257475 C
   0.0198624807296592    0.6273008940111139    0.1710101713219144 C
   0.4893647962146288    0.6159394773583144    0.2474696894557536 C
   0.1824729732283147    0.7679148662613104    0.1150592024101276 C
   0.0779842028074499    0.7978589645891444    0.1288297664854932 C
   0.0594325237328957    0.8941097418613306    0.0686844150050376 C
   0.5238821850480065   -0.0322977530769154    1.0576832076695175 C
   0.6428933232423033   -0.0904027440184149    1.1822489109348344 C
   0.0001812808890655    0.7225931698650865    0.1122948428548113 C
   0.6802801660686771   -0.0781213776605950    0.9954764531519004 C
   0.0363325723168641    0.3146328935278041    0.4476666577998107 C
   0.3411507601132692    0.1320141840478829    0.4615094764626266 C
   0.3986613334063058    0.0673780793418998    0.5274629214126986 C
  -0.1292600317218566    0.2539351108950802    0.5012983976074343 C
  -0.0063211949159509    0.1415175593079624    0.4262998687387120 C
  -0.0911390740299407    0.2643342465499414    0.3169101905230007 C
   0.2798525370024312    0.3992728018853529    0.6322219771626224 C
   0.0130448583223840    0.4288714466263387    0.4417609942668491 C
   0.5725808764534932    0.5556113376226776    0.4097403830689176 C
   0.6513536841300441    0.4983281784965422    0.3533885857887939 C
   0.5289981630678519    0.6493789310156590    0.3482704897246718 C
   0.4950316917293573    0.4803469791389150    0.4508900110430797 C
   0.7303509233121286    0.5685222307794630    0.3300651967469917 C
   0.2389468025587803   -0.0962096903076236    0.3892484094560821 C
   1.0095693402657069    0.7008243024820313    0.5351819565939935 C
   0.2887797272028637   -0.0914315456195101    0.4867215506935496 C
   1.0013990909697650    0.7800072536328895    0.6183730556618676 C
   0.4602412003848166   -0.1110347138202452    0.5632923062339702 C
   0.3918716913048386   -0.0457613719726580    0.4917698408397649 C
   0.8212287476050659    0.8081099407187927    0.6077676795101552 C
   0.9209085870461365    0.8580434802952382    0.6123003551942062 C
   0.1814472741232996    0.3470412778362187    0.7817889731845656 C
   0.3624040113459714    0.3720537805391118    0.8027247210623456 C
   0.8330504268089542    0.3693816176736663    0.9024676960885100 C
   0.2465154752798497    0.5235333641738064    0.7722715597469108 C
   0.6037061686343346    0.4660766467467074    0.9991592521451919 C
   0.3364338696131067    0.5924697990990916    0.7436417154453395 C
   0.6266640095498147    0.4407750061948659    0.8908067550043915 C
   0.7076544773588023    0.4959293548367954    0.7354955569519953 C
   0.7095946906694374    0.5054817890417030    0.8520853784368331 C
   0.8111948626775426    0.4802714631360132    0.9052606862415646 C
   0.2107779978484749    0.7232538404009844    0.0110600629991223 C
   1.0129984003748633    0.9857630383562496    0.7092910256535755 C
   0.4974323798779703    0.0132998526392202    0.9471517713534719 C
   0.9198644798451951    0.9224142585045392    0.7087040983999392 C
   0.6286344121377690   -0.0315161359898233    1.0852054999006839 N
  -0.0490265048173597    0.2445617531775344    0.4200943373662803 N
   0.2696758052505196    0.4117741397831571    0.7475437645423642 N
   0.8947823446598165    0.9120619896382657    0.3064080352105029 Cl
   0.6759078751242554    0.0993291345036116    0.5623331812097354 Cl
   1.2877451226660177    1.0516048289944493    0.7678217621089446 Cl
   0.8634502927455308    0.0808847854465053   -0.0257603925659660 Cl
  -0.0205756880774629    1.4650001409760183    0.6923402049189049 Cl
   0.5572692431591240    1.7548258734344249    0.7564426063815141 Cl
   0.1700246824390940    0.1710421242863418    0.1992896675195822 O
   0.1294642838750211    0.1553168048832688    0.0348724325128243 O
   0.2608899892268014    0.3190565136377297    0.3291369626308430 O
   0.3691649368177935    0.1515924070224342    0.1523226788033778 O
   0.4418163162750030    0.2322637566689253    0.0241676027058102 O
   0.2695381126929907    0.4624595889500577    0.0962375981442903 O
   0.0957546422908907    0.5795537657138804    0.1400371386264936 O
   0.1688126934033046    0.4435073399695305    0.2707192416928622 O
   0.4024909536828192    0.5654305345645627    0.2507900853566201 O
   0.6320428551794880    0.4141371330271127    1.0685801638560914 O
   0.5322490328084416    0.6371126829767384    0.1664759887642983 O
   0.5376415740614841    0.5415432127457477    1.0057081246594488 O
  -0.0388939524956713    0.5902656993867673    0.2382785141449595 O
   0.7896809528065236    0.5324863570343580    0.2579952013085116 O
   0.0759195507683528    0.8163312825362143    0.2349151723474855 O
   0.1147525336106991    0.9676996709354049    0.0812321511822625 O
  -0.0293777032255963    0.8939993781333661    0.0170875572598284 O
   0.2311528147435727   -0.0217066147720336    0.3317807723009452 O
   0.2595889050067285    0.1682860547510053    0.4775962558950250 O
   0.3890228543792800    0.1404811985474176    0.3736560352404181 O
   1.0969371088274116    0.6553725885432736    0.5419430722499058 O
   0.1034197734346140    0.4778254703213006    0.4512397563975573 O
   0.4050754503508758    0.4901527207769799    0.4321402846463013 O
   0.6054873359961660    0.5948479106619463    0.5037923487014797 O
   0.5210790738327289    0.4178086167717998    0.5308218932768336 O
   0.7365198444189600    0.6570046110684495    0.3659468700809750 O
   0.2009709006627640   -0.1877662295615872    0.3742429624940544 O
   0.4391020793468576   -0.2024476290446658    0.5965776364151544 O
   0.5420943452012955   -0.0765989629474388    0.5778811026552267 O
   0.4396220712405845   -0.0573745086351303    0.3893787540194699 O
   0.9458972091042095    0.6791680665747756    0.4738909291419342 O
   0.9443214760929156    0.9241279199517711    0.5341978928122550 O
   0.7847814539947719    0.7706626207212524    0.5311491108715116 O
   1.0299029230259296    1.0672749665335399    0.6719604933866751 O
   0.7977282360216774    0.3050418320181089    0.9690828092210509 O
   0.8973351794028799    0.3331694643301959    0.8402360781570675 O
   0.3828377341480335    0.6363144357388570    0.8309755866622750 O
   0.6393177346895732    0.4464089233242724    0.6923688355166433 O
   0.7785484727141169    0.5401815057624907    0.6799921294890660 O
   0.6971279917842903    0.6076319611231669    0.8828632710055635 O
   0.3115571687782659    0.7248510907926921    0.0002233817551553 O
   0.1473127736851895    0.7061210055083896   -0.0553651840642065 O
   1.0789023290864688    0.9510574254910913    0.7851138897061277 O
   0.4001052644507670    0.0555336324002687    0.9596686166226106 O
   0.7680823656942434    0.8161710283558822    0.6932488496787064 O
