Li1 Co1 H90 C51 N3 Cl6 O45
1.0
  14.6363970458000008    0.0000000000000000    0.0000000000000000
   0.0000000000000000   14.2841018070000008    0.0000000000000000
   0.0000000000000000    0.0000000000000000   14.7631137241000001
Li Co H C N Cl O
1 1 90 51 3 6 45
direct
   0.6742815865692835    0.5236032691838403    0.3794475181042136 Li
   0.6564220000069600    0.6308107100639905    0.5693920008471961 Co
   0.0812012012232918    0.1626937720621078    1.0807799194863075 H
   0.3105704913221383    0.1462258132657959    0.0952838871520483 H
   0.1891840603281921    0.0244162641944407    1.1173975335007220 H
   0.1222133436324957   -0.0124106925934346    1.2115314693337416 H
   0.4241694866757876    0.0973672984337334    0.1252403047659051 H
   0.5436656300590994    0.2006429555196463    0.0924667307731669 H
   0.5429179050578061    0.3203186637368944    0.2065226156947368 H
   0.0234438175342110    0.1367215404851672    1.1844301404760726 H
  -0.0386151712427194    0.1383751271312960    1.0777656502182087 H
   0.8893249466360413    0.3397031517320940    0.1689316297840846 H
   0.7307114577606371    0.3590470351441118    0.0912921818044291 H
   0.9005886476332282    0.3913339794848467    0.2736507309772340 H
   1.1570247082467267    0.3939221716231779    0.1007793403143144 H
   0.1927033690650906    0.5883411163718821    0.2858486997367666 H
   0.0729819653264001    0.5568816654332320    0.1706026864772081 H
   0.3136272545310073    0.5008289985719786    0.3309760361815460 H
   0.4014145696727967    0.3893716579907319    0.0717387186668553 H
   0.7575602784622294    0.5790804710903443    0.0920596350810035 H
   0.8833733453145265    0.5604107637749490    0.0842387917170783 H
   0.8818190010364360    0.5893849341912633    0.2422149506484272 H
   0.1678851027347005    0.7041656898980403    0.2836255914810589 H
   0.1367011987608074   -0.0916043314574228    1.1249501407679805 H
  -0.0424945412695317   -0.0112534619727525    1.2088152401730503 H
  -0.0364684680683193   -0.1137996367194332    1.1328664924390519 H
   0.4551778009883755    0.6616400898843019    0.1588273927790896 H
   0.3146316000645427    0.7497345334133545    0.1762349671433295 H
   0.4896943557401454    0.8827838511568512    0.1765302977952151 H
   0.5647426067928321    0.9179838243013720   -0.0039113115958551 H
   0.6853375861772222    0.6936477026959066    0.0070254056182394 H
   0.6451309698796091    0.8665196153554690    0.2340303628806888 H
   0.7160944724922993    0.9538264699865981    0.1834949532142241 H
  -0.1012719847419924   -0.0124561977297590    1.1025138169551194 H
   0.7787553853610968    0.7963135909550717    0.0387781922431069 H
   0.1404097617240932    0.0540282065983177    0.4371677264508406 H
   0.2813611170026107    0.0293042159147081    0.5786716150641049 H
   0.1292704082691536    0.1574536805945911    0.5593375500874158 H
   0.1621405195741796    0.2694334201408426    0.5724048476511457 H
   0.3176630838280097    0.2513573798347263    0.3691211057464240 H
   0.3875429864296883    0.2407224794361899    0.5809788519137672 H
   0.6878532326088395    0.2340759292167372    0.6536511905579244 H
   0.7122157856937411    0.1422178608741415    0.7373340790791476 H
   0.7877528182394151    0.1556117726919810    0.6415663415664306 H
   0.4114327455627488    0.6560107544814560    0.3853744520583401 H
   0.8534718607735897    0.3067112278178402    0.6199157598549165 H
   0.3253712649908304    0.7320715397292602    0.4061823931025474 H
   0.2890194225028817    0.6675655587127669    0.6456928423262637 H
   0.0917618603470039    0.8366598449783786    0.5290633133408417 H
   0.0092183220554759    0.8013121551605584    0.4425338031119367 H
   0.5804271362082100    0.8395637727548996    0.6246092141827043 H
  -0.1580332216365871    0.9681857907735366    0.5207645220228557 H
  -0.1219915647760023    0.7533630429759649    0.5168745093146118 H
  -0.1601607944198723    0.8113694903672846    0.6216179752865417 H
   0.2920891670485787    0.1939754029295823   -0.0290022244562843 H
   0.1740382563911766    0.0383338351195217    0.9749411357987385 H
   0.1738817971209864   -0.0213437008934362    0.8231100219910281 H
   0.0929527271939102    0.0821146768167948    0.9012310756896988 H
   0.1988326097326730    0.2669054347982637    0.7364894063201995 H
   0.3769030728285000    0.3150232660267681   -0.0107100128641486 H
   0.5825970008204243    1.0625956471454039   -0.0699793524054141 H
   0.3826134945763155    0.2082150102040364    0.6979595940712136 H
   0.7309799664645005    0.2306175388560782    0.8684764678856138 H
   0.6820785874051380    0.3238778654764876    0.8012697783929821 H
   0.7861772938854472    0.3389666686026582    0.8618484623151992 H
   0.8437078457941650    0.0964585958652850    0.9401212455230956 H
   0.8332155094958635    0.0762921196043251    0.7959836306697816 H
   0.9480682286957968    0.0838053676510036    0.8069935031829671 H
   0.9211886627227696    0.2087981760280098    0.7017460581630499 H
   0.9197443181935901    0.2709756942227316    0.8085710836605855 H
   0.2008638473321293    0.5384425641471486    0.7433273946935604 H
   0.1204389998565831    0.5228343023878589    0.8717765847112716 H
   0.2764418735730496    0.4831055880684258    0.8630230112839369 H
   0.2679063029945069    0.5372824632024831    0.9708627278744190 H
   0.1118433051916791    0.5983711484968135    0.9681864631826756 H
   0.0736043862658904    0.6380159233417033    0.8623619041365966 H
   0.3649636590880025    0.4673712560791467    0.6542770747834802 H
   0.4323183500625064    0.5962744118307864    0.6773067693556344 H
   0.7525727122072576    0.3782796059918896    0.6609653657392569 H
   0.3556799535712141    0.5791469785972800    0.8947128030679206 H
   0.8671876679747621    0.3995522071050441    0.7102354596770006 H
   0.8315661964904523    0.5764180705758533   -0.0787803413043817 H
   0.1617073528610766    0.6527441857723801    0.7352572814216216 H
   0.0598113742720042    0.8816301209312711    0.6479030806682424 H
   0.0395345261466547   -0.0936387610906363    0.9987064475450849 H
   0.1767096788647299    0.7598632766801589    0.8716539818489062 H
   0.2443472263364335    0.7221927246727302    0.9710849032272136 H
   0.2938887902698931    0.7457951887656971    0.8643818032281630 H
   0.3430689264569308    0.7082625523252825    0.7412180835697718 H
  -0.1136309006305107    0.6391962565700579    0.6508828043784369 H
   0.6450161875329193    0.8533399277178646   -0.0651023324660186 H
  -0.0269531481733890   -0.0026046857550236    0.9748090498420466 H
   0.2628750101312723    0.3223950981113305    0.0691017410801793 C
   0.1300226425769240   -0.0156716606703474    1.1361788018145582 C
   0.3878169609595847    0.1487348964748246    0.0851098816673648 C
   0.4199546515762094    0.2465450366486596    0.1088074570256639 C
   0.4187965796855002    0.2615491302133646    0.2129968596642845 C
   0.3629057755866361    0.3220989646857114    0.0589900530724992 C
   0.0281259807595975    0.1171998370019738    1.1103380471384467 C
   0.2128661180720044    0.6519895005884144    0.2539976953492308 C
   0.9918679423817518    0.4441517912166473    0.1676134796726869 C
   0.3727381133914715    0.5843023605033313    0.2306205131063947 C
   0.8951870450562684    0.4092030764325397    0.2035537298066298 C
   0.7300227636804985    0.4235897003012729    0.2103971370910344 C
   0.8147943093086653    0.4808023280913878    0.1906987180830396 C
   0.8149330046442487    0.5288704537094454    0.0895229073486373 C
   0.8079784242457065    0.4672115680545988    0.0036771959570683 C
   0.1924375932742435    0.6600523106660885    0.1542016748393491 C
   0.3194223965823320    0.6649213602528056    0.2703946428038070 C
  -0.0371742428548105   -0.0341894508383211    1.1383822665177323 C
   0.0387699937303104   -0.0200562555749642    0.9987775707525344 C
   0.5756488427674709    0.9844675285504284    0.1690135908136217 C
   0.6133027816620942    0.7693367459838910    0.0996881071028747 C
   0.6386997423237118    0.9049784563398414   -0.0079660117843581 C
   0.6519878486378140    0.9167397838821633    0.1789349395708893 C
   0.6715322760747622    0.8612347188306482    0.0917121474103215 C
   0.2227469650828813    0.2026192785941686    0.4478137190874367 C
   0.2681372341443946    0.1652672625410111    0.6109610093550820 C
   0.1890105203516493    0.2021054205932123    0.5486202987705940 C
   0.3441839549676313    0.2406363697166836    0.6390153891925745 C
   0.7405936712280220    0.1932669229609615    0.6866672608198714 C
   0.2778233611028513    0.5915068737020238    0.4289587535834052 C
   0.3398639027169209    0.6616064860913238    0.3756569898290945 C
   0.0712773108324063    0.9383148191321203    0.4325162686836421 C
   0.0339723649299801    0.8620279083607345    0.4855918606382633 C
  -0.0249301093129819    0.7358148622512124    0.6336222179762596 C
  -0.0348041240413178    0.9563670567515439    0.6252879327909369 C
  -0.0509030313928108    0.8836113445589361    0.5477926955814338 C
  -0.0975449746158457    0.7926094728582607    0.5814204931638347 C
   0.2184761052664665    0.1304845364926346    0.7013735080287905 C
   0.1129467188220598    0.0189395460180369    0.9368529647998202 C
   0.4012362470984751    0.1219869773433070   -0.0157766946900762 C
   0.7451528533676695    0.2900976525852900    0.8232773308695045 C
   0.8857933397905688    0.1244281528873592    0.8191535395651934 C
   0.8881825889951767    0.2164269371130505    0.7670811912539387 C
   0.3167974336300578    0.3404291336762242    0.6646400647908154 C
   0.1223629706201448    0.5946922332447361    0.8963872465804464 C
   0.2863261367251969    0.5509281934439519    0.9019307925782259 C
   0.2199061020023097    0.6115011305239711    0.7572126768793478 C
   0.8176126258568512    0.3447976267633724    0.6801930168503239 C
   0.3066173326438826    0.6453478509221044    0.7117270149417990 C
   0.2368576782149267    0.7197424481014132    0.8981632946750430 C
   0.6926624762894896    0.9932248170163156   -0.0366842082247128 C
   0.0417311049836046    0.0182765711857405    1.0981095970042931 N
   0.7964516803706890    0.2611108807466090    0.7417538783992248 N
   0.2172920707021012    0.6194981331737297    0.8661483682284330 N
   0.5962733174285092    1.4941985636815196    0.5139135621311839 Cl
   0.7106682736981917    0.6736541459529797    0.4329463947477415 Cl
   0.5299233819244933    0.7092874680111133    0.6269847293115183 Cl
  -0.2400732207048392    0.5848540227713878    0.6661844544382907 Cl
   0.6223699038223313   -0.0833279972785341    0.6383156723040473 Cl
   0.8039774395896635    0.7183023855564989    0.9340520651540700 Cl
   0.2175380328735793    0.2511648581041228    0.0618607211979378 O
   0.3613623629606114    0.2395414461288150    0.2667253626632923 O
   0.5913342603795791    1.0681696763056401    0.1615876505920114 O
   0.5131718276155484    0.2615456298182627    0.0790515391204267 O
   0.4933074717163327    0.3053285717525970    0.2503473813973693 O
   0.7019612128278685    0.3624998248726077    0.1537722261391301 O
   1.0420237285156526    0.3999484518305771    0.1114823669896463 O
   0.2228754119946532    0.4051735616070578    0.0783159219462346 O
   0.1231070061888659    0.6159207293796067    0.1202359404169809 O
   1.0161970172822024    0.5229169817201653    0.2098606648977009 O
   0.3547794587323028    0.5004574666358649    0.2480118307375032 O
   0.4388418134327078    0.5950828773381061    0.1680876343890170 O
   0.6888227335014154    0.4381414028030107    0.2819132155912266 O
   0.8242057785089714    0.5536837044681531    0.2536962684224209 O
   0.7750024125612941    0.3890027163469936    0.0008214298370000 O
   0.2356756933353238    0.7221199164546112    0.1062727613849392 O
   0.6417742694671876    0.6890215805292600    0.0611589722177693 O
   0.3474948790870276    0.7547330976188413    0.2382462756727441 O
   0.4878304407401197    0.9540581961423428    0.1740525007204499 O
   0.5457802215055566    0.7668059603252307    0.1496877219398863 O
   0.7628942414420326    0.8392424364845468    0.0946756143873848 O
   0.1914646762403970    0.1512320783405069    0.3945547647303719 O
   0.2948459930538953    0.2562110276829953    0.4303744440935908 O
   0.3165200429588909    0.0892911868546724    0.5712943773055006 O
   0.0360042857576905    0.9418271155773482    0.6747415923402884 O
  -0.0841844461068084    1.0287734295129838    0.6316043509763346 O
   0.2831627899086875    0.5029420470791803    0.3971917423170478 O
   0.2349166267450123    0.6153389637136740    0.4964823138993216 O
   0.3668343380477440    0.4009726674373877    0.6232544864217612 O
   0.1295143207558694    0.9977417268557836    0.4780765761208189 O
   0.0521510190869709    0.9497324078754376    0.3512075405634719 O
  -0.1144275447747979    0.9259017180218280    0.4860119617169318 O
   0.2088077422426165    0.0473557534551112    0.7191604061660944 O
   0.1706446616530335    0.2007248647650303    0.7508806793246993 O
   0.1354966673488190   -0.0507827237792803    0.8725900987317180 O
   0.6493943141852286    1.0563600433109122   -0.0816923286265292 O
   0.3334367745305484    0.1552008263070201   -0.0670951370023660 O
   0.4648487602795910    0.0757369569411667   -0.0473174664203561 O
   0.7748732824212682    0.9993330064690990   -0.0262304514573945 O
   0.8730367850581611    0.1504612913390726    0.9127909676738273 O
   0.2460259181567713    0.3602903754843001    0.7093088258885154 O
   0.3745322707867532    0.5732950180659545    0.7030574346356430 O
   0.8323628406347395    0.5041521336659008   -0.0740381167772000 O
   0.0564929346418127    0.7630892408060530    0.6406728986080885 O
  -0.0494593700918854    0.6531922363454209    0.6651880521701168 O
