Li1 Co1 H110 Cl3 O55
1.0
  12.7388993447000001    0.0000000000000000    0.0000000000000000
   0.0000000000000000   11.7879695957999999    0.0000000000000000
   0.0000000000000000    0.0000000000000000   12.9989492940000009
Li Co H Cl O
1 1 110 3 55
direct
   0.3855709617835646    0.7946243601813684    0.2287852717736741 Li
   0.4881645975943183    0.3051023985658590    0.6178374855810095 Co
   0.0878172157679722    0.1719233988033086    0.2698308969186444 H
   0.1505592924869105    0.2291673537114061    0.1859648878018002 H
   1.0463446889503547    0.3415599069185377    0.2475852527931247 H
   0.0758505618306819    0.0939877549645826    1.1053876603420805 H
   1.2214854086961502    0.0627611728964415    0.2964699730599626 H
   0.3043653590067132    0.1700265496624721    0.1444569175961584 H
   0.3260571859473953    0.4143536135044227    0.3170131718955222 H
   0.3276774201168871    0.3839293748698252    0.0901867620593859 H
   0.1575905121846519    0.4693715701363329    0.3066084847980483 H
   0.3394421727807311    0.2740733059789285    0.2194098986382275 H
   0.5149118063429108    0.4026196164936668    0.0139799104442910 H
   0.5065107665745476    0.4469605859670044    0.2457043315396442 H
   0.6134156068711778    0.3239546697898347    0.0265642121674700 H
   0.5859603306706077    0.4700799194353484    0.1525198769653728 H
   0.6246230115406715    0.1351223198325447    0.0564236485897012 H
   0.6348169848570575    0.4299848041435342    0.3271455292900383 H
   0.4966708269841503    0.0174515887768574    0.0524701752098395 H
   0.4338498580491104    1.0489344833656107    0.3113696388421345 H
   0.9997315566904591    0.4551206002271593    0.1889466672613055 H
   0.6679368006734479    1.1784309150957948    0.2377513810617377 H
   0.9075414884418542    0.1243367473922069    1.0530603541409582 H
   0.7348052150435169    0.1764950088301279    0.0666650917239896 H
   0.9648855320859326    0.4664448574637543    1.0206808140350299 H
   0.7328717670011436    1.1063319846487043    0.3304204093620491 H
   0.0986007219628895    0.7484433791756183    0.0527400431753696 H
   1.0302757967752105    0.5842446183737890    1.0525680066553846 H
   0.2714582774247862    0.6066080964823454    0.2362674149685009 H
   0.2283383825942697    0.6585059229085325    0.1309827516433114 H
   1.0737096904757835    0.8528337061101601    0.2744497317676821 H
   0.0286227767826504    0.9135761430651314    0.1174108854862958 H
   0.3568753900462711    0.5129880721828931    0.1135328797444573 H
   0.6278383599700506    0.7614922760827504    0.0203441171296871 H
   0.5933942539191966   -0.0633037094332068    0.0231567290703211 H
   0.5413913310547802    0.6509261612478107    0.2260704369665033 H
   0.6087982534869962    0.7793520099655905    0.1405996827638675 H
   0.5710461693400964    0.7504852914663130    0.3011449662940734 H
  -0.0298840831769650    0.8075697617418178    0.1577010649580890 H
   0.7899371366480469    0.7468018751114329    0.1135536506540049 H
   0.8788812415774421    0.6470315125869964    0.0966895953336888 H
   0.8731821620859157    0.6773683740026736    0.2725318844527835 H
   1.1171357342046053    0.0070151010509446    0.3554162757702653 H
   0.1920432532044324    0.1777657959557867    0.4467182705051638 H
   0.1885390258146012    0.2351429374985494    0.5669995305237475 H
   0.1812534670321140    0.4422820873034475    0.5495750452921183 H
  -0.3608145573041455    1.1330371773828425    0.6465482676264680 H
   0.3436419076677376    0.2380840716538625    0.4837451092991393 H
   0.3637558902863854    0.4934070919195711    0.5540677160979777 H
   0.5376837893965875    1.0997235522662732    0.3524744995439629 H
   0.4271954369954368    0.3541651311509570    0.3732723343447177 H
   0.4424675570378125    0.1660810016508305    0.4521610180995910 H
   0.6496455814954782    0.3784882342663702    0.5077793595245945 H
   0.9427329118034428    0.4294537542499011    0.3410712702023099 H
   0.6701999475293805    0.4142246684823266    0.6276128910484846 H
   0.6757129826903986    0.3112943045940190    0.3580572584546001 H
   0.7595922858457814    1.2339536236234105    0.6133678935635365 H
   0.8169897092977695    0.4361461705611978    0.3774672887803942 H
   0.7824325636536953    1.0515049005823971    0.5107603696911535 H
   0.8959941799955244    0.4338650313216140    0.5217966462974649 H
   0.9584721051650276    0.3971912007279186    0.6231017572119163 H
   0.2144918174219507    0.5149010394514916    0.4005399228230884 H
   0.2462237582326911    0.8401529811740134    0.3349692385529817 H
   1.0310293940633461    0.8552217339864816    0.3948486936070357 H
   0.1981976310575409    0.5653066665759205    0.5908229944819414 H
   0.3377167489897703    0.8475232071738290    0.4219078036969839 H
   0.4484759254163447   -0.0584606362019745    0.5182448207648189 H
   0.4811812627242604    0.5370015375807727    0.5723161140749965 H
   0.4577899168993974   -0.1777568380263365    0.5535299803285777 H
   0.6351561036367186    0.7779616093654872    0.4284860276800153 H
  -0.3112082308154356    0.5935422331249376    0.6292430228015011 H
  -0.2064401528295404    0.5145506822532959    0.6616279479580528 H
   0.9911358376226608    0.8184138684356073    0.6060526869380370 H
   0.8669806844022986    0.5949156672747651    0.3624083793583570 H
  -0.0984685013718931    0.8996297209384087    0.4694908802988365 H
   0.7329439867412566    0.9388900868766524    0.4515832790969881 H
  -0.0974652749820624    0.7706643391018577    0.4376421523257924 H
   0.7310976733853241    0.7445996298656317    0.3609451841746679 H
   0.1519660074247639    0.2852016007148379   -0.2726414091511110 H
   0.0057226821899908    0.3988394913722144    0.8117023851974108 H
   0.0650563011744651    0.4805507642230697    0.7266778209035761 H
   0.0858723852665594    0.0525841870274974    0.9896321507260430 H
   0.1957586448343766    0.1565000471800759   -0.2466300760538992 H
   0.4127734688937392    0.3962181748046005    0.7946425448222845 H
  -0.4590090689454068    1.0972719002014173    0.7088333017233169 H
   0.4999293502581623    1.0085882646097144    0.8749228795168495 H
   0.3348381643485269    0.2888409042990009    0.7563032922620768 H
  -0.3122632670188257    0.4705897612661367    0.9495904528758753 H
  -0.1495043077165354    0.4083907545549864    0.9027482053812217 H
   0.8771071479616225    0.1395565016121298    0.9440207719453235 H
  -0.1180455459227442    0.3139342842569363    0.9783773949230083 H
   0.9776181862667260    0.1007337004264994    0.8073635729807931 H
   0.8124108207751698    1.1632289756486613    0.7021604547079018 H
   0.8792266403345044    0.0187866787490616    0.8121331892472877 H
   0.2651280602044461    0.7690270766502413    0.8012807736551202 H
   0.1640212090434102    0.6226363020579110    0.7561771282188986 H
   0.2660056870462541   -0.0608961701390682    0.7644831841591150 H
   0.1681683491196821    0.6773259578769841   -0.0260707881333474 H
   0.3027380598626452    0.6563019810177037    0.8428895212367153 H
   0.3301776361197124   -0.1075717231703585    0.6706509849241357 H
   1.0619739827074197    0.8460335528396121    0.7020004417750904 H
   0.0683784877193810    0.6675210462625886    0.6857652834382999 H
   0.3633712416705661    0.5056577173412258    0.9347815636613559 H
   0.4363100391960034    0.9383217107924126    0.7906514530173533 H
   0.4593740411988326    0.5856451988440580    0.8855622009629173 H
   0.5949940781621348   -0.1148885048518052    0.7664941159205048 H
   0.6113581292751322    0.7309195810082393    0.8569445033639500 H
   0.6142641888175057   -0.2309152717080170    0.7054684143765997 H
   0.6354952224163797    0.6286212173927059    0.9292657332370389 H
  -0.2862021458013067    0.5084402151864600    0.8315886078569080 H
   0.7816985912949381   -0.1501541200726075   -0.2252629644729499 H
   0.9002567146565421   -0.1681020794968821   -0.2454669051192315 H
   0.3572985035236723    1.0068576866815810    0.1721406935584281 Cl
   0.5636617009135414   -0.3254955970930805    0.5451016068099142 Cl
   1.1276939462102571    1.0009533619855961    0.7858879910944284 Cl
   0.0708244604174041    0.2113220413113003    0.2000991071024944 O
   1.0306368954757754    0.4258339620835553    0.2541234735429532 O
   0.0424018007980202    0.0425951724611590    1.0494523702232390 O
   0.2861542095406082    0.2467327196819609    0.1654801552301524 O
   0.2277347197665859    0.4995336771141691    0.3263085385645632 O
   0.5919616340745637    0.4053435800854494    0.0227485422330627 O
   0.3707980999445788    0.4497719267777075    0.0667647151605236 O
   0.3964463126479734    0.3767398415654471    0.3047521809188465 O
   0.6638885702412437    0.1935853141929598    0.0900581362787797 O
   0.5707266754898138    0.4945429957655372    0.2249103432036204 O
   0.5550918867525229    0.0083452707525688    0.0056034641994966 O
   0.6747945359954830    1.1595557391639468    0.3150576292262595 O
   0.8484312011537076    0.1619640924914032    1.0122493633445815 O
   0.1299099417948163    0.6772080410475672    0.0387094860991770 O
   0.0417139234733873    0.8372610497245002    0.1454762307498851 O
   0.2916028749332645    0.6471010750331273    0.1752194039291557 O
   0.5334887644926318    0.7322115761967429    0.2355935143476220 O
   0.6555730951649710    0.8056864857612021    0.0784405049930184 O
   0.9743211981311323    0.5253413446287165    1.0747621081535084 O
   0.8615328040068174    0.7165311828518315    0.1375478976462572 O
   1.1623515714927493    0.0824205381600379    0.3421944379037747 O
   0.2148497761338152    0.2402481423865432    0.4918611498816421 O
  -0.4363776003860805    1.1586819669747421    0.6623349281756186 O
   0.4697438538824504    1.0673770148154254    0.3745978260910354 O
   0.4208016350039102    0.2384539402698753    0.4917796048293440 O
   0.6333451151536674    0.3536120248719653    0.5792051324082962 O
   0.4318284903231213    0.4642493987980634    0.5719760865927722 O
   0.6789181261565008    0.3914989566603816    0.3817968694816573 O
   0.7726106789983261    1.1581135908905023    0.6352835110151326 O
   0.8891097547695345    0.4550060766877975    0.3940201651039688 O
   0.8887172561819636    0.4248600878377233    0.5985997768751662 O
   1.0883420378204192    0.8825122692551355    0.3424783070009258 O
   0.2118911217807073    0.5126954009156353    0.5304173430526807 O
   0.3159597672835516    0.8187158712505169    0.3547400672705478 O
   0.4096947099728346   -0.1178372739097424    0.5470702274592625 O
   0.7902825354051092    0.9979163673862247    0.4514501914172940 O
   0.6826311627949195    0.8054633769400751    0.3771211069546002 O
   0.8529056850520136    0.6772962665890014    0.3483803224842397 O
  -0.0582177712165183    0.8296134222626750    0.4790162655587938 O
   0.0512848602318072    0.3991618539274550    0.7460239999148348 O
   0.2098728940434188    0.2318590810476648   -0.2853909011486294 O
   0.4080069660462806    0.3193219805420224    0.7565179249940690 O
  -0.0900078018182192    0.3813445361703043    0.9426514305010718 O
   0.8987652200237735    0.1022623775963506    0.8092406477695426 O
   0.2414941502524642    0.7056480533224078    0.8402662322901433 O
   0.3162643461875065   -0.1172621112453922    0.7413713161761640 O
   0.1178874745583733    0.6080901159139380    0.6956799309290389 O
   1.0113573648543031    0.7925425767325255    0.6726088354722372 O
   0.4952484121027941    0.9868712082566670    0.8014754047705110 O
   0.3987447843767874    0.5344845646823551    0.8645835823198034 O
   0.5829561464813416    0.6822385935543472    0.9114873732501536 O
   0.6430374752751381   -0.1826686253811859    0.7619137457187776 O
  -0.2646186484707942    0.5112227130316942    0.9034251831738853 O
  -0.2795924695866162    0.5399630314764169    0.6820703694176591 O
   0.8508568424248946   -0.1175870187681741   -0.2044320500755082 O
