Li1 Co1 H90 C51 N3 Cl6 O45
1.0
  13.1394261681000000    0.0000000000000000    0.0000000000000000
   0.0000000000000000   12.8231627280999998    0.0000000000000000
   0.0000000000000000    0.0000000000000000   13.2531826091999996
Li Co H C N Cl O
1 1 90 51 3 6 45
direct
   0.7683560494910011    0.5185476473388901    0.3305871075494424 Li
   0.3683773949619839    0.7053154557791452    0.5184561555675090 Co
   0.1257008914978234    0.1362140449385693    0.2947006330304960 H
   1.1415877216553527    0.2362416299577647    0.0895046374579158 H
   0.3133924975427938    0.0735126648618670    0.2397440221184574 H
   0.9885597298484049    0.2773274378174348    0.1279142795046971 H
   0.3727345106584815    0.0623017020870617    0.1189164407578576 H
   0.6086481617070825    0.1983929330106026    0.1758514443905849 H
   0.6200063441794894    0.0634925159544190    0.1813067378194863 H
   0.4176603690976525    0.2445118205689785    0.1436561587311385 H
   0.8081896003100385    1.1021340962265129    0.0407103199668784 H
   0.1448935104732429    0.6437549798857721    0.2326528951966295 H
   0.2743063157392955    0.5022249971130349    0.2419193486683223 H
   1.0334163310773785    0.3962996471193475    0.1862934645513826 H
   0.5295490452994526    0.5335210204505990    0.2635488703049598 H
   0.3688112038610238    0.5048900182723713    0.3491652866374662 H
   0.5925919049648972    0.6525843149258630    0.1867250589969333 H
   1.0086024620522940    0.5283665198487187    0.0253841899353643 H
   0.6848896951792295    0.4111344428739972    0.1923222051457011 H
   0.8847408885574648    0.6595981852094328    0.0462176763621138 H
   0.2362932401597380    0.7435072818040002    0.1991643352720190 H
   0.1628844026914975   -0.1317627461903347    1.0562135690247592 H
   0.1119537158077210    0.9301944549109976    0.3481813720273296 H
   0.2824680115871978   -0.0103005115587090    0.9889761343438684 H
   0.3791358556581743   -0.1886948787289171    1.0055834660686431 H
   0.6668607495487784    0.8706701381582072    0.1090712583705400 H
   0.3645195400335041    0.7815096069973112    0.3229768600357633 H
   0.9246634843610420    0.8763333276177673    0.1446513913774347 H
   0.8948341756084607    0.7827737257130846    0.2536093709496460 H
   0.2515884286579935    0.2296270371464194    0.4997559831404002 H
   0.3026523024844577    0.1045424512286939    0.5421928842670458 H
   0.0843261774848284    0.2496221043101651    0.6600325040815255 H
   0.2125098575369345    0.3557761030438061    0.6064914022251742 H
   0.5395357827962982    0.2648414385834748    0.3463667135630823 H
   0.5134514853836694    1.0607199762265958    0.6124839251037820 H
   0.6150358074783846    1.1415604070922496    0.5628944023921749 H
   0.8415966908773332    1.0542387358522629    0.3151093158333904 H
  -0.0137420321549788    0.1776523399416876    0.5873581866438862 H
  -0.0802312371494104    0.2731638783951555    0.4504758955373950 H
   0.7869032825955683    1.0657054857577122    0.5455950859366056 H
   0.6761062065760366    0.9778948555820129    0.4488162187149592 H
   0.1507712405211121    0.4703254097278088    0.4420094763150334 H
  -0.1331840823573081    0.5216070329859296    0.6394291510566867 H
   0.0765130508926460    0.0053212195420771    0.6194022633402411 H
   0.0033135071914861    0.6738052887035483    0.3883898272877349 H
   0.0064940113828684    0.7004866938494294    0.5749470545520506 H
   0.4281250574516861   -0.0389861024538424    0.3555343228523151 H
   0.5535625749592205    0.9354271733458156    0.5078492014384369 H
  -0.2538004608600210    0.6630793856703907    0.5708794278098840 H
   0.6672055134632785    0.8561292636521541    0.5156938077541930 H
  -0.0902910371976734    0.7832213531917115    0.5312178600567079 H
   0.0970390614314304    0.0686737650275830    0.8691422765580769 H
   0.2904995647653880    0.0261897061763140    0.8608793556258638 H
   0.0239491115573964   -0.0240436109591259    0.9331865159704873 H
   0.1168588006398480    0.0458237079696691    1.0007144469128062 H
   0.5307928591305069    0.0781940372559374   -0.0782935485005465 H
   0.4670551441583544    1.1406916666546361    0.7705704815016094 H
   0.6786291478046635    1.1292654683674597    0.7608565883337426 H
   0.6083612389791210    1.2286489065271677    0.7112300179171065 H
   0.8092573790562718    0.2769499958319725   -0.1729221397590279 H
   0.8015218814249703    1.0665399132875564    0.6799680929729508 H
   0.8078212432799765    0.9456797142195194    0.6180093903568727 H
   0.2094404693091659    0.5340015571271318    0.7832572455007173 H
   0.2595697513320844    0.4274648135041005    0.9218141532373748 H
   0.3088184773967763    0.3931960446116145    0.7983207970933298 H
   0.4153391109536669    0.5339488400233772    0.9664472061004190 H
   0.5817577940852602    0.4262564532634522    0.7120298258057144 H
   0.4473561864802484    0.4520903295874318    0.6999240543294634 H
   0.4364070020821292    0.4019225968961601    0.9527297462750484 H
   0.4844523270395193    0.3495405118955491    0.7830663479574930 H
   0.6211007603142604    0.4282773275633013    0.9113525151472339 H
   0.6634998721835849    0.5378042851306643    0.8387782491492451 H
   0.4309965679360329    0.6252228903350994    0.7479879812203380 H
   0.5916887452798258    0.5618297932313205    0.9542795626931624 H
   0.9375377147753570    0.3822095194471730   -0.0763672187461917 H
  -0.1488331675889909    0.5569004320947357    0.7672218518698716 H
  -0.0357559311106458    0.4055925963337303    0.7180344212562259 H
   0.8132956071585630    0.4410854002270049   -0.0463797046736009 H
   0.1597800053245082   -0.0445986023905615    0.7429107101991654 H
   0.1922547872929891   -0.1713972740191261    0.7721414249205545 H
   0.0677569607462346   -0.1272747738218730    0.7924293820044138 H
   0.0816068806492676   -0.1966008846144887    0.9710325198165233 H
   0.2106239304284766   -0.2248365085145565    0.9618158657039325 H
   0.5625605325935528    0.6098124955526197    0.7327637135142600 H
   0.5139044427597266    0.6757782809002829    0.8381995202336203 H
   0.4396910115546859   -0.0622206200465351    0.8852651963352229 H
   0.3611373527574805   -0.1366180226396904    0.7985101855650663 H
   0.5547904824639767    0.8978631175653762    0.6821826553815021 H
   0.6531493440661407    0.9494533542353292    0.7665291880569074 H
   0.6786131653715410    0.8478551738468755    0.6734519222880279 H
  -0.1649213891974211    0.8164261100078241    0.8803584503921875 H
   0.6894926359185163    0.8137559419123223   -0.0050718908342317 H
   0.5308541251241433    0.1415855746820903    0.0562545108283997 C
   0.5646559056827400    0.1258819605059458    0.1636936099479999 C
   0.4660251143970199    0.1309852256978160    0.2287262911850108 C
   0.3843385181736778    0.0533117202515056    0.2007201879760847 C
   0.8402648214504563    0.2703884320599071   -0.0197566654833714 C
   1.0085872406874155    0.3573287621203668    0.1158183169931177 C
   1.1023249720192625    0.3716824753113148    0.0535706271870992 C
   0.2798773352848610    0.6450417139271210    0.3334120893748652 C
   0.2026426077543857    0.6987071016783036    0.2615538777979037 C
   0.3344778932408665    0.5445711804621765    0.2854688882030258 C
   0.4057663945815189    0.5903180849067805    0.2019583811319391 C
   0.8775343333556943    0.3837153881949574   -0.0174319408562005 C
   0.8311038429982743    0.4180018594284972    0.1637713271296288 C
   0.9203010411868368    0.4203356050600972    0.0805007624251244 C
   0.1397212906874966    0.7798126777403568    0.3185054812169983 C
   0.3934256730061986   -0.0621707103625070    0.2047312999910280 C
   0.7776327103162605    0.9449419867024794    0.0146629915492978 C
   0.7451830435998291    0.6982430975846051    0.1690470410514654 C
   0.7256677316889836    0.8493165917823224    0.0565668886264032 C
   0.8027616615943317    0.7812397827680344    0.1098725753306359 C
   0.8649652913071951    0.8383411403290245    0.1904751016444630 C
   0.8100488900299588    0.9178191927884749    0.2530321511055091 C
   0.2899729055405886    0.2265591512563190    0.6516111306430787 C
   0.1383087480267631    0.1321019548779440    0.5583063723473924 C
   0.1142308319935587    0.0910761946068702    0.4446214526999336 C
   0.0597703105944362    0.2163307853858163    0.5885210016789181 C
   0.2500678143066219    0.1704138760799916    0.5577834790768212 C
   0.0568683573803322    0.3091549992898978    0.5210002916436689 C
   0.4758215087260588    0.1290831988330587    0.3459185193311642 C
   0.5889635882187867    1.0889446823832825    0.6250891992425412 C
   0.2262319179749872    0.5940932846002164    0.4224646614854100 C
  -0.1172039324395159    0.6365321128003348    0.4732169992320489 C
   0.6377065083285629    0.9369322622547870    0.5095505210885826 C
  -0.0780287056514778    0.7037939902551020    0.5600572725412742 C
   0.0994242493079061    0.0107348605814968    0.9289701702331843 C
   0.6060163877195736    1.1446672849229971    0.7261811436838675 C
   0.7688431331671162    1.0227145316780331    0.6158016187700172 C
   0.3140782200305745    0.4560703149531452    0.8558337751059379 C
   0.5008672752450686    0.6090630704533857    0.7860777001116762 C
   0.5063140884532248    0.4246955278954743    0.7505134123554049 C
   0.6028442552788744    0.5077847019621181    0.8909234598792523 C
   0.4132986869916913    0.4738174655450429    0.9091432344888905 C
   0.0095458950410265    0.5554928230373816    0.7145522387978055 C
  -0.1061067963747768    0.5769142153899919    0.6988088504998761 C
   0.2805417478618116   -0.0366224110118255    0.9103912366094165 C
   0.1476440111068049   -0.1066995065813010    0.7958768558186117 C
   0.1550453997790214   -0.1647546070105151    0.9831081098630156 C
   0.6351226816404214    0.9168638902426252    0.6909314973328317 C
   0.3666687967543616   -0.1132431340606688    0.8772505176627760 C
  -0.1230869899650926    0.7768032797612268    0.7446710420898469 C
  -0.1351849307705993    0.6892211423577185    0.6610579181575803 C
   0.6593292182068500    0.9952837014329178    0.6109778717588185 N
   0.5021501318770365    0.5081312623305880    0.8361773644397813 N
   0.1731907888507936   -0.0740944458123382    0.9027311897366352 N
   0.1136425262410010    0.0875419651066324    0.1784455382783529 Cl
   0.6065727286058861    1.4151668546117575    0.3155273286355497 Cl
   0.8315582007399004    1.1891461714577631    0.4225242698091836 Cl
   0.5156922148967648    0.6180998426177181    0.5259595004569826 Cl
   0.3503804141977779    0.8540642504754926    0.6077228045593329 Cl
   0.8383172478142401    0.3279358574218981    0.7081469848672460 Cl
   0.4949366509542463    0.2241237146435117    0.0227267150451028 O
   0.4115718231462148    0.2298609887903010    0.2163526595196505 O
   0.8319364516571335    0.2173547137472047    0.0573787690869147 O
   1.1686627244331522    0.2937968537078851    0.0439397329510690 O
   0.5021177103698451    0.5994336207912199    0.2323291993624665 O
   0.3774949925242618    0.6176631328824725    0.1182750853754833 O
   0.6471886575796831    0.6898535916350117    0.1416068396505167 O
   0.9482063694187636    0.5319541683076429    0.0683836729127138 O
   0.8596165036888571    0.4337656771610006    0.2526058384101662 O
   0.7362176596863372    0.4239194323088378    0.1293079070238093 O
   0.7815309018616685    0.6419402949680640    0.2347052324202273 O
   0.1476653210176350    0.8817742630156399    0.2919767589947651 O
   0.3792249006427141   -0.1187948065699787    0.1324958205420816 O
   0.4034862341227055   -0.1011408155226747    0.2957947098592522 O
   0.3546066261563195    0.7162909072324433    0.3709532607803374 O
   0.7474746200823016    1.0383541990715166    0.0516405247540245 O
   0.8579345428697724    0.7339137047272297    0.0302011461248674 O
   0.7241821264768328    0.9052271354759552    0.2906261400130591 O
   0.1266918023514199    0.1645019180391040    0.3735481092038495 O
   0.1359570471530203    0.0460701370345577    0.6275089953734522 O
   0.0939445579516122   -0.0002951795887067    0.4384809653619332 O
   0.4451783897002435    0.0554547173094608    0.4016160843437812 O
   0.5260959264630947    0.2053717105475902    0.3902165583238857 O
  -0.0224760513223162    0.3372221780063710    0.4683654853054720 O
   0.1359319319009706    0.3675142368561580    0.5173156521544264 O
   0.1547896808490610    0.5331425646746799    0.3926657813488117 O
   0.2589091440963534    0.5989984707336001    0.5085753666384335 O
  -0.2036003994904171    0.6018659380487753    0.4721934714953539 O
  -0.0580445757023714    0.6215997592101866    0.3938564387527959 O
   0.0803092592933674    0.7525214386427576    0.3844858593484353 O
   0.8718308879356851    0.9960744579892375    0.2759821102940938 O
  -0.2423281181510245    0.6924262798788962    0.6390699920425572 O
   0.3509801359739945    0.1830737793692368    0.7089098205043994 O
   0.2659261933053854    0.3261016765338666    0.6583385713363132 O
   0.5308714013732805    1.1320736679328518    0.8011072975958101 O
   0.5412610483984626    0.0581810337994942   -0.0033915397324110 O
   0.8039504501913500    0.2378473180736052   -0.1058756026213616 O
   0.0775709357517083    0.6203317413003484    0.7233312621788937 O
   0.2750788000068841    0.5477342066874554    0.8133971757935899 O
   1.1200784109454109    0.4553919331697699    0.0085414430584710 O
   0.0274987338470846    0.4493484163211396    0.7233538982512129 O
   0.3774942314560179   -0.2067270916004964    0.9338640890685722 O
  -0.1729141278951710    0.7646877039634127    0.8279831062602696 O
  -0.0723922342369343    0.8518019380791577    0.7234678331485523 O
   0.8340134068948175    0.9360627419783605   -0.0598904217051237 O
