Li1 Co1 H90 C51 N3 Cl6 O45
1.0
  14.2382904790999998    0.0000000000000000    0.0000000000000000
   0.0000000000000000   13.8955775882000001    0.0000000000000000
   0.0000000000000000    0.0000000000000000   14.3615604935000007
Li Co H C N Cl O
1 1 90 51 3 6 45
direct
   0.5837963304935619    0.6473500102463340    0.3988905139795071 Li
   0.7040135716372612    0.6784080930975633    0.6267028050937479 Co
   0.1938540120565421    0.2745040477726631    0.1632754496185349 H
   0.0679877781409885    0.2315234666338718    0.3319493204765367 H
   0.3671887254916062    0.1204147350823973    0.1592403727878361 H
   0.3946007241843503    0.0961876025387396    0.0384874782270470 H
   0.5375888169605478    0.0656483898067433    0.0802677569280678 H
   0.7447495013369242    0.2533951735183763    0.0199818290588883 H
   0.8421066947468189    1.0719275395035570    0.3018161047862316 H
   0.7214566769289084    1.0241950868012497    0.2020553579893605 H
   0.7035310698924003    0.3321274171445096    0.2911919111222451 H
   0.8936416736880816    1.0039584324977400    0.1506417250255758 H
   0.3274121806296139    0.5483552047934007    0.2836732295660960 H
   0.1443010126261921    0.5055163953792818    0.3373992853348419 H
   0.3901521564231450    0.3283492366646580    0.1281866443157910 H
   0.3683545957921431    0.6132765795454708    0.1343823498618750 H
   0.6332691236658872    0.3830558507060590    0.1148886465051466 H
   0.6692874926374138    0.5895740743484440    0.2072295867950417 H
   0.7364114216935663    0.4206741502464752    0.0514561246415015 H
   0.8571611705853782    0.4236625830580240    0.2417049490110132 H
   0.8601762797421282    0.5438436974737455    0.2562416701489765 H
   0.8179148860106782    0.6051754409432444    0.1061911236937129 H
   0.1081765915972069    0.7649133133642444    0.1945436394648432 H
   0.1906022171821531    0.7464808301965421    0.0858883160613552 H
   0.3114650414464868    0.8284378408189067    0.3062118666554638 H
   0.3370692388418924    0.8631647168294280    0.1940993980467266 H
   0.4258558808798281    0.7185503611292051    0.1506904662469992 H
   0.6381362810048755    0.9581891943381060    0.0143389882243788 H
   0.6786165620362281    0.9021512214609476    0.1612861114812948 H
   0.9857152271757237    0.8564165266657007    0.1952051274698758 H
   0.7436917900883648    0.8420853483655552    0.3426904930719393 H
   0.1866986586698735    0.1601583151167367    0.5501833349082219 H
   0.1896196554047729    0.1336765083933886    0.4317755197707477 H
   0.0005618465371066    0.2602196469451253    0.6496104828596075 H
   0.1748271492180812    0.3531024358617960    0.5541746839002721 H
   0.0017410611362641    0.3230245209750539    0.3909812063488071 H
   0.5676138400226579    1.0606491310311317    0.6404589703857726 H
   0.4826284267965270    0.2315436169297644    0.6147674725734705 H
   0.4723145481595122    0.9353027761247270    0.6176640937323500 H
   0.3413977079155123    0.1479263658565392    0.4215092259326422 H
   0.5715089705568613    0.2110788324906141    0.4577420573325108 H
   0.6345796742567316    0.0561871062317703    0.4926730803384753 H
   0.6720961163312976    0.2075374179874999    0.5172931695105421 H
   0.4534425494182008    0.3700992104471548    0.5219341763168822 H
   0.5583960901675997    0.3580306225143718    0.4534984377044360 H
   0.5329256166910028    0.4678968724280438    0.5214113222716412 H
   0.7130666247540808    0.3935440797181269    0.5571719904965493 H
   0.3282100292208247    0.8684887128656075    0.6247998085487435 H
   0.2437694145441674    0.9752917579769006    0.3164628418239792 H
   0.4518592132702909    0.7594590600581883    0.6962328537574668 H
   0.5559221976696412    0.8948863201382616    0.6973239608141890 H
  -0.1793073592330149   -0.1314898710976635    0.6994971229865118 H
   0.8599255473943621    0.8805817690148313    0.3710732026099792 H
  -0.2322160986006934   -0.0119345673000903    0.6681210061499087 H
  -0.2525977589148988   -0.0674479128306178    0.7819498620559147 H
   0.2574445113042602    0.1125705127528007   -0.0819158721458196 H
   0.2776386491062707    0.3095180654996531   -0.0633183109601195 H
   0.2404796937684356    0.9270598657978281    0.7074885943904685 H
   0.3944602578830808    0.3146455961508802   -0.0454295863945490 H
   0.3751953046639681    1.0055035284006431    0.7696935337774058 H
   0.5941155468500250    0.2246255885578000    0.6692100242971413 H
  -0.0680369786823757    0.0601574341760257    0.6464137550373923 H
  -0.0900466434282946    0.1089240288496754    0.8495817882967718 H
  -0.2115886222592665    0.0740870458651699    0.8466294628848369 H
  -0.1573974255609974    0.1359628473237673    0.7501538744119066 H
  -0.2036241829772855    0.3290660114756927    0.8223869719551377 H
   0.0073737598171713    0.0478693519486990    0.7461786796532425 H
   0.2303520734469042    0.5178840712753842    0.7899608299484409 H
   0.0883862944113462    0.4675496468471441    0.7090845212405051 H
   0.0046690811862269    0.5614780849934183    0.6964194630052023 H
   0.5602298074975225    0.3608027275064458    0.7549869146676236 H
   0.4996907279454326    0.4577062920724457    0.6884614141530788 H
   0.4477959445734680    0.3430121751936057    0.7005387925186474 H
   0.6647096958790406    0.4636737302356794    0.6510232819777245 H
   0.0328768214756628    0.4048060081271261    1.0095170544567116 H
   0.7047748989901419    0.3512788340835209    0.6765128518727009 H
  -0.0356215703384118    0.5925822256638306    0.9375436779933513 H
  -0.1033691697722009    0.4291557696143583    0.8985270265470402 H
  -0.1139483892523138    0.4920054060873053    0.7973082209264447 H
   0.0259904610559253   -0.0666598923305345    0.5834477562930859 H
   0.0803403846746289   -0.1833761633675335    0.7026973323245431 H
   0.2516706439905771    0.8009837823187435    0.7038838329146226 H
   0.2537425219343024    0.7961390754634367    0.8517410244058308 H
   0.3655319254681325    0.7082557188883906    0.7660623127813585 H
   0.2756517532748136    0.9261934030744488    0.8712333351562329 H
  -0.0571627799695969   -0.1415211201850256    0.6418279024046085 H
   0.3618285314351619    0.8419140708504687    0.9126174173573973 H
   0.4677246010660792    0.9446150914407803    0.8354475303871336 H
   0.4681786583849328    0.7604413869829497    0.8190287017990618 H
  -0.0144315264604005   -0.0490614874820983    0.8667080608986468 H
  -0.0780880448697152   -0.1459009309279544    0.8151885898540568 H
  -0.1423998385744522   -0.0731698772106749    0.9028719582853595 H
   0.2192320587069038    0.1922296699899909    0.0581009457278446 C
   0.3187278515536266    0.2358932022288544    0.0526844034213725 C
   0.3894203269935310    0.1547673913120571    0.0909852552159220 C
   0.4885738736972106    0.1938647225709857    0.1078845329865964 C
   0.7421986333058700    0.2915929379963879    0.1480674922312543 C
   0.2019090521028419    0.6606765523655515    0.2320458315312112 C
   0.4252343174967105    0.6325208317762728    0.2738644069062076 C
   0.6839016066214932    0.4720770369178831    0.2859821708552412 C
   0.7093168768416913    0.3933828773509866    0.1179294024188069 C
   0.7322156932746462    0.4738577401555097    0.1845892894438477 C
   0.8924364728231892    0.5007061599230198    0.1151288710964479 C
   0.8358720979649719    0.4903562482991857    0.2079265862613970 C
   0.2815843475089311    0.7232489783392910    0.1928885268459354 C
   0.1940071203249259    0.8807919078148535    0.2271055605883626 C
   0.2874052710335395    0.8218292634195778    0.2336020691009458 C
   0.3768935422463164    0.6713871542858619    0.1869922316600240 C
   0.7689174308018492    0.9804912539706011    0.0653097723763733 C
   0.7365933255537104    0.9574090900256947    0.1642878744178163 C
   0.8238931317927084    0.9140355781169989    0.2251412893649975 C
   0.8540554606643094    0.8158108018285304    0.1896465393181125 C
   0.7988114690380254    0.9018899872677694    0.3268210476796262 C
   0.1923994835068964    0.1938798352929051    0.4799650601980037 C
   0.1014531720869420    0.2533886966375537    0.4867187830990700 C
   0.0726863759184535    0.2851729097943392    0.3855249747620331 C
   0.0236636367753959    0.1827467968122759    0.5227994722577811 C
   0.2784034881166832    0.2560420588145466    0.4728300416847733 C
   0.5590611278709602    0.2461000467518515    0.6058304214738988 C
   0.5990016671396847    0.1926506672434601    0.5230032801936475 C
   0.7612451614265087    0.9886629186084515    0.3761576083076086 C
   0.1329927730424905    0.3624982309751182    0.3417470022858139 C
   0.5270145138009794    0.3905625555794556    0.5205912860363497 C
   0.6707722214418326    0.3961125227910013    0.6197634477693745 C
  -0.2060331800440575   -0.0578671667871390    0.7265429304512228 C
   0.3606963730469296    0.1898821605185098   -0.1253463893436059 C
   0.3369259632145975    0.2647743334702644   -0.0510285601297774 C
  -0.1471834184641853    0.0862088881513831    0.8076803528453556 C
   0.1085762182243186    0.4544880739223793    0.8918592274563119 C
   0.0627294221529646    0.5365382796632470    0.7410775626796965 C
   0.0274014450521775    0.5090124717166379    0.8410889786153167 C
   0.1400652513114102    0.6094062834272533    0.7341514351154238 C
   0.5153703167505426    0.3827068187950633    0.6999706091374825 C
  -0.0676844082661893    0.3533356035714096    0.7791179970912121 C
  -0.0665206449601714    0.4443832042896670    0.8292156170765634 C
  -0.0059255895870256   -0.0839445282857868    0.6572691213515585 C
   0.2910833811322815    0.8665168624818373    0.6927729233395649 C
   0.5026096176858129    0.9507537351537581    0.6908316301205850 C
   0.3095104528643216    0.8535897280133470    0.8599086605100752 C
   0.4295957961511287    0.9442070479489563    0.7679520795662621 C
   0.4171518865216632    0.7639425008942788    0.7629491413387263 C
  -0.0411341703317336    0.0096298475720529    0.6974144802254040 C
  -0.0868053835265008   -0.0738254814806072    0.8470395854479571 C
   0.5729186201232515    0.3543438380194615    0.6072947470260919 N
   0.3654258734106739    0.8577032669891246    0.7697854457949471 N
  -0.1244672082228808   -0.0099447255807019    0.7696385258275137 N
   0.5116818936159613   -0.0633933854356685    1.0312124684154538 Cl
   0.8235223007573568    0.7326109497416508    0.5480888549933398 Cl
   0.3431029688129241    1.0066995923925504    0.3869614481876986 Cl
   0.5700455223970849    0.6622151713876319    0.5524432564546784 Cl
   0.6941837398744211    0.3188311004691310    0.9006013136701898 Cl
   0.6876071076489828    1.6428984077269446    0.7709336497110510 Cl
   0.1607587468144338    0.2313910504037208    0.1202132767940772 O
   0.3225766282084111    0.3132919280589563    0.1106272711464104 O
   0.1930617821173821    0.1254415142541617    0.0081871497775758 O
   0.5562331198275012    0.1309238340437825    0.1088301126822113 O
   0.4965041094348326    0.2782448062744285    0.1327794599802066 O
   0.7620795312560495    0.2306390125748742    0.0826010688279249 O
   0.7388295490699209    0.2617035723069260    0.2299896482903047 O
   0.7898398863759419    1.0775429951767537    0.3515822844659036 O
   0.1958535498551136    0.3507434119355191    0.2825633223239676 O
   0.2166692510402417    0.5808346031584788    0.2677487762238906 O
   0.1148002800335705    0.6912049702961767    0.2134545370739798 O
   0.3915870196906130    0.5537835505761665    0.3117655806850847 O
   0.7050642595707570    0.5664861531761397    0.1529130659439087 O
   0.9522730101694797    0.4419492644418755    0.0941583087305888 O
   0.8692349515109986    0.5774414372608597    0.0649978285592632 O
   0.2556437333219851    0.7223839549227612    0.0914093038423060 O
   0.1236686199642207    0.8623327974704360    0.1784569474856141 O
   0.1880759307538210    0.9631778318783595    0.2726305577010311 O
   0.4956732512628234    0.6788161365893872    0.3026774317991003 O
   0.8977622526358225    0.9802336180445465    0.2204036426426378 O
   0.8525159500023956    0.9969425312600119    0.0470791629576754 O
   0.7913927413364764    0.7555016858755781    0.1731713101738222 O
   0.9443710783915636    0.7983700010801109    0.1857312266314829 O
   0.2822206598536820    0.3393512982219857    0.5065638271058820 O
   0.1092574797854757    0.3329298307130876    0.5483380618954463 O
   0.3530711598825145    0.2172887218926406    0.4393338906071990 O
   0.5839002053233507    0.0889637214612635    0.5319912310544486 O
  -0.0122753687359136    0.2017578813334642    0.6051793780163142 O
   0.0015528362925630    0.1168150286518797    0.4726556177423937 O
   0.7113248426183388    0.9776543801703012    0.4473206271496460 O
   0.1046698503860137    0.4527229799675352    0.3702209275382320 O
   0.6478158138253571    0.5491583380154034    0.3118505296709941 O
   0.6786579995951026    0.3905603966191813    0.3315308422754581 O
   0.3037239435835244    0.1103352692155781   -0.1315504505276483 O
   0.4275077645827575    0.1985791721564157   -0.1762259577812222 O
   0.5399730217251458    1.0422044137552087    0.7018673389540181 O
  -0.1485866768138676    0.3017537247002020    0.7784049826521032 O
   0.1902995123029173    0.4588200996779059    0.8633351683761440 O
   0.2279634439938163    0.5887968486497317    0.7603066708344118 O
   0.0893906284654232    0.4064114829523643    0.9679247776097528 O
   0.0070134637544150    0.3203934680542277    0.7485621253808493 O
   0.0083584285890705    0.5960171314600842    0.8857136557379776 O
   0.1164921966323617    0.6899326230412477    0.7148338964589829 O
   0.0670115373471655   -0.1163418861604453    0.7146834949757334 O
   0.7084621393984664    0.9708910772846544   -0.0059526785573679 O
