Li1 Co1 H90 C51 N3 Cl6 O45
1.0
  13.4878951305000001    0.0000000000000000    0.0000000000000000
   0.0000000000000000   13.1383108961000001    0.0000000000000000
   0.0000000000000000    0.0000000000000000   13.1815421357000009
Li Co H C N Cl O
1 1 90 51 3 6 45
direct
   0.8143731070729946    0.7567629529722406    0.5385014890310517 Li
   0.1552902839942495    0.3498027248056849    0.6610280480158158 Co
   0.2847737936970164    0.2093074956550388    0.1450375872654655 H
   0.1597928397609141    0.4194303966757080    0.1954952646110214 H
   0.0280680611494320    1.0191939478898202    0.2132746714199770 H
   0.4545155493860028    0.2209383667166576    0.1433329308778685 H
   0.6002433283301987    0.0716665146871733    1.0932589616180532 H
   0.6753536394794258    0.0914681468800320    0.9783232443549877 H
   0.7346356840285340    0.0676606725042468    1.1009742956019704 H
   0.0751272941771780    0.2648633434175292    0.1531405845400199 H
  -0.0354058902504454    0.3217252951484600    0.1179808137613948 H
  -0.0393034591069176    0.2383211187162158    0.2249371915118901 H
   0.1056020269670646    0.5080645224175241    0.2702194501319511 H
   0.0568598033925824    0.4976713523152294    0.1456778765361072 H
  -0.0590582093790694    0.4845889247977757    0.3604380290931485 H
   0.3374625188927657    0.4632148682527019    0.0823924133169966 H
   0.6055443778496540    0.5403789731378238    1.0720975529506607 H
   0.5505917708766100    0.3691697501419122    0.3015094157333923 H
   0.5545614784908783    0.6234101944741846    0.3048921762284057 H
  -0.1250084552397833    0.4256359127914974    0.2472775214193028 H
  -0.0965154994240930    0.3546595135135044    0.3605374104846817 H
   0.8260153980665619   -0.4395750028197569    1.0661521180999276 H
   0.0113856953819826    0.7154395283483673    0.2238098575590778 H
   0.2425359208126296    0.8270170371767779    0.3405185085016334 H
   0.3730529498203085    0.6904591482526715    0.1732232119955017 H
   0.4717731717020039   -0.0807069537009325    1.0067872887086322 H
   0.5288602851878468   -0.0887148324025418    1.1114298249005292 H
   0.6309278788842818   -0.0910781498978841    1.2020133080550661 H
   0.6099431368425110   -0.1937009307608510    1.1182818304602871 H
   0.7744328499173897   -0.1831980585810671    1.0626062507409475 H
  -0.0572758704916889    0.8216761679771587    0.2494859124937554 H
   0.8128087414106100   -0.0582444010688736    1.1096303389408584 H
   0.3367478039645483    0.0794506203312526   -0.3549790217282125 H
   0.2482469675886245    0.0783287105122076    0.3898564382601429 H
   0.1338814579909222    0.2699400995186350    0.3033354539732437 H
   0.3214970922701155   -0.0008115997013867    0.3109612688411230 H
   0.5943877074764005    0.1033364913904581    0.5527802432209918 H
   0.3952261649221754    0.2420674145977214    0.4320307145532314 H
   0.4649129463588544    0.1900584459103664    0.5314158992693618 H
   0.6465211199322796    0.0111899430575692    0.6311794919098951 H
   0.5006784305454235    0.0885377854123773    0.3137735346305410 H
   0.8217738170454705   -0.0002278108064019    0.3638647905096040 H
   0.8953494187534007    0.0065462715473973    0.5266438476116397 H
   0.8777744007312067    0.0948247427429820    0.6240399630876097 H
   0.7395408229964663    0.1910174732997807    0.4259965950866948 H
   0.1951178475097204    0.3967981114183797    0.4317988752154256 H
   0.0833576369345868    0.4610211311560592    0.3986346220878620 H
   0.0248540681890350    0.4086504721389822    0.5405813670694299 H
  -0.0309715437922829    0.5946058829464115    0.4558121505015339 H
   0.3293715603744699    0.5937115518491403    0.4098321738219833 H
   0.4103953220086166    0.5296065077030156    0.5573911604698463 H
   0.5212212874789299    0.5985447454386488    0.5914269352965961 H
   0.6072889050551473    0.4020019767052253    0.4529054344583305 H
   0.6664656700193937    0.4566184343057989    0.5949159049123319 H
   0.6365773890015195    0.5326192237449043    0.3386712284376375 H
   0.0260966638526164    0.2558751256067409    0.3774550061426315 H
   0.0435315562301702    0.9484101152225587    0.3778419107966922 H
   0.1704616652972723    0.7281709975092664    0.3805517606482706 H
   0.6332440297512438    0.8367793270947362    0.4242119025402676 H
   0.3912930086003978   -0.1681565512242377    0.4940687516494557 H
   0.1657871034482981    1.0809941295433856    0.8246363707597216 H
   0.2644199877588899    1.0637247863382899    0.9510130862343360 H
   0.9934566465452102    0.2156644772077278    0.8876942430058554 H
   0.4312841261751683    0.3013908699614822   -0.1365910690619194 H
   0.6436266727541042    0.3044011503782548    0.7159495429780254 H
   0.5125667866194120    0.3844517754789439   -0.0609876237487222 H
   0.4154146374277372    0.0533034235784360    0.8975117589435024 H
   0.8172897964169858    0.0558722469429386    0.7665513612731332 H
   0.1213828436134429    0.4171721155134920   -0.0544125205394195 H
   0.3076683963768456    0.5721920428166720    0.0211287165744974 H
   0.2896789326649488    0.7074834066804725    0.8264093044392117 H
   0.3507625926451445    0.5140774643112535   -0.2278360833112426 H
   0.9713820383784603    0.5370745909882975    0.7641146205891272 H
   0.8094420189116104    0.3949797650427363    0.8701348408041107 H
   0.7445556899824236    0.4945508598619590    0.9318863408653572 H
   0.8097726857767401    0.6669576492820805    0.7376518595245261 H
   0.9287274955877890    0.4297818034185923    0.7132154167559962 H
   0.2309811156712715    0.9850457226310331    0.7551080871518545 H
   0.1094677153858673    0.6643439190795022    0.8262287489339835 H
   0.1430719209060505    0.9102294081311392    0.9467829286832720 H
   0.0893192787787742    0.7426873232004640    0.9328293261300582 H
   0.3214474180997933    0.8401260282306525    0.8159643960527251 H
   0.0540439452002900    0.9325511511861809    0.8491775053758210 H
   0.1689432667775738    0.7278870949566857    0.6781573032786341 H
   0.0952623854847816    0.8478279315270678    0.6707370789230104 H
   0.2267069128069834    0.8469107664443343    0.6722740766271811 H
   0.2807531515230296    0.7854835398866520    0.9294837388272977 H
   0.4765839297463241   -0.1038385421070353    0.8729782106931689 H
   0.6093366671212642   -0.1709795929602199    0.9252148908108275 H
   0.6655240849998540   -0.0575586203721575    0.8785337063435351 H
   0.0254686933710809    0.7670001897878136    0.8221116282328312 H
   0.8195651699799520   -0.0793688821528450    0.9722617381080362 H
   0.3294301314111184    0.1489176931701912    0.2585538954937318 C
   0.4056644133395755    0.2936379707642013    0.0236967013862534 C
   0.6679077037697909    0.0511699682034136    1.0526043861151890 C
   0.0037380973689503    0.2925754293073582    0.1821280881315113 C
   0.0875384227024481    0.4557129145556512    0.2128612144857356 C
   0.4616650711658645    0.5582313441050556    0.0558757890554577 C
  -0.0686371687904487    0.4135209612380791    0.3100926299609278 C
   0.2407684100357930    0.7200527545445896    0.2249705715212600 C
   0.1089702322771185    0.8925657981103954    0.1796746574428203 C
   0.0998316677488939    0.8449713999457409    0.2896443396755298 C
   0.1879284381124956    0.7738153733154449    0.3093954429470420 C
   0.0029618457819756    0.7762738324168800    0.2775668453762222 C
   0.6064399957265073   -0.1108485756439444    1.1216221073070114 C
   0.7815851890382548   -0.1019159205311142    1.0441600023811695 C
   0.3196428370465969    0.0743106902037013    0.3452197793667596 C
   0.3079634757766698    0.2037946104316042    0.5673197408023060 C
   0.3982318229294302    0.0800724658686744    0.4294512743291689 C
   0.3952839945532967    0.1824760404712037    0.4912742076104669 C
   0.6639552709043062    0.0859035046228830    0.5976932734192268 C
   0.8430884845468438    0.0338199449163513    0.5813643797447106 C
   0.7525628696761463    0.0708688474616922    0.5265964328256029 C
   0.1190325880922299    0.3885002411013999    0.4192771233368671 C
   0.0804728280282650    0.3124767699034020    0.3432086338022204 C
   0.4455604085852067    0.4753237307433303    0.3670374086729021 C
   0.5203099518048999    0.5319105329494410    0.4399857776953508 C
   0.4654604743406890    0.5854436701664009    0.5298052379536042 C
   0.5875638110040834    0.5892705700165882    0.3694809770860975 C
   0.4061633792593788    0.6754800537894389    0.5027782030033358 C
   0.9161169289757030    0.5632157747916090    0.6215759114868464 C
   0.6447039349851208    0.6795330862089874    0.4137302761434740 C
   0.3858184701875785   -0.0137904370381266    0.5018423489224548 C
   0.7138362933685622   -0.0158401677997875    0.4566644028316747 C
  -0.0383640983039596    0.7250488305637286    0.3711294943670267 C
   0.4353769071069513    0.3511788529962095   -0.0687135786447115 C
   0.6809846144584835    0.1630214848573711    0.6783333069644029 C
   0.2595007620859408    0.4071350566371379   -0.0975539067403445 C
   0.3654186971067657    0.4493056221216604   -0.0835198887100121 C
   0.3658346256075229    0.5115899603803105    0.0223015687219050 C
   0.8115468692033214    0.4755207119245847    0.8910618307693370 C
   0.8120992163210828    0.5257011350561230    0.7852509942494921 C
   0.9042336811857968    0.4842684117551707    0.9630564418876971 C
   0.7176537904280972    0.4820605175875413    0.7251942883003472 C
   0.9087295643027168    0.5082707589742191    0.7245464126639395 C
   0.2017519441670751    1.0060141714810125    0.8272400114905775 C
   0.0926874840888280    0.7414862555651500    0.8544849268656425 C
   0.1380185008326789    0.9194398767337600    0.8639989881726534 C
   0.2715634300134285    0.7868223725675882    0.8499535905936724 C
   0.1586229018389979    0.8089066421738228    0.7008253641871336 C
   0.5069189669067763   -0.0541936520478713    0.9342904601765698 C
   0.6171103040739199   -0.0907364012487992    0.9361043602311958 C
   0.8309116401681678   -0.0502692510797602    0.6655024865445417 C
   0.0272732744242773    0.3717811969459442    0.2572877310474036 N
   0.6696025568049623   -0.0662302069178693    1.0332477738635037 N
   0.1683746087382140    0.8157484653511601    0.8165462703069694 N
   0.6716658883871502    1.3065626994635660    0.3210352039416574 Cl
   1.7067080402519887    1.6222653824645628    1.1270319447346724 Cl
   0.9327362752733406    1.0640756685815598    0.3038088431970356 Cl
   0.9991209847729917    0.1528535111310335   -0.0328664831276961 Cl
   0.0346569320696276    1.2548041434834469    0.7125986452192287 Cl
   0.2448320537303572    0.4987349593580607    0.6557805588155451 Cl
   0.2513089724159462    0.1823877490607496    0.2104449569892975 O
   0.3141920236106480    0.2687679549315730    0.0418038391962958 O
   0.0805810732352357    0.9892281476348675    0.1680197237166731 O
   0.4162309249131806    0.1697468547088509    0.2268793011479596 O
   0.4789015634243405    0.2618150063583195    0.0774400337450191 O
   0.4610719467441073    0.6318290849141143    0.1185634466522157 O
   0.4842835002868129    0.4223006286483122    0.2951361098534624 O
   0.8944471282268025    0.5244534099771812    1.0561677021154308 O
   0.1998517218008704    0.6540952652711979    0.1749233165636392 O
   0.1480630629151376    0.8480319151305304    0.1072863139412101 O
   0.3396956323406817    0.7373571098607274    0.2236945447994362 O
   0.2650064395309023    0.2872170540522181    0.5590382363412801 O
   0.2944810162646007    0.1448441101637268    0.6468665790406163 O
   0.4974618278375707    0.0682010768268533    0.3896698136623019 O
   0.7789287330343097    0.1649463898318383    0.4867996628726202 O
   0.0776072956656504    0.3586828617519519    0.5170423913710055 O
   0.3547817520080769    0.4890951357154648    0.3764141567595504 O
   0.5707246379676320    0.4506756612493951    0.4946573019055740 O
   0.9535349245277852    0.5070134969006824    0.5491734573449116 O
   0.7281980598358864    0.4839530744159370    0.6236090575121067 O
   0.8900861809158325    0.6524063114798405    0.6135396742310320 O
   0.0997582686017014    0.9054121983314543    0.3785019246183252 O
   0.3828076223416333   -0.0103485942961176    0.5965606290103784 O
   0.0016947837359967    0.6373495814660363    0.3971446598514399 O
   0.3267966589785163    0.6645136517047714    0.4448270170088578 O
   0.4262295198529532    0.7592701245759951    0.5431892561651146 O
   0.6030243404627128    0.7681213384740099    0.3885227551584982 O
   0.3628704863097912   -0.0943487377489263    0.4542432141974888 O
   0.6524464329056343   -0.0775368353859242    0.4886401000346953 O
   0.7200240638985445    0.6647762425375873    0.4677099237958474 O
   0.7510659719167364   -0.0258072024540573    0.3650164008328671 O
   0.8125247830936936   -0.1395166443917928    0.6488731727856960 O
  -0.1053723298519829    0.7637273185382253    0.4196416482119185 O
   0.2512911786832935    0.3440272487494345   -0.1664934883647781 O
   0.2899443558436851    1.0225657664097449    0.8967121559917768 O
   0.6305564347151564    0.2488985819151763    0.6636453442050502 O
   0.7348121385440066    0.1482418072005088    0.7561299706205208 O
   0.1875658908096965    0.4437507223649752   -0.0380563159481461 O
   0.3999200033148567    0.5053625997517621   -0.1722720231686616 O
   0.6454979803047484    0.4405023595931163    0.7693901793427317 O
   0.5429508455133224    0.5092917882454918    0.0387738447093966 O
   0.9835010531260150    0.4458256466239294    0.9382998544838462 O
   0.7878456173099024    0.6292222049071747    0.7977715323095280 O
   0.4882033854496537    0.0483096309578431    0.9079331495961148 O
   0.8416827796672792   -0.0202532160567906    0.7605528218620387 O
