Li1 Co1 H90 C51 N3 Cl6 O45
1.0
  15.0138911866000004    0.0000000000000000    0.0000000000000000
   0.0000000000000000   14.6247556243000005    0.0000000000000000
   0.0000000000000000    0.0000000000000000   14.6728779680999999
Li Co H C N Cl O
1 1 90 51 3 6 45
direct
   0.9461802351397627    0.7741455380894203    0.4563403989290484 Li
   0.2222233431582209    0.1213100141825390    0.3025955095553031 Co
   0.0586488261008508    0.0887098113314353    0.1694287235813435 H
   0.5242224680784007    0.0802153104186416    0.2431852151403159 H
   0.4950291700484276    0.0342029176452610    1.0678877735823620 H
  -0.0575149304046309    0.1271008801754915    0.1961971599340422 H
   0.0560605563766981    0.2413133868942114    0.0685425850052395 H
   0.1076021581095425    0.3289551932208965    0.1197479451011560 H
   0.2058192013578717    0.6310279329978015    0.0629172400538640 H
   0.0315898848210186    0.6475266702210806    0.1676846894487327 H
   0.2095637336247750    0.6122843719399653    0.1816587714553965 H
   0.5105282833101308    0.5452033878057804    0.3108386095294837 H
   0.6273708112195970    0.5869964280248202    1.1068521813313368 H
   0.4325525616634417    0.6558987759263244    0.1219152090877533 H
  -0.0366082916060129    0.3114513109970694    0.2804716971235668 H
   0.3433138704175774    0.0654239521520755    1.0948463566810545 H
   0.2325977356500898   -0.1754525513941924    0.2988096128743131 H
   0.2352559406086831    0.8371982155965794    0.1611576808953860 H
   0.0001043762260245    0.7596707663094212    0.1896742405580288 H
   0.6355692188455866   -0.0422851980358885    0.9784118028250037 H
   0.5331533973314164   -0.1112668635020619   -0.6643961079615216 H
   0.4483858987407855   -0.0701126715646627    1.0530583719835032 H
   0.5566991254578805   -0.1281286837153349    0.9909294561714919 H
   0.1289623768572464    0.2280851316693136    0.5340858829765598 H
   0.1230152177303912    0.2942612801713726    0.6343859061349048 H
   0.3291829567614724    0.0153950820091585    0.4675943601736660 H
   0.2851670523042846    0.2507200398006995    0.4360462207420980 H
   0.1942639024787349    0.1951437265357109    0.6260133155451728 H
   0.5483039667056647    0.0661966146354899    0.3903104079411621 H
   0.4583839064613939    0.1020132814883469    0.4644608917361885 H
  -0.2839838689190304    0.1988969516431990    0.5101074923183051 H
   0.3292748716410229    0.2131871049537097    0.5477763123822105 H
  -0.0442412229078117    0.2251551681813219    0.5855195554735800 H
  -0.3134965378529487    0.0425463049219178    0.3355474635653594 H
  -0.2016401257391540    0.0124022114871189    0.4538856657759270 H
  -0.1218573442395059    0.2713959408391808    0.5037531833543307 H
  -0.3004885842470036    0.0935208318918809    0.5711713137409283 H
  -0.1238375104489516    0.0303457591771720    0.6235897964456948 H
  -0.1919491003952472    0.1197558001782904    0.3947321716974649 H
  -0.0785274711296874    0.1564141904975927    0.4932069087695883 H
  -0.0216168415413631    0.0025237558252716    0.4039246423425040 H
  -0.2005211619881050    0.0668995323637642    0.6921032811339461 H
   0.2941567271542304    0.5895229659683743    0.5599656047888425 H
   0.2963660145127004    0.4092546546388174    0.3872114930521501 H
   0.1510798942864639    0.3562712052119770    0.4528225478222499 H
   0.2310438413458056    0.5071182522788296    0.4012053394159244 H
   0.1429900527863201    0.6487868622183662    0.3889037309385404 H
   0.1537767301364624    0.4477448704387101    0.5339771108594966 H
   0.3863406908448201    0.5078476114745674    0.4698494733199716 H
   0.5979387343177484    0.5400351646954801    0.5971750739323181 H
   0.3652069290467332    0.3236286084901018    0.4977076072790131 H
   0.7311020811911018    0.5672622179351515    0.3648280178597555 H
   0.7026011419820902    0.5002321748231032    0.4580320915917943 H
   1.0522047147510663    0.8786375405035217    0.5649857514949040 H
   0.3425878760790992   -0.1048414569917567    0.4922192225071177 H
   0.5414553091043780   -0.0450674667482895    0.6200015433358097 H
   0.5271345046355206    0.7071078367297488    0.3548361130460753 H
   0.6142949205287668    0.7506504446446404    0.5026175506559449 H
   0.8548175109164609    0.6516600726212929    0.5849354846444877 H
   0.6442991342533246    0.7394229066113093    0.3450220874463895 H
   0.6214522922363698    0.7080015268764944    0.6305529839145830 H
   0.2741472575060070    0.1838505463798951    1.0276584469783163 H
   0.3202518942984864    0.1201024726376631    0.9225488697465697 H
   0.3172260298216913    0.3064180645011286    0.6803189535892122 H
   0.9990832427697168    0.3388302300221978    0.7648524720098396 H
   1.2014405105985650    1.0311659011342842    0.7758319131494883 H
   0.5685115861848030    0.1092831465535342    0.9618738066304220 H
   0.4693470870222672    0.1151895700329442    0.8719780136668550 H
   0.5731350378361614    0.0660379795061517    0.8490459071822558 H
  -0.2855624070678317    0.2197875571239742    0.6823458224873696 H
  -0.2365344774757367    0.2942017919978708    0.5973134244320915 H
  -0.0976457660761824    0.1228491852003848    0.7083707100949810 H
  -0.1722606667755986    0.2737993998030760    0.6993172714792708 H
   0.3176862702692954    0.4240138756162505    0.6290399883012981 H
   0.2212642313716074    0.3785539707071165    0.6920964658383909 H
   0.5318738489610948    0.5529392435633984    0.8786317867175311 H
   0.9204607201119304    0.6514973348592995    0.7314104982493547 H
   0.6861763526363347    0.4900303633308075    0.8076388975062480 H
   0.7116980508581782    0.5102946609104250    0.9161377212176637 H
   0.9266969448744732    0.4852246078156028    0.7961265002541720 H
   1.2276495722674814    0.7789059595137839    0.6883575946967327 H
   1.0459251967481553    0.8134111514611641    0.8108305004148124 H
   1.1739992567037911    0.6785453081835671    0.7293209286320882 H
   0.1755685491881424    0.8452496321826010   -0.0596844747502116 H
   0.3021506574757128   -0.0078292376803719    1.0062829539985561 H
   0.4140303813343211   -0.1214113065143943    0.9038688261589454 H
   0.4691294885356792   -0.0671840756208895    0.8049107346954464 H
   0.5170856107062336    0.6658360359895644    0.8695449531535996 H
   0.5987766250313314   -0.1024168010924758    0.8777962314824467 H
   0.3847981193880168   -0.0071393116221727    0.8583406072606250 H
   0.7528499409525619    0.7159517451903519    0.8469372547374344 H
   1.0188595949698049    0.8988101852696200    0.7375170030669369 H
   0.0958357214273804    0.2566880027699390    0.1323064902209762 C
   0.0422306972536135    0.2263059566411329    0.2207744787656999 C
   0.1784751907414626    0.2031718948700191    0.1111552204649866 C
   0.0159610250481819    0.1251288814125118    0.2167459575629400 C
   0.0367717526681385    0.0684694731265247    0.3047368754187901 C
   0.0985265628287127    0.2710540547845727    0.3027365861732985 C
   0.4318738568644422    0.1128524369636431    0.3295731754815507 C
   0.2149307633306995    0.6662504018877495    0.1277974906815650 C
   0.6012516662806756    0.6269382920125789    0.2648012880531795 C
   0.5689153456049731    0.6318033305696527    0.9976384331161661 C
   0.0731160949321223    0.7014051773388852    0.2915226988665464 C
   0.3133955771239038    0.7012103022877585    0.1299518056066071 C
   0.0569963564184980    0.7126265614232331    0.1945744380623164 C
   0.1392881477099329    0.7447590641516331    0.1384934155261115 C
   0.1192726836130432    0.7727985070342642    0.0406898351296866 C
   0.4492829346812098   -0.0006229634213417    1.0270198537847812 C
   0.5757406248564613   -0.0741202598967792    0.9455968362556098 C
   0.3076215909585204    0.2732674251021057    0.5058946173707733 C
   0.1649637034475455    0.2555481546638755    0.5895623887970063 C
   0.4787082178745701    0.0630799813616821    0.4041400056820527 C
  -0.2344297599440016    0.0840314425601776    0.4417943091664251 C
  -0.2543979345014124    0.1371776297490116    0.5313353659963368 C
  -0.0998936843260577    0.2099501277886799    0.5397702483874445 C
  -0.1442119754159695    0.0928103926704052    0.6579913638203714 C
   0.1980097668453419    0.3974158243398471    0.4935477008085374 C
   0.2641611720777462    0.4478803256935458    0.4417765893979813 C
   0.6267687021535563    0.6319647007874277    0.4429058157185451 C
   0.5509802216152422    0.5618315630893341    0.4687293794954518 C
   0.7899329325022084    0.6273013750025728    0.4751942325533338 C
   0.7097891519828766    0.5717563101229753    0.4340526786392063 C
   0.2953116575972774   -0.0764840600783399    0.3538594811929955 C
   1.0888054862079988    0.7933253457529365    0.6623545160348984 C
   1.1993757560579388    0.6782752182004267    0.5929829856362301 C
   1.0055299392854333    0.7294733386501034    0.6531565931534150 C
   0.5983217129825419    0.6829556382880120    0.3546786797187470 C
   0.3525326664165475   -0.0542929200458353    0.4385765355229281 C
   0.4511355523440330   -0.0401709746741918    0.4106172625778454 C
   0.5118793654345373   -0.0696887328569487    0.4922183569645822 C
   0.5257128212268217    0.0794070917855480    0.9034217427705152 C
  -0.2219613067180267    0.2457920942095779    0.6486366891411154 C
   0.2753241675941639    0.3621653207934211    0.6474112990002656 C
   0.5643282602755239    0.6196075712296714    0.8945679923145764 C
   0.6316202092741761    0.6291885860240096    0.7337133866175032 C
   0.6575055707151104    0.6316016177974338    0.8387370911252525 C
   0.7194482069338964    0.5439272639183500    0.8472344016236472 C
   0.8141751489587155    0.5584720539623328    0.8189781862512183 C
   0.3541092064157934    0.0405442201861326    1.0256363487870477 C
   1.1739925962052729    0.7304641244363578    0.6730143198130016 C
   1.0713016961023032    0.8497112451952370    0.7503706504843033 C
   1.1528621646564450    0.9034584680680722    0.7808827286855488 C
   0.4361587553761231   -0.0575586156394522    0.8712256050375459 C
   0.2362370320404064    0.3215738733019070    0.5589017371526543 N
  -0.1805330059351397    0.1712328996485275    0.5930913488355599 N
   0.4951182875186004   -0.0114881022367881    0.9384060179151732 N
   0.6424455175157238    0.0294917278127609    0.2044961453317766 Cl
   0.9415738343646110    0.9196802775871188    0.4889588532663999 Cl
   1.3037391073388160    1.1286328288982979    0.7870253545695745 Cl
  -0.0479671057788643    1.2572551490466410    0.8259993037323268 Cl
   1.0373797771493700    0.4250060289467232   -0.2703425342474685 Cl
   0.6390779694649475    1.9664909316101167    0.6957140247191639 Cl
   0.1998147619437603    0.1314366791200318    0.1595083793709944 O
   0.2314607885530418    0.2373707569124704    0.0480489912703399 O
   0.1078019730650870    0.0547024054795645    0.3397606792776690 O
   0.1803960785140968    0.2371731467729069    0.3294736721664427 O
   0.4636494967748869    0.1063490804328872    0.2456789317840138 O
   0.3635864297572676    0.1588997021145938    0.3397388703318919 O
  -0.0346521031912325    0.0328887076513473    0.3406793811185285 O
  -0.0407284759893399    0.2714882500739250    0.2252984719553329 O
   0.0548530079953577    0.7415617457689377   -0.0053236328121739 O
   0.5371717426924009    0.5631783890128574    0.2508892252360693 O
   0.3704860401722181    0.6318224761887107    0.1265843680727149 O
   0.6504607614324642    0.6466247748090244    0.2005514522643473 O
   0.6261019862518896    0.5742980278073541    1.0351634504438538 O
   0.2620617829448256   -0.0163531407938618    0.3062968965714068 O
   0.1744848860792396    0.8239699603716816    0.1876385117756495 O
   0.1815829793500310    0.8302716041302187    0.0091547810655849 O
   0.4723501059891450   -0.0951599276973636    0.3306056927581842 O
   0.3334876369537522    0.7822803748727661    0.1339701038660341 O
   0.5257938128888024    0.6914932168436863    1.0406804321958993 O
   0.0691284544693065    0.3452939277706191    0.3307310941964025 O
  -0.3168001451179506    0.0662943940471078    0.3971577353856095 O
   0.1413422454529300    0.6541462680104032    0.3181098483574731 O
   1.2747859202804221    0.6369268349840100    0.6055217663989398 O
   0.4856346700985488    0.5458502362210989    0.4148686439452648 O
   0.5552227593563476    0.5196374016378646    0.5462825359023916 O
   0.3302939279142997    0.4919956611271169    0.5024659784827942 O
   0.7967226446916096    0.6194243203044014    0.5663508551946381 O
   1.1074422271116315    0.8512777670974515    0.5874844051821839 O
   0.2849798922959246   -0.1644554445616672    0.3401082593509912 O
   1.1602899526038850    0.6732337664391751    0.5164956051482340 O
   0.0212208207279642    0.7375835596375175    0.3480214990202934 O
   0.5646639494008386   -0.1331085959867570    0.4788727883293272 O
   0.4994983712146041   -0.0248681548699319    0.5684070298636834 O
   0.6343523457663208    0.6916272361770925    0.5168936865616213 O
   0.8517237093547806    0.6699687546176676    0.4339494950644985 O
   0.9602705197549071    0.7225419407789783    0.5804517016986313 O
   0.3429442127498202    0.1282933787339647    0.9826250185373134 O
   0.9861898497382841    0.6869741669738759    0.7269969128477182 O
   0.6206656873613764    0.5548293264276940    0.6916187136199616 O
   0.8438776421004009    0.6292583307791497    0.7821837686070627 O
   0.8608752343187174    0.4790450173785609    0.8233208925790793 O
   1.1653992210171571    0.9850324806975722    0.7402104078704063 O
   1.2044510559287684    0.8760050178830392    0.8402977938074248 O
   0.6904384056380983    0.7178656233240481    0.8654026165150656 O
   0.6230701273264282    0.7100207059150100    0.6991162202603883 O
