Li1 Co1 H90 C51 N3 Cl6 O45
1.0
  12.9188500892999993    0.0000000000000000    0.0000000000000000
   0.0000000000000000   13.1607590418000004    0.0000000000000000
   0.0000000000000000    0.0000000000000000   13.1287016055999999
Li Co H C N Cl O
1 1 90 51 3 6 45
direct
   0.3190185671489059    0.3331172622320414    0.7673207987683263 Li
   0.4593209150723666    0.2285093140409539    0.9316645446174721 Co
   0.0828853216267966    1.1459412008836007    0.2098300262704540 H
   0.3415492102005717    0.2426969455754997    0.3558124743125741 H
   0.5978994253596552    0.1571357711460049    1.0600214873391500 H
   0.4454497888683074    0.2260200959118209    0.2778375129833182 H
   0.5547945827342871    0.3732023362254519    0.3215143377925140 H
   0.3740536511606690    0.3860405015214933    0.3989302187023575 H
   0.3550457674633898   -0.0193107387114080    1.0523177552384175 H
   0.3942257251609581    0.0770362877764028    0.2624361423014107 H
  -0.0383476046146181    1.0196202193414434    0.1713730626523121 H
   0.8745130539178011    0.2529782674635641    0.2245831988094187 H
   1.0788106486538824    0.5342112106581368    0.3154809917405165 H
   0.2347982230409455    0.4733714067032969    0.1794058448091567 H
   0.3487216751923859    0.4348126884418163    0.1082236344067678 H
   0.9906387144549216    0.4038981341438634    0.1283505295056167 H
   0.2162733544693831    0.5553129570785331   -0.0095755239913730 H
   0.3344324777232633    0.5957898017884824    0.2243425047868924 H
   0.5071799347007537    0.4665160270315435    0.1229859472250690 H
   0.5923176592193604    0.5706579686662826    0.1218418889281241 H
   0.5083432967566729    0.5494691452014423    0.2242412000242468 H
   0.9245593038185950    0.5118988197795149    0.1053741523236315 H
   0.8721537108037227    0.3732752803464521    0.3645688619168870 H
   0.9667882944972507    0.6764378857347738    0.2609736976075797 H
   0.7855446091990282    0.4858144580105870    0.9943112574995121 H
   0.1733399667323904    0.8323399878463079    0.0946198519943609 H
   0.0316919108024253    0.8213345435903975    0.1095565918099992 H
   0.2729788657909170    0.6503102133940021    0.1077948029678997 H
   0.4502333415508473    0.7319012520711403    0.2247553407369218 H
   0.5344125829293596    0.7425244995263932    0.1177950302519137 H
   0.3998701903800719    0.7721945207432389    0.0994718169421230 H
   0.8552156707701724    0.9333440405592276    0.3170576899260530 H
   0.1348295732715930    0.0808688934672902    0.5627422288011058 H
   0.3563113599802920    0.3324280922555078    0.5221502482679595 H
   0.4564989920878902    0.1647409555948732    0.5009293226677340 H
   0.6594900463901616    0.3295437601376235    0.4055988141682378 H
   0.5645631766205590    0.1737518340421835    0.4198934493604909 H
   0.6358555899262006    0.2534349280544093    0.5538795092805121 H
   0.5050784705756699    0.2405321768178990    0.6167369817702516 H
   0.6424893072777921    1.0616793436094227    0.4547495237650463 H
   0.7233084198754965    1.0564638389579060    0.3396532221356864 H
   0.8823086393842980    1.0837092279860876    0.4361351163893955 H
   0.8252633145368192    1.0591772082921960    0.5493757889754685 H
   0.8326904461574168    1.2258355289128899    0.5300522482612985 H
   1.1367151830999922    0.3687231112952812    0.3696676144067332 H
   0.2472846284783462    0.6282681716638371    0.5874279143880003 H
   0.1736604286907986    0.6685249682754358    0.3928237504156684 H
   0.5865919948228624    0.4495718675577826    0.4373282275187793 H
   0.4281590858679676    0.4467654944692173    0.5084945262182233 H
   0.5753256670155175    0.3584326713920918    0.6000597804309654 H
   0.7679981558821229    0.5819509343324690    0.4328373036048067 H
   0.9832727337877400    0.4389024221592295    0.4069119676329068 H
   0.2382962123888851    0.9060317860867957    0.2896955020424644 H
   0.1357081344377606    0.9359943436222361    0.3613362497915648 H
   0.0947795690975733    0.8702124235027113    0.6137153577596122 H
   0.4666531466057640    0.7038565170503310    0.6750055008501349 H
   0.6595991892310687    0.8918152808376874    0.2846089365917335 H
   0.3611120968548044    0.8907401148875276    0.5139445624936674 H
   0.6524329167408663    0.7868973201323488    0.3824990432152107 H
   0.5712289401679914    0.9027591784915038    0.3838883656743500 H
   0.4419461488626472    0.8304069686398018    0.6735582899551981 H
   0.8962363495718346    0.9157363935182019    0.4418426114830488 H
   0.8278695836526663    0.8142749203798434    0.3703820795748652 H
   0.7510322495913196    0.8098268486680166    0.5413005045197095 H
   0.6424289303870776    0.8902393838902448    0.5602020690045135 H
   0.7743601772254989    0.9319436654029417    0.5852776636741019 H
   0.0689761889440954    0.0979218612548764    0.7102130951641711 H
   0.1684455682710002    0.0890591505533478    0.8006386403295527 H
   0.0165481481108806    0.1174313742840644    0.9225318821804755 H
   0.6431929302734277    0.0300078452652823    0.7215325694324120 H
   0.5560445391846196    0.1278722614368168    0.7985180955234977 H
   0.7197934011481246    0.1797545273328279    1.0189557356603982 H
   0.8173818081104591    0.0139099895620429    1.0298517103193836 H
  -0.0932681273465639    0.1809087160807379    0.7942236876152586 H
   0.0913202828847071    0.3310771063478160    0.6887524809721463 H
   0.1498998000064981    0.3818652104288236    0.9903923627340118 H
   0.4414618952366079    0.5279664340659230   -0.0361638348911428 H
   0.5134821287379331    0.6407279393321899   -0.0406372399363873 H
   0.3803792915570758    0.6473035479065236   -0.0520039389811996 H
   0.4305408768003886    0.5081649925858154    0.8026616888226855 H
   0.9419579111595195    0.6447163111147965    0.8521700118485325 H
   0.6681572264585131    0.5655501325767005    0.6911205750102297 H
   0.8962146758161934    0.5061803046269340    0.6774840399302007 H
   0.0108889757004389    0.3722153110881675    0.7949762372806258 H
   0.7159447613964195    0.6906194385925696    0.6847299963741663 H
   0.1741953060175139    0.6412461465251290    0.6898615015316347 H
   0.1107508048169886    0.8264581082560702   -0.0710918889954727 H
   0.2674721837326646    0.7191436292420366    0.8282590411043960 H
   0.6013231046882538   -0.0826695463114561    0.9677320868790787 H
   0.5608506170917721   -0.0567645055066538    0.8492832069581057 H
   0.9188931648438400    0.7048519003681467    0.7319684833647965 H
   0.8571995934740381    0.8762075184474182    0.9375607864794230 H
   0.1846420562365431    1.0314174112440440    0.1778055342353344 C
   0.4161967208794616    0.1966243749833198    0.3451312962179950 C
   0.4601693651994470    0.0038444606986042    0.9588126976265990 C
   0.6639618066165495    0.1154428871522142    1.0314832501809388 C
   0.7042091967794439    0.0556340267741775    1.1185885888773572 C
   0.2821306091103881    0.4869830836157783    0.1116992256244505 C
   0.3262637940346581    0.5919108461873762    0.1399404037042272 C
   0.5180981278081128    0.5452807849537601    0.1432910777709785 C
   0.8231299977315699    0.3747037693827067    0.1422216650886146 C
   0.9506823718677796    0.4761309739808870    0.2581257389043328 C
   0.9198483582174530    0.4376969445762412    0.1531092611582084 C
   0.8657034463123794    0.5629649473383765    0.2847391855722778 C
   0.0985484803910271    0.9436975467336984    0.1984899863737063 C
   0.0954251373905987    0.8745001701152565    0.1042765571133136 C
   0.1530943567754617    0.8929930244580037    0.2947873993228081 C
   0.1419045063630221    0.7820510950933958    0.3053101459088889 C
   0.0870149461391351    0.9431421076456654    0.0130596160953849 C
   0.4567148781753300    0.7230187856701741    0.1397735936063371 C
   1.0171503619802440    0.3022740564024419    0.3077871616090651 C
   0.2114780360337810    0.1664916144988788    0.6654958018905102 C
   0.4865510475971926    0.2071366865878849    0.4317374233246546 C
   0.5588536127282515    0.2890605328170867    0.5644983049686200 C
   0.5834317290315738    0.3706865238855376    0.3996888618872823 C
   0.8111567958652434    1.0884779498964778    0.4767454536502090 C
   0.7220706936158472    1.0366724272944356    0.4229249753404114 C
   0.2597122051504352    0.6403183884861573    0.6676155850066203 C
   0.4080721587648402    0.3726286611071688    0.4735407193768630 C
   0.9535394372989027    0.3942596323221135    0.3441197719714286 C
   0.7920126771325054    0.5936706231065069    0.5810967475676238 C
   0.3064741070088949    0.7439165165021477    0.6841617756754174 C
   0.2320270785696855    0.8293090076518295    0.6372386283218946 C
   0.4360655945195851    0.7610021571772654    0.5231115771471700 C
   0.6469897078241346    0.8693492514042085    0.3632001050862546 C
   0.4134882754870207    0.7575525081216291    0.6384542854736416 C
   0.8338631511501428    0.8954366525115114    0.3865877948383797 C
   0.7216627625721729    0.8860093847068248    0.5363569844405939 C
   0.1338805723995917    0.1383192272663192    0.7440496475777407 C
   0.0774932008483617    0.2178473150214195    0.8086470484081667 C
   0.1453413447575456    0.2768165581733598    0.8872458338021348 C
   0.0336030716123529    0.3054007757557332    0.7463697551493080 C
   0.5671710712680791   -0.0247534339064568    0.9244338219724005 C
   0.6366621632611316    0.0692175898066901    0.9239135877401680 C
   0.7332303555829296    0.0383432307587467    0.8597762476363430 C
  -0.0585250970538174    0.2670883958695471    0.6828158695431261 C
   0.3127161486335431    0.5459336348367122    0.7166234777387970 C
   0.4431102617593868    0.6044314006232290   -0.0120418760323234 C
   0.7542237101094775    0.5499536157384189    0.8702746201441931 C
   0.7374900226291150    0.6108892348355311    0.6817586438998774 C
   0.8126197743710203    0.5831719885246291    0.7737593638709062 C
   0.8818418795753121    0.6789650955935944    0.8046321807096338 C
   0.8273107103822054    0.7601078318604187    0.8647950226819952 C
   0.4338821184512807    0.6146610537589183    0.1014887719156983 N
   0.5065286770468725    0.3098138950762474    0.4644724197401938 N
   0.7283676936922997    0.9215384904760956    0.4252884992388268 N
   0.4541846994230374    0.2636341878063485    0.0929608912947964 Cl
  -0.4737988995142570    0.0565382299407429    0.6617696146810199 Cl
   1.1895588956038960    0.5101496045612375    0.4205538345425490 Cl
   1.0225633824516185   -0.0088113442949366    0.5556545515276494 Cl
   0.4759070662018290    0.3699988735781916    0.8156271750614308 Cl
   0.1606105056067283    0.6844275464880808   -0.0675294651240938 Cl
   0.1516066082632378    1.1238125380097481    0.1883259957515810 O
   0.0524561427693383    1.0306856905302602    0.0193283243402959 O
   0.9804992671283758    0.2267487772872295    0.2613971972168349 O
   0.4021428384715857    0.0950405684753671    0.3349467399673627 O
   0.6606186298089038    0.0451034791393623    1.2016242181992243 O
   0.8129789394645019    0.2849095564314171    0.1887197894529928 O
   0.8016025399410083    0.0191710842891849    1.1038201825394984 O
  -0.0018281004219997    0.9818921522578530    0.2261690372742917 O
   1.0485238973334947    0.5155773310147893    0.2461443560741446 O
   0.2264615677461215    0.4867183572433150    0.0187471549124870 O
   0.7483098710702524    0.4043023661477397    0.0918351135565244 O
   0.7781662435286233    0.5394636432709101    0.3103456781333246 O
   0.8918311587377730    0.6617077323002889    0.2828920874563715 O
   0.2733999559005162    1.0090691561725968    0.1507000358631108 O
   0.0900779122488490    0.7333950868824576    0.2428226262252920 O
   0.4195546048784353   -0.0489678427401599    1.0336814873613536 O
   0.2019493241786943    0.1218376550932348    0.5735694990270790 O
   1.1182452729802341    0.3015461348616270    0.3310895420873834 O
   0.2872262638741602    0.2286491236062044    0.6757062555992622 O
  -0.0696553446382440    0.2826057379431596    0.5898615137613284 O
   0.7871027974170859    1.1925996039475637    0.4824726003444356 O
   0.4674264352445318    0.6843591613746431    0.4786628557480115 O
   0.7248712524697629    0.5950899941276364    0.4948510597596973 O
   0.8828195207672678    0.5734377475440665    0.5741953034856475 O
   0.1299467857507249    0.8071795849433830    0.6451761992356512 O
   0.1970673107205277    0.7422471598996735    0.3788444548605226 O
   0.2689839281886341    0.9017843107077195    0.5907427890273506 O
   0.4228257938548445    0.8527673810647488    0.4779959962014234 O
   0.2392529538879011    0.2682129510683007    0.8738789369625308 O
   0.4094801788188129    0.0746580054979576    0.9156507752200229 O
   0.5869588231370887    0.1499918062955444    0.8664836892894032 O
  -0.1199152358446433    0.2044727065021889    0.7280610139484667 O
   0.8181055567363329    0.0182045746859318    0.8991144865205070 O
  -0.0045953745797523    0.1681632506051343    0.8658370145263499 O
   0.0965870055055040    0.3350335650774851    0.9612988536061118 O
   0.2809733853716915    0.4606732789228841    0.7023509315549402 O
   0.3971253640406620    0.5744430087116010    0.7706112993294459 O
   0.6631916142285876    0.5324897294025314    0.8816969225549689 O
   0.8165280169507385    0.5430142743440559    0.9550735616880489 O
   0.8754450254103701    0.5019525317588738    0.7498567717161613 O
   0.1055343962717872    0.9054733076603876   -0.0750442981185399 O
   0.3162838036246149    0.7633743607789605    0.7879237500826149 O
   0.7310714947085317    0.7762664743311583    0.8631672912701636 O
   0.8975886371113013    0.8196712656646734    0.9140390392970300 O
   0.7190719747103553    0.0260088357983632    0.7641018970620086 O
