Li1 Co1 H90 C51 N3 Cl6 O45
1.0
  14.1968596397999995    0.0000000000000000    0.0000000000000000
   0.0000000000000000   13.8551439811999995    0.0000000000000000
   0.0000000000000000    0.0000000000000000   14.3197709607999997
Li Co H C N Cl O
1 1 90 51 3 6 45
direct
   0.8751304608288025    0.5667162680701310    0.5502714744509980 Li
   0.6254329861801105    0.5529466529539785    0.6420867697933020 Co
   0.1683861346489777    0.2379033732938888    1.0494284804929908 H
   0.3287906225271210    0.2754475518824210    0.1472597212743542 H
   0.2407415728277320    0.3420668523568472    1.0303744047855707 H
   0.1179151137204300    0.1774933190111106    0.3476253561615555 H
   0.5709119850827928    0.1500782303974229    0.1281742204833045 H
   0.5278514762441908    0.2637984488331129    0.1289668309259624 H
   0.4960911425196861    0.0183776863629494    0.2309244672594442 H
   0.6949089143096566    0.2532615680761829    0.0868998173089830 H
   0.0033580890499437    0.2693739953669360    1.0946526675119586 H
  -0.0724981233324710    0.0462258271346040    0.1614436073543767 H
  -0.0417892193169811   -0.0158334341164313    0.3273268471424028 H
  -0.1237157882561656    0.0755730501264204    0.3355804707739219 H
   0.0899666793436012    0.3930161604952431    1.0317906285544785 H
   1.0145958109298403    0.5417753507856271    0.2630555677679328 H
   1.0272479047419427    0.6109402761953018    0.3669790176662446 H
   0.4854746397279374    0.3316064774811580    0.3238938313396659 H
   0.3270832026740680    0.5375413276618256    0.2008192371422779 H
   0.4130564411907232    0.6890650507533104    0.1071403645072189 H
   0.9575071293084575    0.3891684920717077    0.2917557474792596 H
   0.7727740216676929    0.5165734474005886    0.0993211053649802 H
   0.8005843973435324    0.5814140583115257    0.2357192366861309 H
   0.7588427717280559    0.4649180188484839    0.2813959449093649 H
   1.0614512435309456    0.6735040432103684    0.1891235193505289 H
   0.2269392246344268    0.8414878623000939    0.1419412004538407 H
   0.6724532439650500    0.7344214902715646   -0.0083272644462281 H
   0.3493472813519956    0.8737148821423899    0.1539225373390233 H
   0.6087652155601472    0.7537789217326825    0.1213696423747063 H
   0.3936444016980314    0.7757916846757338    0.3059724553132951 H
   0.8269148682705004    0.8251127167001743   -0.0296600078843909 H
   0.7950155601495404    0.7679455013269711    0.0797558482971850 H
   0.8503094786580606    0.8200243538440639    0.2066964261162067 H
  -0.0100906598173579    0.2420144817801874    0.4380988702663943 H
   0.4699627585381969    0.0611646830772669    0.7417720234127672 H
   0.5762862017712572    0.1895971268262839    0.3595124177958493 H
   0.3787227918931334    0.2702935094490190    0.3238170144685713 H
   0.5068728931239455    0.0522575219414855    0.4265072044182189 H
   0.5324086108247585    0.0824289875406322    0.6004108238837133 H
  -0.0413898352176903    0.0393446283445108    0.5563098391871871 H
  -0.1141291611109305    0.1950990544932527    0.4674661695864182 H
  -0.0546512187050777    0.3328399543777670    0.5512934880041521 H
   0.3125328017233610   -0.0472160022506919    0.6819770726175370 H
   0.0671320519524011    0.8781096397921567    0.5943045809668841 H
   0.1261035443275835    0.7681468705804257    0.6143852094062050 H
   0.2207371488068151    0.9226569935286095    0.3899856705590780 H
   0.3312573652356157    0.6667202811558178    0.3339638248049764 H
   0.3661319792391233   -0.0032207900156470    0.5796822800534691 H
   0.6153828762529822    0.0151442302501303    0.5142395014946949 H
   0.3438136632143785   -0.1241332830415697    0.5938262213605223 H
   0.5391503834722585   -0.1414748567073520    0.5763614168825302 H
   0.8389132963962855    0.6517857557347345    0.3849059803741495 H
  -0.0594001562666629    0.8855725719811187    0.4948097633542144 H
   0.0784570917202990    0.1758787562154908    0.8761645360631570 H
   0.2090254037999213    0.1643068808010202    0.9292792124139237 H
   0.5036790882156482   -0.0342648557130968    0.8161272629563832 H
   0.3843944687317398   -0.0169081252217857    0.7983239055774214 H
   0.5666597770923184    0.3620218957959594    0.9164361299020980 H
  -0.0812690771320645    0.2227804701840900    1.0209866848026186 H
  -0.0437093622705382    0.2118805473680645    0.8423190226588754 H
   0.0279825488861138    0.1713663527294763    1.0166018381335002 H
   0.7170609963883120    1.0239738764065325   -0.0082679059549278 H
   0.2405549118289452    0.5379835460904695    0.8151642587269335 H
   0.2969328728926834    0.3735122130540130    0.7363347856096527 H
   0.3412483071480342    0.4938460762215324    0.7096527946025387 H
   0.1262134277834730    0.4063053764174910    0.9096790385865401 H
   0.0572129569149873    0.2821908957355614    0.8052667540539898 H
   0.4090316074282050    0.3389604248770317    0.8613591316624601 H
   0.3639378320269699    0.5238648909349958    0.9545994497970881 H
   0.5938267006081893    0.4852310087662996    0.9424190873822513 H
   0.4700846164732539    0.3805637456929065    0.7628917746174403 H
   0.6078699471470984    0.4414687064168811    0.8212823733420227 H
   0.5075231073427380    0.5500567515531465    0.7417489783514387 H
   0.5442944788463697    0.6108587180388847    0.8370018985087453 H
   0.4169925229311768    0.6134599180010721    0.8139065570465573 H
   0.4385395416213123    0.4385499348721846    1.0036086135554443 H
   0.4746639390593379    0.5596445263305324    0.9952474463043927 H
  -0.1307321286671639    0.3338655662385517    0.9335453421004413 H
  -0.0573856262420213    0.4028011183552233    0.8625644582034536 H
  -0.0651542456971865    0.4272596877111117    0.9839700312925133 H
   0.1806374355995343    0.7598394866834284    0.7590907361686410 H
   0.1032830045589333    0.9674807788925645    0.8750094896559709 H
   0.2560266432944184    0.9116329290939669   -0.0150878474377449 H
  -0.0093968444067733    0.7207752950204326    0.8343894265563371 H
   0.6123561505481272    0.9881092184373150   -0.0556618204147220 H
   0.5115747287195350   -0.1886096970876566    0.7859661660238753 H
   0.3853946899327857   -0.1838858197978349    0.7696237258660945 H
   0.4591038077623638   -0.2322180493949179    0.6745712279088256 H
   0.6087863469939720   -0.0797901855729580    0.6649160455474260 H
   0.8507116802818615    0.9906252514751024   -0.0736586166418037 H
  -0.0330577108605274    0.6682381289694915    0.7152757895666636 H
  -0.0886115460050940    0.8900792014383603    0.7742585765338661 H
   0.1911334187803682    0.2905646809634470    0.9941845801425202 C
  -0.0089897121150800    0.1310831192418038    0.2641282106224901 C
   0.5619340136698279    0.2095139173247757    0.1718362316782845 C
   0.4852344457634610    0.1927627381010215    0.2485783809073673 C
   0.4140432791503466    0.1218713780882524    0.2076887604237106 C
   0.4365891102792729    0.2894950421332689    0.2825747347130712 C
  -0.0484484384963385    0.0639975659439667    0.3388835962309898 C
   0.6470758007035854    0.2569042584782807    0.2161986730706090 C
   0.2369407322637578    0.6459864655859620    0.1802832941579237 C
   0.3938507853683880    0.3655758105056739    0.2198928662350676 C
   0.8676612033528235    0.4532617271333536    0.1882219686179549 C
   0.8252151966098500    0.5118335471809222    0.2642343575716390 C
   0.9809764040955324    0.5884374425601512    0.3141583404312127 C
   0.8876374521286404    0.5279819178007865    0.3533537997396375 C
   0.2929467800921775    0.8121276477435385    0.1347134312190304 C
   0.3167499315336860    0.7213923943455353    0.1970356570732729 C
   0.3218468333722548    0.7342359995972353    0.3016420787891349 C
   0.3196674781637789    0.7952097434389670    0.0305553406962841 C
   0.6448682702500096    0.8838519114067972    0.1097367747502164 C
   0.9491200632233500    0.6773062411573174    0.2610352840581447 C
   0.6921738023915854    0.8711844140326703    0.0178540202283876 C
   0.8467424926284155    0.9118696642736555    0.0957519141998482 C
   0.7933342023982051    0.8367444976631638    0.0421421181981172 C
   0.0942732655571183    0.0615255598755726    0.4305812919269998 C
  -0.0085339775255894    0.0837483531152379    0.4358970194067463 C
  -0.0364366271291309    0.1816773246106669    0.4746410050136924 C
  -0.0252940220732547    0.1987973199222895    0.5795074867549693 C
   0.9191563944407520    0.4334023160457924    0.4147269880682657 C
   0.2493462926812362    0.8032479132444283    0.3394387727084462 C
   0.0586710258489063    0.8048069010131089    0.6157197279576757 C
   0.5458360873820098    0.0188331128824112    0.5567270246307500 C
   0.3653818133383389   -0.0616272563142319    0.6310083803110769 C
   0.5424626652862008   -0.0761806958363043    0.6188817897060063 C
  -0.0145099470112745    0.7614829196229126    0.5512690462724401 C
   0.0265716734877372    0.2402021584990962    0.8620784169099822 C
   0.4542883061842301   -0.0087956147958735    0.7671809493652861 C
  -0.0096053412205124    0.2392703746058708    1.0226361525255772 C
   0.1055560424573664    0.3567437117439402    0.9672023050029452 C
   0.1018538152512418    0.6494573786320661    0.7641410962755152 C
   0.3308178314120575    0.4423433996006145    0.7675517653521156 C
   0.4394608721360784    0.5031652143102595    0.9628907835289627 C
   0.4222725638628949    0.4045053951229018    0.8120776171793140 C
   0.5716911010479173    0.4378289030291698    0.8889461650781071 C
   0.4837516530519669    0.5679042744901533    0.8133597605914021 C
  -0.0671300347598158    0.3723552420386449    0.9299314574830361 C
   0.0926623459185325    0.8825072844563101    0.7726957023746868 C
   0.0223397516737348    0.8199875444106367    0.7152583311868693 C
   0.0193813509382471    0.7114437427698437    0.7599734318510373 C
   0.4519068640302752   -0.1784582327513171    0.7324373769043894 C
   0.7364349993001190    0.9517508810080153   -0.1404732327846968 C
   0.6896493004306360    0.9628586688598649   -0.0458376409369141 C
   0.4558426640182778   -0.0771543414381331    0.6823004018113261 N
   0.0168483964037676    0.3048987073921495    0.9450594927423304 N
   0.4790033494333963    0.4796890237747189    0.8689311801468126 N
   0.6794773325684508    0.5951533597766205    1.0777997443289946 Cl
   0.1696279585767551    1.0292217468074940   -0.0288806658103766 Cl
   0.6237847343417673    0.3964141764280896    0.6199593209069060 Cl
   0.7748125006506695    0.5932587565855155    0.6772821651232734 Cl
   0.5538072164113303    1.6506436542003535    0.5477010422771342 Cl
   0.6932627756146960    0.2315035841527354    0.9628831018418533 Cl
   0.0475227857440101    0.1982675527823767    0.2714900602141201 O
   0.3479758512967587    0.3428910949641775    0.1397225895495902 O
   0.3370121590472668    0.1488873369630140    0.1756840585849324 O
   0.4318035448990578    0.0291108840981577    0.2164046819521809 O
   0.6510463971192865    0.2907256320154913    0.2946335868045402 O
   0.7127649758917074    0.2723223588090936    0.1546900077147776 O
  -0.0412228968904735    0.1122439068630529    0.1802169523147056 O
   0.2593731580311570    0.5538250270810546    0.1950705418436346 O
   0.1591981872219059    0.6726011294610075    0.1533198740685266 O
   0.4115575181514095    0.4518729288627539    0.2360600242597143 O
   0.4035550441619152    0.6822986107850785    0.1748593247234530 O
   0.9352120578609203    0.3962943653310521    0.1989260504373919 O
   0.8321075659424089    0.4708333424359695    0.1073058699476682 O
   0.1672612379883649    0.7736733378696793    0.3487357091164685 O
   0.9981301976934687    0.7050006484128936    0.1880341164513691 O
   0.6506808233141155    0.7973021071155435   -0.0366154263944112 O
   0.6452310265306707    0.9668023305117496    0.1458539725333230 O
   0.3731032392579617    0.7297770058773700    0.0025674628805617 O
   0.5996462974835701    0.8157602335952836    0.1565468809896916 O
   0.8890673458174596    0.9818400666971484    0.0655670738708202 O
   0.8573723082234738    0.8932390386843252    0.1899957400050485 O
   0.8685543586224899    0.7087544888688696    0.2735585290521402 O
   0.1524333108734240    0.1280467018608596    0.3966987667575544 O
  -0.0084001451113649    0.1321975067949718    0.6356481193251908 O
  -0.0319574675393770    0.2917743399913676    0.6059290685690728 O
   0.5273241765321465    0.1508216366019326    0.3327515149120652 O
   0.4766148634681665    0.0238774487691284    0.4870290523145613 O
  -0.0536904428471717    0.0070952341407199    0.4960118775533258 O
   0.9635007083223301    0.3709904059874528    0.3662513523964213 O
   0.8346200934241909    0.5891700224607119    0.4141438781831386 O
   0.9068959365355379    0.4272174651257099    0.4992476136643880 O
   0.1250666953079078   -0.0208330212801585    0.4501682672192590 O
   0.2815076305816250    0.8850211522333076    0.3686647988191753 O
  -0.0251284925082929    0.6727757938313875    0.5480709504282143 O
  -0.0646689271003410    0.8123427303153287    0.4880086769215751 O
   0.2260439562213781    0.2325385788102762    0.9184564136118861 O
   0.2723492671619081    0.4828694309981871    0.8402966439435120 O
   0.0981973728184045    0.5612850722556302    0.7744520153819862 O
   0.1850327738351160    0.6874901844055044    0.7603568178713185 O
   0.1808536806056759    0.8706423770816152    0.7644714088212220 O
   0.0489604276252316    0.9444113686840739    0.8307434185201105 O
   0.2854401904164411    0.8501799408640851   -0.0324763937127957 O
   0.8308270010526192    0.9643563075728335   -0.1346072171738363 O
   0.6944940338255609    0.9404597677426265   -0.2122865322302732 O
  -0.0626001597288821    0.8638506757375018    0.7103162130347193 O
