Li1 Co1 H110 Cl3 O55
1.0
  12.5315977871000008    0.0000000000000000    0.0000000000000000
   0.0000000000000000   11.5961426261000007    0.0000000000000000
   0.0000000000000000    0.0000000000000000   12.7874159141000003
Li Co H Cl O
1 1 110 3 55
direct
   0.2441116404764475    0.7379336895908757    0.6787033060706411 Li
   0.5710276546671692    0.5932200503999455    0.5910976469190716 Co
   1.1090867365618149    0.3419451140739880    0.2090321824953426 H
   1.0577285609377520    0.3127690327761861    0.0950683441569720 H
   0.2686400370322655    0.3269418491427328    0.2011447406010982 H
   0.0064055593679069    1.0681909245597081    0.2344595246717611 H
   0.2380685164242251    0.2923820810438143    0.3247130995732722 H
   0.3453956125256113    0.2978520034175901    0.0170411644122500 H
   0.4143469158374262    0.2773184512116976    0.1232400250047639 H
   0.5799163855291399    0.2788094642629759    0.1389758078518773 H
   0.5060798312668819    0.0593641640411179    0.1886598100199350 H
   0.5302004585911292    0.2620530301395583    0.2437295758530394 H
   0.6389016811441101    0.4419499206197331    0.0590169634013281 H
   0.3961249776712441    0.4619988289072808    0.0784145494082471 H
  -0.0246298286654017    1.2018733092960676    0.2128875353149564 H
   0.7086294217598749    0.3395443157311547    0.0208196291407432 H
   0.9354616300937661    0.4100876012335958    0.1638213280206300 H
   0.8109571553646054    0.4372664666686096    0.1334438066660866 H
  -0.1183313677627345    0.0567870139521964    0.1346919087147892 H
   0.8181078795996461    0.4151004750722777    0.3108486877803852 H
   0.2764139858658519    0.7674003847685392    1.0392882773403840 H
   0.2889000233734608    0.9685457203519517    1.0079293223573180 H
   0.1847393231837633   -0.0390733972071182    0.1574619509153359 H
   0.1550032906098808   -0.0451511078969964    0.2799135870018287 H
   0.0448890000426816    0.8613342069990737    1.1390034980359127 H
   0.3612012586503132    0.5914910271681277    0.0594781199039095 H
   0.5508506585414010    0.5639154780988814    0.0323413940531946 H
   0.6148432964814334    0.9585682645952773    0.0864007602804058 H
   0.3575951741934278    0.9338359023566062    1.1050482405455209 H
   0.4799945701889611   -0.0786335349866829    0.1951943593425908 H
   0.5579072208012456    0.7480413610622657    0.2215053827940932 H
   0.4433998750997146    0.7529343674549511    0.2891148205262863 H
   0.6542444972212366    0.6340448328525582    0.0452321611250813 H
  -0.2039341790103374   -0.0061170071106530    0.0635303850642898 H
   0.6885433956779405    0.7898086983240438    0.1324811414894244 H
  -0.0586278875911817    0.8867530043961123    1.0598319119390156 H
   0.8807918256810169    0.5912918229952848    0.2201071331305091 H
   0.9323095978732092    0.7093759173490405    0.1828939852047195 H
   0.7354967060216301    0.6971847944422032    0.2065594389627627 H
   0.2049626023142889    0.4833999109741253    0.3652302770452827 H
   0.1263325651282624    0.2218172366482083    0.5520099998637457 H
   0.2155494406611572    0.1332170845866481    0.4233866711905606 H
   0.0783314235165188    0.3742239512760696    0.6272918243126185 H
   0.0723197399882180    0.1425391499911124    0.6403570128637925 H
   0.0014515222966001    0.4873762332294430    0.5943047061306814 H
   0.3129879334012415    0.2086016351381793    0.4513946754977551 H
   0.6307566702896227    0.3801078043986097    0.6603516702455139 H
   0.4810167862078303    0.1820402164034056    0.5473554238024188 H
   0.5329207820948960    0.2809774265596293    0.4069009322878672 H
   0.4625905644344425    0.0976097267510651    0.4473657144984345 H
  -0.4550442172880836    0.4756757907310368    0.3990572834479633 H
   0.6355357895222596    0.3263226777310395    0.3427636581498090 H
   0.6463372852532620    0.1830914280341218   -0.4157429912902124 H
   0.9780419944707084    1.1974494244186484    0.4758366739515137 H
   0.9246888617450271    1.1480019470558380    0.3614085510352517 H
   0.8237041332611060    0.3103251166470231    0.3841183777860803 H
   0.8443718888338722    0.4638011523758589    0.4913190826985146 H
   0.7934845230857912    0.1184242344526815    0.4808548887676318 H
   0.6834634369143795    0.0535955216436504    0.4647578132222097 H
   0.2788215000960849    0.6631519256922327    1.3651633429511896 H
   0.2912237494054259    0.7981502652673723    1.3962485913446276 H
   0.1676840359306077    0.5605393554292720    0.6044498363799410 H
   0.1170903278678849    0.5903820377037299    0.3945348685684852 H
   0.2281807110457639    0.5946524232618156    0.4994293999585988 H
   0.3010541000193604    0.9288859804859656    0.6107263194895193 H
   1.0522304591656917   -0.1333957106924825    0.5325611916236248 H
   0.5509456184994381   -0.0910730163427789    0.3638859866807967 H
   0.3627309917558342    0.5063946264237127    0.5938120342693515 H
  -0.3708259062690037    0.5798906179340063    0.4125306858270963 H
   0.5559649305671099   -0.0985298063106237    0.4833026076977314 H
   0.4449726992786305    0.7715828100425126    0.5854108060054344 H
   0.4499529101871106    0.7087567459373472    0.4734390042263746 H
   0.9509664366875440    0.6671334220819100    0.3468348481658150 H
   0.9949831701776515    0.7162963220549448    0.4689736767213046 H
   0.7368548728164119    0.7546349329477914    0.5449898168492074 H
  -0.2150061909243193   -0.0389285214450507    0.5882338939727378 H
   0.9340970794362593    0.5615664210996436    0.4846375138362873 H
   0.7868038107438916    0.6216743399545896    0.5388212523378253 H
   0.9356212266618956   -0.1634936502620118    0.5772864124064551 H
   1.0393749556028631    0.4796150316901110    0.7756775507757550 H
   0.2957339484207647    0.2005161878456485   -0.1234337377936995 H
   0.2096914486279650    0.2798839594983101   -0.0774064556630686 H
   1.0257932876550453    0.3719654416281239   -0.0900845448946263 H
   1.1260997307244163    0.0945221483075736    0.7923877290819431 H
   1.0194573039003054    0.2376293912510073   -0.0857513785714051 H
   1.0075833192314729    0.0801271891058567    0.8139026310643397 H
   0.4894115656914403    1.1036337449226572    0.8427200248580049 H
   0.4295460950032361    0.4573265855806030    0.6900245926364725 H
   0.3563918160697317    0.4108999403280459    0.8647260346640764 H
   0.6570430230433867    0.2389617308485926    0.8578990102999327 H
   0.5922532002455477    0.1590110067247545   -0.3098193231230985 H
   0.5927982225257099    1.0336277070378832    0.8343524234036706 H
   0.7054335004830822    0.4806584821192879    0.7086999842561881 H
   0.7240512381382253    0.3528625375726483    0.8485147843698382 H
   0.8541391988033956    0.1807898005998465   -0.1237958125108357 H
   0.9057686885932786    0.1014299626198696   -0.0341676180656826 H
   0.1158638282418099    0.8952972249351902    0.7508734776048601 H
   0.0630430298691245    0.7615035963101002    0.8700515828794050 H
   0.3202096781090999    0.6851187131157218    0.8644992492040992 H
   0.0332794573114455    0.7406121664776718    0.9890983089909287 H
   0.2008274552340543    0.6810380458174864    0.9786192567023231 H
   1.0348424130679861    0.5652374694277476    0.8716078003461456 H
   0.0672223054004468    0.7934590501147095    0.6824530863485414 H
   0.4364039595357593    0.5079908468736353    0.8986343710248178 H
   0.3621955452697598    0.9132256004910470    0.7138542703482925 H
   0.3561564111317407    0.5970713310749074    0.7758339545412566 H
   0.4698250768677513    0.6994674500504934    0.7698749710756465 H
   0.5839326331661180    0.7601186530131926    0.7444546670686756 H
   0.6642887072364646    0.9092587641487216   -0.0151579915990902 H
   0.8606427589546715    0.5114368203570986   -0.1782219768489011 H
   0.7375467239392532    0.5344634429685698   -0.1271889922033923 H
  -0.2568061280831084   -0.1235915884368531    0.6749871526023237 H
   0.1860017320376674    0.9498412246421619    0.4479358062236878 Cl
   0.3279533035947417    0.0346510237115925    0.8544346668940728 Cl
   0.6861207197737352    0.8799731636736426    0.8033117500834006 Cl
   1.0420322384622187    0.3225783291661751    0.1709244050308840 O
   0.2255569434657155    0.3441639553585104    0.2655041080861686 O
   0.3548740527068204    0.3252593931201510    0.0890490670397612 O
   0.5224632169682125    0.2351492561813274    0.1721099455733859 O
  -0.0517213461053789    1.1204669287057416    0.2300387722398591 O
   0.6872937545494867    0.3798094293172088    0.0895332930977541 O
   0.8723491672269680    0.4514306594778904    0.1883618608466545 O
  -0.1287370640047759    0.0257656121292884    0.0618914300055988 O
   0.2724472131649939    0.6909637602305654    1.0000543927643137 O
   0.1238667981506621   -0.0394823262926683    0.2106587816565590 O
   0.2809529122634539    0.9323871447359309    1.0807509155748511 O
   0.4946575048858560   -0.0096411100229456    0.1464730223511953 O
   0.4258482425196763    0.5420185414892462    0.0747690122400537 O
   0.5027785762551240    0.7986599175017884    0.2563638720302566 O
   0.6705305290160081    0.7135824885833585    0.1657278899220942 O
  -0.0065512082173999    0.8245840553546103    1.0870461671362897 O
   0.6818028346229925    0.9184687233087291    0.0608679237641565 O
   0.8831219355757071    0.6769875609696817    0.2359547446699562 O
   0.2377421414424004    0.2128358017557481    0.4268353742198704 O
   0.0632959106313257    0.2133273445199058    0.5927351943438731 O
   0.0688465994725845    0.4632897754299897    0.6354920737378661 O
   0.6522216107201956    0.4618970709315429    0.6530218077752825 O
   0.4542564316467217    0.1807854888212136    0.4754190758976246 O
   0.5612866781313871    0.3391217614251244    0.3566280699426961 O
   0.5887109544159143    0.2154763349905741   -0.3692418057501117 O
   0.7274546349535862    0.0932047274640583    0.5197313907395306 O
   0.7797161271532620    0.3788323802789795    0.3680924659539614 O
   0.9083541529969761    1.1802454276731291    0.4330547699550405 O
   0.1930662741259183    0.5652469553407401    0.3848409631826976 O
   0.2313941879450508    0.6060458671215549    0.5800336445474902 O
   0.3308922743968459    0.7316229703836722    1.3727802063311163 O
   1.0038966385076824   -0.1972298686420345    0.5533605463788517 O
   0.4316830930504896    0.5003081197054232    0.6270924095116041 O
   0.3403403912301104    0.8716359085089468    0.6488904023095584 O
  -0.4461722440657664    0.5609015448344408    0.4257991992734224 O
   0.5618189326860988   -0.0432953183733694    0.4288764433596660 O
   0.4961002578617463    0.7373257288036279    0.5336951189235112 O
   0.8844465870911817    0.5190393484427376    0.5356306155215932 O
   0.9963955998055972    0.6533779858870340    0.4131390964748975 O
   0.7226707278239055    0.6669307684861607    0.5460056593061402 O
  -0.2089662588034596   -0.1208855161668060    0.6119149881073312 O
   0.2825480799619080    0.2865103009014464   -0.1091032427796177 O
   1.0687008249966528    0.2995689536692356   -0.0638579794764947 O
   1.0626361554077330    0.0604372795072895    0.7574760625655093 O
   0.5649941064090346    1.1128523276399302    0.8337737294713149 O
   0.4155542638753256    0.4678835443855476    0.8355645525863079 O
   0.7229971028057303    0.2778272410903871    0.8821103131995764 O
   0.9230210776080742    0.1399494957441553   -0.1064381226154709 O
   0.7790154982191736    0.4985765094064256   -0.1818630565097778 O
   0.9996034908249996    0.4955185959999288    0.8426574633518042 O
   0.1189352641954616    0.8123075592308404    0.7394075175559397 O
   0.0509524726573404    0.7017552797931432    0.9220323743438533 O
   0.3369130549295301    0.6810734024022768    0.7885581828836370 O
   0.5397882224215070    0.6892269757972083    0.7270375437424201 O
   0.6208010363697064    0.5783642482979376   -0.0028072554487273 O
