Li1 Co1 H90 C51 N3 Cl6 O45
1.0
  13.5277944291000001    0.0000000000000000    0.0000000000000000
   0.0000000000000000   13.1771760699999998    0.0000000000000000
   0.0000000000000000    0.0000000000000000   13.2205351943000000
Li Co H C N Cl O
1 1 90 51 3 6 45
direct
   0.8854413612860392    0.8023752191997537    0.5528383298923616 Li
   0.1524489986382210    0.3701058187044472    0.6239290222272087 Co
   0.2775758261392962    0.1871948530167890    0.1981784820806360 H
  -0.0042742581433392    1.0064515695281286    0.1877863158043996 H
   0.1210588114036674    0.3172416848187413    0.2115523733340121 H
   0.0264380654492097    0.2398358738481970    0.1546893198379540 H
   0.0632112440044589    0.2215641289218958    0.2815359244083216 H
   0.4432848049198924    0.2069373227704014    0.2000604028678313 H
   0.7242310463725615    0.1055719017648369    1.0875910381675977 H
  -0.1527337879303848    0.2900279632979056    0.1849021663021587 H
   0.2840033336280970    0.5514870939718726    0.0042022199769910 H
   0.3229135937417274    0.4687244448119452    0.0993700767625814 H
   0.0329357987242598    0.4814818823013571    0.2327595329443795 H
  -0.0269741891342650    0.4170900888326675    0.1288477033694091 H
  -0.1012139334816232    0.4766083039520317    0.2326362399024531 H
   0.5813725774529851    0.5366536426343737    0.9982988890487809 H
   0.6084442484426192    0.5189187198589205    0.2974596367925801 H
   0.8023117716183451   -0.4528163265560737    0.9846216817842853 H
  -0.1359904820509896    0.2296811943258796    0.3048352837362864 H
  -0.1833788426118951    0.3560648740424700    0.2994451842469159 H
   0.0184042355023105    0.7353153275123537    0.2140772332968971 H
   0.2656433562273668    0.8235610938148450    0.2948288809654638 H
   0.0632238107241035    0.9243049855977222    0.3842987838563829 H
   0.3767841639828279    0.7031301310979599    0.1206362354973062 H
   0.6136853097532113   -0.0753530541843932    1.1798823094412492 H
   0.6795327030343985   -0.1824177236177736    1.1213476140883980 H
   0.7430899964650617   -0.0667852093441748    1.1722025900873934 H
   0.8386665523313102   -0.0159397173783077    1.0616881533776046 H
   0.8073510261958214   -0.1272359459639519    0.9906199260939551 H
  -0.0372301108018469    0.8529292981967417    0.2414989673395782 H
   0.2518436196200137    0.0526963845600342    0.4435227856454767 H
  -0.0160529705443231    0.2905500782004805    0.4133383797848085 H
   0.3381466756073652   -0.0246024232109999    0.3830862762109352 H
   0.4031217907014580    0.2407852426608731    0.4560917926907924 H
   0.4709441548576112    0.2180398533295154    0.5636107379610911 H
   0.6123221902811758    0.0585026361873603    0.6164104158667904 H
   0.7068512731041084    0.0022910475992448    0.6907931837008777 H
   0.7103551702285381    0.1639341787743146    0.4533580153157597 H
   0.8876294489418012    0.1426048743386032    0.5982356599685875 H
   0.9301160496225181    0.0424680929075572    0.5312057714673966 H
   0.7718936571092399    0.0138656064569076    0.3409752730013199 H
   0.1601050877769803    0.3283009587652873    0.3819040245266964 H
   0.1356628180682737    0.4543171090526378    0.3437088990965464 H
   0.0643008525195242    0.4856065900316986    0.5014329979589759 H
   0.3434956628631402    0.6188260287547330    0.4563453376457232 H
   0.5275054076183767    0.6304711641907962    0.3021130036265131 H
   0.5106067918685505    0.3530490533697483    0.3566418097153025 H
   0.4881958215075698    0.5642949975092805    0.5907510915645292 H
   0.5838888782571114    0.6397698181170315    0.5509646538545957 H
   0.6070463856868604    0.3969021518583989    0.4288428201866142 H
  -0.0227236810191868    0.6325042249814911    0.4516201129039190 H
   0.6782390701298094    0.4711585778788186    0.5495035934878166 H
  -0.0533376885109869    0.4209194373768430    0.4011725334226018 H
   0.0999482008383796    0.8309200301669794    0.6683561192673675 H
   0.1843470291901762    0.7219126076077391    0.3215093439585262 H
   0.5164093637816146    0.1255109234948547    0.4262153925152310 H
   0.4337652930234829   -0.1577682844454851    0.5434773624140284 H
   0.6973094367998597    0.7896638462082869    0.4226110754963145 H
   0.1643770332373346    1.0394115905290473    0.8520529185502793 H
   1.0292896441823267    0.2550007315490018    0.9122176538132617 H
   0.3325463539586986    0.1209598725199397   -0.3147962122361233 H
   0.3853014430266422    0.2530124451467544   -0.0669416472096808 H
   0.6400909446016828    0.2987840123471918    0.6903945614119501 H
   0.5970491906001965    0.0854522647051494    1.0807811776984984 H
   0.8535462876092945    0.0932103761136129    0.7711348630950635 H
   0.6655570323520212    0.1042863455948343    0.9644984419842276 H
   0.0843122447253126    0.4157673471536151   -0.0515670805213644 H
   0.3092883127717930    0.4436456268433240   -0.2016525324972789 H
   0.4707572064224280    0.3495915599160693   -0.0113432928921559 H
   0.9751788278303739    0.5240879761273464    0.7436526171299646 H
   0.8305950222254772    0.3498943562040451    0.8134001717068444 H
   0.7521143796074748    0.4321957532741687    0.8841930697434927 H
   0.8178390625674267    0.6458090483418728    0.7409046194531638 H
   0.9342283238215061    0.4406734422271402    0.6491269431210337 H
   0.1304454117593655    0.6372032591046649    0.8033582181816014 H
   0.2831236632529766    0.6978543421405463    0.7834528213022481 H
   0.2605508778961018    0.9792499902143297    0.7900455952496733 H
   0.1179792258719429    0.8681897757779600    0.9453744053030949 H
   0.0670647916225290    0.9063595624855303    0.8270902377548538 H
   0.2753943914527577    0.7447225024139789    0.9209578446074906 H
   0.0834281390373764    0.6983438248617103    0.9121624366840553 H
   0.3296670967224848    0.8199768660752211    0.8287376748426799 H
   0.2430106941474797    0.9696675121986132    1.0064309350227103 H
   0.1833076875536892    0.7350011479052809    0.6589934120712649 H
   0.2326512818475307    0.8639506277462984    0.6659893467017991 H
   0.4006239703673973    0.0237372207776837    0.9565123810231313 H
   0.4791826744909566   -0.1388142992613136    0.9287260626478826 H
   0.6354405191143858   -0.1634288295883717    0.9382513956354832 H
   0.4981112146415356   -0.0990212512505344    1.0496788059747513 H
   0.0264121927911179    0.7293671638402870    0.7858067350843027 H
   0.6436059300081518   -0.0424772697447914    0.8887223871364691 H
   0.8078204301354865   -0.0086020298884873    0.9310497204687282 H
   0.0485710156185241    0.2761904006037919    0.2256924968050043 C
   0.3765180452138839    0.2738492313095426    0.0854213222462357 C
   0.6683224498926312    0.0724578265121413    1.0454233050307156 C
  -0.0311167713041604    0.4409540030984802    0.2103791984381359 C
   0.3350042564774178    0.4881311066522009    0.0190336921616072 C
   0.4372680813197087    0.5416755076871338    0.0190737813102090 C
  -0.1364362309889708    0.3013945868600661    0.2657892093971354 C
   0.2393227315411970    0.7417802938714166    0.1659029354610127 C
   0.1181854679178745    0.9279188099669977    0.1585318269114878 C
   0.1118754962186906    0.8573111171610838    0.2601532802229424 C
   0.1990589617999653    0.7857411544475174    0.2630457501145159 C
   0.0186230442678867    0.7996842025652617    0.2658784644827016 C
   0.6798513063383287   -0.0964372378155527    1.1348811055371513 C
   0.7913225448985620   -0.0460379719582816    1.0030422673673105 C
   0.3355527568289635    0.1208976437088770    0.3127230128234537 C
   0.3279077559722436    0.0561804390916058    0.4077683329661480 C
   0.3158215285493690    0.2389532871742223    0.5952811653565357 C
   0.4013424910435461    0.0764700670498061    0.4899977498560714 C
   0.3968125582210766    0.1958294799957090    0.5269796188057336 C
   0.6919456651680322    0.1674447943837788    0.6990636506973381 C
   0.6911118263586743    0.0700870605882403    0.6393482164583083 C
   0.8765566904973217    0.0608954098615152    0.5884592025029529 C
   0.7655186341554251    0.0605728824871048    0.5509482399956398 C
   0.1035112354670192    0.3937671857791303    0.3950252785039780 C
  -0.0014105245019804    0.3601962599866816    0.3731146677955030 C
   0.4347466059839640    0.4894473977837651    0.3999153982343709 C
   0.5323954878414837    0.5367996526739890    0.4420219386897079 C
   0.5163361811201550    0.6125120810956881    0.5310961692479172 C
   0.5825708511320359    0.5795237535746154    0.3427195291650145 C
   0.4487140713376322    0.7021230868018598    0.5240522789188669 C
   0.9265522757750760    0.5938692399668299    0.6118357145320005 C
   0.3781228892343769    0.0018433037147693    0.5732041468614117 C
   0.6696914831150877    0.6462158122775998    0.3805440190703551 C
  -0.0124197101294344    0.7602888118349320    0.3636203471681416 C
   0.7454421906950059   -0.0360343111359823    0.4793169341459116 C
   0.8983791687695348   -0.0092250768870541    0.6795651964962448 C
   0.3949090698043243    0.3179186128610332   -0.0169020693652661 C
   0.2159124112809513    0.3652390703465800   -0.0652616849635552 C
   0.3247897310627827    0.4009485423533541   -0.0516139772612382 C
   0.7316934601850336    0.4584498609951411    0.6867630896678487 C
   0.8226617260357346    0.4261921907824974    0.8428672087272490 C
   0.8173060858107360    0.4979898957667946    0.7549206934831993 C
   0.8957941206167646    0.4539180098851028    0.9163022085764669 C
   0.9169756961871041    0.5092923174092490    0.6909285791272877 C
   0.0929108378374153    0.7117389558869270    0.8282497974681861 C
   0.2108635468590409    0.9751793153053012    0.8607893273493572 C
   0.1381428971510716    0.8857603082478960    0.8611826548450733 C
   0.2706715225228038    0.7629919706764607    0.8394346699280962 C
   0.1733858927848926    0.8107768675811585    0.6917825536324097 C
   0.6176526970668853   -0.0856815190449223    0.9555683950334127 C
   0.5109863068018168   -0.0741297268254533    0.9704505459530539 C
  -0.0274325047918908    0.3454442373251221    0.2677845900388641 N
   0.6886265727442581   -0.0435814516971845    1.0348337186075911 N
   0.1702841306890894    0.7955983498974375    0.8089185074527721 N
   0.8771199752249198    1.0625569138046738    0.2396699944844985 Cl
   1.6899243135542632    1.6141515772885926    1.0244982822586215 Cl
   0.0405615798921115    1.2462335974235790    0.6147644915770246 Cl
   0.6234052977888920    1.2609734778781021    0.3715095890533693 Cl
   1.0061897958191823    0.1814766323904785   -0.0316677348342529 Cl
   0.1932523981053671    0.5049712853688840    0.7192844659722945 Cl
   0.2563469405655887    0.1589771227516124    0.2771609124175107 O
   0.2949592955017623    0.2316042163653050    0.1067548004946503 O
   0.4552170530661809    0.2591305997173338    0.1408903323295924 O
   0.4195731051538175    0.1348346207231031    0.2757101390775426 O
   0.5127192574408043    0.4891590962554392   -0.0084077082558597 O
   0.4449279404743612    0.6348878920003684    0.0400729311872651 O
   0.4502991042942149    0.4070644202601142    0.3412551406425025 O
   0.8696139475030930    0.5118946731657353    0.9916108088235477 O
   0.1884009051037569    0.6961476031639607    0.0999782215828808 O
   0.0427437537974525    0.9872585346429236    0.1321229111702755 O
   0.1972707915164219    0.9261172099979385    0.1091987257613015 O
   0.1240807378687874    0.9258523581069520    0.3408096216137010 O
   0.3401950509094316    0.7536409534823799    0.1615528846381992 O
   0.6202628786589446    0.2292175137946685    0.6653630483047743 O
   0.2731856056705222    0.3134942961720629    0.5592215056685120 O
   0.5035918382855876    0.0603482516569273    0.4595005049204932 O
   0.3679881994504251    0.0361473152570542    0.6611317521297058 O
   0.7712128365920248    0.1504988266882890    0.4917612488110950 O
   0.1164335193556597    0.4377083152687964    0.4891849839701160 O
  -0.0186542815107510    0.6628529125815953    0.3688069753183820 O
   0.3496252651744844    0.5262931527027854    0.4053546636607058 O
   0.5916639816230929    0.4587553892797002    0.4825318872000304 O
   0.7454096650676906    0.6110770240015470    0.4160407666000868 O
   0.9776810834772506    0.5792384875980487    0.5313798945241540 O
   0.7392963255700040    0.4936613507358257    0.5927131906489281 O
   0.3608111240957652   -0.0860731052218535    0.5414429515823402 O
   0.4878585898898135    0.7867269498813034    0.5538708145686162 O
   0.6495958199658003    0.7447847312250416    0.3831944412722571 O
   0.3592328919521666    0.6941949844948835    0.4966626918349703 O
   0.7165971337978809   -0.0285220794200104    0.3841792728096077 O
   0.8922961372427558    0.6781847256291538    0.6370109434549187 O
   0.7607469767844982   -0.1196880465148099    0.5195976937500765 O
  -0.0245939045898212    0.8174770892015560    0.4397025167034315 O
   0.9132899512372292   -0.0995016273164209    0.6715473667758791 O
   0.2914494846269116    0.1995700386509293    0.6767687892815097 O
   0.7472259256657335    0.1825656365840758    0.7716393812482224 O
   0.9018601501110832    0.0369380764903144    0.7711303247008823 O
   0.1961420044048177    0.2982527907893394   -0.1245558049427506 O
   0.1500384061228697    0.4185919280655100   -0.0121042303165604 O
   0.3617580633819243    0.4297293674698543   -0.1518451691551426 O
   0.6659185103465035    0.4015670360242822    0.7193434650966519 O
   0.9831668262115106    0.4325235928641575    0.9012105351254539 O
   0.7921726465215776    0.5957899853424361    0.7934047633428946 O
   0.2789677751446339    0.9726059263014765    0.9416650244588805 O
   0.4735681598412796    0.0243974532853001    0.9546289474378756 O
