Li1 Co1 H110 Cl3 O55
1.0
  12.7581595839999995    0.0000000000000000    0.0000000000000000
   0.0000000000000000   11.8057921021999999    0.0000000000000000
   0.0000000000000000    0.0000000000000000   13.0186027088999996
Li Co H Cl O
1 1 110 3 55
direct
   0.1254930055905468    0.6380680758977834    0.5330491305150485 Li
   0.5355466630601444    0.3887328365069878    0.7042618212960804 Co
   1.1292780668826601    0.0538716119676106    0.2406375649176486 H
   0.2581006900187713    0.0202620924567546    0.1000581923903002 H
   0.0465013067201339    1.0547804792174413    0.0635154073743039 H
   0.2739979672604164    0.2801598590308607    0.0742179384458411 H
   0.1060400430871425    0.3996105479632202    0.0319288454985905 H
   1.1044390610751591    0.4070704455488798    0.3178570655413789 H
   0.3324546745221211    0.1157808844393662    0.0393454094846773 H
   0.5243655832922680    0.4131877818000020    0.0196605473124256 H
   0.3551413322719573    0.3121602531365301    0.2334708971817774 H
   0.3937817017354531    0.3072965388255438    0.0576665461944520 H
   0.6186017458111770    0.1067677662107154    0.0593884667800364 H
   0.5687599174649107    1.0044323115676626    0.1961581370598392 H
   0.4374502258930201    0.3372445505251666    0.3124348246466827 H
   0.3919428785223134    1.0050252408636728    0.1412351921026830 H
   0.4435310402525844    0.0306858487735432    0.3249668915395809 H
   0.7707287032474228    0.4729847013026287    0.0108941687269588 H
   0.8187983324100111    0.3498121104750280    0.0158603698965975 H
   0.6820074427437105    0.1236273719260243    0.2668108807195862 H
   0.7727242888828252    0.3298193816554162    0.3075979000236622 H
   0.9808867579689307    0.4270691036614517    0.3054048843338538 H
   0.7716630072841076    0.4098038496034868    0.2134533879431058 H
  -0.0702131214225765    0.4825833795631821    1.0919301535165384 H
   0.0282191008530341    0.5098479626774332    1.1728758604839677 H
   1.1388170602773360   -0.0758077849544058    0.1858490429887643 H
   0.2233378390699396    0.7677815239022278    0.2055400963016325 H
   0.1232348428978548    0.7445785064656465    0.1303476949442436 H
   1.0374544780423716    0.6274139834903317    0.0394288439379968 H
   0.1143635006595948    0.6938915220752904    0.3237709106537555 H
   1.0117219264279742    0.7475355295690344    0.0105861479593185 H
   0.3404056645792776    0.5280288689768081    0.2893578472845412 H
   0.4146687268777152   -0.2924997254742865    0.1354642194660698 H
   0.3667315619619388   -0.3039839188961523    0.2401359749892966 H
   0.4107747483087134    0.8988146631112205    0.2033248047957105 H
   0.5954894780848980    0.6987238958377734    0.2864842670058815 H
   0.5978205353039422    0.6851627557961691    0.1637429839565415 H
  -0.0603700089287110    0.9225995982997431    1.0239197825268234 H
   0.6985419592318529    0.9841626000626287    0.1792868948143219 H
   0.7462761168107992    0.8127145529957306    0.2171127668384639 H
   0.8302459082957337    0.8646670179121427    0.1540491632891572 H
   0.8912264905558654    0.8326327421324156    0.3232731613833540 H
   0.2557406317516086    0.3282574364813551    0.3628165756430168 H
   0.1486577887282837    0.2561114938265392    0.3955858374093624 H
   1.1349528665685642    1.1034599744198772    0.4064418411726066 H
   0.2376784654585177    0.0468224449757158    0.5486468105841377 H
   0.1929517949506784    0.4101350429674010    0.5247755851578063 H
   1.0127957490204726    1.1089742168727719    0.3774540912244491 H
   0.1658985199287189    0.4512394428923811    0.6392801931662303 H
   0.2916235502075062    0.0179324732527306    0.4453799677392504 H
   0.5366369457069805    0.1732987531365001    0.6589282311100514 H
   0.6119902906522541    0.2310703955723263    0.3608586082197868 H
   0.5024094384301755    0.1950821284300627    0.3997967347864306 H
  -0.4615415075529126    0.3479333716485272    0.4877577875664764 H
  -0.3854349191686675    0.4494360907906587    0.5384583131727125 H
   0.6154586592448129    0.0281572001456856    0.5952531948150047 H
   0.4810098001671148    0.0315788172341716    0.4404815925890199 H
   0.7536706002689235    0.1364193979665183    0.3657623602911482 H
   0.7822656337138352    0.0477205634508010    0.6631329834343986 H
   0.8605794370035371    0.0934854723466062    0.4952801002285758 H
   0.7898599892603444    0.4883822280781617    0.5534453286276519 H
   0.7578138310893228    0.4780491645324071    0.4336782510952780 H
   0.0617838949897242    0.5724189442435360    0.3612872256470769 H
   0.2216079657402724    0.8549395892901699    0.4972718654417713 H
   0.2888425848365685    0.7546710101255911    0.5496092794665650 H
   0.4396574407984769    0.5131683667350901    0.5145440723773342 H
   0.3344588820907478    0.5444072702163123    0.5719995471871343 H
   0.4615273663283251    0.6926768640603209    0.6095896028131078 H
   0.3415805989341354    0.6018765187111733    0.3898578801417963 H
   0.5277046228864604    0.8705836052444728    0.5584635323059421 H
   0.6375919456440623    0.8652540179151927    0.5125669016643510 H
   0.8850500511187209   -0.0234359496173443    0.6467510410117912 H
   0.8765456897109777   -0.0144262195560993    0.4319622451229376 H
   0.7305771440333161    0.6844698755616886    0.5168384814370391 H
   0.9692157956314837    0.7617226335388551    0.3824239026125613 H
   0.8455224063452192    0.8026711777631695    0.5956702902684429 H
   0.8044874908816628    0.7666473348631454    0.4464146409911495 H
   0.1968144210352276    0.4980588341890478    0.8328393681671943 H
   0.0328999484005827    0.2056523636942213    0.8191743071788611 H
   0.0400303655584059    1.0660207245860915   -0.0549517610681006 H
   0.1405680639274249    0.2986058894297374   -0.0359661598076037 H
   0.1533598775840489    0.1754680273180459    0.7971750184376656 H
   0.1744099356454640    0.3745702967508589    0.8085740912351286 H
   0.6290617184366457    0.0489126901525220    0.7196436563883444 H
   0.3358564190852184    0.4338513677659568    0.7840906649314672 H
   0.6158607548579164    0.0926757850408117   -0.0604707865431526 H
   0.4227419916242365    0.4383669478760000    0.8759776382686446 H
   0.5524409493073794    0.2880466657096475   -0.0179579291823826 H
   0.4152769650760939    0.2013324502518614    0.6810143187209310 H
  -0.1277747152531620    0.2276466524087933    0.8154104623872458 H
  -0.1190885094355942    0.1829838296659006    0.7102724509888129 H
   0.7192032464860568    0.4567003217086348    0.7150141272946576 H
   0.7691869448244707    0.1902938008438547    0.9636829032291786 H
   0.8812642386210804    0.1557810806068050    0.9880941251633681 H
   0.8797671574884731    0.3620400066424609    0.7115291142702581 H
   0.9173979769525981    0.4903355065875895    0.6914340237409839 H
   0.3127370970499376    0.9955129608719665    0.8074910256930515 H
   0.3182974601675903    0.9842303634107443    0.9301001901088900 H
   0.2237618814221599    0.7069605308012062    0.8196812740283438 H
   0.1326202091187136    0.6707342448986870    0.8994517396628811 H
   0.0718877033918124    0.6297111609914455    0.7238238285018075 H
   0.6624889535478005    0.5231151791965866    0.8035505106357076 H
   0.5199158819363456    0.9713468568502944    0.8593783146060316 H
   0.3550504100670450    0.8187404087268969    0.8340606973954939 H
   0.3886830039513637    0.7034470012014201    0.8780900001414897 H
   0.4454741104765288    0.7716279409496309    0.6989670902453451 H
   0.6303753875352058    0.9199483573047262    0.8519504821295177 H
   0.6283821533361376    0.5791317509162227   -0.0370067476727468 H
   0.7326025145289483    0.6389642461766102   -0.0945427994863511 H
   0.8524356291669977    0.8258699599904936    0.7237523922639258 H
  -0.1404583628384249    0.8273624477327365    0.9943928042023976 H
  -0.0154793649271851    0.7064319766859057    0.6708319663622269 H
   0.4996363111803510    0.6122400757635799    0.0415782143908542 Cl
   0.2803084385685953    0.1262599780003095    0.6976182511730847 Cl
   0.7745529225385178    0.8086995746198903    0.8614676325311731 Cl
   0.3120222604044204    0.0346492168893751    0.0473633667366211 O
   0.0000455231811074    1.0508078529341731    0.0043794142716271 O
   1.1402592745621514    0.0108058019314288    0.1750206919627646 O
   1.0525036705795763    0.4608889436640210    0.2946556508616370 O
   0.1707511007098561    0.3582300123946697    0.0101497724029682 O
   0.3426348262238511    0.2523751922198236    0.0872114219849277 O
   0.3704115598245523    0.3690882418883190    0.2834847131464413 O
   0.6396275056971416    1.0393727879396912    0.1804122075938558 O
   0.8057619693746575    0.4203435913609934    0.0558622819024061 O
   0.7820101109655473    0.4102764989565920    0.2924756934088608 O
   0.7094871115542241    0.1811745482712182    0.3225057979248187 O
   0.0053363333129475    0.5040685961250367    1.0978754920241101 O
   1.0682191034113968    0.6934146375129280    0.0056687999588118 O
   0.1525454968003949    0.7855346740666240    0.1873868424321957 O
   0.3145751364509661    0.5981910396155443    0.3194670693542820 O
   0.4390836903329959    0.9756752407111687    0.1992068513410475 O
   0.3694098479462946   -0.2481384496305077    0.1831421472651620 O
   0.6370424933540321    0.7070621758233795    0.2244614817611949 O
  -0.0876552923356191    0.8444108590767320    1.0479699826136539 O
   0.7912316604551417    0.8822329718273699    0.2206215919421574 O
   0.1849051798159417    0.3336268347776530    0.3945695993156263 O
   1.0818574341482388    1.1352579255230517    0.3576078753303755 O
   0.2239782135648822    0.0112773501301272    0.4811787404970512 O
   0.2039110558910532    0.4729203261219191    0.5762204302748741 O
   0.6329611836904265    0.0867029541295457    0.6527478443359013 O
   0.5376817672513604    0.2670493452542241    0.3844563788000334 O
  -0.4523520943598819    0.4069323777270946    0.5462448631018152 O
   0.4303669158430869    0.0660967976011188    0.3958600603870372 O
   0.8571541780771004    0.0551576756106567    0.6477603659212161 O
   0.8605480845190845    0.0641028610828217    0.4219419685297499 O
   0.0178146221250465    0.6312341422403402    0.6663145844806985 O
   0.0727315555108517    0.6549089619881753    0.3818278324986239 O
   0.2187423486613130    0.7778308284277488    0.5345008992203858 O
   0.4590826563531407    0.7722801631752421    0.6241963931309351 O
   0.3869554820580304    0.5733549254893807    0.5265538097889469 O
   0.5797818833741907    0.9188641437348790    0.5261820340993262 O
   0.7450745328441567    0.5178398025457990    0.4952009826747928 O
   0.8952709610502393    0.8209749051310040    0.6554363049013406 O
   0.9137140600294281    0.8174071648527255    0.3931347295052718 O
   0.7484433572985789    0.7697043089050036    0.5044546639410352 O
   0.1029570749097161    0.2098172684777671    0.8491775270891645 O
   0.2132948544876894    0.4379256390713981    0.7820973634550914 O
   0.5032982813644040    0.3521677338638914   -0.0262716478217883 O
   0.6348807395510315    0.1475164932622745   -0.0061608874080755 O
   0.4843825436820935    0.2378331777142482    0.6731932028702727 O
   0.6517734581740438    0.4818091833109631    0.7344102180769178 O
   0.4163100294388040    0.4311382927157845    0.8035351480039051 O
   0.8427555495922853    0.2136442035625871    0.9527600720175934 O
  -0.0893828142289523    0.2487396885934297    0.7511255296096395 O
   0.8642711920478201    0.4344078742623549    0.6753554932964762 O
   0.1647196665133045    0.6548395045563570    0.8323247200018101 O
   0.5885989858143478    0.9875507674684013    0.8367184326973283 O
   0.3631667844796885    0.7362893549074241    0.8155103194939621 O
   0.3396665297583097    0.9441906950930281    0.8639947854626862 O
   0.6918803400978057    0.5676543338291685   -0.0787238975193058 O
