Li1 Co1 H110 Cl3 O55
1.0
  12.4554446791999993    0.0000000000000000    0.0000000000000000
   0.0000000000000000   12.4578823692000000    0.0000000000000000
   0.0000000000000000    0.0000000000000000   12.4369815111000008
Li Co H Cl O
1 1 110 3 55
direct
   0.7839273178183424    0.2354040677049934    0.6749160355435465 Li
   0.4787611757899123    0.5499286300565658    0.4311326064780612 Co
   0.1613690551696220    0.1188649997499609    0.1186090253719071 H
   0.0523490213632324    0.0524827707730223    0.1541924183041089 H
   0.2584093480801143    0.3279181857423763    0.1953696122673654 H
   0.3092963309478114    0.2538229284069776    0.2802656136852059 H
   0.3162210134638868    1.0546837572639360    0.2949524570995002 H
   0.4222718236935574    1.1291185586626544    0.2704296257575225 H
   0.5767022795738002    0.1079771139937631    0.1883076093270530 H
   0.5782670571069979    0.0473430529540210    0.2966683075235725 H
   0.6648340186062203    0.1838174512196051    0.3288489455379327 H
  -0.0940148417467189    1.0821683641860984    0.1452232001782766 H
  -0.0985124732197687    1.0513204248163932    0.2746830694048245 H
   0.7673409971111422    0.2614847442093152    0.3148391152712807 H
  -0.3303540553049354    0.1044243432508457    0.0281558877680625 H
   0.1343222488390080    0.5241192677210432    0.0958545491553569 H
   0.1045256410454886    0.6307906875191206    0.2418061209559532 H
   0.0976231977996388    0.6371657677812648    0.0656387769710367 H
   1.0388383291692376    0.3916168125621252    0.1154169325023819 H
   0.3457847913525178    0.6262417603162032    1.0512010686782534 H
   0.4929493484767626    0.4531842585589085    0.2482691039497175 H
   0.4651044975756003    0.5734687463707987    1.0610748471260547 H
   0.3792376315145249    0.4112381248169540    0.2819935249135710 H
  -0.2586560932489265    0.3836130445825433    1.2126067922622594 H
  -0.1331310686296995    0.3858020201396910    1.1937517348843329 H
   0.9563121708124395    0.4457841244696732    0.0405293885136135 H
   1.2426528107380364    0.9754327280167077    0.1951251799670290 H
   0.1505906362967743   -0.0255825031779029    1.0334958079762520 H
   0.0763215095152313   -0.1898463755884602    0.0032888410715650 H
   0.2441553407305025    0.8432353006215284    1.3306097014641560 H
   0.0221096995484940    0.6683275646657644    0.3232873066516591 H
   1.3522755528533903    0.9017043067024370    0.2225104421945256 H
   0.4689044421957261    0.7306423286837082    0.1815913494431375 H
   0.5354383975336600    0.8339319538274903    0.2236851645326556 H
   0.5704222950357432    0.8229027920544029    0.0762329070565727 H
   0.6415108850303375    0.9144833645938163    0.0318198797068886 H
  -0.0220491253000884   -0.2229266365659496    0.0781798424908973 H
   0.7810908072874096    0.8163149950622829    0.0986435699454129 H
   0.8571988888867000    0.7275719834302833    0.2827316461362975 H
   0.8626021484035912    0.8894068715959087    0.1686983496540096 H
   1.2958183152266751    0.0168208431007570    0.6045163168321726 H
   0.3959307328332773    0.1090182219136826    0.4507804607248421 H
   0.4309106160266555    0.1418809499333477    0.5655936892180720 H
   0.6084410099187846    0.3079765943356215    0.5830987405688112 H
   0.4003930383897233    0.3259933000122552    0.5996469681123123 H
   0.9696637615651736    0.1933567931782202    0.6238377253094251 H
   0.6985413659401225    0.0234621804924595    0.6603827663705820 H
   0.7000973119941695    0.2857240162662235    0.5046970802358967 H
   0.8121093706507223    0.1086064344326350    0.4007377715526722 H
   0.8989155849487609    0.1731262281005549    0.5216593953934546 H
   0.0518889815856427    0.4613060241207788    0.6661679321630845 H
   1.2315251470078561    0.3909634109840107    0.3872706774792015 H
   1.1592113899965046    0.5038397376602515    0.3900157165362693 H
   0.3037862908193679    0.4786404308522069    0.5135481024796584 H
   1.0435671848236938    0.4119597562895890    0.4864900900753097 H
   0.3463315401981348    0.5577092461458333    0.6023405477377304 H
   0.6055683706095072    0.5493659341029316    0.5892465345437206 H
   0.9693185310165461    0.3487186711154486    0.5560085660196813 H
   0.6936166120208639    0.5306701402996580    0.4922816882967682 H
  -0.2000311289215268    0.4596644931290784    0.3638695009364650 H
  -0.1432631838010468    0.4842360849075338    0.4741100764954405 H
   0.8604183644680869    0.6218076198770085    0.3601796988764521 H
   0.2279415478711237    0.7022177546264449    0.6602669826493701 H
   0.1861269026766615    0.7262314666791146    1.3624904274784324 H
   0.0689121393661177    0.8140393274038621    0.6422513572502306 H
   0.2196086458613445    0.8776873838312016    0.6307300729360171 H
   0.2121765547249607    0.8195370514929360    0.5154504933434612 H
   0.5524678979218889   -0.1276696767688404    1.4095436452931980 H
   0.3545632816285489    0.7297232318692842    0.4069780316938273 H
   0.5783296803227954    0.8680147929021111    0.5782117026693213 H
   0.4865441175071105    0.9463025765796376    0.5493099953153954 H
   0.4602078438172764    0.7483676525755070    0.4685548700381231 H
   0.6676006801656864   -0.0901159428247269    1.3548519180929186 H
   0.8738823558645604   -0.0002081264875650    0.4402939934189607 H
   0.7540118864871559    0.8702382847588398    0.5809430728148572 H
   0.9107096239239664   -0.1550643807711640    0.5568656871780979 H
   0.8502541348270999   -0.1863489914658007    0.4470713613779603 H
   1.1939431889119156    0.0494280782601050    0.6776996691743518 H
   0.1669063925972593    0.3005226790354112    0.8841428481489672 H
   1.1311353149139360    0.1881665049668095    0.7464237401426299 H
   1.0543656752400663    0.0910378787573052    0.7527508380746940 H
   0.4362721267330150    0.0110318656595909   -0.1597044863841986 H
   0.4425183910779502    0.2623460462895570    0.6970090168473113 H
   0.4511435347614514    0.3329471303208619    0.8652958313072361 H
   0.3394791152387490    0.2867587025490117    0.8139465550033336 H
  -0.4477637534461926    0.0820798555000053   -0.0068726277613032 H
   0.4352227864375355    0.1310107236792611   -0.1269103554581387 H
   0.8320612877761702    0.2380080415617543    0.8691552886809695 H
   0.9306446809528534    0.0332391310519808    0.8481936108198803 H
   0.6773618732126944    0.0930358106097954    0.7693722344975723 H
   0.1433632749043441    0.5360474586925191    0.7134125147392975 H
   0.1591748340314847    0.3657448392645721    0.7753769069282056 H
   0.0027384280913679    0.4751574954130929    0.8490619887289702 H
   0.6062845232824741    0.5043269793775924    0.7705895716775373 H
   0.6124625443794248    0.4293752361898004   -0.0462624105283494 H
   0.6423884129132442    0.6293514380970576    0.7526141489593743 H
   0.6608285413804000    0.3469800128621366   -0.1288867192549380 H
   0.4721736952050546   -0.3483363935132958    0.7721052127503472 H
   0.8417036572855111    0.3537147048036360    0.8285586214310120 H
  -0.0849408983500020    0.5528922155926821    0.8748640693796166 H
   0.3024936834163672    0.6695958379992053    0.7546403640805843 H
   0.2230497112832458   -0.0857564539171841    0.9340665373854469 H
   1.0417286314368170   -0.0194521675609273    0.8791014319545279 H
   0.3032042160571471    0.9306658901648092   -0.2199763457040008 H
   0.4354652506833158   -0.3284790860938899    0.9108695904620706 H
   0.3619006350794952    0.8184967462776579   -0.1800301578322413 H
  -0.3445494537474546    0.7457957869044027   -0.1268339703642835 H
  -0.0049593299951108    0.8850160772073508    0.7197524775292741 H
   0.9485003260725654    0.7295482422574552    0.7840357603569003 H
   0.9571230611708436    0.7245297328393079    0.9048874315327838 H
   0.7015657461184479    0.8260253131095200    0.6980816243757615 H
  -0.2295194378065044    0.7091242253612080   -0.1555837115841188 H
   0.1775820451672598    0.3051053198332683    0.0611700881697872 Cl
   0.6051990542086498    0.4563404932089652    0.1230490094589395 Cl
   0.8459909389824204    0.1227653416026124    0.9917654251227602 Cl
   0.1345719388404572    0.0474451569844094    0.1365683670176796 O
   0.2890216634024838    0.3302259615864538    0.2695009438269679 O
   0.5649050291516308    0.1175461560241106    0.2656696283299181 O
   0.3512570969791345    1.1261726326286494    0.3170655397437531 O
  -0.3986213891416759    0.0773422124358904    0.0563493042885464 O
  -0.0634354437557302    1.0339017340976162    0.2044988370634838 O
   0.1526523852476475    0.5972344226892702    0.1119964884049107 O
   0.0993022225585801    0.6492231942000090    0.3157340269498151 O
   0.4215492481266626    0.6378223801779449    1.0240320968744099 O
   0.4344496305809580    0.4725912486744786    0.2960162200381354 O
   0.9748261625597666    0.4375098450259334    0.1165289386581888 O
  -0.1878958737063988    0.3739894186365794    1.2503892718438698 O
   1.2874123527984653    0.9382032867477270    0.2470638275740453 O
   0.0234848090239993   -0.2486412797537847    0.0153305008478007 O
   0.4828051903793004    0.8095209029773186    0.1711539294080474 O
   0.6385427051738818    0.8368859069079096    0.0362537529864126 O
   0.8438954698384254    0.8106896409352236    0.1461422334653968 O
   0.4158714098943513    0.0796120203504289    0.5195632276073457 O
   0.4412153464723165    0.2634313029647546    0.6135337781751765 O
   0.7289521629655026    0.2131579112727267    0.3733348201455461 O
   0.6878970249780209    0.3187609311930763    0.5774784057683120 O
   0.8836210687828205    0.0750236000791537    0.4118296912340579 O
   0.9003125643780909    0.2190208659736459    0.5880702040983514 O
   1.1865167178077189    0.4381239140766184    0.4353659487848750 O
   0.3721298965215029    0.4991535479636515    0.5503118461253270 O
   0.6146021709191745    0.5451364833472986    0.5112581577712433 O
   0.9817147162974973    0.4246304490543768    0.5347140099601077 O
  -0.1962432272275159    0.5121252549689711    0.4262608455973424 O
   0.2438895934942334    0.7832251016290965    1.3780006217991232 O
   0.1879253129764886    0.8175519629147086    0.5884666025327786 O
   0.5918346176680597   -0.0978660561376205    1.3443268562132999 O
   0.5041677355836752    0.8692830662355522    0.5375466908617040 O
   0.4277914981628929    0.6989868684447362    0.4145506086825399 O
   0.6936222320530508    0.8769890307931677    0.6345171654839930 O
   0.8861179687973127    0.6946667120646229    0.3482893539508753 O
   0.8545414165240092   -0.1314889454527087    0.5003921771569450 O
   0.1910396136698053    0.3005893035206489    0.8049958301107504 O
   1.0936577288443246    0.1360613412830650    0.6946909302622127 O
   0.4171150427311514    0.2697798939737319    0.8308662553190567 O
   0.4839043081027215    0.0655447820505016   -0.1300429483598189 O
   0.7157049442390976    0.0872322560523411    0.7009110890628797 O
   0.8020607531004385    0.2857384649497691    0.8160620200763112 O
   0.0897040907311680    0.4828698816078399    0.7371851640542557 O
   0.2647230528112930    0.6394566868278726    0.6918437763954649 O
   0.6022541573426829    0.4023048248626097   -0.1218062230813764 O
   0.5994184496734913    0.5644640057033683    0.7241217048977880 O
  -0.0562083232218223    0.4819804848651484    0.9013093929258853 O
   1.2574736384767902   -0.0090004715068762    0.6694500790379968 O
   0.1498656521446565   -0.0759819194986335    0.9659151012549422 O
   0.3444640837885823    0.8963181585585203   -0.1611011275213184 O
   0.4372267293430572   -0.2997165733825896    0.8296280127449839 O
  -0.0002733471576238    0.8122517041674236    0.6825111260336061 O
   0.9913811716590679   -0.0071752014227551    0.8192629575356514 O
   0.9065989718100758    0.6998626192085237    0.8451944908190416 O
  -0.2977265570126703    0.7351286449245951   -0.1879372211266775 O
