Li1 Co1 H90 C51 N3 Cl6 O45
1.0
  13.5765454394000002    0.0000000000000000    0.0000000000000000
   0.0000000000000000   12.7926541057000005    0.0000000000000000
   0.0000000000000000    0.0000000000000000   14.5963872515999995
Li Co H C N Cl O
1 1 90 51 3 6 45
direct
   0.0028362310480141    0.2279972966360761    0.4450152297163790 Li
   0.2003680709383919    0.3150793040753012    0.4812733113140694 Co
   1.0573298107220415    0.0785818599169412    0.1403941667535143 H
   0.4274129413554592    0.1149503879921824    0.1284624471438616 H
   1.0122631181137458    0.2398759887936552    0.2061604405206599 H
   0.3418105320247863    0.1219403370098891    0.2218136289474711 H
   0.4473059179013349    0.2029837226461859    0.2238881148786854 H
   0.6110807978901184    0.1317006259200979    0.2262873387000568 H
   0.5772511317169319    0.0399878358840383    0.1377428257515990 H
   0.5178209177791175    0.1334672647905986    0.3622017924483660 H
   0.5140814539938261   -0.0059862047755890    0.3903327260089970 H
   0.6323535142294203   -0.0087713969417811    0.2442863130675806 H
   0.8919681574192249    0.2737133767526657    0.1867261794867246 H
   0.7878842425303096    0.3490450469469383    0.2840146369332299 H
   0.2846391401221416    0.5294210643811826    0.1334938291381937 H
   1.0516243829056837    0.6085164570682370    0.1179941033430179 H
   1.0372436996257235    0.4089190960434990    0.0278478241768656 H
   0.2923450768397683    0.3962782477360358    0.1023258426934568 H
   0.5334476470488702    0.4412685206883511    0.2027068462078292 H
   0.3936444100271936    0.6339427679269877    0.0260083279003431 H
   0.6452382352198088    0.5241696130838270    0.2394296318369405 H
   0.8627862125888242    0.5276544255106820    0.1637478908034591 H
   0.9169362173364598    0.5982371202774918    0.2554452387107836 H
   0.7921408481784807    0.6313913036467600    0.2064653104808284 H
   0.2912976822677492    0.9317699403432561    1.0719966082076100 H
   1.0541891001347772    0.6941726462332172    0.2128189374709478 H
   1.0641246172810273    0.7376249271599971    0.0967470649728894 H
   0.3745712222891320   -0.0646034388385253    0.2587104302392404 H
   0.4339101758982030   -0.0545742456046652    0.1496642688457404 H
   0.4864872473768181   -0.2295637342208359    0.2212079996333385 H
   0.5902662246055252   -0.1468334429727955    0.2209497165434879 H
   0.5494995949448021   -0.2413126644082808    0.3565935553833329 H
   0.4708628751131346    0.8572271603915097    0.9852121198157209 H
   0.8061981796883168    0.6569215804213409    0.0263255296791252 H
   0.8329641932977450    0.9736431900671990    0.2321476929456338 H
   0.9711635613457423    0.8694458914467293    0.2722226779345309 H
   0.9079516048262695    0.8526112300683653    0.1089466590868700 H
   0.7921150684245983    0.7959544961325156    0.1397453760742342 H
   0.8824480625926788    0.7858119565994419    0.3076554183164571 H
   0.4028803383095168    0.0575479135773691    0.3763306310743346 H
   0.6785250534326731    0.2778290199620401    0.2943548668406994 H
   0.4634940639198492    0.3291944359711557    0.4332858204420921 H
   0.6238557707854078    1.0639457958013192    0.5344346166853654 H
   0.7466513676065147    0.2152313765501704    0.5349719414263995 H
   0.6874934615261374    0.6408795614388563    0.5249878270364483 H
   0.7918786312532775    0.5342066233038398    0.3267368523178378 H
   0.7611712615574395    0.5148931956164677    0.4443440362332843 H
   0.1801361200915394    0.8164256194690962    0.3778234662276094 H
   0.2744914924296600    0.6262109869233936    0.5290227980868049 H
   0.2624530839310086    0.6900421507501527    0.6366149010455595 H
   0.1004494277124645    0.6750296288439731    0.5152238150557181 H
   0.2369075575268096    0.6855841235472919    0.3855144104362658 H
   0.1186801330936516    0.7531924550830154    0.6144875078466296 H
   0.0773669726506230    0.8085562595092155    0.5118800013325895 H
   0.2643990870669262    0.8829028331085300    0.6204958439155693 H
   0.2058230668598929    0.9432859243433519    0.5204936327629435 H
   0.3118389901611895    0.8014263864393761    0.3950407403152403 H
   0.3368600827149823    0.9020583576756185    0.5266728330297844 H
   0.4402568493126300    0.6528770717859558    0.5121963330330583 H
   0.4264473790879065    0.7593366061990046    0.6839149615399343 H
   0.4170017509218605    0.7857470756143747    0.5186106599747977 H
   0.6144667844214632    0.9471670579681465    0.5926485421830503 H
   0.7953205966787669    0.9623882934046021    0.3809653395699306 H
   0.7530513756489022    0.7792112934921375    0.5740715480730676 H
   1.2086783263788203    0.2603244428703931   -0.0463732814519430 H
   0.2067371432761206    1.0222499916630414    0.9204317064366259 H
   0.4727305077972500    0.2338717617297986   -0.0785010944454353 H
   0.4156666542965144    1.0784595939909591    0.7806388957343521 H
   0.6844963809962175    1.2493561086575982    0.6727923462515378 H
   0.7656252664639095    0.1178067147323636   -0.0406102115532063 H
   0.9448269647795542    0.1480990994711437   -0.0298596061263190 H
   0.9491174523899704    0.2762578057453559   -0.0758518087466224 H
   0.8208911662724516    1.1532259397466715    0.6724484255324263 H
   0.1076677587995169    0.5273886479814915   -0.1297350050775355 H
   0.4439092585518828    0.4903452013218298   -0.0754195099941137 H
   0.6025307583739444    0.3827334431498792    0.7612868468245072 H
   0.3546959895795714    0.4746945006661473   -0.1497104959283992 H
   0.6715932458959130    0.6278924206448303    0.7770866468726130 H
   0.9243946684168162    0.5965744473228214    0.0100447887050906 H
   0.9408252104126199    0.4451272195628876    0.7757157597034057 H
   0.8995039477612283    0.5001253453768664    0.6693702665862751 H
   0.7940573887385327    0.4496437178221703    0.9053183776246748 H
   0.2492840490835178    0.9107828959205999    0.8512871994703991 H
   0.0835452748096225    0.8570067213820048    0.8908360268651176 H
   0.3709968962415668    0.7771327568741456    0.9449542128507226 H
   0.5914520932841124    0.8114438541940073    0.8469354377018808 H
   0.9150019992308883    0.7285634768118360   -0.0074383045837660 H
   0.7433434569012135    0.9418139858508064    0.9084040726822010 H
   0.8191278311069001    0.9498803338617341    0.6942586169525741 H
   0.7911472228074160    0.6906909606008234    0.7868370047897338 H
   0.9783038166067510    0.7586385493355722    0.7604249897236263 H
   0.7054332239706524    0.9219049038186018    0.7513528818302512 H
   0.9859795541841156    0.2680194840390696    0.0579134830577572 C
   0.4186453943729582    0.1228525792939043    0.2059418932907862 C
   0.5829602423552730    0.0531821268111096    0.2110780957433337 C
   0.4813660624398735    0.0597413598918050    0.3529926643481737 C
   0.9513146239851415    0.2313445301066442    0.1561562862447453 C
   0.9231491380221012    0.1221474871429346    0.1547867692776061 C
   0.3245999683329429    0.4749769283758428    0.0894329263329806 C
   0.4306768055098416    0.4970720305856381    0.1179214826334048 C
   0.8686698889891684    0.6087634738306610    0.1963491086115053 C
   1.0240223687060714    0.6841715941495067    0.1437449959112319 C
   0.4479250223736411   -0.0652506852919654    0.2263380361765792 C
   0.5153725040682531   -0.1555947210526946    0.2538784126458274 C
   0.8877100786422607    0.6666631085647833    0.0362499032589040 C
   0.8731975503353022    0.7964665087255147    0.1565077430752317 C
   0.8996733575724550    0.8353888461768292    0.2551184455175242 C
   0.7035343609561197    1.0574131404735430    0.6561231529911761 C
   0.7771458701917243    0.2667718930491054    0.4177244355538485 C
   0.7300234263524119    0.3273371200612841    0.3356911228333500 C
   0.5698199335192511    0.4179180321554905    0.4039367772428551 C
   0.6700118421363312    0.4278249460728714    0.3457216870734123 C
   0.6706379218734735    0.6222743526969150    0.3798554758947102 C
   0.7317057394343330    0.5252327232005884    0.3782009568973910 C
   0.2920747577062022    0.6965271224623978    0.5663934837638519 C
   0.1245792773463253    0.7488751336309023    0.5396913284098086 C
   0.2622151736308945    0.8858326395185463    0.5450357330666150 C
   0.2393485319372679    0.7693353131868694    0.4095977670875129 C
   0.4023925853660631    0.7166636787916446    0.5551149394800975 C
   0.6701923004135075    1.0045210670688134    0.5710914955949976 C
   0.7423439390149756    0.9573174144873728    0.5049041587323023 C
   1.0930310870270852    0.2301414959377502    0.0354497052510908 C
   0.6138024033356958    1.1160577339880136    0.6917299090357604 C
   0.3947592738979449    1.0477106972608639    0.9051909488323349 C
   0.8117076813751690    0.2498981467399780   -0.0106096372705530 C
   0.9190818294238662    0.2295911801126031   -0.0231510968005428 C
   0.7895584534038679    1.0491474593157224    0.8107312735555731 C
   0.1970211223200688    0.5140896094399745   -0.0311736299096972 C
   0.3073039631710894    0.5124089574171531   -0.0092647839406410 C
   0.3857006366658925    0.3409386759669089   -0.0682471872682608 C
   0.3704827742927136    0.4539676837125131   -0.0769034388339453 C
   0.9650147217626083    0.6119395153044859    0.7743654255652209 C
   0.7360750394351897    0.4305360332103363    0.7382811540998784 C
   0.7986145126605321    0.5177010570425025    0.7824660601922613 C
   0.9097746017079484    0.5170162890555297    0.7406337910509319 C
   0.7518581413263487    0.6248070562103762    0.7539432488401328 C
   0.7483638798286980    0.6541309163648421    0.6551838794734434 C
   0.2418476949350606    0.9463947397362639    0.9216683138031523 C
   0.1777658558631583    0.8832420903075555    0.9900167333677703 C
   0.3477649186072078    0.9543133467089063    0.9524437373553575 C
   0.4166993175806009    0.8510306354682978    0.9298936368183962 C
   0.4440317713079756    0.8378230556647669    0.8305649484923809 C
   0.7526816203217900    0.9827249645793570    0.7267741971313594 C
   0.4815877683232615    0.0397275302451548    0.2512818797266391 N
   0.9136835489609063    0.6897279079068159    0.1328546298733909 N
   0.2293246270634214    0.7740724067953800    0.5117638561542808 N
   0.1335241153790971    0.2698822718392481    0.3361658978499720 Cl
   0.3547423931365596    0.2857147955928415    0.5099214619003840 Cl
   0.1136943286928089    0.1964346516474890    0.5554112456773399 Cl
   0.1772568898650815    0.4750275824461120    0.5121990665861843 Cl
   1.0364916673767561    0.8956796969750496    0.7870767901516642 Cl
   0.7018748813704943   -0.1871276614939016    0.9242120939427159 Cl
   1.1375298884855731    0.1595001737747954    0.0760618094507119 O
   0.9909123259484002    0.0457544265688540    0.1568742721284680 O
   0.3483762670564174    0.9779050109176282    1.0469767184427665 O
   0.8346929099366543    0.0950413059599778    0.1647529340204642 O
   0.9821096448441795    0.3798551506786090    0.0613478945416335 O
   0.1376223596819909    0.5190424518662986    0.0333224665402519 O
   0.4743527172244055    0.5781193247150113    0.1001807913557316 O
   0.4713300042534824    0.4186808326595431    0.1650358807475420 O
   0.6316537780526142    0.4505211745178062    0.2518936749500785 O
   0.6263645091203568    0.6489380924636313    0.3071607753698465 O
   0.7854727306957169    0.3417640715347681    0.0030704601780887 O
   0.1959774105700328    0.8770330582064992    1.0744259764744812 O
   0.5186964718774011   -0.1730774105831142    0.3519170557246577 O
   0.8248251567148951    0.9115825736040168    0.2726474405756646 O
   0.5183098492256057    0.3278116111207505    0.3851492515850976 O
   0.7787788334590708    1.1279802012680473    0.6182261041896403 O
   0.7099697240895458    0.2430074734464099    0.4815519419046324 O
   0.8655549581557864    0.2419287293573431    0.4110200368342767 O
   0.5467971401735373    0.4816205849069868    0.4640093818460170 O
   0.6661176261713061    0.6803678486876232    0.4521053403181415 O
   0.7206786338522657    0.5978509611615505    0.5924286247511085 O
   0.4543099161146096    0.7068478892797521    0.6388325730928980 O
   0.7589681974470953    1.0056482764720265    0.4244795317499426 O
   0.7861267998799315    0.8724765369781150    0.5143564976995955 O
   0.3206092624319582    0.2763899128113358   -0.0456114491020387 O
   1.1331001902041922    0.2806892551952977   -0.0351225522701725 O
   0.5329025893953581    1.0800683297411762    0.7166675866765134 O
   0.3592722641758832    1.0499565173825225    0.8194121887584848 O
   0.4752430026106218    0.3129147806096302   -0.0875293558726289 O
   0.4540643455447705    1.1051592918939779    0.9364569047249461 O
   0.6133037492391719    1.2215510889125938    0.6809477889613050 O
   0.7409238428582576    0.1752459289820943   -0.0023911652656498 O
   0.8395078313974769    1.1281646821412501    0.7996573004405969 O
   0.7728104521531132    1.0211173103695215    0.8968669712681823 O
   0.1770594906067825    0.5101865882539525   -0.1164563768348685 O
   1.0208234695314726    0.6119895440158629    0.8403022894898541 O
   0.3356550633620825    0.6189364996097301   -0.0134274578237513 O
   0.6407834937489423    0.4504906882718108    0.7581408628759815 O
   0.7608781089275776    0.3538361559297640    0.6905152249023248 O
   0.8062902502378966    0.5187930900080289    0.8759474111923472 O
   0.0950688247950239    0.8391386544342593    0.9578135592605286 O
   0.3791421936217882    0.8280244635224101    0.7704178734068138 O
   0.5343396265331989    0.8305384062691049    0.7998600903466866 O
   0.7525306246204791    0.7532878223140778    0.6415853090478579 O
   0.9487793693319135    0.6978685172861939    0.7197916473919485 O
