Li1 Co1 H90 C51 N3 Cl6 O45
1.0
  14.3672839644000003    0.0000000000000000    0.0000000000000000
   0.0000000000000000   14.0214662252999993    0.0000000000000000
   0.0000000000000000    0.0000000000000000   14.4916707580999997
Li Co H C N Cl O
1 1 90 51 3 6 45
direct
   0.6062215028519995    0.6484519141296484    0.3730670858691816 Li
   0.7027776789140443    0.6460684258793471    0.6197798396765110 Co
   0.0694721757621837    0.2407342112773787    0.1025551438414583 H
   0.2386990112604223    0.1673060844711915    0.1490156252613574 H
   0.2927621175458306    0.0916606431915791    0.0726227773641459 H
   0.4569790986987141    0.1140990954150924    0.0838050628787008 H
   0.6090946972638510    1.0051621125948584    0.0609043217882020 H
   0.8138028388505010    0.2565956052590372    0.0552245074055855 H
   0.8337982674027477    1.0682710618146869    0.3501753154489506 H
   0.6855092793602555    1.0320031001173275    0.2245893819579655 H
   0.8713627786449071    1.0097179842115325    0.1799913496959673 H
   0.1441703582898803    0.3690118087196902    0.9644668038906294 H
   0.2522026073806582    0.3298161931421730    0.0591232987142702 H
   0.0461664486094606    0.4094448840408035    0.2176026099224908 H
   0.3527832044914740    0.5622105766996088    0.1753114200224276 H
   0.6606103492015420    0.3932524975705260    0.1206434653590779 H
   0.7251500354983824    0.3821038774841373    0.3020110967297343 H
   0.7301426284044414    0.6269463172716031    0.1388677270338323 H
   0.7680621127934139    0.3946810214979208    0.0510096724828517 H
   0.8378818506426541    0.5788422182307363    0.0640916699394966 H
   0.8810389290115643    0.4409807443349389    0.2494229574653892 H
   0.8646447378350253    0.5705263974651725    0.2336145662989012 H
   0.1388791703250314    0.7847400860864377    0.1482641591135419 H
   0.3427541690553377    0.8381289391472726    0.2962139735820776 H
   0.2557523388487889    0.7484949465386921    0.3023623329732954 H
   0.2775010563359809    0.9713411132514138    0.3490698528513377 H
   0.3648237544262176    0.8733078563927439    0.1037572136573395 H
   0.4312169573700446    0.6824811655883197    0.1078216173401983 H
   0.4587520155606008    0.7769277789967307    0.1933748996839211 H
   0.6590526435102330    0.9143000030601801    0.1788817467890000 H
   0.9438893607450414    0.8484823499580521    0.1930229733888009 H
   0.0955251166609287    0.2800988534004739    0.6346262989696704 H
   0.2471035225305552    0.2556213847473939    0.3664274097679137 H
   0.2216380273884969    0.1441615719939982    0.4198560318311929 H
   0.0842884764998499    0.1695191197915641    0.3551015935290744 H
   0.1965810993781627    0.3677715675266101    0.5031709939327952 H
   0.3705979842810435    0.1122840213286121    0.4778397532409780 H
   0.6110540098291035    1.0583091935082209    0.6377011687168384 H
   0.4941147884590077    0.2853686303847578    0.6094794400544339 H
   0.6516712901338553    0.2896192557503461    0.5029206432271685 H
   0.6992975500237201    0.2575676861941541    0.6043206145989071 H
  -0.0087722581047533    0.2437396031046588    0.3872911186560696 H
   0.6420264609272108    0.1176486528722288    0.5095621410645523 H
   0.5573364803425044    0.3815754020821405    0.5888027351387830 H
   0.6836307057852585    0.4343656016309159    0.7064247835866655 H
   0.7185837283081186    0.3079233329328669    0.7511297738403179 H
   0.3211878103219986    0.9717148259513414    0.7136717050599055 H
   0.0191724808587719    0.0159595729222828    0.5888572492119487 H
   0.4765973508818275    0.9939022345291019    0.6111624758069794 H
   0.3266752775562618    0.9037019673332266    0.6024174523990217 H
   0.5428685405067596    0.8918294571887722    0.6004287238058130 H
   0.6765486434934488    0.8897519283817321    0.3468071737891825 H
   0.7863195649778327    0.8691634966612953    0.3908614454226420 H
  -0.0234242967587962   -0.1591633393712540    0.5958557521239274 H
  -0.1186051258833849   -0.0793193357548600    0.5942168796711618 H
   0.2159793378128298    0.2256095448129440   -0.1558574341497205 H
   0.3168592260082134    0.2638551884127827   -0.0888596382291005 H
   0.1848878663066734    0.0516127629644179   -0.0999322055457649 H
   0.5736838985867577    0.2461844258820475    0.8487292862505377 H
   0.4859685027525368    0.2154009120137777    0.7675481705850142 H
   0.5969580957717344    0.1818031418212441    0.7402497309086310 H
   0.4741671768777141    0.9631508143087266    0.7820916972437466 H
  -0.1167697059066280    0.3117089570000721    0.8252744337581143 H
  -0.2233869345906001    0.0118665630274654    0.7224367399630759 H
   0.2315786675508190    0.5797814923257832    0.8276978948335304 H
   0.0968413014072493    0.5314935323420895    0.7010755039008383 H
   0.5067283068142544    0.4010030422178405    0.8372502785655873 H
   0.4258269337447105    0.3711385477868352    0.7471164339728295 H
   0.6679596853921287    0.3917177080089914    0.8249597702471833 H
   0.5072473332369573    0.4688552186388299    0.7301170138154052 H
   0.0158023240413820    0.6213691544597071    0.7198593973899896 H
  -0.0153650142745835    0.5815658991487199    0.9610448382092547 H
  -0.0804970185085569    0.4458534872351586    0.8773477945594013 H
  -0.0830013192580342    0.5153635501871625    0.7671410401651693 H
  -0.0716721076684728    0.0709167355768976    0.7228928640436141 H
   0.2538765493769041    0.8619153245823566    0.6900850527197020 H
   0.2921475267837993    0.8039477777552338    0.8222388969498128 H
   0.3456378038538603    0.9093861089714379    0.8511555075321899 H
   0.0154953766732554    0.0233888958137817    0.7961832401312953 H
   0.4127409530913134    0.8086869397609946    0.8665526279694786 H
   0.5350003867012035    0.8630621376004550    0.7704063641426376 H
   0.3444942335004998    0.7111365140050937    0.6771521063998137 H
   0.4428162269614951    0.7118867921736506    0.7430996438475456 H
   0.4505155249132927    0.7482909735765180    0.6292052539217010 H
  -0.0910056157057799    0.0886310028303342    0.8430059986197004 H
  -0.2574921977157772   -0.0190781322724526    0.8366430331936152 H
  -0.0071797511245409   -0.1539912697150047    0.7602557057088762 H
  -0.1298689110498082   -0.0478818246617169    0.9383697439785683 H
  -0.1602908057574663   -0.1580029757018225    0.8918402574027633 H
  -0.0407880518441798   -0.1325684031493097    0.9081165035262934 H
  -0.1223024148164654   -0.1891951486866162    0.7294559444218264 H
  -0.2459590505732428   -0.1078513019252838    0.7437220703538170 H
   0.1188113550918660    0.1623137392431515    0.0049445906062935 C
   0.2134826933469112    0.2071542708892311    0.0027039931940282 C
   0.2763317330288320    0.1644690059973139    0.0828438210569313 C
   0.0768423927261123    0.3025651201188291    0.2853297903410364 C
   0.3637365621608803    0.2267007288413584    0.0875665339271327 C
   0.7755395177271645    0.3084232806478464    0.1721399430569913 C
   0.6898664007309414    0.5077817468085557    0.2584322706204665 C
   0.7373910408572086    0.3969354219644687    0.1232670413866211 C
   0.7546838013132297    0.4903080392758931    0.1721330425414007 C
   0.9236503231704720    0.4976364454745680    0.1224182779689783 C
   0.8606070922964710    0.4978392773292616    0.2018970364383026 C
   0.2364097824763670    0.6844296066116061    0.1219994166726293 C
   0.2874702335552036    0.8055439018438557    0.2590712583641553 C
   0.2068335590890578    0.8782816586242226    0.2577263478755489 C
   0.3153822593071599    0.7619514565047861    0.1616980828653070 C
   0.4266656448072786    0.6460919612211364    0.2542264063680005 C
   0.4112173526631295    0.7192455090397815    0.1754618512623025 C
   0.7384956337669976    0.9959833292970192    0.0878204729008665 C
   0.7108084243413564    0.9682957826623094    0.1839550058512035 C
   0.7859193501554453    0.9275946184024505    0.2465633838046477 C
   0.8087573479853088    0.8223895010276134    0.2142537897063763 C
   0.2303251251245242    0.2205679893247990    0.4300349823788756 C
   0.1288647514302345    0.2556891380040602    0.4542506167151618 C
   0.0956183841151894    0.1868874888399151    0.5288996353174745 C
   0.0651178384946100    0.2404032901079772    0.3725136645188161 C
   0.3097117372932656    0.2443736309486199    0.5004617135016168 C
   0.6333094340827269    0.2535545538229854    0.5686545407122157 C
   0.5638038822697051    0.3118045247515803    0.6219700633249651 C
   0.7306994490268933    1.0108241452756310    0.4062012915805288 C
   0.6641927938812417    0.3692542940593379    0.7483371351808052 C
   0.3151219456661635    0.9033853100073338    0.6776558440379270 C
   0.5238183149611250    0.9503832479841021    0.6506403255007580 C
   0.7483555349390640    0.9182660647477701    0.3457334535632863 C
  -0.0514643912539164   -0.0962747665336346    0.6331903016752681 C
   0.3100395654347341    0.1172806457097047   -0.1208683698476221 C
   0.2648779328249970    0.2080043959623487   -0.0927915520126200 C
   0.5566568111702241    0.2353032528614467    0.7768024520435576 C
   0.0761623755409429    0.5862886577344456    0.7541032060083041 C
   0.1181696193244902    0.4791679061763921    0.8897204190133332 C
   0.0419241714921554    0.5358735307683016    0.8423021460294600 C
   0.1478119651607155    0.6683157425998441    0.7578791681394763 C
   0.4990579635348242    0.3987376585917911    0.7634658255616198 C
  -0.0145402237275766    0.3752386896034069    0.7613301159863314 C
  -0.0402890013613073    0.4696766448588081    0.8148932981036272 C
   0.3571284934239328    0.8394034135647737    0.8253834619044457 C
   0.4853446548476573    0.9079190726665696    0.7358796343851088 C
   0.4076307318287614    0.7515395639356212    0.6912098367609685 C
  -0.2170670205257713   -0.0432803087458149    0.7754844535657545 C
  -0.0602760776042172    0.0389008256294773    0.7915930171604332 C
  -0.0716233858640083   -0.1312019269411776    0.7260118970905619 C
  -0.1065193342730671   -0.1025736798270701    0.8882644102237184 C
   0.5714922526167872    0.3291750333764576    0.7268275380333697 N
   0.3925367168056472    0.8498809198140787    0.7295656626197169 N
  -0.1126269604755860   -0.0609253963582345    0.7953462075901563 N
   0.4734537504551976   -0.0139053494240278    1.1106224843056112 Cl
   0.8143165058747127    0.5490086763401448    0.5774522150541295 Cl
   0.3668707662395063    0.9858288991031858    0.4318670692681779 Cl
   0.6171491075676173    1.7063883497097030    0.5165523564573068 Cl
   0.7986350450949120    0.2973545380851063    0.9205657237032810 Cl
   0.7050070494811859    0.7079742198992182    0.7525616308253658 Cl
   0.0483227364699055    0.1965205755535059    0.0522572857016308 O
   0.1165151660500300    0.2703602142449187    0.2135589077864037 O
   0.1953456536220976    0.3037055144073486    0.0280240550505886 O
   0.4454479004283583    0.1867733780918456    0.0741546918252574 O
   0.7661188088210568    0.2927209285213098    0.2565808622875106 O
   0.8106213050189666    0.2393170984247908    0.1236403592800722 O
   0.6707027229834822    1.0089577213525196    0.0310561416010949 O
   0.8222143103784145    1.0029932951893628    0.0665937968926454 O
   1.0004303188003605    0.4565381044922097    0.1211699746986401 O
   0.2562061476560872    0.6026763875415746    0.1022729127538031 O
   0.3562890863355866    0.3133963696871496    0.0979276580864071 O
   0.3873972624604165    0.5640884116975273    0.2361242838191996 O
   0.6542973953944939    0.5858179508986590    0.2700741304733548 O
   0.6815788217915234    0.4403502111326375    0.3214553695609053 O
   0.7354017991834993    0.5674511128047000    0.1067354761862391 O
   0.9023936959083717    0.5560043783889798    0.0546717761067790 O
   0.1500462079083037    0.7228136094934792    0.1123925188674067 O
   0.1271212068561821    0.8665082821921535    0.2176260716754988 O
   0.3158019628513329    0.8257735979000491    0.0908774013074989 O
   0.2210603259927031    0.9603301392548840    0.2997325464817207 O
   0.4710526703286074    0.6642270118580793    0.3235131033100199 O
   0.8644380181789399    0.9935028469108588    0.2469415320590121 O
   0.7480819968082847    0.7595130524569764    0.2014788651935127 O
   0.8982878398435673    0.7966318524196290    0.1848651838576026 O
   0.0848689619987560    0.2110347495157690    0.6173294665902916 O
   0.0730476601841028    0.1047106336176755    0.5035644613317708 O
   0.3089015632875981    0.3167676291004274    0.5473976404457077 O
   0.1327896407927421    0.3491936245487224    0.4814269172655916 O
   0.3782097221899606    0.1810008006238805    0.5039650362618047 O
   0.6066419024219505    0.1588925563775933    0.5543756488263825 O
   0.7907588173903303    1.0840639893475037    0.4008582223587331 O
   0.6583886349179591    1.0168998294181557    0.4522267644975970 O
   0.0310181435756574    0.3850885867383298    0.2851924700807836 O
   0.0156491983702077   -0.0242837219609474    0.6455505052011371 O
   0.2493489016905924    0.0438468133661140   -0.1338482396735262 O
   0.1025862981793965    0.0921620172909094   -0.0454740265563693 O
   0.3904632560127921    0.1090746565391579   -0.1297845260422264 O
   0.6052150495769176    1.0077246120811938    0.6839698158033189 O
  -0.0755621957420772    0.3085266935132843    0.7662108506635574 O
   0.2007015719843065    0.4959570918590729    0.8871313455637431 O
   0.2324125064329406    0.6439252833921670    0.7884463820511231 O
   0.0625870887655663    0.3663409040226889    0.7198883795554701 O
   0.0894522917473130    0.4038381950728444    0.9338754381744154 O
   0.0130363175993523    0.6065618585133405    0.9013077647930560 O
   0.1316251896660396    0.7526186236970531    0.7377924573068211 O
