Li1 Co1 H90 C51 N3 Cl6 O45
1.0
  14.3358184710999996    0.0000000000000000    0.0000000000000000
   0.0000000000000000   13.9907581004000008    0.0000000000000000
   0.0000000000000000    0.0000000000000000   14.4599328478999993
Li Co H C N Cl O
1 1 90 51 3 6 45
direct
   0.6980448137421309    0.2602155311437994    0.2856884929794087 Li
   0.9035622040424792    0.7422058530125767    0.3593458198289370 Co
   0.0809471560231718    0.2302922062606374    1.0630620892636049 H
   0.0019875903533127    0.3145349607662923    1.0195985402547121 H
   0.2257662330912354    0.2691185512021934    0.2983856473805555 H
   0.2132360800091409    0.2568647477435304    0.4210860788875850 H
   0.6359200036522565    0.9953379545459987   -0.0059822944552998 H
   0.3991124570971898    1.0383499197076862    0.3040039307332197 H
  -0.0300845233475468    0.1962661730332893    1.0514866551477882 H
   0.2972766251952265    0.6196084935491920    0.1100860177321765 H
   1.0763245757893614    0.4926623347167252    0.2912251715270983 H
   0.3800762227482304    0.3260368392810383    0.2297062136344833 H
   0.3812836878144836    0.4284929742319398    0.3036553813967177 H
   0.4918533077629687    0.4960315588618166    0.2824153104205510 H
   0.9852045603794728    0.4425902803667918    0.1728511778160151 H
   0.6929017519665767    0.4434667875518921    0.2190450299608407 H
   0.8924962157056565    0.4754334613225731    0.0349888501711456 H
   0.8948609219879200    0.6023463839289066    0.0787200352777096 H
   0.7985824986260138    0.6075369532660982    0.2359980824112607 H
   0.9161704831138401    0.4349525241256240    0.2732437602207684 H
   0.2027846362843165    0.6947759714266012    0.2752451526410799 H
   0.2069183381806864    0.8182238923759757    0.2499186173208840 H
   0.0713725370171690    0.8059908168862989    0.1633587409254846 H
   0.5574906483791965    0.9939270231398274    0.1542625714353820 H
   0.4265388646505934    0.8231349915106276    0.1354215434122424 H
   0.6972754122585508    0.7239295024270649    0.1204276978473588 H
   0.8006005208309072    0.9942894052183121    0.1821741810013015 H
   0.7172645046551716    0.9302678565951256    0.2339392900010094 H
   0.8384037338872466    0.8645594801509845    0.0561051308075626 H
   0.0206771406249018    0.2501152921870584    0.6133829608474362 H
   0.1894257896732164    0.0134812244516334    0.3662116885051126 H
   0.0588214573308068    0.0281080229804528    0.6004485992589477 H
   0.4575744138867202    0.1932934963776325    0.4954611822378185 H
  -0.0228634497681980    0.1240227682980518    0.3871944968757658 H
  -0.0151275817238609    0.3108024968336547    0.4583073444122146 H
  -0.1799601655601910    0.2164795165826938    0.5642982239080749 H
  -0.1980700488935616    0.1327571055743503    0.4847717135088924 H
  -0.0542680047929140    0.0233255802050262    0.4298807255389675 H
   0.2956638815596532    0.4229705429637020    0.4599283754534068 H
   0.6048342305658870    0.3154670046131248    0.7466021134024744 H
   0.5450612220189778    0.4197226846508132    0.6795997275552466 H
   0.4297476106383257    0.3328706362285580    0.5067792292662160 H
   0.0941371946931781    0.6516639402077385    0.6080516774444710 H
   0.3584227677588425    0.7626843716134958    0.3666612064986172 H
   0.4618809695343423    0.7917792924947569    0.3107847367737014 H
   0.4605167642021231    0.0075072808382697    0.5569611220614775 H
   0.4014897193420141   -0.2615932191476716    0.6825444161957740 H
   0.3687270277003166   -0.0955021479330558    0.6630408678068229 H
   0.4859034556375424   -0.1166260926027553    0.5327765699146266 H
   0.6028873588155043   -0.2050223032387352    0.6302633988527515 H
   0.5634014375099895   -0.0185849435701819    0.4889006400141542 H
   0.6735704524974411   -0.1329204204986456    0.7036026052761073 H
   0.6975118828867771   -0.1340383013088036    0.5856739801616656 H
   0.6861361808067907    0.0366922611709885    0.5864568330365075 H
   0.0612133681986185    0.0671209196428857    0.8566703977258795 H
   0.2031089986504677    0.2603534793511910    0.7631077225578214 H
   0.1265964505729922    0.1644594620025784    0.7765531515266174 H
   0.1011001734865571    0.3406857952939467    0.8911926880608928 H
   0.1759288274739488    0.2411107765563866    0.9291036525007874 H
   0.1250939203865628    0.0916356741357243    0.9660982918000762 H
   0.4313617493808501    0.3171695571002069    0.7290695285235054 H
   0.4354138375205755    0.2839826492380285    0.8507001072059938 H
   0.7073404113578962    1.1003001009473445   -0.0764570339108151 H
   0.0057048528247529    0.0608131842530874    0.9759330539318142 H
  -0.0602181359397305    0.1677416286779272    0.8071224497833653 H
  -0.1127913462882967    0.1750235786100819    0.9201700010544903 H
  -0.0875092181188689    0.2857395232990058    0.8645528686335194 H
   0.0464391855855382    0.3464453116419347    0.7195867735589888 H
   0.2830793193064625    0.5382575766201473    0.9279037852412019 H
   0.1402859375315238    0.5461106893115074    0.6718182253046092 H
   0.5959027558643819    0.2903690079584645    0.8715971613748092 H
   0.3549384881482506    0.3814376970785754    0.8117310465660037 H
   0.4273047783667955    0.6113773455889748    0.9083933211908123 H
   0.3990713014421297    0.5365589552995971    0.8158168193438891 H
   0.4738090642116515    0.4149841279890334    0.9527400001654057 H
   0.5624222119409508    0.5026279848265656    0.9135925154603015 H
   0.5830803278760136    0.5200440532233905    0.7466761109798667 H
   0.4568677224605959    0.5144562931149683    0.7184194099081644 H
   0.6559467639365594    0.3943390708786727    0.8250616755549200 H
  -0.1632516671592887    0.5325783990209200    0.7365785537134646 H
   0.7690794743757671    0.6248583877631375   -0.1296177233888190 H
  -0.0594689635069426    0.6540869683064826    0.8130823668110930 H
   0.1310663732445984    0.6822834389458199    0.9733189339080486 H
   0.0230669588322868    0.7816647583869908    0.7955974999960499 H
   0.1572929888199804    0.7971063805242374    0.6380317613466557 H
   0.4741374723879612    0.0109567007806115    0.7183557858229298 H
   0.5465182717187984   -0.0657718075887318    0.7753104071661130 H
   0.4010370071363536   -0.1294030985889348    0.7794494305370752 H
   0.6857190438283856    0.8859829082346586   -0.0478261955552881 H
   0.6805648211972217    0.0175045947076305    0.7057513012850595 H
   0.5917990487674626    0.0903576876340859    0.6488644534239739 H
  -0.0569710245108406    0.6466248994714124    0.6852041795850338 H
   0.0211975155176949    0.2381967100199325    1.0155162253075460 C
   0.2522307144017949    0.2986073034941942    0.3675235894800024 C
   0.6691451732482729    1.0638538986514576    0.1795047356860278 C
   0.3556018615035405    0.2947454684447801    0.3828791241381212 C
   0.2054604514166950    0.3894136765929956    0.3705076973907294 C
   0.3784683619869864    0.6430067967469751    0.2094294942967043 C
   0.4028694801167389    0.3537401272100118    0.3027432056529751 C
   0.5042842687408337    0.3568857751930716    0.3090461394880542 C
   0.7778295851736177    0.5541931677010642   -0.0045735742202706 C
   0.7824104188478433    0.3996375686061032    0.1354111699200846 C
   0.9246192508102342    0.4778103732641104    0.2091756895219101 C
   0.8317965073664206    0.4933542915020923    0.1608400570295708 C
   0.8560169591459944    0.5336741938227443    0.0664447362243134 C
   0.9639124380904424    0.5680215820451352    0.2537906961603187 C
   0.2283771757503836    0.7490224957788664    0.2245021784019872 C
   0.1761750638508334    0.7233348241444233    0.1303841756204149 C
   0.3420721142909199    0.7499902775032615    0.2234696701492142 C
   0.7012284478047418    0.9453328015028626   -0.0009705146107949 C
   0.6305446565693295    0.8395429658571670    0.1105818706573193 C
   0.7174926046416907    0.9004067156189225    0.0927062689709990 C
   0.7265119710811208    0.9722412790348439    0.1719846454377669 C
   0.0849190255132039    0.0398300468209845    0.4528927272889152 C
  -0.0096894548281303    0.0877095109066975    0.4521674818738561 C
   0.3736566381123392    0.1845005489821313    0.3813964063256997 C
  -0.0632441229168572    0.0962780244311056    0.6297066881069495 C
  -0.0488738237661459    0.1469664856932387    0.5309645283045022 C
  -0.1425559530918913    0.1880800547988009    0.4974233628577736 C
  -0.1432583894418144    0.2687919070012713    0.4291580389186408 C
   0.3630761469945299    0.9052792178458069    0.3095198622965937 C
   0.4269022900113779   -0.1271294548184025    0.7041759136093617 C
   0.3871026789078885    0.7997395473430495    0.3071491735554646 C
   0.5161686428589531   -0.0452689872310702    0.5420070415498656 C
   0.6416050644783474   -0.1409128394367447    0.6354155666244587 C
   0.1290316097562908    0.2396569596971402    0.7821956396943166 C
   0.0583234041492327    0.0966139604801940    0.9291658934537341 C
   0.1137775103520019    0.2604413945299950    0.8850488144388999 C
  -0.0633954920210611    0.2084470712217247    0.8715369951202939 C
   0.7895589468657302    0.9964651272043230   -0.0329436921395649 C
   0.1313977111455055    0.6478385577934382    0.8499386928816113 C
   0.1328974511180325    0.6302633843657045    0.6686847391068098 C
   0.4211900245997389    0.3415377862950389    0.7987662560671858 C
   0.5956683778965823    0.3478297970187096    0.8156460025063572 C
   0.4133320846971728    0.5362661906066043    0.8901823099247230 C
   0.4954371980098754    0.4665348370231193    0.8997853973982701 C
   0.5224581316789857    0.4709912767351473    0.7299153139174380 C
  -0.0271010871324314    0.5156699514369941    0.7633442381790193 C
  -0.0224581711988779    0.6244145233238100    0.7531560857477723 C
   0.0790965466524210    0.6648476432405803    0.7554085166783024 C
   0.2265161030774989    0.6825736305116282    0.6614910680784476 C
   0.5098706536522670   -0.0612738383187034    0.7112693075468651 C
   0.6359758079303041    0.0272524581916043    0.6442606976043426 C
   0.5761651314957128   -0.0536438014590891    0.6340220608445942 N
   0.0304547476923025    0.2019163314759358    0.9219701477269404 N
   0.5065400171702095    0.4068215967537364    0.8133458535119013 N
  -0.0032642897644343    0.8589307644348755    0.2955426189631745 Cl
   0.5162608943061004    1.2505978893094980    0.5883067724713151 Cl
   0.7527267282474177    0.7808199149614110    0.3809206088187286 Cl
   0.9735044959333351    0.6907726143820392    0.4848121009716934 Cl
   0.5810595154572179    0.1123893743938753    0.8805882128110462 Cl
   0.7236896697188675    0.6324498277149841    0.7551388058821997 Cl
   0.3366032950422632    0.1341637484352141    0.3212246192813110 O
   0.5537648060000064    0.2883133652410640    0.3147633167992895 O
   0.5769780603161700    1.0611392494718026    0.1562148626594799 O
   0.8682513495544368    0.9590925991220135   -0.0213862387434884 O
   0.7025984428308083    1.1359822274209435    0.2149260620080504 O
   0.8028759402682948    0.3388660225684592    0.0790844906355203 O
   0.3433877001458902    0.5833810070639880    0.1462846643998902 O
   1.0498210314841687    0.5586768418200676    0.2834035584401173 O
   0.1359122772395497    0.4034171350613683    0.3191478461513195 O
   0.4392482889759155    0.6104524493176547    0.2590306928322952 O
   0.5381482578097989    0.4436371142763554    0.2930882507186391 O
   0.7061085319199972    0.3805857060774831    0.1894238688873158 O
   0.7685158511674871    0.5469862673117910    0.2123921636569719 O
   0.9204192813336830    0.6452518502154576    0.2583695555987714 O
   0.2052588584622483    0.6633673803519377    0.0722857038752984 O
   0.0974484810418227    0.7665562132686274    0.1095562780659848 O
   0.3650258089588150    0.7969105369551944    0.1381338658284351 O
   0.5563446377741431    0.8788503426307156    0.1249353259729947 O
   0.6343749227038159    0.7445116608729154    0.1057395245180584 O
   0.4321953257841849    0.9713671305496628    0.2990018328147288 O
   0.7923449754472526    0.8376288451349143    0.0962643767811242 O
   0.1278653003450976    0.0458247184033344    0.3716674538139714 O
   0.1143041632260753   -0.0046428827754618    0.5190722808225249 O
   0.0186932985403126    0.2238379455728325    0.5441439117777579 O
   0.4202922732766495    0.1495274619993744    0.4504495624159102 O
  -0.2114770266944776    0.2764691178592683    0.3795637560444884 O
  -0.0756612723359054    0.3316762763604161    0.4221289606325158 O
   0.2418301920806888    0.4531552546833568    0.4227285484792366 O
   0.3690932432750034    0.3405764373886050    0.4704885213134324 O
   0.3000284736564447    0.6421755337148691    0.6761591859895765 O
   0.2857976852008522    0.9283973360834993    0.3359217829704815 O
   0.4522462214187433   -0.2148151964484379    0.6755056559836350 O
   0.0658479134904648    0.2787663486289920    0.7160791500773648 O
   0.0079949208851279    0.0386178180140612    0.6507019446681923 O
   0.7742609015924790    1.0811924873297267   -0.0655510358222485 O
  -0.1334842701417917    0.1067971113128803    0.6765035859292153 O
   0.2031773588910759    0.6046872149092567    0.8588778768570592 O
   0.0373954047744625    0.4620391192393773    0.7717854945308927 O
   0.3365042424487289    0.4979333857541877    0.9396272145118032 O
  -0.1149419036535529    0.4857109601520246    0.7604673230205895 O
   0.7027281877772689    0.5137543297238838   -0.0122036234854042 O
   0.8110505694487804    0.6185041931325078   -0.0666900452611749 O
   0.0856549444299555    0.6922943332086544    0.9233657282052363 O
   0.0691675704808165    0.7664411373028759    0.7516145848131233 O
   0.2226070134002703    0.7724615401570709    0.6374314819337911 O
