Li1 Co1 H110 Cl3 O55
1.0
  12.7116291384999993    0.0000000000000000    0.0000000000000000
   0.0000000000000000   12.7303832704000008    0.0000000000000000
   0.0000000000000000    0.0000000000000000   12.7294166500999992
Li Co H Cl O
1 1 110 3 55
direct
   0.5106056822836091    0.5942718671157723    0.6866258733805636 Li
   0.6031744621920870    0.5112971461224105    0.4865687874983135 Co
   0.3029241985621983    0.2869056302250072    0.0831231197850443 H
   0.2367021596065108    1.0481215177727128    0.3079596601128775 H
   0.2330598255283579    0.2272609216665867    0.0025738669650461 H
   0.3726013414641597    0.2940114649888617    0.3081780518959745 H
   0.6369702876774972    0.2048758925636062    0.3036201054012666 H
   0.6797570928992376    0.1636453978604009    0.1066577410669745 H
   0.7746151151764897    0.1262034772303849    0.1896305927719820 H
   0.9474552740626275    0.1476694452374435    0.2641846769131861 H
   0.9190954158515234    0.1929053181697991    0.0813240585531363 H
   0.9538824596821759    0.0576394771166182    0.1782247283878620 H
   1.2432946160561873    0.3758974520685928    0.2355030797877490 H
   0.0715068902102394    0.4452166533256240    0.2318116301878468 H
   0.0391442405830537    0.5929788974030479    1.0634051187957352 H
   0.1292163302833601    0.4873662091247511    0.3288718517173458 H
   1.3394663959814987    0.4344212202989102    0.1832131737931352 H
   0.4145047036686721    0.5887991332223637    0.1035918503767131 H
   0.4769742731745131    0.5259926973895109    0.1811195978868276 H
   0.3610151003619920    0.5939647278948275    0.3202925112022295 H
   0.9030156515842566    0.4651045070235311    0.1218466539067849 H
   0.9207395796146638    0.5561096225327987    0.2005973168440472 H
   0.8053877247089103    0.6345558074424084    0.3117532353667459 H
   0.0344957884172307    0.7182783456693750    1.0210151165802164 H
   0.3182660558391180    0.9630887283423293    0.1519595813516564 H
   1.1399640369707911    0.9394209413165792    0.2081561864014550 H
   1.0444373356511136    0.8740104990452808    0.2772402633998374 H
   0.3274615726943079    0.9296726095213731    0.2718425297967457 H
   0.0344986362032702    0.8681740683250246    1.0949540900517625 H
   0.4096123331217967    0.7563604669773195    0.0347009715481762 H
   0.6222577753816838   -0.0081140812971575    0.1884742161363029 H
   0.5418432204208220   -0.0598820435023750    0.1302940166536988 H
   0.4724500694415850    0.8279239054574694    0.2789166952887907 H
   0.6923738864079668    0.8494707822618612    0.1477362927691762 H
   0.7634993094476992    0.8069135403868507    0.0589006429445539 H
   0.8091527810583790    0.7152752939003925    0.2102010562266402 H
   0.9502401256040232    0.7416005028812741    0.3262715754509751 H
   0.0655933287633964    0.2947616387893791    0.3341242526590241 H
   0.2503518655654808    1.1561072689320182    0.3650439727702287 H
   0.1033006906426277    0.1763119450157352    0.3492734150519829 H
   0.2302490135064917    0.0528202977803096    0.5002677656049520 H
   0.2895868050501023    0.0708839330311574    0.6114708190448659 H
   0.4465989376614160    0.2232091976214881    0.3694440172922657 H
   0.6222215880452702    0.1557831051175953    0.4221974166394954 H
   0.5977369215553283    1.0010294556355166    0.5264732084126851 H
   0.3562289317806784    0.3319592619827868    0.4866819112996299 H
   0.6301017738899479    0.3075090947420467    0.4468395513595917 H
   0.3634207715522710    0.3046419383316920    0.6052772909227913 H
   0.7941570635210677    0.1929870124894366    0.6453403993917872 H
   0.8957152498034231    0.2644082714325251    0.4813870889324580 H
   0.7104919417327917    1.0444924047272774    0.5064895746773558 H
   0.8807840401266753    1.0223642414177727    0.4142190463188726 H
   0.6905731730807763    0.1272647178633683    0.6517688165179842 H
   0.0553155745450715    0.4795204123503338    0.6563927518967934 H
   0.2050350935196928    0.6075550492799089    0.6386896625727254 H
   0.2433881633495392    0.4975025889382354    0.5890338128684866 H
   0.1650937142937794    0.5895257413537550    0.4704847825805868 H
   0.2711548639159506    0.6288945481959902    0.3973714557422600 H
   0.4078242066942284    0.4720720898618452    0.5538263864546077 H
   0.4096194132528342    0.5740462388270562    0.4881203118566465 H
   0.7262735538152595    0.3512139847035033    0.5165096724953495 H
   0.9118815490055920    0.3500192052788048    0.5634474086401795 H
   0.1115907374062508    0.6681196044565555    0.3924521415489024 H
   1.0157942721985116    0.8566190352301429    0.6128361604801990 H
   0.1783013054035222    0.9263891262897888    0.6426654928398258 H
   0.3872391190434666    0.7535600799628224    0.3387010531206181 H
   0.4513457721814105    0.7959555042431662    0.6336391561931187 H
   0.4094903975317074   -0.0564406702876451    0.5377478806105561 H
   0.4697895135339579   -0.1207710193906590    0.4570026250931381 H
   0.9057375686275414    0.7899431165267675    0.6060220226147911 H
   0.9958047022361215    0.8037439578893764    0.4307178385080929 H
   0.8877540357924280    0.9369308356122437    0.5062193344853221 H
   0.3134098726286562    0.3287071996433708    0.8982679363323514 H
   0.0913373145605321    0.2059261358843306    0.6758759699276882 H
   0.0683072216581722    0.3134971312670150    0.7377931827635024 H
   1.1603862816076915    1.0217122579052809    0.9093132185997753 H
   0.0641551181453232    0.1651567427736948    0.9545784507654200 H
   0.1371169698399237    0.1804406502466460    0.8614555659872957 H
   0.3034866756390621    0.2412094412223864    0.7199714705644429 H
   0.5790162684110940    0.1634168108698767   -0.0488947916552885 H
   0.6621299266596756    0.3109866019827701   -0.1040992852559029 H
   0.4547835691407038    0.0787054571663747    0.9184181134418410 H
   0.4081380925035551    0.1731855662449922    0.7375025174406756 H
   0.4058110894359144    0.1883477177607914    0.9511454576282478 H
   0.8025745526433649    0.1038384789461617    0.7960700088263977 H
   0.9018749638060014    0.2756435969495946   -0.0082304773172129 H
   0.6924958219980561    0.1365880820919985   -0.0732361270453565 H
   0.8556102408824220    0.0984869511442922    0.9088418694276235 H
   0.3028148498717311    0.6341709015133470   -0.0504715331943316 H
   0.1728086970809166    0.6166066227912835   -0.0439317991053115 H
   0.2771989357782506    0.4304818259433132    0.8562785809131617 H
   0.2185361167268765    0.6627804093548622    0.7989373829569878 H
   0.4274031290564463    0.4158978188434103    0.7944202867238664 H
   0.5337640042258696    0.4565705927106287    0.8323654662459936 H
  -0.0165236830394806    0.5923622623942456    0.9008132218619711 H
  -0.0256818325364173    0.4895633150096175    0.7574068073986925 H
  -0.0995804642353947    0.6171651291495746    0.8137118227580860 H
   0.8608338042256045    0.4487035868339979    0.9174832709170732 H
   0.7619833747244592    0.3904641776778033    0.9667706826850800 H
   0.7909725779166696   -0.3384321801856188    0.6817364113014422 H
   0.6767024096971926    0.3516106734671277   -0.2216168464387438 H
   1.2460086662872083    0.9437020378745060    0.9215761528952581 H
   0.1373820814132148    0.9115584651863647    0.7602388303413713 H
   0.0526230007115307    0.9001683917753666    0.9757263169559642 H
   0.2003157928426217    0.7639603952705201    0.7188284488219746 H
   0.6173858585466944    0.7375574195815219    0.8899800467220156 H
   0.3609324988332218    0.7316966376698351    0.6933190316251192 H
   0.4694449471568022    0.6777147594024412   -0.0548935740110691 H
   0.5329018016017538    0.7568050726015004    0.8037482868407505 H
   0.8369816294416746   -0.2495063422155865    0.7760353122640853 H
   0.7993035321040647   -0.0866149385591400    0.8924703415148842 H
   0.8844971755152027   -0.1679958347972662    0.9456463839531434 H
   0.6285598786862373    0.5486338067636628    0.3215620116392250 Cl
   0.3863131952400139    0.9338908642949634    0.0199607595527957 Cl
   0.6900862174016452    0.5559226682243975    0.6376833320901812 Cl
   0.3044078793551565    0.2594916873304949    0.0127198150120043 O
   0.6989064873118506    0.1421220867251353    0.1835753270737385 O
   0.9036056625040438    0.1129006570086432    0.2090926000901299 O
   0.9398244661667133    0.2068522666809904    0.0122142930248715 O
   0.0609095074096352    0.6445971390570836    1.0114860074832142 O
   1.3096275770647947    0.3623927526146700    0.1982170035246806 O
   0.1156177586041050    0.4210013572538417    0.2888401665264933 O
   0.4053272804816890    0.5487704876445948    0.1676578655301721 O
   0.9573359902659970    0.4945584513420683    0.1715897032078718 O
   1.0630974143409164    0.9210868507363931    0.2163301666285208 O
   0.2833830368988467    0.9694121828911939    0.2228528535891482 O
   0.0142391716457328    0.8490387449945475    1.0224920106529589 O
   0.4185041910236029    0.6818921670162129    0.0074445536354767 O
   0.5900628461919629   -0.0791964659182112    0.1880248632588515 O
   0.8507957517769585    0.6752529325010572    0.2625074594422793 O
   0.7329037031912147    0.7837225653997540    0.1245459134993076 O
   0.2034286904554189    1.0979786184207168    0.3642356089399884 O
   0.2509127692798918    0.0162616969813742    0.5695254562150770 O
   0.0379030936121894    0.2251792875604387    0.3540214723794588 O
   0.3784290759892043    0.2589944517119320    0.3748684606817795 O
   0.6088110331791207    0.2172164479626946    0.3720812159104551 O
   0.6372275324385243    1.0671704336497272    0.5336644256158144 O
   0.8708246558006676    0.2882865784358027    0.5478488933697693 O
   0.1551870376099393    0.6068048754793914    0.3905934546467172 O
   0.1866102325165785    0.5449874122275350    0.5882937946682083 O
   0.3525850243400727    0.6271695412159521    0.3911205801375736 O
   0.3348673897594767    0.3607266598074474    0.5558736130256536 O
   0.4517690066812045    0.5376655588300236    0.5474859545072124 O
   0.6473403196036768    0.3637320681433424    0.5059255268346808 O
   1.0157392045126648    0.7756458250679000    0.3656363015632328 O
   0.4164485929790643    0.8236820850147528    0.3343057220903025 O
   0.4793476904345104   -0.0904836359073584    0.5278228382089464 O
   0.8352902648049512    0.9799381817675648    0.4670368633862964 O
   0.9605299160451116    0.8316629916254936    0.5646878425448923 O
   0.1019306066187592    0.2436846220029420    0.7450645293258976 O
   0.1370965161280377    0.1517172416710210    0.9362822470663942 O
   0.6538107726906762    0.1846274841280681   -0.0273356733120419 O
   0.3611338892271758    0.2000755657625986    0.6839399686812520 O
   0.4576313551802100    0.1546189610627609    0.9002868819530683 O
   0.8120800219017498    0.0602171685578727    0.8602379139592368 O
   0.7322578379043543    0.1807501460345035    0.6894044767503984 O
   0.0117523149528911    0.4355421606270133    0.7055191193643150 O
   0.2407449144288926    0.6034389124058653   -0.0904796509265766 O
   0.3080612269704788    0.3667036990201567    0.8309435629100024 O
   0.4717200292635016    0.4821157780434331    0.7903768964087575 O
   0.6703727725497158    0.3738503809438299   -0.1478891945127125 O
  -0.0641302481309013    0.5608031183004342    0.8491847758722771 O
   0.8415443805546955    0.3949385127225651    0.9714606069479904 O
   0.2385304067766247    0.6945430037254631    0.7267824661020363 O
   1.1741846703184480    0.9443226004948295    0.8964218187414236 O
   0.1416993879836042    0.8765477360878688    0.6918994850349887 O
   0.5596167093684913    0.7061443826362930    0.8504652744566228 O
   0.4392765088062437    0.7405950343318894    0.6845275839825344 O
   0.8516768347505075   -0.2951742524152559    0.7115798841362335 O
   0.8146477494246636   -0.1593236685588234    0.9056209834179195 O
