Li1 Co1 H90 C51 N3 Cl6 O45
1.0
  14.5443547702000000    0.0000000000000000    0.0000000000000000
   0.0000000000000000   14.1942749712000005    0.0000000000000000
   0.0000000000000000    0.0000000000000000   14.6702745794999991
Li Co H C N Cl O
1 1 90 51 3 6 45
direct
   0.7344727251831953    0.5137802388918680    0.3500430248917006 Li
   0.6653208091380278    0.6354132919011293    0.5349733740339772 Co
   0.0233060791940060    0.1388081455092053    1.1058795935878754 H
   0.3235923462031504    0.1009541514806131    0.0899442803643129 H
   0.0070220979695338    0.0919279771772440    1.2190949251073628 H
   0.1515097726174138    0.0644908589876790    1.1221205983972156 H
   0.4491245563869160    0.0769599706794780    0.1095621817498920 H
   0.5212576084594331    0.1210784622030403    0.2546317227777011 H
   0.5216054753864945    0.2939136372984680    0.1510644724330396 H
   0.3880957232743836    0.3244097352589688    0.0360720780604528 H
  -0.0847963443814593    0.0714915687950922    1.1304074235238484 H
   0.8585944224687171    0.3232339090872296    0.0950784719291559 H
   1.1179871600365534    0.3374396364251264    0.0963708812768646 H
   0.2027688357920498    0.5478448882650175    0.2333451409684980 H
   0.0986604017003271    0.5242856715612052    0.1129540746371277 H
   0.3229178577053795    0.4987894767408083    0.3287353119170022 H
   0.3571998872541638    0.3616043084986168    0.1512601061264956 H
   0.4664682614866322    0.6735413400823916    0.1412262107687567 H
   0.8564183204346243    0.3178232769728155    0.2146324714467148 H
   0.6989599775803741    0.3458592281437936    0.0632276706733334 H
   0.7512531189411952    0.5660226395431575    0.0907179536816385 H
   0.8735548661211107    0.5536317283936371    0.0875046532253626 H
   0.8908419856924208    0.5291938475787444    0.2294924523433662 H
   0.1543108594063219   -0.0296520262749579    1.2019854975612183 H
   0.1594709370574647    0.6679792384491494    0.2504600217186412 H
   0.1741742362672830   -0.0454837612847385    1.0779251065891751 H
   0.0112244157048814   -0.0910345203979628    1.2448544974965581 H
   0.0049972573722499   -0.1592408924715167    1.1424978584396237 H
   0.3049755010918923    0.7473379941647835    0.1279442507792497 H
   0.5205243823955412    0.8622279764505171    0.2084349051021114 H
   0.5747150709790515    0.9421665433940369    0.0506934812821579 H
   0.6746178870858962    0.8551561111947242    0.2723621339292057 H
   0.7350564568188808    0.9559636552857932    0.2226793555974015 H
  -0.0848121580771257   -0.0787683074104544    1.1620891754557088 H
   0.8031997341013264    0.8197721270871133    0.0546763651527604 H
   0.6987248348013346    0.7151214842741526    0.0157888857870235 H
   0.1606102106974305    0.1739575279899802    0.6013464330195702 H
   0.1450756611371482    0.0584151700092014    0.4649449642429578 H
   0.2107341255440136    0.2852171733895711    0.5892048743163063 H
   0.3033198759108195    0.0242894396719477    0.6471853841827406 H
   0.3417217169566922    0.2102517382293389    0.3999064406059640 H
   0.4115192443162397    0.2212970364441547    0.5805383016962092 H
   0.8447581263126084    0.2775584518119934    0.5726136374801450 H
   0.7066633100258642    0.1605767811476536    0.6153918415689051 H
   0.6499196446629316    0.2644228742373512    0.6038262775380113 H
  -0.1544013571850681    1.0334470070055195    0.4645269761564520 H
   0.3963298458526761    0.7027242325401232    0.3483695729145777 H
   0.8756945278999724    0.3547888846607466    0.6642464145433959 H
   0.7708345994881032    0.3771091511514849    0.5962176946587259 H
   0.2713631471769804    0.7469265606810833    0.3426068995888763 H
   0.0429453141076956    0.8698437229553111    0.5440293735846364 H
   0.2193443390583721    0.6976968535338133    0.6299362182841277 H
   0.1668270557502796    0.7956842465371218    0.6937693793422430 H
   0.5634903035294498    0.8305997319004507    0.6985627456571629 H
  -0.0275239515416809    0.8434168712308593    0.4463055721499081 H
  -0.1369808525285721    0.6911512567922740    0.6709429490538870 H
  -0.1579883158933975    0.7919792316556499    0.5597755001310881 H
  -0.1846577698587772    0.8830398883374845    0.6439870800374613 H
   0.3143605856939041    0.1927193175523453   -0.0339429713807696 H
   0.0513609504101589    0.0960507661269253    0.9645100514732325 H
   0.2449446496863065    0.2834854893092026    0.7581792167232285 H
   0.6029412801499898    1.0789399963487722   -0.0114853140128303 H
   0.4330079940709118    0.1875897846845003    0.6945628205240642 H
   0.7301583364742119    0.0995620409261753    0.8074066525211353 H
   0.8599268982166071    0.1737511067387402    0.7190579312360443 H
   0.8671558197921054    0.2715165792842309    0.7897553128276130 H
   0.7279801717841625    0.2067024199230344    0.8743413233535519 H
   0.8170195290097834    0.1005328548654543    0.9430557836410672 H
   0.6333792065478696    0.1961728225816237    0.7070588374872483 H
   0.6853670748271308    0.3149890356972571    0.8129743738038806 H
   0.0157120675142097    0.0146313204458405    0.8838346698649125 H
   0.1528745633086221    0.5537289506894429    0.7137151546182483 H
   0.0698918515232300    0.6462514643553152    0.7261232386669523 H
   0.1146054197959501    0.5769671929152178    0.8242406932653419 H
   0.2743251211304945    0.5852712450939419    0.8575536348433349 H
   0.1961937761547576    0.6969380969208936    0.9200350829602549 H
   0.3091736935153270    0.5161412612102321    0.6852542012981619 H
   0.4475903528864816    0.4348141062592239    0.7082081002299894 H
   0.4835768238073090    0.5809342852897318    0.7453580524716178 H
   0.3564868958452051    0.6271853267365143    0.6608136226261696 H
   0.7770005656940256    0.3984297188179583    0.7811992357535410 H
   0.6672363289696179    0.3961851519017443    0.7187075628791233 H
   0.8193413920648012    0.5957409591372113   -0.0602805833938345 H
   0.3327505386499486    0.6873215437487903    0.8273892369241324 H
   0.2255164932321640    0.7978386362514289    0.8569033402664814 H
   0.1166178844574950    0.7587144117928514    0.8519790970555911 H
   0.0290643270725297   -0.1080864656710463    1.0048501280541422 H
   0.1712624536087101    0.0348246730884776    0.8678513289445143 H
   0.2903437072885655    0.7647104912102703    0.7030364178876548 H
   0.6595082446526501    0.8952743984024475   -0.0285865617529766 H
  -0.0001222547117486    0.9474693855717969    0.6765965582996128 H
  -0.0652183015944788   -0.0293342925401141    1.0118881694650561 H
   0.2512804412326463    0.2833953121072957    0.0733160980710600 C
  -0.0118622048640820    0.0836626730149645    1.1454787160754520 C
   0.4041926903588011    0.2027768936025245    0.2445746513029675 C
   0.3943036301514212    0.1219161238676286    0.0801305581180244 C
   0.4119207746757690    0.2183972757953359    0.1362978776548673 C
   0.3540055207295523    0.3006262027654131    0.1002194799989974 C
   0.7079552202066101    1.0161569375586508    0.0220593887351105 C
   0.1919770198277145    0.6262835547174452    0.1107591600276223 C
   0.2109507044194447    0.6217098797582296    0.2115493662359096 C
   0.9803206886367731    0.3888427550402307    0.1430387194478482 C
   0.3142918304953545    0.6592447310331980    0.2323328899762261 C
   0.3878310157599679    0.5840918963752532    0.2089924952109858 C
   0.7079222177113061    0.4102244741217472    0.1844660285760127 C
   0.8746817638253377    0.3617423923390367    0.1571584279016664 C
   0.8101481344667426    0.4460145374416952    0.1606600665193773 C
   0.8083398727448898    0.5138383609165346    0.0785566271138790 C
   0.1374589602418305   -0.0109825274426694    1.1326111995898516 C
   0.5888774042866821    0.9729789660706019    0.2304951602286402 C
   0.6205811138898589    0.7767392845333834    0.1038308643471836 C
   0.6493029105319423    0.9307112207143008    0.0385662372393907 C
   0.6716813525558455    0.9131640053401193    0.2155472464175087 C
   0.6841927360359047    0.8655645329210726    0.1158763103299692 C
  -0.0140465575220007   -0.0909295484988681    1.1710699207911850 C
   0.2211897285874416    0.2096789720953521    0.5826344451482870 C
   0.2444943031358071    0.1874002716586178    0.4830635071890749 C
   0.2916878714202089    0.1664742292504871    0.6484689320739514 C
   0.0539447707716505    0.9728345416456730    0.4435975110441184 C
   0.3814766603100197    0.2233570219002155    0.6532582084858720 C
  -0.0709002312026125    1.0262243767402888    0.6030757803376806 C
   0.6810533736701329    0.2228969772686124    0.6518062929211992 C
   0.3000409404919921    0.6117121870061916    0.4091741608018756 C
   0.3230780573179998    0.6833791092029228    0.3338633686273466 C
   0.8181546773378362    0.3255587900738920    0.6257938281965612 C
  -0.0092055039921279    0.8998487778710532    0.4936409506553913 C
  -0.0919551356544371    0.9369059717796711    0.5421852363223519 C
  -0.1300723301783147    0.8526233999380421    0.6023845867308363 C
  -0.0636039295325357    0.8070508010337311    0.6683942578349613 C
   0.2519129890593020    0.1469910220728668    0.7444746334238167 C
   0.0583416657188933    0.0248502291463063    0.9471702260581401 C
   0.4260011517867285    0.1245545115327954   -0.0178866938568878 C
   0.3765737271014523    0.3151243015001174    0.6949915786884676 C
   0.7674126532562928    0.1637759582871790    0.8364606417760880 C
   0.8167286945199188    0.2175525690368486    0.7599917254023201 C
   0.1274598917167714    0.6116847111399856    0.7554478431703440 C
   0.2918893241519591    0.6267126009358930    0.7977524364918108 C
   0.3452701727538338    0.5773145160444375    0.7145644911410569 C
   0.8027995788457681    0.4692166524259562   -0.0154225272999431 C
   0.7167854503563270    0.3577816405490319    0.7588315562515815 C
   0.1851853813149913    0.7377390537274277    0.8606156088886449 C
   0.0105829297024143   -0.0360102235187845    1.0189684732069606 C
   0.2190349406648991    0.7405176387611841    0.6949588594644750 C
   0.0351567252160041   -0.0153821885825804    1.1194369403793205 N
   0.7585899861784162    0.2746819399730412    0.6947127836340304 N
   0.2060601471466161    0.6811007258359938    0.7752961424248713 N
   0.6158913217967952    1.4836735957510896    0.5007566320582378 Cl
  -0.2078626493692458    0.5924227199107932    0.6078916411190952 Cl
   0.5964604151347106   -0.1074890417084130    0.7605649934726909 Cl
   0.7061703352522640    0.6698264620694612    0.3858842081736238 Cl
   0.5538570126606742    0.6959567153407661    0.6119079258641902 Cl
   0.8217622626057304    0.7196387984821766    0.9456487821424829 Cl
   0.2247643113600320    0.2181824004314171    0.0202564231630168 O
   0.3301234025133709    0.2281483902609096    0.2831199421177814 O
   0.4714074286848353    0.1611213669060445    0.2880823577566631 O
   0.5039951238757634    0.2348116400705619    0.1211747796652752 O
   0.5915897968694614    1.0587593248751535    0.2481969420591512 O
   0.7922779708117326    1.0115529686956695    0.0261608797926862 O
   0.1946048435162778    0.3455055644300649    0.1070959702414478 O
   0.1267716521792906    0.5726872983715895    0.0767318487257902 O
   1.0261852189332124    0.3291243120961641    0.0952638808651141 O
   1.0136463333737333    0.4599557215036854    0.1872771552373793 O
   0.3723631587422787    0.5012603320730574    0.2330220386315708 O
   0.4623685952627190    0.6037906834261821    0.1612517391532440 O
   0.6818158688220471    0.4154169901290491    0.2623289202219666 O
   0.6610896142192895    0.3545014448296683    0.1199730298340460 O
   0.8276628337452515    0.5049577382531184    0.2376940711575180 O
   0.2358655257178402    0.6741535587422127    0.0575086229796221 O
   0.3385383512638486    0.7419823137827815    0.1851224580073648 O
   0.6422011860737608    0.7097841211362879    0.0498427814583496 O
   0.5057707956335038    0.9308781894397066    0.2357281911159610 O
   0.5437936580249714    0.7788711299472137    0.1377538831225392 O
   0.7763845191150218    0.8395772950559168    0.1122512929717861 O
   0.0545058131918147    0.9846780489992427    0.3593714119820984 O
   0.1956540478461438    0.1470051122606647    0.4255460425071862 O
   0.3259547748253124    0.0751402229253723    0.6073735867392119 O
   0.1183560158768273    1.0063748246799216    0.5009671257325904 O
   0.3284478383247186    0.2160935300903705    0.4635692572041678 O
  -0.1084385069547030    1.0992918636041364    0.5812057057006089 O
  -0.0194404028482119    1.0187523501510338    0.6745986406845632 O
   0.3079773530605651    0.5170242228285908    0.3923353485041701 O
   0.2810218774692194    0.6436490066690331    0.4847220310202511 O
  -0.1578480552883564    0.9645967133495994    0.4713838348645069 O
   0.2177932217790945    0.2233020701678035    0.7853525322491051 O
   0.2372949462956850    0.0664832115423096    0.7719403770141275 O
   0.3044825263182922    0.3555638449896341    0.7223332618878063 O
   0.6667825446591910    1.0976264034064183    0.0016071471377193 O
   0.4957422311282669    0.0863130373397595   -0.0480804027475838 O
   0.3721864578820063    0.1716418056253866   -0.0706607572054954 O
   0.8433342061506475    0.1338476948949357    0.8920840042140535 O
   0.4547037657284166    0.3635466408865647    0.6900639272250780 O
   0.4271115482433036    0.5365122206700625    0.7507321850124067 O
   0.7801303023320005    0.3860860097975611   -0.0282941336885425 O
   0.8095011480483916    0.5255634402416627   -0.0818650464714705 O
   0.1557120903527615    0.0053902707785526    0.9280308433234531 O
   0.0069732817785636    0.8450548555623714    0.6972198941724654 O
  -0.0753156900534637    0.7205194352195486    0.6901075528570682 O
