Li1 Co1 H90 C51 N3 Cl6 O45
1.0
  14.5340195111000003    0.0000000000000000    0.0000000000000000
   0.0000000000000000   14.1573214397000005    0.0000000000000000
   0.0000000000000000    0.0000000000000000   14.2039057044000003
Li Co H C N Cl O
1 1 90 51 3 6 45
direct
   1.0090189602607793    0.5326561421748573    0.4573044195434119 Li
   0.2103176793704917    0.1037867387456264    0.2217799046936906 Co
   0.5184438654252028    0.2613737519036237    0.1919888029498287 H
   0.5098885583468660    0.0692201717516958    1.0643235155184798 H
   0.6705248502010869    0.3891634618219665    1.1295766944179206 H
   0.4859070988659697    0.2458771764437498    0.3463062171608371 H
   0.3661211030737956    0.0001181170892476    1.0937654175349412 H
  -0.0043806700858888   -0.0016413965381076    0.2089432945531770 H
  -0.0826466995990078    0.0585147568435484    0.1336020453030853 H
  -0.1157848139129570    0.2641701848424832    0.2299248475289674 H
   0.0586232359774447    0.4015725888413869    0.2064123005612312 H
   0.1990406888672916    0.5519345770936723    0.0714606865550771 H
   0.1343978693580385    0.6662024495079812    0.2500024237910837 H
   0.2134592741622923    0.6734149720486974    0.0864115039161228 H
   0.3457612845271090    0.5098836635408742    0.2677933050640930 H
   0.4559614943711083    0.6217307602352864    0.0026451072107837 H
   0.3563509221619323   -0.1569080555147070    0.2989924702248927 H
   0.5821941582669300    0.7921146856320607    0.2493828758876310 H
   0.5969251141347465   -0.1300837722901222    1.0809865379945220 H
   0.4349088874328614    0.6846974735218987    0.3338885058868625 H
   0.4145915210102776   -0.1078684117546151    1.0288311649994368 H
   0.6450508235756761   -0.0053412489588569    1.0286713498016145 H
   0.7580980090941197    0.6939054300237864    0.2760241397678030 H
   0.2801380067221231    0.0878451638537038    0.4113693074989913 H
   0.1502523960307194    0.2224122857569817    0.5710380667260718 H
   0.0721102138812719    0.3214147705115908    0.6528451431867419 H
   0.1828442058626954    0.3650049370998460    0.3858770233670406 H
   0.5600033940565419    0.0606987858021121   -0.6464270699682074 H
   0.3620410204817288    0.2402030805109742    0.3618343405228274 H
   0.4567619611649718    0.1811869732933291    0.6139882251329261 H
   0.3502899697920305    0.0019051783004915    0.4691520763430393 H
  -0.3893443751178590    0.0667896272347431    0.6095352245768602 H
  -0.0804043742756442    0.0942072430353931    0.3692780677764691 H
   0.0047874750303492    0.1787966906297523    0.3896978034489013 H
  -0.1733827825520292    0.0592712558780315    0.5786761067312509 H
  -0.0349771612809349    0.1575624478896672    0.6514229991356348 H
   0.2006348796541076    0.6098690531521166    0.3391863444930910 H
   0.1161235028073981    0.3893259219320796    0.5397761019368768 H
   0.2060931081874747    0.4688378553719305    0.5046671670862659 H
   0.3105253334807463    0.3135679471931288    0.5683134640142971 H
   0.6377947441463443    0.6104051715154897    0.4967808855006806 H
   0.7502103081100632    0.6044322902497670    0.3557163049762326 H
   0.8297719186553680    0.4902111074584080    0.6427394720433792 H
   0.9758602047195514    0.5220521588832848    0.6441482394920256 H
   1.2067866870623554    0.7246153352732932    0.5875673231775048 H
   1.0404266516878737    0.7820011906033688    0.5745462567293723 H
   0.0646986372064414   -0.0900239345294548    0.4087890312874527 H
   0.6425491068295116    0.9000814367233879    0.3808974070930400 H
  -0.2818035809964326   -0.0445704211130330    0.6107236301007557 H
  -0.1243227135562890    0.0080355752381936    0.6729804500489528 H
   0.9711959753955005    0.7668676781721824    0.3680340437476046 H
   0.7734131116939202    0.8825470464040521    0.3678340987423994 H
   0.7023660074010316    0.7158884019670013    0.5392787739380144 H
   0.2653926019952115    0.1779971043486739    0.6109503283108827 H
   0.1680334372494016    0.1550111178125869    0.6824827660181576 H
   0.0798953967698448    0.0813312197864739    0.9621537299537635 H
   0.2416641351566597    0.2336163825683458    0.8182813301695998 H
   0.2990178492729353    0.1011103850185896    0.9284059700083064 H
   0.0986713451433548    0.2976871182554223    0.7661808716477753 H
   0.3644395310915003    0.1534437309241481    1.0239761623378354 H
   0.3391492113888690    0.2799478869276831    0.7445811788319492 H
   0.5492133301048435    0.1103232859586112    0.9531632450366156 H
   0.4036289652026213    0.1671970387676780    0.9035550587627710 H
   0.4451755586648657    0.0320627191756140    0.8098132367801358 H
  -0.0356328642674847    0.1490234032324625    0.7843110962042666 H
  -0.1850182423689674    0.2386102650835611    0.5841358726304273 H
  -0.0627430521751778    0.2496151716729605    0.7284792696275568 H
  -0.1764053462665232    0.2125756792637868    0.8343036837909352 H
  -0.2190336088422564    0.2855753638723394    0.6969358329613158 H
  -0.2759208312220359    0.1341971523138814    0.8053757249216562 H
  -0.2887803158165942    0.1970211832429162    0.6383765875459976 H
   0.2859753457965069    0.4186139480439446    0.6402521280173586 H
   0.1165356393120605    0.4198606528019863    0.7283497277931985 H
   0.2689084910416638    0.3548857912847153    0.8062536524621170 H
   1.1409604371891300    0.6903567361402727    0.8295233084904313 H
   0.3968964849052563    0.5242840782569167    0.8870673401821376 H
   0.5742741193601369    0.4985272285906053    0.7294297124339899 H
   0.6385564054329241    0.4653354979372143    0.8245577728506002 H
   0.3770795306359963    0.6531872756430086    0.7713005902317611 H
   0.7804049834140862    0.5827237346229821    0.8648544357482350 H
   0.6902110766975824    0.6655257678319449    0.9054327113292575 H
   0.2997843268458801   -0.0513986901759165    1.0046047298793133 H
   1.2078393896535631    0.8019957920684604    0.6896103830346969 H
   1.1365590394924263    0.9345568847859942    0.8347028697696371 H
   0.3376031834657030   -0.0143415390591218    0.8429562334880182 H
   0.4475662944123623   -0.0770137051026161    0.8661913919626175 H
   0.6408228121881127    0.7495670891417485    0.7414088119535883 H
   0.6179757257543566   -0.0357919243804877    0.9102926422128184 H
  -0.2800559570868457   -0.0312077238820794    0.7416115730856273 H
   1.0144386585032263    0.6803470743123922    0.8102553686930544 H
  -0.1684777389097281    0.0857706188823902    0.8389756382083350 H
   0.9127008014107193    0.7989012801449586    0.8381160154922943 H
   0.0370593458395072    0.2365201804495410    0.2285238244291142 C
   0.0567682776860092    0.0683704347409739    0.0952309091281128 C
   0.4025212193386705    0.1987934111397585    0.2322389997547047 C
   0.4222294631442632    0.2041743725260258    0.3348072672664145 C
  -0.0177589375260489    0.0649834946192685    0.1699406419357079 C
  -0.0343820058944024    0.1551566255633839    0.2397460898621086 C
   0.1140504355477189    0.5124239887113650    0.2743703692846096 C
   0.2618698325396663    0.5908322599883873    0.1993262214154917 C
   0.1742739682966270    0.6009097312535323    0.2660987007418084 C
   0.2466758251399001    0.6066587001066210    0.0945937604319485 C
   0.3314128794048555    0.5944960886455897    0.0339090432887625 C
   0.3295200788634092    0.6743664232153161    0.2376438511806205 C
   0.3327242853779548   -0.0252207156502598    0.3267397679190693 C
   0.3732258135030845   -0.0370951370029166    1.0270253236672142 C
   0.5882385976550089   -0.0316393026963363    0.9820067201008783 C
   0.6950817182944190    0.8678105017201857    0.2506480208677497 C
   0.0563485727313446    0.0433296809861088    0.3559324427107325 C
   0.1951498175252784    0.2087034778566567    0.6361349505862325 C
   0.3408775701529958    0.0432300858751265    0.4058285779533409 C
   0.4345578489609436    0.1044252776132013    0.3857819790863972 C
   0.4815427865742767    0.1161033341371128    0.4812996436101573 C
  -0.0161929564165136    0.1217738983283643    0.3446066846165932 C
  -0.1831213135820654    0.0537285407299559    0.6574248694503323 C
   0.1939374894431161    0.3946517881505694    0.5247245376383491 C
   1.0646511960220209    0.6163950051405288    0.6411307595895278 C
   0.2564955449972321    0.3581505331496835    0.6028398830293209 C
   0.7235363381388574    0.5750764547006374    0.6737541808965601 C
   1.1973949286505992    0.7305211134500563    0.6636907516557055 C
   0.6045465432869093    0.7072928494454094    0.3986488625903750 C
   0.7708116290159094    0.6801055031921370    0.3481134665564768 C
   0.7003280302277259    0.7472460286120460    0.3993775354086404 C
   0.7021946852146194    0.8528302668711496    0.3564801793799213 C
   0.8707199853306243    0.6841359266195514    0.3720188632175386 C
  -0.2803449342687459    0.0055880783619247    0.6715547858393032 C
   0.1201141400812579    0.3434040995895492    0.7121027880568614 C
   0.2704056680602704    0.2880186226587792    0.7690631774622469 C
   0.3671091298195305    0.1232720630829289    0.9547578768562976 C
   0.5175830574435949    0.0491069037713911    0.9930769146848434 C
  -0.0688060686678075    0.1766472727381257    0.7147886690246704 C
  -0.2193294664332494    0.2226079442374222    0.6506168828294380 C
  -0.1999886364732156    0.1420658724297934    0.8069161462997864 C
   1.2560435357581512    0.6540744491138869    0.7078180510791197 C
   0.5292247096287167    0.5489846546681710    0.8641912378788574 C
   0.6049366624824746    0.5269294232933711    0.7923011520636802 C
   0.6716119548377590    0.6129713349069718    0.7611414126785548 C
   0.7364852680516228    0.6464218715792558    0.8457744724170192 C
   1.0912584260250258    0.7136358572228680    0.6840654292987957 C
   1.0786617730578147    0.7175292490791434    0.7909367386126676 C
   1.0696443089007104    0.8182071920128319    0.8247901033143948 C
   0.4132058066189753   -0.0112555033152780    0.8620552056753626 C
   0.7826899672738256    0.7378141596975242    0.8246633776068705 C
   0.2095133595475362    0.3022649616190871    0.6812809838918011 N
   0.4204316122482986    0.0292966592138625    0.9601345670138747 N
  -0.1674628785685310    0.1476728652736094    0.7083390345433868 N
  -0.4090567471689074    1.3648225975442319    1.2219111570153265 Cl
   0.7386395241385978    0.3991046078642776    0.0557776762172237 Cl
   0.9141484394838574    0.4267835725377183   -0.4335701232297178 Cl
   1.0912109512022850    0.7863445263298269    0.4199764471508779 Cl
   1.1480775323547858    1.0687277452902573    0.8448015005959151 Cl
   0.4960173302364296    2.2321194271244598    0.7212643526791674 Cl
   0.1397432591822826    0.0548968408261605    0.1111730031346828 O
   0.1223406404637079    0.2260005351455663    0.2395778262837846 O
   0.3246976001302226    0.1755849248876470    0.2040911080184093 O
   0.0296326322646724    0.0780212716299960    0.0099592926300672 O
   0.3047588626200190   -0.0018978009727643    0.2471137816912358 O
   0.4635966155373658    0.2153050091136866    0.1692352021638221 O
   0.4965884523540008    0.0488102374833585    0.3265046213284406 O
  -0.1229975467650038    0.1916847217998538    0.2223304574897133 O
   0.1013643372623008    0.4615254551809100    0.1972451036852576 O
   0.0015124003021471    0.3201963196857426    0.2138292746099512 O
   0.3043763118744559    0.5025342012542988    0.2126866311471062 O
   0.4052142114576165    0.6448205799721847    0.0527714608220615 O
   0.3836055986605755    0.6427043604508856    0.3074690119948583 O
   0.3299239588771602    0.7577303565007788    0.2113046169033817 O
   0.3606209040449621   -0.1098158140310576    0.3486921806208382 O
   0.5666873674698022   -0.1242839463590851    1.0180630000184050 O
   0.6302538157805680    0.8183866044822611    0.2044994464093212 O
   0.7496839568144592    0.9126410159317390    0.2045867463411714 O
   0.1408695821507841    0.0486647297325616    0.3382506863525359 O
   0.2056520739646223    0.3337984689920369    0.4422985469027639 O
   0.4256731078952405    0.1566978775645437    0.5416955035836755 O
   0.5634820600898017    0.0935595216398553    0.4999840889678724 O
   0.0171694592338629   -0.0323859128545517    0.3861727166845975 O
   0.0765893602007248    0.4925838726840248    0.3487710321721868 O
   1.0897584968427820    0.5959200868281461    0.5589787075917079 O
   0.5923104237561643    0.6298007896180775    0.4519827142622663 O
   0.7044480191925316    0.5957653965493862    0.5933220783625297 O
   0.9130682152562780    0.6170893455241859    0.4073873041558911 O
   1.0352470797227675    0.7862470502637591    0.6420917628715879 O
   0.5399514050126697    0.7435433507980773    0.3555184720661528 O
   0.9033744068853454    0.7687197234274716    0.3495510993051703 O
   0.7137276269360739    0.7677011691718931    0.4950865627910793 O
  -0.3553895562445871    0.0690683068661554    0.6743181102950437 O
   1.2440509827092936    0.5702984322273811    0.7122928766181481 O
   0.3202177657698603    0.5454541845709223   -0.0415040171955931 O
   0.4500404895221553    0.5092570266422358    0.8414369330611423 O
   0.5372557983382684    0.5999024785708313    0.9363009815870768 O
   0.6169477926358830    0.6870234784897351    0.7258546394183847 O
   1.0130364311301012    0.5580555089640894    0.6911902301885011 O
   0.7872399818069349    0.5094781984234471    0.6985790429688823 O
   1.1504815472918319    0.8644758313730384    0.8280673709173177 O
   1.3329940310527151    0.6975374730072711    0.7442552121509280 O
   0.9937637172200866    0.8555271046990268    0.8436391442452329 O
   0.8725604947629648    0.7361316380353965    0.8515109227776239 O
   0.7540282471156921    0.8088713864677682    0.7891520182316988 O
