Li1 Co1 H90 C51 N3 Cl6 O45
1.0
  14.1231068277999992    0.0000000000000000    0.0000000000000000
   0.0000000000000000   13.7831663850999995    0.0000000000000000
   0.0000000000000000    0.0000000000000000   14.2453796233999999
Li Co H C N Cl O
1 1 90 51 3 6 45
direct
   0.6498172123455926    0.6806205795093098    0.3289375176778626 Li
   0.7043540794380283    0.6555958507668005    0.6026739924569949 Co
   0.1650371930850205    0.2632767095101474    0.1648443125968116 H
   0.0514665729971843    0.2586108730685645    0.3189391881306430 H
   0.3178336015744231    0.1983605665136259    0.1564605416368703 H
   0.3552382609345117    0.1152620992965307    0.0690792269293790 H
   0.5111202298838992    0.1296550184892101    0.0714582439086339 H
   0.7879794470289054    0.2448636690730563    0.0223517954675611 H
   0.6888227942417547    1.0164548769900348    0.1988637640127602 H
   0.6280040232395246    0.3333252000401407    0.2539630327406133 H
  -0.0360913570728404    0.5826118954191047    0.9930258221032732 H
   0.1886615983995255    0.5057529233656876    0.2708358719596662 H
   0.3140476074123774    0.3577978060129338    0.0714863231884126 H
   0.4095414683909880    0.5744889433432282    0.2403024631282498 H
   0.6158169030754828    0.3869855839704646    0.1103375166722902 H
   0.7285944965200627    0.6105554019573671    0.1730055552645063 H
   0.7180706081283503    0.4035368606238912    0.0394029381132091 H
   0.8287204827666935    0.3544749120769286    0.2517868885577600 H
   0.8390829335917431    0.4773636339188881    0.2941395682300481 H
   0.8555113301782004    0.5522023372458027    0.1024149478827149 H
   0.1220303669379287    0.6938504858243875    0.1888422690597231 H
   0.1970329859023996    0.7803443992468330    0.0848331068492485 H
   0.3119368820342104    0.8794696627622590    0.2439583853554435 H
   0.4120225088891755    0.6912146618790802    0.0988902962884869 H
   0.4270758539209866    0.8084816203442466    0.1351273088249625 H
   0.6686770852650338    0.8905034118842607    0.1877471771483517 H
   0.6244870916885837    0.9600955486400734    0.0322616752834777 H
   0.8904915938003340    0.9786145153904082    0.1635856588807290 H
   0.9688036828813940    0.8200943365756221    0.2129967675074012 H
   0.0493183204653632    0.2946932931819593    0.6082694909349060 H
   0.2717035249600069    0.2557900408364273    0.3901924665152128 H
   0.1971859267550276    0.1464058864356051    0.4163005808534977 H
   0.3035024772355776    0.0729757346314370    0.4904020809824254 H
   0.5614709996309811    0.1909123505426586    0.5847446703362665 H
   0.6204192898443807    1.0374529547838913    0.5499558466543800 H
   0.4568817603077737    0.9691210509466028    0.5648740170098344 H
   0.4667335586193265    0.2812036497426262    0.6129264394862123 H
   0.8660302621533925    1.0767233216123095    0.3214712371846920 H
   0.6960464172904161    0.1987175236788037    0.6491641540046822 H
   0.7158515496462385    0.3224205939575733    0.6041228832935785 H
  -0.0222757000521115    0.0590921323695601    0.5444895830616507 H
   0.0271093260971701    0.3697348308882819    0.3820614090732804 H
   0.1926493895198999    0.3434542223634091    0.5557587808116566 H
   0.6316307040134164    0.2883652842496803    0.4711797080278854 H
   0.5096471474910754    0.3729670344876058    0.3949933213753852 H
   0.6046543450121478    0.4007664522189488    0.5205154939865512 H
   0.0472401658243301    0.0005917865512251    0.6852046115827066 H
   0.2850985946360088    0.7888671143268009    0.3224912170226553 H
   0.1852048519063317    0.9187168128644867    0.3540467116380182 H
   0.4247803250125609    0.7677645612650874    0.5965204182934811 H
   0.3184375763304031    0.8877130516052484    0.5955088622394515 H
   0.5436800841430792    0.8811340118210353    0.5736579177066230 H
   0.6911714276128985    0.9171750771409035    0.3647238577738892 H
   0.8050543019415171    0.9034692279389221    0.4111382052661740 H
   0.0479722993503363   -0.0768359952938576    0.5892928116784301 H
   0.1867979857878733    0.0781603197988373   -0.0836783729049892 H
   0.1943211180062643    0.2530809390990815   -0.1076447401781496 H
  -0.0520956260170561    0.0510627727211387    0.8140892077491788 H
  -0.1165134634725644   -0.0087297290142324    0.9029910154566897 H
   0.3166624711566143    0.2897619154345734   -0.0998688856254184 H
   0.5008543796168312    0.2370817126631017    0.7757336135533963 H
   0.6188934216156153    0.2520978558494555    0.8141432603627530 H
   0.5895847146117699    0.1485142553827735    0.7470766025931951 H
  -0.1076343973061058    0.3107585421830432    0.8102135651577164 H
   0.7340996591551676    0.2843103379159831    0.7334293706387265 H
  -0.2480015292814721    0.0290729054053346    0.7829843855742649 H
  -0.2556768942929882   -0.0636089910695538    0.6953489533847758 H
  -0.1846429488423132    0.0366183414172242    0.6687599813802798 H
   0.2184737357099382    0.5986597318755458    0.8658730155171557 H
   0.1427021641253099    0.3813794701181693    1.0087277553555520 H
   0.1156896940893931    0.5420187556159868    0.7521287670073873 H
   0.5141581237781481    0.4192807756240456    0.7148738805789319 H
   0.6165568252560210    0.4113447907462713    0.7766777793359568 H
   0.6213631331617564    0.4422750565566631    0.6489156523786404 H
   0.0153519980513929    0.6221507056440998    0.7428134659407859 H
  -0.0744285307982580    0.4427317730921905    0.9080438818528763 H
  -0.0990505919523595    0.4980647044877268    0.8010246208501194 H
   0.2577313867891354    0.8414007615141955    0.7067477370109607 H
   0.2829333486761180    0.9619035511921531    0.6885734231741626 H
   0.3273237230918908    0.8034776903275156    0.8360794957079094 H
  -0.0057828700508897   -0.0586877706398762    0.8555938931721485 H
   0.4644897180546129    0.9974200636046562    0.7414137138438149 H
   0.3672526145798443    0.7095428161610375    0.6914375097115953 H
   0.3775860349652747    0.9285650579053896    0.8398470330722236 H
   0.4442321356764325    0.8214220431046374    0.8622936093273591 H
   0.5399450702652427    0.8895442708835185    0.7566839281694955 H
   0.4953783890332460    0.7367129155080812    0.6940720481368369 H
  -0.0199490165255578   -0.1589651641925023    0.7313269345652924 H
  -0.2146236043144179   -0.1402865824496083    0.8763360571447135 H
  -0.1183183071454753   -0.2105955356265505    0.8267936778850757 H
  -0.2220086649297419   -0.1967569157716675    0.7590152103731266 H
  -0.1071316750590415   -0.1639857812311827    0.6430997315544660 H
   0.2597819271095552    0.2317360614577553    0.0238505270257521 C
   0.1681349534102403    0.1758432441996829    0.0545832987435976 C
   0.3427310978751556    0.1890317957212338    0.0828177165431285 C
   0.4317837415558178    0.2439299213665850    0.0671333328407114 C
   0.7170276364805677    0.2841688609907602    0.1428301572502690 C
   0.1545267578238633    0.3690180144671524    0.2963564273685806 C
   0.2471196990190624    0.6452651331347529    0.2032623831901019 C
   0.6583606583076732    0.4645635925444533    0.2724869336106569 C
   0.6954013750832673    0.3887609380013390    0.1090290222346003 C
   0.7290299531143507    0.4607237927102719    0.1831393673366583 C
   0.9132089748916147    0.4489153304562034    0.1646203803405761 C
   0.8266848116958349    0.4336475034474915    0.2244727691529777 C
   0.2936427486575923    0.7400894981234017    0.1717511134403905 C
   0.2665325664102742    0.8157542598233988    0.2515327710757622 C
   0.1616774507437250    0.8444443292132221    0.2455216992571256 C
   0.4733886098871530    0.7017543300468418    0.2317789977514093 C
   0.4005115855504101    0.7365380645389595    0.1604246339596359 C
   0.7253791983173603    0.9475962436773009    0.1807645622493703 C
   0.7545505417776418    0.9496081181062404    0.0778364523103777 C
   0.8066035361338784    0.9231512075668589    0.2572834075744510 C
   0.8243439669792230    0.8121469609915608    0.2567302457628095 C
   0.0835289234078366    0.3187632340598872    0.3590813265023487 C
   0.2238818941931448    0.2175085614391827    0.4411507434576944 C
   0.1312231034641753    0.2813697944394265    0.4545696908675617 C
   0.0654372950490499    0.2083546416159123    0.5030542534597345 C
   0.2792641843320520    0.2057384067833283    0.5309192883337759 C
   0.5456587564239540    0.2704971113553710    0.5969114222644003 C
   0.7561224338740962    1.0483931114784377    0.3949933213753852 C
   0.6963168960205266    0.2742379063628039    0.6616629434161999 C
   0.5730340361491605    0.3235241139743122    0.5089856292625390 C
   0.3084241988402869    0.8890995254724331    0.6699996815825117 C
   0.5182971847307237    0.9483152366665107    0.6061305517977595 C
   0.7631485083214462    0.9434564111884698    0.3574204371034354 C
  -0.0031198582604550   -0.0422539561105193    0.6343839231111410 C
   0.2658846919651139    0.2314915603100623   -0.0853631296917144 C
   0.3041900030129007    0.1402251586100967   -0.1296560875967143 C
   0.5753586663031558    0.2276861937829122    0.7620877855629167 C
  -0.2082439881932223   -0.0085519759543369    0.7257658332051102 C
   0.0737095542215169    0.5987634816207092    0.7888894581117367 C
   0.1133226511711737    0.4914875510625167    0.9275358158932924 C
   0.0338245624227438    0.5467014241840578    0.8758411598386131 C
   0.0013996855466029    0.3942212217922507    0.7841314241532269 C
   0.5877118972265798    0.4020430093980757    0.7053564086979234 C
  -0.0421516383582247    0.4727826981428928    0.8447924962232566 C
  -0.0740192724055775   -0.0213371368583291    0.8404381019115664 C
   0.1329649298413275    0.6870400043009636    0.8102837633571632 C
   0.3865861793067305    0.8512482810324050    0.8201178291176772 C
   0.4893240554476861    0.9292673638726501    0.7085195395650000 C
   0.4271261261456930    0.7616955639343703    0.6733060167764600 C
  -0.1757015734395988   -0.1590718160284396    0.8124184906023429 C
  -0.0643670052619440   -0.1137665514358966    0.6887117136270730 C
   0.5980991301342311    0.2963583677634292    0.6818189524233834 N
   0.4034556969634991    0.8566984075056083    0.7153491223891872 N
  -0.1318004681403349   -0.0727875786644015    0.7652291549881646 N
   0.4912349664341326   -0.0118639870499404    1.0804190705046706 Cl
   0.2590816562611798    0.9356976715047056    0.4625804987938417 Cl
   0.8476759437190272    0.6395726820819368    0.5610899128704507 Cl
   0.6172747975919690    1.7068368787836643    0.4956060841020213 Cl
   0.7911154425672823    0.2847267879420239    0.9018355530937939 Cl
   0.6296934532134617    0.6225519196935781    0.7435168518992437 Cl
   0.1347605687407006    0.1047811984669386    0.0128848662901545 O
   0.1297744137212268    0.2146957099566734    0.1282850903248748 O
   0.2498811310804012    0.3296983120955795    0.0459362845357305 O
   0.5122059400032771    0.1984773756672714    0.0535050544000935 O
   0.4276812447959724    0.3357796433120852    0.0696387065789707 O
   0.6931986019697224    0.2521740357322679    0.2234878884147379 O
   0.7668927269728205    0.2265297106095515    0.0875539890598097 O
   0.2177019508517691    0.3330415206670014    0.2462026217917604 O
   0.2930628479247111    0.5730698209548382    0.2305357876392050 O
   0.1423672519804347    0.4627081698291296    0.3046243712994345 O
   0.4706181146641770    0.6051205114607262    0.2583469102960712 O
   0.6637142962091559    0.5367570473862726    0.3219675384547815 O
   0.5983604040908040    0.3929987160537859    0.2895296524723712 O
   0.9816839932987823    0.3929457528971639    0.1661507010885181 O
   0.7259428136816746    0.5520681155475142    0.1288192986226656 O
   0.9181561866384286    0.5194146607879072    0.1007582703757685 O
   0.1542414098441916    0.6294915442564362    0.1937463152730824 O
   0.2651759244027037    0.7728577305731129    0.0819423449960259 O
   0.1047926583396483    0.8156679226228781    0.1821692282203024 O
   0.1334272926967260    0.9057684093544681    0.3032084736165909 O
   0.5421520917358051    0.7516427214939143    0.2570166544165527 O
   0.8909228020376047    0.9790890072319252    0.2346837992445213 O
   0.6899875521240374    0.9489965024756611    0.0084876510768017 O
   0.8386382722239174    0.9441993464265637    0.0546247156812713 O
   0.7623137061675185    0.7503781354392294    0.2693862791410880 O
   0.9150938292883541    0.7781605759395456    0.2360140551240398 O
   0.0300534375102590    0.2277152146906503    0.5913531288321960 O
   0.0457171298335763    0.1303232248898784    0.4665031741789335 O
   0.2803177768723781    0.2621615811303133    0.5990861624832647 O
   0.3261787908756896    0.1202863439486783    0.5398632409253032 O
   0.6992765847426795    1.0707305041644051    0.4506508061852400 O
   0.8226580773028005    1.1094081189522738    0.3643876083985386 O
  -0.0624779025081871    0.0133580838651876    0.5755763642993068 O
   0.1420811959412601    0.3628641309813017    0.5106048841093603 O
   0.4928608126647084    0.3391482451777779    0.4558120586013726 O
   0.5912585672766428    1.0206266324773776    0.6116769115360576 O
   0.2392305000376682    0.0637427328345805   -0.1304956580620991 O
   0.3823689769074141    0.1319970057436697   -0.1672696868243434 O
  -0.0580673998645770    0.3188626306688900    0.7619972298856301 O
   0.1968566790861756    0.5149849819830425    0.9322054001204990 O
   0.0873743945681266    0.4123913572315743    0.9695641798841358 O
   0.0784174418563482    0.4035948298870979    0.7498838285890760 O
  -0.0042003570618917    0.6178374732315340    0.9401026975582735 O
   0.2243570021195956    0.6692951702645409    0.8405237437148917 O
   0.1062562173321579    0.7702560061943977    0.7922723093430820 O
