Li1 Co1 H90 C51 N3 Cl6 O45
1.0
  14.2765122222999992    0.0000000000000000    0.0000000000000000
   0.0000000000000000   13.9328793414999996    0.0000000000000000
   0.0000000000000000    0.0000000000000000   14.4001131469000008
Li Co H C N Cl O
1 1 90 51 3 6 45
direct
   0.6196268716096024    0.7052679442526557    0.3111209285438479 Li
   0.7416853949286309    0.6733527895239758    0.5848979440285289 Co
   0.1506075554252986    0.2112882124753309    0.1563242281804296 H
   0.3142875890087067    0.1154013561224810    0.1588394861947597 H
   0.3170564725696547    0.3000379941745726    0.0893782264257467 H
   0.3499517618873380    0.0532189472488586    0.0475841103753765 H
   0.5059523988301052    0.0628271550513377    0.0746755641730144 H
   0.7149484724887253    1.0249563511372921    0.1769226774407992 H
   0.7580766532665375    0.2458862297397295    0.0359869792767260 H
   0.1524553456691086    0.6365585284502407    0.1061829554949828 H
   0.0677546862103386    0.4758982338238029    0.2625254770455626 H
   0.1945055320628330    0.3465509929679885    0.9915648875629738 H
   0.3780706745285466    0.6683889914241815    0.1495131705866833 H
   0.6194748737009949    0.5983855143184224    0.1135440087671802 H
   0.5871910782737004    0.3688026749355884    0.0998531441198811 H
   0.6328037594286142    0.3667033242354875    0.2772330003712105 H
   0.6915702135132127    0.3758069701432072    0.0468931435823731 H
   0.8197121554325026    0.4215987971132176    0.1994655558674095 H
   0.7979267224670067    0.5493475528710047    0.2079953499563151 H
   0.7382188619807099    0.5690075235982406    0.0267301075674439 H
   0.1623197998023823    0.7978855553272286    0.1205814534709960 H
   0.2673531564549796    0.8910062928430907    0.2513748702161595 H
   0.6026423311122920    0.8929764527308778    0.0464889800913902 H
   0.3927353206788142    0.7925313138835525    0.1522027327869871 H
   0.6491291753544973    0.9158116465340955    0.2096272815779815 H
   0.8858578628220815    0.9489146390093283    0.1554374295928262 H
   0.9476257502632853    0.8026570026620221    0.2219987121481886 H
   0.0478954940221275    0.2080943285042371    0.3553455810520191 H
   0.2464166703338725    0.2923898980855895    0.3595136038576539 H
   0.2239265834694862    0.1723529725508604    0.3967751166337191 H
   0.0313711499577903    0.3143487475452778    0.6194928110908925 H
   0.3444252019845098    0.1325334932887748    0.4678029613156331 H
   0.5139308250890119    0.4189640222687490    0.5342506336525680 H
   0.6164692376372386    1.0801760929539304    0.6092887246020560 H
   0.5542132057605110    0.2668682531129777    0.4832879785321821 H
   0.6996863414719035    0.1870943619626120    0.5335853611021184 H
   0.5161243118112860    0.2178970402519221    0.6484870277154947 H
   0.8618709117609468    1.0727727416816086    0.2953279970800449 H
  -0.0052540419559082    0.3061666627653972    0.4173193996530291 H
   0.1970908974115452    0.3898055123841538    0.5226560025342741 H
   0.3222321064254212    0.6658546983226237    0.3524296317416458 H
   0.6337108437219175    0.4396242887466622    0.5814103325432809 H
   0.6602950678020238    0.3164079055482144    0.4552936846063192 H
   0.6659098845550113    0.3059987147093891    0.7194795254529224 H
   0.2510606617351084    0.7957696969122209    0.3362623976633415 H
   0.1608712667378641    0.9532195639663216    0.3522532442387083 H
   0.3460579537124556    0.8968973938846049    0.6134491085788233 H
   0.2914661887306274    0.8187929351200288    0.7034199294177492 H
   0.0736924109627181    0.0435856190106518    0.6223059834310501 H
  -0.0006541789797519   -0.1397856668074986    0.6731458617383678 H
   0.4863070543907324    0.9753312892205813    0.5896319346093374 H
   0.5783957928394987    0.9083838925527812    0.6016735066602714 H
   0.4987719335733407    0.7799782732870514    0.6203900262633151 H
   0.7245978881061348    0.9007314901033875    0.3863113099633919 H
   0.4024344683308373    0.7098764676185866    0.6680847903942382 H
   0.5230782903779087    0.7284411873480947    0.7328460870928520 H
  -0.1178683818567069    0.0432281910965833    0.6600612423275430 H
  -0.0086624374549148   -0.0792798675870167    0.5714818688887590 H
   0.8489826098329317    0.9110043128625481    0.3945591618231926 H
   0.2086007113942160    0.0375961894064322   -0.0698205226822432 H
   0.2385835246566446    0.2365306617479976   -0.1061646815552356 H
   0.3091231623720081    0.9394772501697974    0.7299176378806957 H
   0.3609992780834606    0.2256829398740401   -0.0770989377148753 H
   0.4227741700365820    0.2858320289071887    0.6242768012788329 H
   0.4682593690745991    0.4398210176447468    0.7761533856979502 H
   0.4787500265732883    0.9815561331939062    0.7823026429361869 H
   0.4521430378294505    0.2661282768491131    0.7409904675434491 H
  -0.0586081096819319    0.1113741914119626    0.7913115999267731 H
  -0.1049555641369810    0.3080298813696578    0.8391674739028990 H
  -0.1052315419065265    0.0518394764640401    0.8886559739396793 H
  -0.2278952550552183    0.0721174099101775    0.7442251643492883 H
  -0.2527892904096562    0.0092309111094443    0.8524215364267820 H
   0.1215780562348281    0.5306272299853318    0.7440529434802784 H
   0.2655102693695118    0.5470824072951008    0.8311647590058423 H
   0.0405253465826398    0.6230674190109937    0.7808637653531686 H
   0.0186082287930967    0.5462807065320195    0.9990287178053868 H
  -0.0226245310598672    0.4163862349270456    0.9272209486961138 H
   0.4153045585278671    0.4392895409974221    0.6624556679579711 H
   0.5170581155157493    0.5183461360487516    0.6877658857515349 H
   0.6548546633957798    0.4290030814302950    0.7402856119706869 H
   0.5869480217101667    0.3433039972184991    0.8098218711503977 H
  -0.0620417214238412    0.5122881635413321    0.8446160422023010 H
  -0.0019871375976330    0.0138889576200957    0.8463882504995319 H
   0.3708623313143508    0.7573210757141329    0.8387528938270971 H
  -0.0569592475765761   -0.1598626367678144    0.8249856408911243 H
   0.3816303674849690    0.8787726406436992    0.8753470507357489 H
   0.4850759413761302    0.8051324421713035    0.8555617895302607 H
   0.5674461997199813    0.8955904135000292    0.7692263567932175 H
  -0.1564527357537021   -0.0798827580444816    0.6387739095911339 H
  -0.1651124138371831   -0.1823920789818892    0.7790373908148782 H
  -0.2770108926200237   -0.0439110118091451    0.7430758678242424 H
  -0.1593820226375586   -0.1324232259590762    0.8885823634069573 H
   0.0817293879367423    0.3408931531153746    0.3038064026838428 C
   0.2640428241228166    0.1783345071609942    0.0300384149060050 C
   0.1688136828010034    0.1255715439585255    0.0465264797967391 C
   0.3383789072974106    0.1236394235876976    0.0882789295078327 C
   0.4310114760514438    0.1861361967712838    0.0907046048927181 C
   0.6915288868929000    0.2854925441614971    0.1564756158798012 C
   0.2120658434397536    0.6448913358444877    0.2230341206792119 C
   0.6281156396022989    0.4969763249205412    0.2383228894377681 C
   0.6612820035311855    0.3747066950583338    0.1133947043847724 C
   0.6814115698794082    0.4727787781151366    0.1482465138726750 C
   0.8489875129912740    0.5044075957628574    0.0795012207002314 C
   0.7897601620225106    0.4834047583142920    0.1630366754378880 C
   0.2552346503866867    0.7444429049066418    0.1956433636777704 C
   0.1259341621962589    0.8527873442002275    0.2700302791882642 C
   0.2302488559261310    0.8262544222578918    0.2696601432076904 C
   0.3625801964232176    0.7327489832120283    0.1872948181647179 C
   0.4196424527583126    0.7332621578276085    0.2784420186492194 C
   0.7194068443241500    0.9479392483763582    0.1858302463391459 C
   0.7430694864835090    0.9044220409751547    0.0949149884766174 C
   0.8038700508289202    0.9176432851620127    0.2550873410457036 C
   0.8108360379307741    0.8052372302746248    0.2493929413445698 C
   0.0583013969266162    0.2802725176172803    0.3850724308089013 C
   0.2293725914852643    0.2475951370959484    0.4202846541315464 C
   0.1310999897353410    0.2841755156026304    0.4614137754070622 C
   0.0917920697572785    0.2136158002771864    0.5382739353731154 C
   0.3042424184679641    0.2546338831868509    0.4966209293250952 C
   0.7811249997307406    1.0484166849267622    0.3886390694509773 C
   0.5756528259726450    0.3857295422556502    0.5730437316165419 C
   0.6136884464060310    0.3022471570651404    0.5132470097980492 C
   0.3375894988043197    0.8799475593090207    0.6881714381204936 C
   0.5414095883815774    0.9625141251855719    0.6425377689057857 C
   0.4639858463086745    0.7560851502763298    0.6860811767667848 C
  -0.0113395619097449   -0.0662911668623238    0.6451078876001634 C
   0.7859069800167492    0.9383439596551105    0.3622601100549690 C
   0.2933903281543370    0.1871905373451123   -0.0738822963227227 C
   0.3042277089929376    0.1029631518035923   -0.1361769457361624 C
   0.4785697304365345    0.2793409083151501    0.6723180904647396 C
  -0.0705346921236881    0.0411920003491692    0.8240141207469918 C
   0.1056890214013991    0.5855611730160621    0.7955108724868654 C
   0.1683233669667854    0.4477582140626190    0.9043301563365440 C
   0.0874240561255881    0.5194221519699794    0.8877913973996902 C
  -0.0054879926539493    0.3906308981294926    0.7771950441798650 C
  -0.0060469527049578    0.4620076735701487    0.8661332342437194 C
   0.4810772056127252    0.4501554213577770    0.7043088113223165 C
   0.6181089938771018    0.3595468709600322    0.7412349100672051 C
   0.1878757615330144    0.6538657909398935    0.7995184798862853 C
   0.4128186572483821    0.8201487209225897    0.8346432038964495 C
   0.5050439136344185    0.9263930917893394    0.7346127398781793 C
  -0.2277551648168703    0.0044853019371136    0.7801825207059964 C
  -0.1062352884642899   -0.0359428095963175    0.6754507047393511 C
  -0.1245247695318117   -0.1318612459255107    0.8205940087313718 C
   0.5389583594360834    0.3688435853594878    0.6697076943090613 N
   0.4265306897778833    0.8454816037638762    0.7338731623560198 N
  -0.1315958243124265   -0.0313084480679237    0.7759929702917354 N
   0.4812915436773976   -0.0782492119954457    1.0585567222908610 Cl
   0.8879746263235195    0.6489708946066667    0.5546670704541976 Cl
   0.2966278135625591    1.0140189134214501    0.3956056813780229 Cl
   0.6508263685920832    1.7295328969744526    0.4844260251456233 Cl
   0.7933261590396588    0.2748299957851896    0.9120925953437725 Cl
   0.6999784296188590    0.6295721764109988    0.7220308942946255 Cl
   0.1253766030476339    0.1576768962720009    0.1201029850083032 O
   0.1252239046878345    0.3179825980049739    0.2346256962659588 O
   0.2517190858553439    0.2745106073880802    0.0665679889887782 O
   0.1314320036002257    0.0638527865557631   -0.0044474252352515 O
   0.5092081239873602    0.1358515439850369    0.0859358923625125 O
   0.4337551433694892    0.2714035683519308    0.1152578841894238 O
   0.6722125443782874    0.2649669949917581    0.2385089990865369 O
   0.7396239670713403    0.2232390803411021    0.1050607420904667 O
   0.1469568038139500    0.6044273379743026    0.1678164989919007 O
   0.0451308131683299    0.4322146932517452    0.3141986821384120 O
   0.6073150410123892    0.4285801250653140    0.3012855891576092 O
   0.5932212625833897    0.5796004524812456    0.2492707200826918 O
   0.9317325127227060    0.4820851459391790    0.0720075295813369 O
   0.6441349583573915    0.5390950417784467    0.0828171668676599 O
   0.8098967328826507    0.5566044878893707    0.0145718697665353 O
   0.2206043434670636    0.7680302763282204    0.1051885188642483 O
   0.0652918998201809    0.8105677867360436    0.2212244126766320 O
   0.1048526826784616    0.9267749224124003    0.3203153007442152 O
   0.5036059573828956    0.7544114115301297    0.2723288722383559 O
   0.6764474722835471    0.8705790722360573    0.0391022325766389 O
   0.8272840328152115    0.8973014740364533    0.0685388068365609 O
   0.8851987382506541    0.9652500994996863    0.2242084170078237 O
   0.7364509231727582    0.7576842454420819    0.2587699509987661 O
   0.8902440881847569    0.7621528120946729    0.2370965101850605 O
   0.0965047053753048    0.1272395408908451    0.5200506757832077 O
   0.0452029596410791    0.2446323611335495    0.6086602573179675 O
   0.3122983076241653    0.3316194059714416    0.5373272761447513 O
   0.3686671172794378    0.1873147040702807    0.5081663802742630 O
   0.5967886605029212    1.0429497603856788    0.6641945431837807 O
   0.6652360505085575    0.2329728903222197    0.5756641276936465 O
   0.7370631175143390    1.0782073685196134    0.4569279078766458 O
   0.8298707990663071    1.1129683097528746    0.3414554124151803 O
   0.1316659542982669    0.3763194270320524    0.5005894398094940 O
   0.2368380002868287    0.6017329918108226    0.2924544085479362 O
   0.0608748546050688   -0.0046348516855130    0.6720826756478269 O
   0.3804262918863680    0.7092541985392746    0.3624830249700988 O
   0.2572785669641839    0.0230615052943829   -0.1191104131684717 O
   0.3602259799677796    0.1057034324781172   -0.2003542192459160 O
  -0.0600951675619958    0.3170351987146720    0.7852928972182699 O
   0.0455896086989196    0.4054709749673174    0.7043831162940263 O
   0.1385009570272653    0.3852852694066374    0.9667004995996695 O
   0.2482336407252459    0.4492811584217795    0.8709602796489121 O
   0.0814071803885420    0.5718411087483255    0.9699351964055087 O
   0.2749159279721958    0.6140771739274162    0.8156315477235301 O
   0.1779797870961124    0.7380544192377193    0.7861053908341635 O
