Li1 Co1 H90 C51 N3 Cl6 O45
1.0
  14.3857874880000001    0.0000000000000000    0.0000000000000000
   0.0000000000000000   14.0395243727000008    0.0000000000000000
   0.0000000000000000    0.0000000000000000   14.5103344786000008
Li Co H C N Cl O
1 1 90 51 3 6 45
direct
   0.5690143307572263    0.6192336332493626    0.3755500775903389 Li
   0.6604413034618575    0.6795989260827846    0.6105543088869427 Co
   0.0545523309415371    0.2368488844868545    0.3770469417757946 H
   0.3412540498040200    0.1387814597329760    0.1963481436972973 H
   0.3575305310321292    0.1052112341691765    0.0813294304855929 H
   0.5257040844102868    0.0879727584505396    0.1085300439919247 H
   0.7613679994255731    0.2500722669228719   -0.0122052845136818 H
   0.9318202601756660    1.0478200896182415    0.2653830788655629 H
   0.9316527337192929    0.9840786140351981    0.1033537332658851 H
   0.7415644259168136    1.0016831990224648    0.1826854676030707 H
   0.1760041458983076    0.3006907908225765    0.1955542267812545 H
   0.1158774409319288    0.5082885642676243    0.3364062521438837 H
   0.1193315445075203    0.6252779975559635    0.1023075823296411 H
   0.3514328460723610    0.3399520923714974    0.1355053008736507 H
   0.3362428538538411    0.5910204267699308    0.1607280137297717 H
   0.6405299847218208    0.3710614083572501    0.1325763539177635 H
   0.6692951809507504    0.5782144373911451    0.1904936956054711 H
   0.7354563139991799    0.3046239724984013    0.2781160727377914 H
   0.7113943708981335    0.4088648257601953    0.0532005130852422 H
   0.8766449699343704    0.4011795226733037    0.2132822812502524 H
   0.8599187392569941    0.5274333723725663    0.2459645051300258 H
   0.1692280135467548    0.7770025106842058    0.0922016815858460 H
   0.2717973029395553    0.7937573517853336    0.3103703257800104 H
   0.3271554125087601    0.8326938560064430    0.2079729618742160 H
   0.2219453222538804    0.9658700199821763    0.3386005502868354 H
   0.6483237881610504    0.9644269511529078    0.0298054631295948 H
   0.3917914291867232    0.6970411124061455    0.1383556831347211 H
   0.7218602560730389    0.8799468812791514    0.1530879417408387 H
   0.8867153258409096    0.6441532808608093    0.1042565380922880 H
   1.0186448431914998    0.8374447292005305    0.1573449077047246 H
   0.9206279636027945    0.8611820005747680    0.3217491124126347 H
   0.2382252791346114    0.2500216954091117    0.4103955872335311 H
   0.2011574439226138    0.1420814290745364    0.4614837272824932 H
   0.0613089996384076    0.2946172232474663    0.6675626432723409 H
   0.3531331353349685    0.1256129224597688    0.4768327187429222 H
   0.2023760077318334    0.3503862065274478    0.5861544578344288 H
  -0.0004533474518124    0.3342952055787772    0.4376182539875308 H
   0.5795833037888958    0.0859862239170597    0.5031802161465028 H
   0.6196197634182652    0.2052053623698326    0.4632241420218808 H
   0.4981563397817378    0.3431145926686112    0.5240401763663312 H
   0.6136388603865910    0.3692664757561855    0.4884098467717592 H
   0.7473638998816274    0.0995422387041475    0.4855023328159492 H
   0.7393094224957594    0.3144305725188208    0.5743293686021261 H
   0.2668924619596049    0.6391153609055197    0.3520888678916879 H
   0.5719037798078725    0.4438263377722723    0.5744394280912686 H
   0.7145878005270865    0.3900713116071757    0.6708678737665609 H
   0.2724827016365835    0.8239613664472955    0.6257124708386459 H
   0.3691802234900358    0.8113797436436427    0.5437133272796341 H
   0.3591258555855570    0.9654982125148129    0.5273079852559148 H
  -0.1804149937752786   -0.1216782184531704    0.5960398261015453 H
   0.8004259933288402    0.8504971656745419    0.3197443343668286 H
  -0.0613391349508026   -0.1612771382770535    0.5958668459401505 H
  -0.0874503228376899   -0.0497968659792674    0.5539432775415608 H
   0.2079599912340927    0.1112221215582177   -0.0194773429321574 H
   0.0046468252054858    0.0661037839860610    0.8140210176905329 H
   0.0187447673702213    0.0210937121898416    0.6387879792137158 H
   0.1627278480133767    0.0646749606536263    0.8380659492883925 H
   0.6002541221398585    0.1677190497264088    0.6710870279152601 H
   0.5032477537944290    0.2012009532098385    0.6010741690457230 H
   0.5819987433349746    0.2873684021835638    0.7673377381976292 H
  -0.1332072896043048    0.0707015180891848    0.7634556774440969 H
  -0.1323786940192565    0.3267778568995568    0.8498230869513184 H
  -0.1126640972176163    0.0892826318844117    0.6428616275563627 H
   0.7275978634211839    0.2585654321352108    0.6833362286667750 H
   0.2186907211387829    0.3036445945910744   -0.0407311603720539 H
   0.1967753410969892    0.6154144155482085    0.8060935643179281 H
   0.0733688191056920    0.5370269309878357    0.7010759989235965 H
   0.3432386474510946    0.3078078410407659   -0.0230217133307757 H
   0.4765516135712848    0.3035918862527892    0.7025921597007617 H
   0.5456635756956624    0.4090659009480050    0.7275047487615535 H
  -0.0275578768580236    0.6079932239726166    0.7061723666268402 H
  -0.0371103605239077    0.6287268323394376    0.9485761516799995 H
  -0.1187450990447997    0.5074029929569481    0.7797688782424040 H
  -0.1001010032506884    0.4683875758061278    0.8961969318128823 H
   0.0120437091153004    0.4510156126594093    0.9830150545693156 H
   0.0468711386472554   -0.0456051285359082    0.8430396458014837 H
   0.0555220380230324   -0.0874441527369136    0.6791509357578097 H
   0.2799782940808586    0.9383477200991860    0.7563469508911614 H
   0.2681249283793118    0.8236550882653677    0.8128446147602507 H
   0.3127954061363373    0.9196562037034969    0.8752167124768652 H
   0.4384200896308972    0.9961929845427006    0.7099517419459191 H
   0.3894995838478773    0.7367589821285913    0.7094100590500775 H
   0.3985154267489483    0.7541270918684162    0.8764558293302029 H
   0.4727808085287906    0.8529238860601875    0.9154625111427237 H
   0.4438010950200407    1.0090730505050223    0.8309675601953013 H
   0.5351464594011108    0.9418784664894547    0.7715609351260238 H
   0.5105454078218898    0.7680613245964425    0.8286051060388822 H
   0.4861425379551666    0.8096567508015891    0.6684268549153251 H
  -0.2173542298402678    0.0289258863490900    0.6850115863255426 H
  -0.1043385189272441   -0.0700147873607032    0.8373581778710523 H
  -0.0723903200272271   -0.1715445801200479    0.7798371054773765 H
  -0.1905499968205842   -0.1399701486626702    0.7889830007836303 H
   0.1820788915507717    0.1963133232461460    0.1112908349343445 C
   0.2752347233825619    0.2355582424737080    0.0903512762737149 C
   0.3561924047727181    0.1689498606528531    0.1262960024803518 C
   0.4540430786530468    0.2128252786262567    0.1322903508620710 C
   0.7568260165793435    0.2740260698489838    0.1306446272548572 C
   0.1716818242977788    0.6394836069986746    0.2237699788442973 C
   0.3858890759043027    0.6473186302572898    0.2780967761460820 C
   0.6925062842899685    0.4419503482942232    0.2808589454164810 C
   0.3385784924157223    0.6667729930084314    0.1884634184920491 C
   0.7136896918896012    0.3701724893548181    0.1168958056619281 C
   0.8953676154777354    0.4988086847170889    0.1040160198599104 C
   0.7370947366451185    0.4554459621747354    0.1848956165177837 C
   0.8437444422159673    0.4728036014743874    0.1938581942027984 C
   0.2432976465709348    0.7069908796697452    0.1850754883190746 C
   0.1805475190055859    0.8828066647685460    0.2271275858017285 C
   0.2610644876432920    0.8084002979808439    0.2370673980240251 C
   0.7729440080478965    0.9361895273288584    0.1483637225919901 C
   0.7883905034299087    0.9648906420748493    0.0469311882716644 C
   0.8642911102552776    0.9030651858159582    0.1923813157730417 C
   0.8896668500473820    0.7967752602895839    0.1604309840502452 C
   0.8600431676208563    0.8976932089599149    0.2999722195046162 C
   0.2153700826238703    0.2184850145183437    0.4761767035412025 C
   0.1246075851874839    0.2761308420061845    0.5048506118245450 C
   0.0712062680443789    0.2058663534229230    0.5665502922364868 C
   0.0666774926781123    0.3028717763878383    0.4200473289081663 C
   0.3000613100604146    0.2382363958784710    0.5334642871751948 C
   0.6245246043982157    0.1520675223550624    0.5201858200051817 C
   0.8460244703358989    0.9930725084612467    0.3466189733060699 C
   0.7038278751403728    0.3185069214378258    0.6391049946489412 C
   0.1147033654762689    0.3744988467432571    0.3573906064638385 C
   0.5676483297637880    0.3687408169230166    0.5477799461495868 C
   0.3470111208068473    0.8427853659635394    0.6107824221675072 C
  -0.1086608405277730   -0.1032801592922584    0.6056826086443154 C
   0.0491998259038928    0.0058638515247769    0.7893737567657451 C
   0.2843993242158479    0.2646874343995561   -0.0199542444129748 C
   0.2943264832343671    0.1868649974710977   -0.0891883479742408 C
   0.5800311763857471    0.1996838077970339    0.6071684462059372 C
  -0.1436578819076741    0.0405922359811681    0.6910155830031164 C
   0.0980765384638775    0.5116585502261229    0.8890130863850783 C
   0.0380026634173508    0.5988867901215805    0.7382653552954881 C
   0.1036883271871116    0.6812058181256424    0.7258087161830975 C
   0.5497233464971368    0.3296034511965501    0.7109165715313879 C
   0.0140602827664960    0.5583184642381542    0.8408239835748538 C
  -0.0310488223514066    0.3938784206360210    0.7849114199329522 C
  -0.0628260191424288    0.4835443499496864    0.8301950073629367 C
   0.0118803534420736   -0.0275112107323989    0.6978693188798925 C
   0.3111764471450810    0.8897677267964048    0.8073678285347365 C
   0.4107274798010697    0.8095427868269184    0.6887268693935866 C
   0.4522485296913348    0.8063147572443689    0.8611419163168456 C
   0.4597309146556469    0.9578918294803809    0.7727552563200362 C
  -0.1175411329765919   -0.1107041999672172    0.7762176162038895 C
   0.6020378270653904    0.3074873173620044    0.6213755618519640 N
   0.4080637396316861    0.8671273586783734    0.7838611340127706 N
  -0.0905652027173891   -0.0518916662886844    0.6923008738437587 N
   0.5184714320381597   -0.0425281012197975    1.0503160531396960 Cl
   0.7848230935788449    0.6035621621824487    0.5968323646896089 Cl
   0.3207782850781954    1.0047552404146838    0.4072971059361973 Cl
   0.5709841221241319    0.7265057857824306    0.4850880763417884 Cl
   0.7335370586213960    0.3003595830211895    0.8825976588057008 Cl
   0.5873775243064400    1.6382104604001504    0.7326259263684235 Cl
   0.1473286215070217    0.1242489161379281    0.0735232699751614 O
   0.1324430964581756    0.2530638212579795    0.1677499056200150 O
   0.4719863438524889    0.2966628765928065    0.1416002671978545 O
   0.5327207319232714    0.1599388716306039    0.1160522689386326 O
   0.7796513224775367    0.2221347108071750    0.0575594753195919 O
   0.7682192058737577    0.2399487045978993    0.2093857480529381 O
   0.8654206973573778    0.9890047068403419    0.0119154551230360 O
   0.9431842539880567    0.9616754334394503    0.1700069176860222 O
   0.9011121741311240    1.0654453305759173    0.3244892284353658 O
   0.1671648661504265    0.6131721743465611    0.3046550888140876 O
   0.1084027024033848    0.6030308051505463    0.1679084133376277 O
   0.2813122495571235    0.3305237102920165    0.1341586744379322 O
   0.6427488413556078    0.5053780668095011    0.3121332072654597 O
   0.7039849746388802    0.5466229113375668    0.1453079694620128 O
   0.3364354050090914    0.6540809676043164    0.3568427210920902 O
   0.7030854757403463    0.3578230681495571    0.3265050331050058 O
   0.9183451549607654    0.5864540327598415    0.0742937553155571 O
   0.9149195517366731    0.4310996245833669    0.0498305011759979 O
   0.2132235195646177    0.7243525789359948    0.0911865430291350 O
   0.1255265477407002    0.8788264729531694    0.1634040375014681 O
   0.1681408294066411    0.9425608257877960    0.2945360939544896 O
   0.4678574770768921    0.6251911000252770    0.2781574225771686 O
   0.8272830562683758    0.7408445906205382    0.1434782390695704 O
   0.9797203143489116    0.7760031890813115    0.1512664813162717 O
   0.0339173813256319    0.1331829794772746    0.5300905537804065 O
   0.0601954005383678    0.2254560483939862    0.6521591389403328 O
   0.1428304318838274    0.3606536483704423    0.5535173741959755 O
   0.3061555193675609    0.3002541663446191    0.5947145637495050 O
   0.3741212112572534    0.1772556975818270    0.5188987166632467 O
   0.7203073344815978    0.1319906313922816    0.5398748906066447 O
   0.7873624053843663    1.0059917495398616    0.4070042112406086 O
   0.1902077479027473    0.3592020322430734    0.3211860654331147 O
   0.0665899062320418    0.4583169283791445    0.3524796238738028 O
   0.3522843809647135    0.9444640241647977    0.5971610959126578 O
   0.1406087947279428    0.0411364139602211    0.7759950162352421 O
   0.2570174377304134    0.1037204429255145   -0.0673073913037896 O
   0.3525832870901923    0.1953959132500463   -0.1515273658193535 O
  -0.0806380436988699    0.3135986355037242    0.8057345098793359 O
   0.1828192055592251    0.5287412514368818    0.8776790954117794 O
   0.0768069346792230    0.4473734664839000    0.9536456419876480 O
   0.0320307970824934    0.3894402360974363    0.7260671526792052 O
   0.1874682385062076    0.6744064424868477    0.7683508092623714 O
  -0.0193504707567942    0.6441646772582763    0.8836314047901317 O
   0.0865026152331272    0.7554383898519716    0.6842280068693440 O
   0.7125462021770136    0.9733524671941538   -0.0050738155490888 O
