Li1 Co1 H90 C51 N3 Cl6 O45
1.0
  14.3687316615000000    0.0000000000000000    0.0000000000000000
   0.0000000000000000   14.0228790766000007    0.0000000000000000
   0.0000000000000000    0.0000000000000000   14.4931309889000008
Li Co H C N Cl O
1 1 90 51 3 6 45
direct
   0.6649209237513605    0.2446361420904275    0.2871536521395829 Li
   0.9265320449383493    0.7596145541948643    0.3971098790736053 Co
   0.1083269119480174    0.1979688352966311    1.0382094459730009 H
   0.0684862347410050    0.3160494370728446    1.0090004365240268 H
   0.2118774573303002    0.2301405453666993    0.3337405490990539 H
   0.3630870457048656    0.2698385272831898    0.2161958997541507 H
  -0.0079220402455562    0.2230022109737972    1.0514115622132076 H
   0.7626351850429121    0.9413226033109670    0.2343334574841766 H
   1.0527115883185012    0.4662738445210448    0.3313290618899224 H
   0.3364597824910115    0.3933901881465505    0.2617450637343560 H
   0.4443997201652384    0.4834390998644833    0.2593211568486109 H
   0.6696555100462860    0.4199421535429658    0.2426353213183026 H
   0.9402959598515849    0.4238324388190496    0.2236283862253281 H
   0.9161017575942293    0.5440126094383781    0.0920488123250761 H
   0.7816932345946157    0.6083888331131871    0.2919993959649708 H
   0.8692173132417016    0.4374245120986413    0.3207895863192546 H
   0.8778061019328196    0.6526329570631192    0.1495291456387011 H
   0.2562042646647696    0.5927479651571910    0.1349491352764241 H
   0.1613663880795134    0.7094736383273592    0.2884659979684150 H
   0.1846621115912055    0.8214199791197820    0.2482683346445829 H
   0.0478970827567222    0.8120916522273194    0.1899351835368273 H
   0.5257880450048935    0.9678948926364730    0.1849307438435995 H
   0.4092609193375464    0.7656625276200594    0.1565248734823018 H
   0.6398748717769699    0.6824527963212201    0.0992115158209256 H
   0.6629799034402408    0.8838764828959205    0.2763492234678260 H
   0.8056647310435960    0.8297592081298317    0.0975107101069030 H
   0.1898629881724165    0.0396675344101213    0.3146390864674096 H
   0.2340123268158368    0.2550320101003901    0.4457484376114317 H
   0.1056043334406312    0.0535847905551638    0.5546227727160069 H
   0.3823594495971303    1.0145336746175104    0.3355676215253144 H
   0.5124675234370198    0.2231954665802384    0.4506859490473532 H
   0.5622729632530831    0.0046055476872627    0.5514922552291540 H
   0.0413168220748876    0.2321073312064219    0.5775782679954469 H
  -0.0285223275202577    0.1313084872401573    0.3600626737174111 H
  -0.0228321941162726    0.2935490647686642    0.4407422729631189 H
  -0.1775452232388396    0.1951099359378754    0.5393238010742120 H
  -0.1808607559610247    0.1170817368766812    0.4513231474558318 H
  -0.0509550660244961    0.0195033442708907    0.4099690742428711 H
   0.2862076087424608    0.4210396457138626    0.4432241383397271 H
   0.1492094347648348    0.6729212301378508    0.6134082070471061 H
   0.4389476035939542    0.3481419907875068    0.4561354271525665 H
  -0.0230145344968797    0.6723243484308717    0.6824395295933693 H
   0.3202036503909277    0.7558984842127053    0.3807297055843972 H
   0.4434887142178537   -0.0674502687025474    0.7034853615970689 H
   0.4622684511046536    0.0707381867076978    0.5897259536911630 H
   0.5930015627148609   -0.2600911654287980    0.6464555865517022 H
   0.4249776858079716    0.7747576641682185    0.3282620917484089 H
   0.4513321344065662   -0.0481275605397029    0.4581217474322941 H
   0.5620631326242547   -0.1919403959056743    0.5531812622503938 H
   0.4726042972669095   -0.2138510177060654    0.6356442580596043 H
   0.6831292114529827   -0.0568219234686002    0.6022111785979541 H
   0.1137136086880914    0.1566912918736193    0.7368466829271741 H
   0.1827183074574811    0.2422721482330378    0.8767150110029046 H
   0.1126947296147751    0.3447033246094276    0.8584325570457206 H
   0.0302351202412703    0.0969353747454250    0.8204311065363852 H
   0.0936902686482117    0.0834994748156880    0.9303417946561577 H
   0.1904475909194012    0.2553850046582808    0.7282156976627889 H
   0.5963337983726742    0.2962396677321427    0.7957697686740736 H
   0.4396811408502898    0.3335287292111484    0.8286674220772730 H
   0.6016154058094211    0.3299952180306460    0.6769886715240878 H
   0.5468023562964776    0.4113183182136149    0.9057280655541982 H
   0.4317702129634137    0.3434838888639868    0.7086816162957725 H
   0.6717600799354311    0.3840112297114409    0.7516564573068019 H
   0.7192987226000609    1.0696864000867454   -0.0629929106622455 H
  -0.0545865626123134    0.3367299263230102    0.8941667265910486 H
  -0.0770916805042737    0.2318826983059460    0.8108679555439494 H
  -0.1152425773902396    0.2335863427479682    0.9267849372704430 H
  -0.0286817013643762    0.0892643394742515    0.9265475834507174 H
   0.1993593030326632    0.5915870052779060    0.6913327080307073 H
   0.2409649237710486    0.4411207573359330    0.8406096311232381 H
   0.0393716260298609    0.3418137610769562    0.7053483130891017 H
   0.3694494722678833    0.5153292700326216    0.8215447375394004 H
   0.3474384828882554    0.4884951942380212    0.7061135031649035 H
   0.5135074899665667    0.5352731059932900    0.8699228278593594 H
   0.6297856027019244    0.4972154434344971    0.8498533204338919 H
   0.6117673108930722    0.5270591722232837    0.6904467710989406 H
   0.4893411955308231    0.5631577506417988    0.7030051341013448 H
   0.5301431266832347    0.4651450820241612    0.6282297111213132 H
  -0.0406632738549594    0.6406347076964283    0.7946002491262973 H
  -0.1341683953682205    0.5396558721616553    0.7169089620702173 H
   0.7925466629746484    0.6049294864458576   -0.0958664146942519 H
   0.1182874292275961    0.6842348839983293    0.9862889878900432 H
   0.0567280640144482    0.8038273008507618    0.8221201825558282 H
   0.1817961662196777    0.8473739931287401    0.6926850728175165 H
   0.5368771935639783    0.0203013259078195    0.7135770388276147 H
   0.5732328728477452   -0.1077201731148529    0.8341755486553836 H
   0.5066992342134081   -0.2147003440059601    0.7955896833631770 H
   0.6302317102743258   -0.2207069564526548    0.7948638222633183 H
   0.6507561383830496    0.8915553624906027   -0.0210675323250614 H
   0.6361020961919647    0.9987993878997292    0.0443434544883512 H
   0.6904764152624092   -0.0392342370418127    0.7189278495019538 H
   0.7170111163746573   -0.1550735016554996    0.6756073274918472 H
   0.0531132703622590    0.2404636751041268    1.0090949640626967 C
   0.6391030569598198    1.0312342393674978    0.2242666196068579 C
   0.3759496980498330    0.3245156014996710    0.2687062924762523 C
   0.4820772280172768    0.3464240839391052    0.2616712356567087 C
   0.7872128588640636    0.5942526490302203    0.0432091240243134 C
   0.7663467165306141    0.4267242843365417    0.1501770387687081 C
   0.8915011172365891    0.4764243420916558    0.2610819909995991 C
   0.8156697894848497    0.5150617072889435    0.1979396651142621 C
   0.8556280831969103    0.5821495709766407    0.1188187352835552 C
   0.9470174995306074    0.5540383680027947    0.3058756246524798 C
   0.1980794405901572    0.7456887406059942    0.2350634584762398 C
   0.1461889872387468    0.7208450549336745    0.1459612485404410 C
   0.3092075511024046    0.7272353261119756    0.2328016973685051 C
   0.3321664320789293    0.6143562239423384    0.2424462662409630 C
   0.5889900743415035    0.8156009173169767    0.1332800687359694 C
   0.6804811002002719    0.8756192627225525    0.1273827922906340 C
   0.6869729745144075    0.9334811322835592    0.2184252317062835 C
   0.2430451352124028    0.2787603755938389    0.3769210047562410 C
   0.0937849186167711    0.0682957496152214    0.4094867768010448 C
   0.3881839024417918    0.1858885770932585    0.3829183285965189 C
   0.3490920735154409    0.2901446283658956    0.3647897406329361 C
  -0.0113183038232772    0.0840022246405627    0.4184517133699278 C
  -0.0330147212485753    0.0777125034272365    0.5985370242664447 C
  -0.0419584473217911    0.1395050921864126    0.5042996230419587 C
  -0.1394263403128276    0.1728234997293865    0.4809877520419131 C
  -0.1506757674583775    0.2490546355867732    0.4084759531211084 C
   0.1857317954270574    0.3708356186981284    0.3775116293774188 C
   0.3394238576093545    0.8927876344017850    0.3126464183529684 C
   0.5099797812450086   -0.0401570147345615    0.6759088496407428 C
   0.3520979059728542    0.7877029373185033    0.3155629724110511 C
   0.4941385570254844   -0.0033856786071289    0.5806953308326350 C
   0.5477772509726397   -0.2072717696432368    0.6246818235020416 C
   0.6755119768509013   -0.0891170033538504    0.6696686521244666 C
   0.1152676776571592    0.2648481112910291    0.8490557012024881 C
   0.1171175277779753    0.2328931897979282    0.7494367851031464 C
   0.0369329974281530    0.1145223480518935    0.8937830965800967 C
   0.6026711705322495    0.3509802096570124    0.7487633626378781 C
  -0.0597234112736165    0.2559141399349575    0.8820934209586070 C
   0.7758694777056053    0.9621992006488498    0.0055892335798276 C
   0.0032445681775042    0.5249514738085324    0.7264003549311080 C
   0.0075365266782841    0.6308136146635565    0.7400647591341525 C
   0.1331989750096149    0.6554348067963572    0.8576390777065214 C
   0.1049550068180874    0.6870909308758091    0.7593069781007504 C
   0.1780435733485564    0.6663006210965218    0.6865069736843080 C
   0.2623446813750632    0.7295486884267183    0.6905785576674510 C
   0.4347767413764783    0.3824701767021441    0.7715320797806910 C
   0.3581074830207274    0.4557303106866328    0.7785940458995639 C
   0.5557763564405194    0.4711242864045165    0.8559079127829989 C
   0.5382530978863461    0.5039241228352189    0.6894131780118793 C
   0.5698371660345452   -0.1712427917678533    0.7838061701850517 C
   0.6808854504336030    0.9368306584217673    0.0382598828938126 C
   0.5767487712019029   -0.1261315135100521    0.6853422840107704 N
   0.0364179902462855    0.2182949037482681    0.9054037739981776 N
   0.5309070076059615    0.4312065307894035    0.7672024425167997 N
  -0.0329172874574111    0.8682562954291746    0.2943418849706937 Cl
   0.5772985761663290    1.3080960720048889    0.5046700053978562 Cl
   1.0197365136103040    0.7195842582097333    0.5086354287452348 Cl
   0.7875524852218356    0.8222265182005385    0.4396293319421377 Cl
   0.6135747077191668    0.0923207731613621    0.8479903689418590 Cl
   0.7462878827525247    0.6153011083649753    0.7724566557063667 Cl
   0.5502574281267226    1.0317469728768380    0.1992182018234240 O
   0.6862422210806766    1.0991468267040851    0.2520163170537396 O
   0.5424712850881018    0.2841651144913218    0.2753949783146847 O
   0.8467532567331605    0.9216889746890510    0.0205535639350907 O
   1.0327550600211342    0.5359045027237072    0.3262024953766613 O
   0.1143197860602625    0.3737572726449535    0.3341020996849151 O
   0.2880929526014867    0.5568045617200841    0.1790217377036847 O
   0.3988007059004260    0.5883872344066819    0.2878277645868852 O
   0.5046925156888177    0.4393206277147539    0.2549418408782653 O
   0.7882985496798923    0.3983043002645812    0.0742320962409004 O
   0.7036605991182182    0.3792525778229458    0.2014268343145341 O
   0.7497384308710371    0.5602303917324218    0.2534162906009006 O
   0.9118473806986127    0.6339527703076678    0.3176860471299345 O
   0.7090570392374086    0.6289908791282660    0.0488607668655140 O
   0.1706650515348272    0.6613972057832757    0.0851103529903045 O
   0.0663245964884637    0.7645529124037401    0.1353168957005921 O
   0.3440916321617675    0.7597507601757879    0.1508242419166810 O
   0.5832640992214830    0.7281944729409918    0.1182377704108546 O
   0.5166199567488526    0.8646999643984651    0.1481450416783240 O
   0.7495178129296155    0.8034115517048015    0.1265824131310939 O
   0.1220567250343455    0.0564914689752906    0.3235950532698493 O
   0.1490437973198557    0.0708408760336297    0.4742213052282392 O
   0.3433121618324545    0.1137564568293184    0.3513737299621627 O
   0.4619721131883844    0.1693284970461085    0.4322168549499488 O
   0.0263795259337755    0.2154160370205813    0.5142685593684608 O
  -0.2207181361036652    0.2586354070721517    0.3642432748619398 O
  -0.0775593627018615    0.3090223494497020    0.3986768282730152 O
   0.2211044373535433    0.4421794557614777    0.4254488211775966 O
   0.3763589199727223    0.3593871850973643    0.4310790745757406 O
   0.2600918729322184    0.9289756381082991    0.3011789169464546 O
   0.4105929784538903    0.9476579642247074    0.3290321116984491 O
   0.4414767064303145   -0.0640936113611498    0.5251920030412773 O
   0.0564629049113515    0.2764213409476132    0.6875246971845852 O
   0.7827065460227226    1.0446138027920360   -0.0424204063339293 O
   0.0534528967200311    0.0349623665455491    0.6082016026178910 O
  -0.0934181041251259    0.0644677197429838    0.6571199488705396 O
   0.1958906600672202    0.5931822554314445    0.8679094602838956 O
   0.0651658303292617    0.4643510867298154    0.7245091141756775 O
   0.2789362640990121    0.3949968482251927    0.8062954446040597 O
   0.3440262123305573    0.6962103135148132    0.6948171173028429 O
  -0.0831444068025197    0.4903745515266379    0.7079529952677774 O
   0.8294817253380162    0.5820853901479333   -0.0370033573843179 O
   0.0847514142645540    0.6964435038591168    0.9189805504828932 O
   0.0763574931557643    0.7841715654989576    0.7562579474921232 O
   0.2481965989423805    0.8310435378242987    0.6841203258284034 O
