Li1 Co1 H90 C51 N3 Cl6 O45
1.0
  14.3317547842999993    0.0000000000000000    0.0000000000000000
   0.0000000000000000   13.9867922257000004    0.0000000000000000
   0.0000000000000000    0.0000000000000000   14.4558339790999995
Li Co H C N Cl O
1 1 90 51 3 6 45
direct
   0.5947828454641222    0.4818358994721332    0.3928840769623722 Li
   0.7371548041467560    0.5549377932802990    0.5250032616985342 Co
   0.2830547935095820    0.2852905475687293    0.2655424097391985 H
  -0.0188370588921701    0.0528805748212209    0.8812343174401280 H
  -0.0542521219907948    0.1119513028815036    0.9821520508693568 H
   0.3710921636006602    0.2046494697719544   -0.0294291571842254 H
   0.4770934190550321    1.0150869036799064   -0.0322259518941296 H
   0.4833395488100614    0.1467612859100198    0.2451990659774220 H
   0.6516335251096151    0.0213179410967533    0.3158909403775749 H
   0.5255848292458704    0.3082357658018499    0.0982660005402497 H
   1.0763665805947893    0.4681577739296323    0.1461117354179451 H
   0.9922428973371924    0.5257837890297216    0.2056627790481236 H
   0.4709777687861609    0.4080173295427921    0.1396970242270123 H
   0.6686419098935239    0.3698689112786253    0.1596605905226157 H
   0.8257231629488843    0.3705259597177316    0.2099351026020113 H
   0.8850480685725419    0.6105524036532696    0.0858765389388685 H
   0.7918229178419673    0.4522278954839797    0.0820780725149052 H
   0.0509206236140360    0.0467605153666510    1.1446276301680496 H
   0.2251058533763194    0.9003286393045543    0.2542286384108574 H
   0.0666988729214913   -0.0756871461388295    1.1322948930698127 H
  -0.0992228886345306   -0.0338748427483906    1.0863736407256204 H
   0.2872231595540139    0.6954646537843436    0.3130567905070635 H
   0.4434524583174005    0.9366328891858803    0.0665224151709489 H
   0.4681973695538455    0.7373355839125483    0.2565882393892109 H
   0.4687344984760088    0.8365613375810627    0.3321978515070756 H
   0.0449450817987507   -0.1213809685454903    0.8839695453112538 H
  -0.1117754338537019   -0.0683616637589786    0.9745060029028539 H
   0.7058948498185685    0.9340833410532873    0.1676884912419919 H
  -0.0462851980712563   -0.1422363580653272    1.0602271035872954 H
   0.1105860318539779    0.1410802120284763    0.4631205642842343 H
   0.1109307209778395    0.0679976936421819    0.5634051277411712 H
   0.2394606901075040    0.3201012455574623    0.5369618937809125 H
  -0.0088647978431209    0.2749071803422435    0.4979983168047007 H
   0.2237829169819031    0.0310893023777822    0.4094462483560219 H
   0.5696618462969860    0.1402043857630735    0.4625114676376672 H
   0.5686036367317057    0.2194734549040867    0.5609948205911047 H
   0.4796750987276798    0.1344889937911305    0.5422556042725132 H
   0.7293755753169316    0.1444998667447389    0.5674309764112749 H
   0.6867339023886819    0.1622923666964242    0.6790128472553965 H
   0.7421821019957905    0.0441151625650262    0.6437883143272933 H
   0.7354627573342775    0.0013526770466524    0.4664653038592671 H
   0.2101202495034933    0.4254128835821904    0.3095467889344557 H
   0.1466095340538320    0.3778807554664653    0.5891591589882276 H
   0.3682020778698205    0.3476436579836767    0.3199156130518818 H
   0.3875235080901691    0.5460222393786066    0.4720633205573697 H
  -0.0108080351102355    0.7238271255790618    0.5219542504783081 H
   0.2681640838085073    0.7951694307980171    0.3773789182614589 H
   0.1758369389532564    0.7769293657507055    0.5851614650410258 H
   0.3481794076302796    0.8005609457918151    0.5180245775115232 H
   0.4815911236955422    0.0220593548414249    0.6656016528351858 H
   0.4498313701377554    0.7348661113242206    0.5445057684655323 H
   0.5314700820477393   -0.0303386495168132    0.5194190940803456 H
   0.6334326834174483   -0.0754090266145505    0.5836838609103420 H
   0.6733077725883876   -0.0941066662005216    0.4274652710133517 H
  -0.1735019993241848    0.7613453779082686    0.5576107197449877 H
   0.0590871043947575    0.2193311778209723    0.9722570838818551 H
   0.1362381592824166    0.1430449227038452    0.9960509376641613 H
   0.1867134856389953    0.1487846233231545    0.8371054210428470 H
   0.2412657726245688    0.1638195217192001    0.6590361374773572 H
   0.5411738484108330    0.1165048845013816    0.7286460957443689 H
   0.5898797473398800   -0.0056832464454531    0.7202418763699869 H
   0.6092228078493779    1.0631486743241296   -0.0038858367134829 H
   0.3439091699014676    0.9917026998737595   -0.0925815150018293 H
   0.7172207483176009    1.0117244457809762    0.0310363961185955 H
   0.9019706299511167    0.3497399213389103   -0.0233990657950998 H
   0.1297923331159517   -0.0316613259176256    0.9070626439510587 H
   0.0695540710891871    0.1719436146610549    0.7644357984172140 H
   0.2343189610513576    0.3879009229028902    0.8461771909725239 H
   1.0211402658892756    0.3782468150973929   -0.0225820945973761 H
   0.2240906252888323    0.5452643815489520    0.8443523222006398 H
   0.2790748203061271    0.5337445135620708    0.9556713925722674 H
   0.0611705896657106    0.6701457676319272    0.6099473058661229 H
   0.5310293823501057    0.5398581383746908    1.0051088723491688 H
   0.4307819931348028    0.3983800947984079    0.8878620913989685 H
   0.4791302945416249    0.4188527661142691    0.7769815982833584 H
   0.3655959769029720    0.6506337883591858    0.8518537918603482 H
   0.3662888439070096    0.5569811495795000    0.7625265346528470 H
   0.4264377937721258    0.4823059143185625    1.0133532946476200 H
   0.4214467789887610    0.6172365667187806    0.9970954986366954 H
   0.5402828200481382    0.5799678355051866    0.7576752061095480 H
   0.5589033591249261    0.4317904002107779    0.8722766882789732 H
   0.5255016572953353    0.6718752563960166    0.8394366597696283 H
   0.6022759962761667    0.5773360669476781    0.8547944731148134 H
  -0.0520179224470601    0.5556727723830207    0.7751788659029454 H
   0.7887660695592997    0.4567621731780080   -0.0529912706183204 H
  -0.0578141421877858    0.7684206242122901    0.7765810679501816 H
   0.1552065273637491    0.0046057460324343    1.0867354323737233 H
   0.5096571216179067    0.7546762290073074   -0.0061638097482873 H
   0.6802127190858261    0.9151247409882369   -0.1035660075070404 H
  -0.1637460411666276    0.8250233096046783    0.6679896160651113 H
   0.1220082200272872   -0.1308041442010079    0.9906455075718558 H
  -0.2537461855601811    0.8112639002351459    0.7641597852860610 H
   0.0057335540788080    0.0769990427698729    0.9518756931972380 C
   0.3666139959955106    0.2180742777600922    0.1108968871611105 C
   0.4170990908697696    0.2694470291676465    0.1991595222913070 C
   0.6093414255640671    1.0304220853669472    0.1378984424199999 C
   0.6393810129334813    1.0109837469965213    0.0408566527848828 C
   0.9444636818603734    0.3404404338008740    0.1499344135200798 C
   0.2904551434036637    0.4099970543827108    0.1963385159032315 C
   1.0129235470176270    0.5080961022457979    0.1317237727240799 C
   1.0257565882444750    0.6088028960031139    0.0881946341832140 C
   0.3454135216242322    0.3310816045648553    0.2472321551815794 C
   0.4959809177649970    0.3346685599718152    0.1621038947312186 C
   0.5647912633815939    0.3626649721356059    0.2403477374341230 C
   0.9368435403184853    0.4369807968956308    0.0921750340745790 C
   0.3459528833504366    0.8259885058971631    0.2508265517466702 C
  -0.0606379415486522   -0.0691552695994661    1.0313979125075881 C
   0.3210054846975045    0.7632564665673884    0.3382832838748785 C
   0.6127771527824774    0.8266191008082531    0.0522734966860104 C
   0.4749737902686619    0.9413330376501726   -0.0051054135310839 C
   0.1444772061944775    0.1306475125470412    0.5338206706549654 C
   0.2469831464725894    0.0966818975343950    0.5228677225076004 C
   0.1345028518916396    0.2199203050394963    0.5997908527543708 C
   0.1622719566516495    0.3141456269527231    0.5491568318422428 C
   0.1169237065746968    0.3380117139448958    0.4602085911624580 C
   0.5485732214531468    0.0503503306144776    0.6888863696136608 C
   0.5516050204654771    0.1439972497124302    0.5348614961114387 C
   0.6986117221366503    0.1082599632829119    0.6267301494122484 C
   0.0285053642940873    0.2168366816250618    0.6363484115063636 C
   0.6649989505500390   -0.0200303531130762    0.4504299785826253 C
   0.3211275911685081    0.6585612672414605    0.5279833734003069 C
  -0.0969928755983732    0.5895125543975357    0.6405121283895971 C
   0.0055444634865682    0.7231236047258729    0.5979971132829929 C
   0.6072991076176237   -0.0187784577737127    0.5373052845536052 C
   0.4092521801674460    0.7430381066005914    0.4006338892638950 C
   0.3859186801855501    0.7332839043647623    0.5001909263798955 C
   0.4634306818014959    0.6563198669622459    0.3563258264481461 C
   0.0818700786302428    0.1515901272133101    0.9398279621391892 C
   0.2832222538126727    0.5229494722428347    0.8827651872627890 C
   0.4589507000430629    0.5501940322427906    0.9804350970058934 C
   0.3672008048075908    0.5716478434639681    0.8340685848379299 C
   0.4825506712322518    0.4369707159565759    0.8489767527313619 C
   0.5354873151686318    0.5970453752402165    0.8286942840461304 C
   0.9262377211227429    0.4815037289554751   -0.0818571250964015 C
   0.9482999183036755    0.4101060143197291   -0.0115429528757212 C
   0.0475672310446454    0.8256789281233513    0.6077357420057311 C
   0.0814451481111503   -0.0067592615715194    1.0981156128764771 C
   0.4146925467641041    0.8760292864210886   -0.0579000154269972 C
   0.5858488382942352    0.9228949286228475   -0.0027596477973998 C
  -0.2587699946529011    0.7107033158421360    0.6730457062295164 C
  -0.0767406451933456    0.6974551030275121    0.6584225443762727 C
   0.0864382561483037   -0.0840900735651799    0.9384541223435252 C
  -0.1656397380940779    0.7536416815738070    0.6369751480898840 C
   0.0288828477273042   -0.0157813445454934    1.0097291523064902 N
   0.6017477985701682    0.0727192909129739    0.5951567375523803 N
   0.4584038026032193    0.5404772224262926    0.8715669402274367 N
   0.6867708832056144    0.3900729720410892    1.0190942294231566 Cl
   0.6657518241626842    0.4151184574066565    0.5443334504931759 Cl
   0.7106325808935087    0.6034392644577654    0.3844030719800756 Cl
   0.1365033047623102    0.9499054106478704    0.3415899073508473 Cl
   0.3506424695882382    1.1377426186084336    0.8580277697940347 Cl
   0.8160034878569968    0.9202681647868557    0.8221896437648470 Cl
   1.0073240931330327    0.2841172978531979    0.1378673131194940 O
   0.3176451146154851    0.1481161355205817    0.1265729111336900 O
   0.3926596551362124    0.2458855152277691    0.0270041140597205 O
   0.4502720000602627    0.2040775015986302    0.2656240376827475 O
   0.5417295375165890    1.0793804161228564    0.1615594778534807 O
   0.8786148019288088    0.3238698008594527    0.2145422390768967 O
   0.6697429613863450    0.9902892235254318    0.2014285024170764 O
   0.2164181524022282    0.4434240898641506    0.2447314347075988 O
   1.0975865920014283    0.6520329655031804    0.0720309178360409 O
   0.3086873839026602    0.4375509776684134    0.1199319936924136 O
   0.6550078502168920    0.3689080047474405    0.2251511046893357 O
   0.5412655329267753    0.3785428086270882    0.3231980248496792 O
   0.8457186208891729    0.4826459493976037    0.1131900789650512 O
   0.9401627430759949    0.6501111524408107    0.0619872219683439 O
   0.2865135465196672    0.8911985973378652    0.2160993958644294 O
   0.4916434865895699    0.6676341123908170    0.2727415793028821 O
   0.4249369308056757    0.8237792788276981    0.2187440028829709 O
   0.6831893259732628    0.8326412107131412    0.1034134033194723 O
   0.3026316006921438    0.1047352094148010    0.5903109431069490 O
   0.2774476643610961    0.0668430328922835    0.4435390582701743 O
   0.1647580444012831    0.3712023120826876    0.3970554032301739 O
   0.6315696875455645    0.0430420072798265    0.3783480771505452 O
  -0.0367211215109905    0.2346570650251966    0.5833068504931028 O
   0.0276736447887370    0.3177025540305835    0.4433529742293718 O
   0.2485775081082651    0.6849011165832607    0.5687491293471449 O
   0.3312456822314988    0.5642873280335011    0.5089312384354069 O
   0.4843493344376981    0.5819554249074884    0.3978149581625198 O
  -0.2975719423815344    0.6372282842968978    0.6419924995692149 O
  -0.1314785340148447    0.5600704926756678    0.5669515160072595 O
   0.1398811186259016    0.8341819499800335    0.6020293953418677 O
   0.4747629298370203    0.8178787121596414    0.3985143297805543 O
   0.1953041991875465    0.2160273466598079    0.6772772158116297 O
   0.1197237823926253    0.1597049256723485    0.8488038121729953 O
   0.0127166487176889    0.1849623252461324    0.7225239999781922 O
   0.2926530598817287    0.4240051984116177    0.8643387166499475 O
   0.9859254574030970    0.5221665908055972   -0.1308117548343434 O
   0.8352342104131713    0.4990760926564523   -0.0918385623630865 O
  -0.0667265190685237    0.5306071966353654    0.7048557007732299 O
  -0.0053244079352790    0.8959151898871407    0.6181654411997023 O
   0.3432623544807800    0.9190119796861922   -0.1000726082280357 O
   0.6122838426396227    0.9156731154744117   -0.0954301918792434 O
   0.4245594473724588    0.7866428152541852   -0.0575458331634624 O
   0.5629727142651556    0.7493569249953914    0.0390933508517773 O
  -0.0553008421389001    0.7000282448472548    0.7573106474125113 O
  -0.2969718762954595    0.7548785627486208    0.7392286743919361 O
