Li1 Co1 H90 C51 N3 Cl6 O45
1.0
  14.1626477062999996    0.0000000000000000    0.0000000000000000
   0.0000000000000000   13.8217555223000002    0.0000000000000000
   0.0000000000000000    0.0000000000000000   14.2852628327000009
Li Co H C N Cl O
1 1 90 51 3 6 45
direct
   0.8756708919394551    0.5857368297419288    0.3657945588749349 Li
   0.5374646398790230    0.7701178944980158    0.6926467879646183 Co
   0.1608200949732608    1.0603675660051868    0.1524929181781298 H
   0.4259830841175486    0.1952292714732501    0.2079948721348387 H
   0.6075967239778294    0.2013102645760722    0.2737724508188705 H
   0.5141453773478306    0.2243391771831904    0.0069688193676157 H
   0.4307124257907306    0.2787989741883932    0.1109767061947969 H
  -0.0382161345833123    0.1690213126205875    0.2823547220333251 H
   0.8756447668809441    1.1058900033674197    0.0756542899460068 H
   1.1443035712870899    0.4307675860344862    0.2730248271926848 H
   1.0289840326055277    0.4567315093162289    0.1198025851076716 H
   1.0138477385702929    0.3647641757927029    0.2043267562160995 H
   0.3694562244086906    0.5657675863593001    1.0341217791586037 H
   0.5612738178655658    0.4278804708677031    0.1674054894408971 H
   0.4105883638278521    0.4408208676003345    0.1662392525858171 H
   0.6120266866021269    0.5691427003182133    1.1083360244557356 H
   0.4416757712908048    0.4641859603686849    0.2814978949561235 H
   0.8398033048516231    0.2676708653347933    0.2259973410436584 H
   0.8810081707850185    0.4391544367361190    0.0259933205744047 H
   0.7799239646613875    0.4034217109471873    0.0785964829243390 H
   0.8952886926333472    0.5822640436748798    0.1916934569822281 H
   0.2218870662017605    0.8817122572771466    0.3536330745512219 H
   0.1664482798757591    0.7578727061261818    0.0277734768303883 H
   0.1305609224733781    0.7231028826240491    0.1432862272309432 H
   0.0583908013776363    0.9030489101736757    0.2038171401113586 H
   0.2937924062990784    0.9267275231741711    0.2145029778021131 H
   0.3204434963937715    0.8297412902866621    0.1355215818548640 H
   0.6171613197235629    0.7988248123247590    0.3198605072803113 H
   0.4312003289104931    0.6796402414978344    1.0628996885897808 H
   0.5800222189771662    0.8913391096538451    0.2397716763362216 H
   0.7128404630660343    0.6744513203159855    0.2426060659077816 H
   0.7080581651931674    0.9310591002957173    0.1215694409433391 H
   0.8127949369297234    0.8651991595283289    0.1302483152106155 H
   0.2493169654731511    0.1898507940519080    0.6636196706580459 H
   0.2175658403074826    0.1399844801174747    0.4205117880329975 H
   0.0712669248103247    0.0755700865504955    0.5112207105901533 H
   0.1084358222450774    0.3305890669045523    0.4041963724379490 H
  -0.0093430023498459    0.0455008236895329    0.4192461480366081 H
   0.0265598888711094    0.3035432984132142    0.4888716083202822 H
   0.5531329672004242    0.3276487747011175    0.6820610534372951 H
   0.4964080513047451    0.2606695839242033    0.5099113962135787 H
   0.5722258660430406    0.0825286816323448    0.5375805476061046 H
   0.6451772676047985    0.1781482285030505    0.5209273713372410 H
   0.7625677467353666    1.0078221423194447    0.3140944250622476 H
   0.6772489542992256    0.0838642572739640    0.6711533087338992 H
   0.7876386238314660    0.2301626053193730    0.6304946238498900 H
  -0.1204959472402096    0.1993604398988437    0.4083062023156051 H
   0.6799652543017235    0.2914507679289108    0.5889252101852929 H
   0.1253705088216073    0.3789193965014138    0.5874768644150884 H
   0.0548039014523206    0.6292725440749709    0.4828963594921956 H
   0.1481317895287877    0.6835565312855294    0.5435990578013244 H
   0.3585641932575253    0.3379079635408579    0.3789836756735923 H
   0.0451941164161894    0.8057602554994946    0.6644085955894238 H
   0.9275736162918384    0.8240835429857616    0.3942357576654796 H
  -0.0972587668185286    0.6940689441093255    0.6446378708006926 H
   0.0959847605751922    0.1702259352875951    0.7211810896973753 H
   0.1691095054305849    0.1306101282277345    0.8747694433521404 H
   0.0266601526091792    0.1144609495188596    0.8133103011380898 H
   0.1681817128121075    0.0053792921586583    0.8468742618166752 H
   0.0049530533170571    0.0530128940508181    0.6641250866300554 H
   0.2902563443254601    0.2329299817165527    0.7832891524184241 H
   0.3367504754833711    0.0937848494721671    0.8936581402672815 H
   0.5484173235308940    0.2629811571500827    0.7940064911046639 H
   0.3696708735380796    0.1713705076955266    0.7018303781817823 H
   0.6606440083260663    0.1772127467562392    0.8607290996532565 H
   0.4101795419662856    0.0511686999497957    0.8003227907105387 H
   0.5651162491064272    0.1111777196913038    0.7077350647799817 H
   0.7624618343359971    0.2513733697209716    0.8317978853773841 H
   0.7590938200360453    0.1343795481046771    0.7889061299245240 H
   0.1177073936858885    0.5502666610496079    0.7889754321145918 H
   0.3192283281316715    0.6656311672027786    1.0059668894159148 H
   0.6304039000580700    0.3572940682630612    0.7827732361145862 H
   0.3234824761730153    0.5803474998641273    0.8397284359963527 H
   0.4372083862853969    0.5563230552511217    0.7905476818003719 H
   0.4068955515031669    0.4918491178730345    0.8886718826930107 H
   0.5465754362975911    0.4671842770393233    0.9508849487323441 H
   0.5770657802611645    0.6371955607875235    0.8694457751151153 H
   0.6565642627023509    0.5281691786055560    0.9613992810032339 H
  -0.0840620818570816    0.6071856246885396    0.7251467150179205 H
  -0.1501521251463483    0.4664045280427062    0.7005801386720746 H
   0.7527750862896573    0.3461406370110557    0.6780233258381945 H
   0.8618267291765290    0.3260194592379937   -0.0673553294026541 H
   0.0894280769715541    0.6796207070762074    0.7747698831949402 H
   0.0331617617651452    0.7252632449565923   -0.0320798146360311 H
   0.2518842820338692   -0.0620918766444213    0.7199504508070806 H
   0.2204925529433947    0.0232590759242791    0.6370951324372548 H
   0.3362802244301703    0.0057721510824932    0.6535414521690979 H
   0.3209928287051683   -0.0260935550710699    0.8597959701647681 H
   0.3565829253066521    0.7279105208356199    0.8315318769710633 H
   0.4825854946712903    0.7292996352624395    0.8075134179466624 H
   0.4389827720161682    0.7854661619201774    0.9105566742898700 H
   0.5660316852783114    0.6891187769695861    0.9745442964082118 H
   0.1199287297419994    0.1428951089399200    0.3213130531832472 C
   0.5515336899699439    0.2005968964381326    0.1357504890887243 C
   0.4683623067351536    0.2488266599384691    0.1716224227032034 C
   0.4896067100585633    0.3345574484832530    0.2390485534843022 C
   0.8798798506904014    0.2851628546562604    0.0657188759699256 C
   0.8265451906985419    1.0159216923237389    0.1658437400869454 C
   1.0350182150389426    0.5039824535936257    0.2688120940631099 C
   0.3109925799566946    0.3873698425978995    0.2647750664861311 C
   0.9949190745549655    0.4387863214130118    0.1893959843781629 C
   0.4115288659342539    0.4076742098359984    0.2373825008341878 C
   0.8578451290428961    0.3916384754719805    0.0818718864326941 C
   0.8338933929668019    0.4050104382231524    0.2622458865597180 C
   0.8890518644758051    0.4417231408303796    0.1710813056029772 C
   0.2786539940158562    0.7855920504151079    0.2734609409746265 C
   0.1312112246055072    0.7875397046010446    0.0985891147257113 C
   0.1782222082723416    0.8737494482242423    0.1496900296020550 C
   0.2002696394077713    0.9534969157743398    0.0759896005423953 C
   0.2775087279373400    0.8562480534405104    0.1901191072300822 C
   0.0289210292943880    0.8102336380521120    0.0785803824155354 C
   0.6376532507535851    0.8349967732014628    0.2516678522757356 C
   0.6236177395891312    0.7587886534513660    0.1749951292865021 C
   0.8008946197365598    0.8097554064707955    0.3140020221421571 C
   0.7326637338147032    0.8815444059505725    0.2644145550933542 C
   0.7716726826678363    0.9190432605037279    0.1691590448562486 C
   0.1630047147309235    0.2583724806402699    0.5254180132492089 C
   0.0857020787617330    0.2772615428566268    0.4502695884304056 C
   0.0478560480536776    0.1851169525442620    0.3971478496925702 C
   0.0083493109235076    0.1056038980536903    0.4678625443979158 C
   0.5104863369568909    0.2900833584150104    0.3356117050451110 C
   0.5880947208405815    0.1553110426267172    0.5691252244718666 C
   0.6256293690944903    0.1406841018105656    0.6695516581189994 C
   0.7289158470423458    0.2793784953633320    0.6482002833790255 C
  -0.0764293282758488    0.1302939599962135    0.5196352075026529 C
   0.0705474265772742    0.6775276299737131    0.5408079295968976 C
   0.0921825054378250    0.5407074556515070    0.6533881473244025 C
   0.0396993811368967    0.6332633540636879    0.6366464182571189 C
  -0.0726376643784186    0.6206477351780354    0.6487168997049853 C
  -0.1206385759380273    0.5421580673315972    0.5867740422047041 C
   0.0294145810754502    0.7769317901604047    0.5266403218762529 C
   0.1719853801147996    0.0780552990797274    0.8171037210166485 C
   0.0847283907701955    0.1047660884150147    0.7607974416418802 C
   0.2943565663463869    0.1807274956549316    0.7237158698007636 C
   0.5931919315809071    0.3002991374289126    0.7446654318427688 C
   0.3388355375856265    0.0483101629183560    0.8346000739313369 C
   0.7133629642362574    0.1943126006509686    0.8053776504527554 C
   0.3983307688074820    0.5579639466678024    0.8523148337480571 C
   0.5830417814831924    0.5321652701230835    0.9800072690474944 C
   0.3896035870994304    0.6385159429900994    1.0107613409287859 C
   0.5475999622408260    0.6246624205709636    0.9354655614533234 C
   0.2693908955669947    0.0087790050188797    0.6923527786734216 C
   0.4267414168970347    0.7305722666565935    0.8642551110812505 C
   0.2668617074700497    0.0809825683354107    0.7673727494328568 N
   0.6641264080173374    0.2282641489360530    0.7178195834680268 N
   0.4386367915115610    0.6378879475096414    0.9183941219666265 N
   0.5886885363597134    0.6244772053140542    0.6677428009560181 Cl
   0.3992091356395869    0.8060778707252102    0.6230862897338562 Cl
   0.4325178791586504    0.3085875201756027    0.9409131336059243 Cl
   0.1325732580613997    0.6297920149908337   -0.1087602378686054 Cl
   0.8418255255969193    0.4287765220227115    0.8374106627507526 Cl
   0.6402403376288521    0.8756638215437030    0.7341994010982898 Cl
   0.1003801251490288    0.1335721253440883    0.2407426070192924 O
   0.1857900022486278    1.0488191053380544    0.0903981558773970 O
   0.5645674816611603    0.1898515175490053    0.0461616579283731 O
   0.6125816675748232    0.1702758565873089    0.1922009730206033 O
   0.9039382052485279    0.2226252125596823    0.1239229153171561 O
   0.8417499747520356    1.0715557251178627    0.2319433289470497 O
   0.8404352488345281    1.0418684687242754    0.0741765432466827 O
   0.2431210901100320    0.4041372495764188    0.2115481844255868 O
   0.3186267457032523    0.7070680164565480    0.2695247165832008 O
   0.5730531124903830    0.3798121919194843    0.2097036261343887 O
   0.5703248090826233    0.5223014724470185    1.0795077134317821 O
   0.8042944077563228    0.3127924853051212    0.2679860679592717 O
   0.8591309055712426    0.5375514166136568    0.1539111629970927 O
   0.8094756423334815    0.4635692080331190    0.3236882282428430 O
   0.9902525742387427    0.5795140312080355    0.2911967014550035 O
   0.2412662109557398    0.8136224984558739    0.3556379379083344 O
   0.1246990242096043    0.9072849856783780    0.2237908713154397 O
   0.5739567570818042    0.7643899679786770    0.1075654983947938 O
  -0.0221760547401240    0.8674477885067431    0.1223023641049650 O
   0.6714011776887010    0.6713836926234256    0.1874135217289511 O
   0.7114064091785705    0.9592906805295331    0.3226143943078533 O
   0.7907411510503316    0.7208564241369267    0.3145179384459950 O
   0.2076750343716908    0.1221003553692700    0.3528854509250362 O
   0.2225352500859022    0.1906104660040750    0.5250185106242423 O
   0.1608229193039106    0.3166299139092102    0.5961739392575341 O
   0.5818381223684905    0.2274921775332319    0.3455716197954586 O
   0.5127940128009678    0.2270551852864616    0.5714987894805820 O
   0.4586845965468934    0.3185797385864387    0.4085680105891945 O
  -0.0375227614087729    0.2107193443264829    0.3365259339363083 O
  -0.0826393252922172    0.1226683005906519    0.6049221157148783 O
  -0.1430397544873513    0.1792233451896410    0.4726028842007643 O
   1.1133637351005921    0.4850813813254535    0.3106783171073911 O
   0.2945140227801163    0.3549477671765113    0.3488953248302246 O
   0.0990731661408085    0.4881317174373879    0.5831024261753553 O
  -0.1470051147197475    0.4605673462267038    0.6313325503298004 O
  -0.1293594029021166    0.5571167315668618    0.5021056665391654 O
   0.0749583249696850    0.7031799430556477    0.7051512831280607 O
   0.0243060730125252    0.8376281321443497    0.6005175765239037 O
   0.8716765823178980    0.8602034120714597    0.3546082053670242 O
   0.0119863427178582    0.8019915591196493    0.4435041546311219 O
   0.0648924105336023    0.0289573390626286    0.6911389403140527 O
   0.8779494206912256    0.2643254147568695   -0.0245741774450537 O
   0.1245789901569854    0.5068803488671585    0.7346747161190578 O
   0.2251195126305195    0.9322564879917518   -0.0035889142748317 O
  -0.0130965377835030    0.7659208878365678    0.0047728499712254 O
