Li1 Co1 H90 C51 N3 Cl6 O45
1.0
  14.7624287195000008    0.0000000000000000    0.0000000000000000
   0.0000000000000000   14.4070999228000005    0.0000000000000000
   0.0000000000000000    0.0000000000000000   14.8902365347999996
Li Co H C N Cl O
1 1 90 51 3 6 45
direct
   0.8890494313488901    0.3889043243555895    0.5097974669280133 Li
   0.5492687560068797    0.9436738506883148    0.7823857089290004 Co
   0.2303664879958305    0.3311126796483608    0.0577914437684625 H
   0.1415111902041249    0.2191310866390127    0.3557806657415302 H
   0.3463162434543601    0.2850465036964823    0.3034725645115949 H
   0.5009193269554671    0.1940330445668699    0.1479955178851428 H
   0.4682605409819131    0.2416193043744411    0.0528633823620165 H
   0.3032955446203602    0.0758399308156980    0.1509780091233585 H
   0.2758962590633899    0.3784414275333466    0.1720367746619149 H
   0.2245395335268565    0.6152003879263327    0.2012189840233618 H
   0.9637315870394166    0.3294273994649718    0.1831789750972304 H
   0.3868569980531922    0.4306284744774810    0.1872178632545439 H
   0.5050886273578257    0.4282983733343028    0.0611527066928645 H
   0.8174900680440843    0.3606599169328279    0.0557276753435499 H
   0.9628428443908125    0.4828770188780605    0.2393594123955178 H
   0.8064424279098719    0.4779848476307119    0.0602380133655847 H
   0.7010424270316491    0.3918015070102294    0.2034110244200148 H
   0.8764200731624742    0.5587303138406744    0.2063747113901220 H
   0.8082944266913382    0.6202923217917947    0.3203084286977756 H
   0.1422028108171012    0.8982441664696190    0.0606953600292246 H
   0.1429520100315496    0.8468528383072955    0.2673629970951615 H
   0.1567512299208159    0.7760905054670396    0.1613619946052974 H
   0.3235408582932531    0.8935645293211805    0.3051535317642978 H
   0.4389873090353857    0.7687323278623827    0.2628224379279522 H
   0.6002839388273871    0.8719293632107048    0.3300147889468032 H
   0.8347636484857067    0.8151122380164407    0.3620518891557292 H
   0.7254950429838720    0.6702711519420933    0.1991894662296469 H
  -0.0284506804117680    0.0619176285428741    0.2554330321422987 H
   0.9264714579338701    0.8581507400968437    0.0689531200528904 H
   0.7278408629473755    0.9329319247747530    0.2352607535288594 H
   0.6947656820758815    0.8630524899547897    0.1355289597101827 H
   0.1337563686788036    0.0693459104714692    0.4802319459927938 H
   0.1603712304651308    0.2937533219091806    0.5911060074048865 H
   0.0663033757519238    0.1010629112869388    0.6144850853118363 H
   0.1265969776322347    0.3492981577392964    0.4925064991587456 H
   0.2984860379091634    0.2742011565525559    0.5904686770322075 H
   0.5809071814228176    0.1468896219738794    0.3257885296894081 H
   0.6741688002363533    0.0970634943113674    0.3805136509522951 H
   0.5351546150373268    0.1574712102752654    0.5651408053682089 H
   0.5923082864305375    0.0697255843842838    0.5116051413687177 H
   0.4945554689626490    0.1209468575033905    0.4598243453955961 H
   0.5117980585687731    0.2744302102842357    0.3944926095479852 H
   0.0324024499957891    0.2620550618535757    0.3644944292668282 H
   0.6871734354253050    0.2032430868870464    0.3233997160586193 H
   0.6378915717277005    0.3012128384375503    0.5945740517089048 H
   0.7321280978734550    0.1469465383556908    0.5127326399118579 H
   0.7539876445735003    0.2510091191688753    0.4524695931897427 H
   0.2720330736022695    0.6632718251837346    0.3699201321971467 H
   0.5466082181816830    0.3195281136431045    0.5047425035750749 H
   0.6162582750616749    0.3418129594288900    0.4073184635600192 H
  -0.0028762978238067    0.6092255560405780    0.5504833484843024 H
   0.7724046683008270    0.3885676847802420    0.6311530542470479 H
   0.2223610302052778   -0.0327044680140198    0.6753974823634378 H
   0.0627694044121613    0.6993720815008936    0.6099599725077162 H
   0.1884045580336053    0.7445144074016637    0.3826962892148938 H
   0.0407418636748798    0.6837339585471233    0.4387753177815959 H
   0.7387814746223811    0.7527881058308223    0.4062170707136616 H
  -0.1655412661449092    0.7375921259894157    0.6341684529544536 H
   0.8398773056917384    0.8922464292106963    0.4763354330083022 H
   0.1937329495533623    0.1221303017837357    0.7633302695250076 H
   0.1987050311393038    0.1046361495011425    0.8818461840221108 H
   0.0473424035895139    0.0827004371306143    0.8050649994299108 H
   0.3077446770258730    0.0483909645338606    0.6753457706261392 H
   0.3540514205156498    0.1283022586991785    0.8019797562981020 H
   0.3620087832390905    0.0489934452584000    0.9000574461042308 H
   0.5638496900855434    0.3064130522488972    0.8160654962734084 H
   0.7252538902530007    0.2248699237709156    0.6381415261733872 H
   0.0056744631924521    0.5389695707677776    0.7538603057893446 H
   0.4381642737319907    0.3196356994867722    0.7084500130502251 H
   0.4552769050476159    0.3540555343360626    0.8443068206484243 H
   0.3830398754732494    0.4903436152490457    0.7451062474038140 H
   0.5447092081656029    0.4732650358459413    0.8977626538139846 H
   0.6308168550950611    0.4644765773304545    0.8055095860544771 H
   0.3930558425481446    0.5356963929420745    0.8612346914321363 H
   0.5039157851156051    0.4951810218314563    0.6405478009102767 H
   0.5207193412724813    0.6252162829206916    0.8907029943012346 H
   0.6284236174597571    0.6232450326238115    0.8300155768859316 H
   0.6177438029796544    0.5288346372431671    0.6725150566947996 H
   0.3819655265093116    0.6071772603975876    0.7659373469820563 H
   0.5301846333768507    0.6177574604945391    0.6481400241591009 H
   0.8977973144007768    0.4719613827790060   -0.0597647814741012 H
  -0.0984066490144044    0.5766339864314223    0.7973404747233229 H
  -0.2024186668994944    0.4752707483179058    0.7712381358456537 H
   0.2140073912246469   -0.0845434921064446    0.9056282105313865 H
   0.0789842159820090   -0.0260820387596070    0.8540098229924324 H
   0.0467605210169902   -0.0801553778892348    0.7202852850815413 H
   0.2281893394648746   -0.1387299698974779    0.8063188411641483 H
   0.3316831499367159   -0.1114441176366851    0.8662077487658419 H
   0.4085390671816412    0.0105998752155750    0.8019911731751679 H
   0.5291499120386320    0.6855712471160815    0.7901733622499526 H
   0.3401668488171425   -0.0682487484551925    0.6992600985931786 H
   0.0009103419671215    0.7520683218315742    0.8775003833460258 H
   0.0415540606532918    0.1129855050719771    0.3517619250143330 C
   0.3201769131766611    0.2080143455281568    0.1502668048402532 C
   0.3914639635662696    0.2791681520189199    0.1742315013825834 C
   0.4751901595388428    0.2615428144172738    0.1249824516253056 C
   0.5543933192774255    0.3295787137483238    0.1351824239121824 C
   0.3359974806752529    0.7121789615106590    0.2047212789585779 C
   0.3499795972986069    0.3765729043646138    0.1505441677948542 C
   0.3373380459965851    0.4024504232266848    0.0572380610212682 C
   0.8447897764902734    0.3230853875063122    0.2436830508984749 C
   0.9409440087627039    0.4235581410623017    0.0558935558515074 C
   0.8425929834952860    0.4211297550451664    0.0912596830966495 C
   0.8889932075380409    0.4954687272004903    0.2444970070751733 C
   0.8303246770098655    0.4173530060608763    0.1976562467977968 C
   0.1936794353237588    0.8244451364290637    0.2119474905602894 C
   0.2262458923163642    0.9130743544425554    0.1679696801024386 C
   0.2701837844020487    0.7691474009882751    0.2670359371462736 C
   0.1531305519811895    0.6334434765012970    0.3101232311929842 C
   0.2208815988451012    0.7027239011078068    0.3344875184326208 C
   0.6294451295894028    0.7606363196008303    0.2624114303535798 C
   0.7613834465837604    0.8119221442261377    0.3576731810104543 C
   0.7291726221296589    0.7888737860014198    0.2593557367859416 C
   0.8424087319705753    0.8846453158300156    0.1645385727536334 C
   0.7384217777120085    0.8726040305658342    0.1927389306874129 C
   0.0741848702004837    0.2033430376063248    0.3871408122985487 C
   0.1054073748951997    0.2028772950185760    0.4882015306076963 C
   0.2480776658086406    0.2891132485871232    0.4713159694272286 C
   0.1543688306104949    0.2871114577926858    0.5194317933985650 C
   0.0188206740014939    0.1995081228562325    0.5410448147396208 C
   0.6397320547888726    0.1605932820482818    0.3637536754195524 C
   0.5567843892477329    0.1340598365909461    0.5021715571760347 C
   0.5665907702132699    0.2924893617716389    0.4385798877094678 C
   0.7077621885210958    0.2148595815942944    0.4968142883500112 C
   0.7091223983064597    0.2736333809388771    0.5839744887247216 C
   0.8686855734964959    0.5068429802339317    0.3429245905843217 C
   0.7354839142463099    0.9019013910521052    0.4049397236442884 C
  -0.0382051728964489    0.7486623622517184    0.5248834193556332 C
  -0.0063797863745546    0.6738811775738092    0.5932322328631595 C
   0.1873010810712758    0.0703912284105894    0.8147901639470468 C
   0.0916128967731135    0.0233234629592750    0.8005116802236280 C
   0.2872107929503083   -0.0172537526588966    0.7020377576252120 C
   0.3552802156105950    0.0532108103301757    0.8276166895400847 C
   0.5185810549105425    0.3659531404412812    0.8005895836200776 C
   0.5576587033762036    0.4599079271265481    0.8207585043284976 C
   0.4113428063756755    0.5440861452619506    0.7891565886100835 C
   0.5444759132203443    0.5480182343224526    0.6787882948520103 C
   0.5514097993677360    0.6219456732731919    0.8264568691463899 C
  -0.0602266170759274    0.5638097538662264    0.7332588869144282 C
  -0.1072561413630066    0.4903661735711051    0.6819668877433580 C
   0.2606772186013535   -0.0871255523544705    0.8500474950695609 C
  -0.0629836159934726    0.6596965046628794    0.6834786165830840 C
  -0.0248550660986648    0.7355368893242531    0.7486441361322356 C
   0.6137580089671639    0.2002667765796444    0.4544957530784381 N
   0.2696459325247684    0.0027870606586448    0.8031892736860836 N
   0.5127492299692793    0.5399810859289197    0.7762917828998247 N
   0.2872500818783716    0.2927906021339086    0.7160952911983556 Cl
   0.5945816250957174    1.0798594821140375    0.7854655794127781 Cl
   0.7717042415488019    0.4700641140610496    0.8886613880494498 Cl
   0.0339828132573697    0.8594133120299509   -0.0016481761416377 Cl
   0.4867920445168724    0.8690231572272411    0.8857447117496141 Cl
   0.5855587195473876    0.8530629708446850    0.6736728623454828 Cl
   0.2587778021480864    0.3788960644856200    0.0211667737220558 O
   0.2396420619953260    0.2288096479558068    0.1391830319522749 O
   0.3500703682703394    0.1235934692576171    0.1343677961544802 O
   0.4037586884688361    0.2639506550087797    0.2706382976510673 O
   0.6157583573218349    0.3094886191733605    0.1852937836784376 O
   0.0118584049905529    0.1165177912553653    0.2679324977864488 O
   0.7990012404137453    0.2798809949959959    0.2979373938776445 O
   0.9237896498958943    0.2813309745277502    0.2153114398087070 O
   0.1691556928638351    0.5863160182593025    0.2302574750499792 O
   0.3027990138570775    0.6586157875106814    0.1451473428477024 O
   1.0052620161882571    0.3960292836152633    0.0985523812177447 O
   0.3985617116394978    0.4472538884250126    0.0176295565746381 O
   0.5569453383737302    0.4127648515846663    0.1010177550829755 O
   0.4219535265340117    0.7180205257707092    0.2186149467667756 O
   0.7395923168101701    0.4454380476145662    0.2086802489764301 O
   0.1930853596356293    0.9379947063470919    0.0863114742600872 O
   0.2825855377638222    0.9623882346687653    0.2056185111797570 O
   0.3220864905595996    0.8264982907875746    0.3223251864524169 O
   0.6078253808296059    0.6873002557391549    0.2196028424234780 O
   0.5670497732762990    0.8228403721028712    0.2929730670969892 O
   0.6618205611041832    0.9406059188882409    0.3892777830528839 O
   0.7750952824778514    0.7079907487320061    0.2255671533189055 O
   0.8551546021505584    0.8544893509010542    0.0800274908068145 O
   0.8988906304334348    0.9283834729453674    0.2070530082040372 O
   0.2545434040562989    0.3001515561474342    0.3850219742313183 O
   0.1633687047182358    0.1247429025293190    0.5097241302823901 O
   0.3191716585344898    0.2814656303578892    0.5245431964190694 O
   0.0080697330136904    0.1313084154019205    0.6016498291657481 O
  -0.0410678454825781    0.2564411631207708    0.5267144178046023 O
   0.7697079575659995    0.3516372822112984    0.5739834452881507 O
   0.8216404691172537    0.5783942296542700    0.3700792968950654 O
   0.8954345595544875    0.4515446201011477    0.3976423244561661 O
  -0.0715038942207168    0.4588808640757406    0.6159142096880855 O
   0.0442846411536910    0.0401137955936160    0.3959358371253158 O
   0.0837300475339308    0.6179365388665796    0.3525382726548143 O
  -0.0963297549895411    0.8082260499194877    0.5388864877093624 O
   0.7948752255717877    0.9420114758780938    0.4624172524934630 O
   0.0006569961206443    0.7386471613595769    0.4441506521366237 O
   0.0831915182613390   -0.0187203906438641    0.7141886727283501 O
   0.5002136842595442    0.3527353519189267    0.7074110772372282 O
  -0.1904152219808454    0.4624742312542434    0.7049074232547765 O
   0.9553176598760680    0.4661623086802847   -0.0207042871266343 O
  -0.0057816463145565    0.7010240447778564    0.8314789518933787 O
  -0.0225986623162709    0.8181739228965597    0.7278842241404042 O
  -0.1548451941773320    0.6809561614738437    0.6692619183120218 O
