Li1 Co1 H90 C51 N3 Cl6 O45
1.0
  14.2176191966999994    0.0000000000000000    0.0000000000000000
   0.0000000000000000   13.8754038596000004    0.0000000000000000
   0.0000000000000000    0.0000000000000000   14.3407102466000005
Li Co H C N Cl O
1 1 90 51 3 6 45
direct
   0.9801397758869826    0.7610549960672945    0.2703565623061949 Li
   0.6535042164623852    0.8093447616683452    0.6720528451918886 Co
   0.1807098683369114    1.0209984208854876    0.3155495819583182 H
   0.0954220305334168    0.2733502727688778    0.3162817632672941 H
   0.1305502747978238    0.0254331645673752    1.0060098053177271 H
   0.4236366166353647    0.2869059142408820    1.0369789827408114 H
   0.3619307861540118    0.2950166691521444    0.1973511126459719 H
   0.5101188316243125    0.1043166342721304    0.2749525689799666 H
   0.3932707730980580    0.2130990535280347    0.3023661345035574 H
   0.7747706518723432    1.1872825898614900    0.0965206812980668 H
  -0.1340706823363530    0.1469589966845681    0.3113761484971554 H
   0.3545927080583334    0.5011987038480680    0.3627076367806264 H
   1.0109923394513392    0.4359706204597916    0.1629079092406798 H
   0.3242620321530390    0.5871033025221684    0.9905063890868112 H
   0.4077696844240730    0.6059964462931603    1.0827863373769422 H
   0.5640000609216766    0.5058730182432578    1.0499330133854263 H
   0.5468298866032746    0.6330075519728477    1.0464854853934484 H
   0.3709569105862786    0.4842679534081473    1.0441411105736607 H
   0.6112467898364528    0.3552801402886238    0.1810694922809445 H
   0.4686184093780231    0.4652921453765971    0.2735697922793006 H
   0.7576531586666955    0.3757847686856672    0.1099258750921174 H
   0.9093965673311190    0.3867567015778886    0.2098490989324247 H
   0.9341602070888724    0.6165056899501735    0.0995156515095445 H
   0.1558948838364199    0.8120199991155291    0.3556487116465661 H
   0.1582166509018693    0.6797348405303926    0.1480216172559008 H
   0.2202024157340399    0.7713588402974633    0.0801463179672358 H
   0.3235122582385376    0.8132963583609392    0.3146116925672967 H
   0.6049088791952031    0.9904832730538045    0.1509322122879632 H
   0.5602757383563143    0.8771071136340131    0.3080290339418369 H
   0.3482041560269861    0.7859890450867494    0.1966956360455554 H
   0.7142949851587792    0.9812179571537522    0.3062606417517770 H
   0.6823128372541890    0.7454028390419881    0.2292016969019569 H
   0.6672632008108621    0.7787416884679779    0.1083917809209298 H
   0.6900314291282400    0.9413149744656533    0.0635997176999123 H
   0.9116894969383184    0.8410469019772675    0.1133880467102750 H
   0.1191629955522538    0.1193043061341006    0.5408121348200841 H
   0.3633628121295510    0.1521458727372032    0.6399317025093487 H
   0.4323427156163200    0.0318156814941692    0.6110970079308121 H
   0.3602096822433317    0.2779721202227543    0.6306065018951249 H
   0.5385876486885610    0.2813349052250602    0.6472200444535547 H
   0.4884971243787455    0.2223802248224400    0.5497110664493774 H
   0.6399224769792502    0.1706375867511690    0.5354113562904179 H
   0.6899737542117398    0.1869909846267204    0.6439956574319312 H
   0.7146410346577798   -0.7371868000168519   -0.6488747570160394 H
  -0.0414215558000520    0.2102681449362950    0.5270408503715455 H
  -0.0486048963148764    0.3294625133838652    0.5083094838366358 H
   0.2082004062808956    0.2920567553063513    0.5241894574281803 H
   0.0659346744437764    0.3954029363984337    0.6805119799149237 H
   0.1213834798375079    0.3823474605482899    0.5196116367434925 H
   0.5561386884616559    0.4354688692984960    0.3494049483698324 H
  -0.1637570872231828    0.6250769719974141    0.5794124545030817 H
   0.9770724550228733    0.5473062626963366    0.3896567901596669 H
   0.1478984676694720    0.6286905605103934    0.5186488392416552 H
   0.2326468339978985    0.6757147773621838    0.6016337388411814 H
   0.2549698400940011    0.7033406399229187    0.3962373568385295 H
   0.5422803203851124   -0.0197330883461502    0.5973215395890795 H
   0.5032569795342914    0.0709720192481943    0.5136532149825997 H
   0.6768182464285933    0.0657721706001795    0.5980111846505816 H
  -0.0314895131671494    0.7586413726269339    0.6073105845901081 H
   0.1339453579922875    0.2196285932024649    0.8144948836177262 H
   0.2342195305014868    0.0359820467102709    0.8505956060434332 H
   0.1635980019523855    0.0625283010555205    0.7535432302498439 H
   0.2201623246335460    0.1325291464239234    0.9799253231988105 H
   0.3128487288597799    0.2914578538196569    0.9469890186589442 H
   0.0510777566238767    0.2270741422506480    0.9065509936219702 H
   0.1600291906557813    0.2413785907559560    1.0066283241949285 H
   0.0248363729689680   -0.0235816249754501    0.9619736321337857 H
   0.3370025618784409    0.2447428171577485    0.7873267731615252 H
   0.5980385306052878    0.1779865620337479    0.7703840976718225 H
   0.5040552847809697    0.0985020287430683    0.7825222691435786 H
   0.4635515272929606    0.3274056363164454    0.8610762584947742 H
   0.6053414410689538    0.0456271713750500    0.7554336526580665 H
   0.0180588669275651    0.1009862807582737    1.0100570246675331 H
  -0.0645337235585098    0.1028132546075762    0.8451718858327525 H
   0.1731396838699521    0.5993797019497890    0.8165143093994350 H
   0.3860213174350506    0.6520614117865990    0.8525494841651003 H
   0.5130480984321946    0.4862594630088485    0.8348962441479247 H
   0.5134792676677177    0.6609634950160208    0.8482665721653574 H
   0.3910123077702307    0.4728868936856411    0.8542014246612566 H
   0.6126338012430163    0.5802775552532358    0.9569773663444404 H
   0.5464759595547032    0.3711917492215233    0.9552703379212281 H
   0.8440325997678506    0.4320727879680490   -0.0446466643346203 H
   0.9649860432528995    0.4223158827730818   -0.0314583356711330 H
   0.6247785912821304    0.5319626372311433   -0.3533663807133574 H
   0.0156041662131093    0.0952970769845483    0.7489841812992872 H
  -0.0144852597365810   -0.0134947113680191    0.8181390545898292 H
   0.1332314550624386    0.8328684012901335    0.6593644917651020 H
   0.1299763390433837   -0.0415890287619085    0.8200266877359222 H
   0.1437388401550619    0.7366139056722667    0.7752171916265959 H
   0.1171450768273903    0.7866953308351977   -0.0381713923011437 H
   0.4434071560000175    0.7092727195101411    0.9436690994093877 H
  -0.0472868134670569    0.6585549164738634    0.6895631355249309 H
   0.4470001626274461    0.1710570340017781    0.1742720604715185 C
   0.4166769422601383    0.2520190017662526    0.2389996774471194 C
   0.5089163869840757    0.3123603084750100    0.2667570195281628 C
   0.7384727321672084    1.0652349711301372    0.1559410297568909 C
   0.8790862886523917    0.3085687071254319    0.0285819262959572 C
   0.3850204466279817    0.5568533721960249    1.0286711654882981 C
   0.8991810735841974    0.4195296575654276    0.0086707785850063 C
   0.9543492412744712    0.5296630284901751    0.2551404400746105 C
   0.9413210403192089    0.4536777086632108    0.1800548981813636 C
   0.7913599272451669    0.5181096350450476    0.1118699907963316 C
   0.8922213992089710    0.4887145987544240    0.0904226569675959 C
   0.1663987521658419    0.7571451999598128    0.1313997069110827 C
   0.0748264585217564    0.7957566887078920    0.0943297158953979 C
   0.1958136629335371    0.8005947460847629    0.2296040479641274 C
   0.2019982426992133    0.9117936715800010    0.2286870780390766 C
   0.2989328968725283    0.7676140844312005    0.2513107831709003 C
   0.3142568408455508    0.6636805330483169    0.2814613121589963 C
   0.5486386985881931    0.8024620791196909    0.1899846713621418 C
   0.6533508855868118    0.7952327399945023    0.1824271656224455 C
   0.6801331474220691    0.9740794261962212    0.1320231069970107 C
   0.7058948445763307    0.8904508693814828    0.2029777516765688 C
   0.8089894611729133    0.8634873298848539    0.1966391534874344 C
   0.1156321652982228    0.1538633002255219    0.4144128861894413 C
   0.0756008497786664    0.2612122476919735    0.4437234986188121 C
   0.0936657589907245    0.2691630072602200    0.6217136369109630 C
   0.1280167985876605    0.3062660714455418    0.5288571481386785 C
   0.5791765118460398    0.2530452782007326    0.3191595844693356 C
   0.3978650725441398    0.2209287355394045    0.6636055648329036 C
   0.4963183354030083    0.2222973443519588    0.6246242319430255 C
   0.6493066079054017    0.1378933146134139    0.6025758121253971 C
  -0.0309823959135326    0.2632366932709442    0.4727254791935613 C
  -0.1017755425068537    0.2343200574699328    0.4069139549544631 C
   0.0983711881539650    0.5732968575394907    0.6974072379484262 C
   0.4940818850128206    0.4056269270970432    0.3207194793152205 C
   0.4214133189395496    0.3865786887412898    0.3994045639864996 C
  -0.0349668886205217    0.6374838180785748    0.5330256306595614 C
   0.1640755783951120    0.6858110600662779    0.5750227834953348 C
   0.1724067904188166    0.7895291222259107    0.5397077264799354 C
   0.0940962108065546    0.6767352881987173    0.6572530203331219 C
   0.5088392784341256    0.0487953674466610    0.5862481689352341 C
  -0.0087993569928387    0.6840885876797561    0.6250684219371374 C
   0.1942297127877049    0.2014604733732474    0.9467756401060428 C
   0.1153262068997161    0.1927991038580927    0.8804218833089829 C
   0.1630114058504210    0.0282186690752861    0.8179424116097042 C
   0.0616653239174879    0.0443436051322068    0.9716474905141885 C
  -0.0019233815818015    0.0673980692210972    0.8164689838898317 C
   0.5671252677080783    0.1142089589488665    0.7410082862401761 C
   0.5560037150899929    0.5674332444278831    1.0050314716258288 C
   0.4724623722274912    0.3705863614371391    0.9292583766176769 C
   0.4578208913212987    0.4701654089359289    0.8898014745347307 C
   0.4548554862547608    0.6475253276021768    0.8923139023978165 C
   0.5499218248097926    0.1315288151802027    0.6385238224495179 N
   0.0849877941153790    0.0843265854918136    0.8741669629837314 N
   0.4640966959244146    0.5568591377939714    0.9569954965482818 N
   0.5001115161918508    0.7929913637927940    0.6403905361296403 Cl
   0.7353864207818125    0.9039834484617008    0.5696101506016185 Cl
   0.5779223637532186   -0.5452716653696096    0.6099129661568682 Cl
   0.7143477366067976    0.6462540132549699    0.6794799529270338 Cl
   0.2110588314108521    0.7185589357027496   -0.0952006457995121 Cl
   0.6808998017999364    0.8776541247391888    0.8167513966804366 Cl
   0.1824288621896706    0.9517471032501320    0.3117959324476349 O
   0.1337561561320615    0.1402045986902238    0.3307168921026375 O
   0.4340989871590124    0.1755960009851734    0.0887107473356570 O
   0.4938234029175305    0.0995528089688210    0.2046422438523074 O
   0.9267524970818098    0.2410931936576034    0.0008531741517406 O
   0.7639355044493656    1.0887362690598827    0.2369907113983959 O
   0.7432674871157601    1.1220383627989634    0.0839480822496517 O
   0.8079611596128747    0.2942765105157603    0.0814928342602191 O
   0.3534420231388923    0.5999980623295530    0.2393162586988099 O
   0.5430286172590693    0.3442894692030762    0.1761408660982380 O
   0.9677621761239473    0.4950725398199710    0.3410497136611186 O
   0.9510378570441966    0.6179550171339793    0.2433683592573424 O
   0.9402294370215484    0.5716241134352575    0.0474526792326300 O
   0.7653710471881062    0.6011691994124391    0.1204657993637089 O
   0.7262358029322222    0.4450045917422401    0.1173390365166155 O
   0.2198901271617710    0.9575400877868947    0.1569667809049895 O
   0.1298912333739141    0.7748888276402179    0.2995901213692401 O
   0.0060730345851464    0.8028981024643963    0.1449248389766988 O
   0.5105086648251684    0.8458964905500314    0.2671252021292478 O
   0.5005980252131084    0.7638837425598042    0.1289911790623181 O
   0.6808421268834361    0.9202554072662575    0.2945708441673271 O
   0.8529356374880745    0.8416890454485608    0.2665031966743844 O
   0.8447753401559495    0.8704211821152835    0.1088771125314510 O
   0.0902418383380108    0.1795548046752004    0.6386326036725657 O
   0.1338623623807385    0.0873801903042375    0.4781829494760081 O
   0.4255715397486793    0.3186894936207987    0.4542608428229339 O
   0.6597408443234396    0.2997545492646945    0.3194782576676232 O
   0.5658415084691027    0.1714505360616278    0.3522416279554649 O
   0.0849997511102632    0.3247700373551439    0.3655178183760292 O
  -0.0853557751203291    0.1547793095992747    0.3592322161673540 O
  -0.1785176457313689    0.2782596794203368    0.4054154238754257 O
   0.0702764702920101    0.3241639288710164    0.6914465847778299 O
   0.0612369821595786    0.5025105935908235    0.6559120825643975 O
   0.3455314159940543    0.4472940386168275    0.4063819032032739 O
  -0.1249889930455068    0.6142837726415347    0.5215716651881551 O
   0.1689033909177552    0.8599933775292647    0.6031029826678598 O
   0.2741418263618052    0.6433892317752945    0.3646252544946110 O
   0.1948374094688767    0.8120034230214328    0.4559258231195451 O
   0.0159903068126039    0.6372034658784254    0.4614798018716703 O
   0.2670196775266822    0.2589968166810244    0.9034807133329978 O
   0.4000285852655341    0.2361982010010107    0.7610254259120455 O
   0.1421387128985040    0.5526805206822335    0.7737047142369113 O
   0.4002283374153637    0.3418383693760634    0.9968115161303924 O
   0.1046261031836657    0.7499245092315439    0.7215231983194960 O
   0.0638042192964736    0.8140631828878260    0.0060084278824634 O
