Li1 Co1 H90 C51 N3 Cl6 O45
1.0
  14.1092896958999994    0.0000000000000000    0.0000000000000000
   0.0000000000000000   13.7696818288999996    0.0000000000000000
   0.0000000000000000    0.0000000000000000   14.2314428678000002
Li Co H C N Cl O
1 1 90 51 3 6 45
direct
   0.6440281217870603    0.7040260287026855    0.3321856734988115 Li
   0.7082730284788127    0.6700927827638193    0.5458788336548291 Co
   0.1677192398485977    0.2040587756067610    0.1769519406635748 H
   0.3134927014706715    0.1217511366879511    0.1690054519589138 H
   0.3613292697563259    0.3013689398247705    0.1011894188999135 H
   0.3536726121691340    0.0687419234708356    0.0597255978747710 H
   0.4941025021710215    0.0408719984596012    0.0839248307423824 H
   0.6586178002497413    0.2521179833809805    0.2190439481686861 H
   0.9143783720273992    1.0716307462914554    0.1899513253161725 H
   0.7268707045954390    1.0364265922649911    0.1240788759300956 H
   0.2452887010751281    0.3949680524269938    1.0705296416831391 H
   0.1484184808543917    0.5882746250170329    0.1533956503341864 H
   0.6208611157190663    0.3407097181180679    0.0468042095300889 H
   0.6094346014525934    0.5514684005670024    0.1657921446066798 H
   0.3916397963113425    0.6256044635991538    0.1571155823531514 H
  -0.0029484586606857    0.5365319624883580    1.0625796396312748 H
   0.7229952437339408    0.3924625479114435    0.0146135171136129 H
   0.8131918466408756    0.3832357551954822    0.2173772162553908 H
   0.7293910299106341    0.5897053044070718    0.1050281020543535 H
   0.7699161032717795    0.4869126605691225    0.2695532329037145 H
   0.1668977952365866    0.7536495427744400    0.1371225287574562 H
   0.2846280308332584    0.8574573153694433    0.2170244761961690 H
   0.5814423347607579    0.8612867429956742    0.0687324147654194 H
   0.4017317288656352    0.7511280611286456    0.1629772508273119 H
   0.6523538421125942    0.9506925851420172    0.1908437155058373 H
   0.9597272176312944    0.8244558266170847    0.2214850218056117 H
   0.8809876053655663    0.9285388415922020    0.0980428651445441 H
   0.1612369858180084    0.1806508273327849    0.5078297050436198 H
   0.2478713966455925    0.0455424041232256    0.4107230368837219 H
   0.2789168999587243    0.2268588666982689    0.5033898881826772 H
   0.5356075681680836    0.1991073176974793    0.5500919693542080 H
   0.4322789788895144    0.2795688718399041    0.5229496758012485 H
   0.5327064299192961    0.2637449767995198    0.4422433826537882 H
  -0.1543706809020244    0.1186915162462080    0.6199941577156461 H
  -0.0180484392119327    0.1594150425388120    0.5897899118079752 H
  -0.0998456114916520    0.2405977462417995    0.3745144806054322 H
   0.6892883732783573    0.2786254949223099    0.5210561221925014 H
   0.1066126910015259    0.3803932784784202    0.3444985501078639 H
   0.2689100177525259    0.3478151836775299    0.3499449409425819 H
   0.1274308899563149    0.4366618262653297    0.6665291440941831 H
   0.0738300343285675    0.4413710854047750    0.4416215201987855 H
   0.3451363922320667    0.6372249209189569    0.3762929369597957 H
   0.5585123356627868    0.5008631644650681    0.5963647897644270 H
   0.4448756441951851    0.4541413151155980    0.5806422096944702 H
   0.5189059761617564    0.4728722635285582    0.4794032128208717 H
   0.6705411502996652    0.4036780576028782    0.4776986772916678 H
   0.7084452554337037    0.3859322590407687    0.5959614575054761 H
   0.3301306758166243    0.7997225027660420    0.5888272546742424 H
   0.2942748665658575    0.8073632021886812    0.3335860936940886 H
   0.1754935504173200    0.8735753348529572    0.4168770158452056 H
   0.4556812200452793    0.7804373803282338    0.5891778867251420 H
   0.3799304896374560    0.9703618849388764    0.5988669956426919 H
   0.4956502058804679    0.9729058798136512    0.6329591115656504 H
   0.8803709903418825    0.9507114672050329    0.3423125454779055 H
  -0.0907338841991464   -0.1588929659150143    0.6241349887295791 H
   0.7630008012188100    0.9855815539627570    0.3533556984076473 H
  -0.1892739262541348   -0.0728459522858946    0.6387729985178446 H
  -0.0774667386493321   -0.0257802315195803    0.5946875178095214 H
   0.2861213731952146    0.2708402750942811   -0.0903765400351727 H
   0.2070075393978714    0.0974412067883769   -0.1053778299242704 H
   0.0485147982182909    0.0087325485072305    0.6907023781924894 H
   0.3943202997821154    0.2466283866757502   -0.0419169420586106 H
   0.5202257662008971    1.0475415912825268    0.8367360600408903 H
   0.5945989857333397    0.2306606974631691    0.7845600433925666 H
   0.4089432896311334    1.0234887479332437    0.7037544630531380 H
   0.6121923589895519    0.0987752971637583    0.7017307750639769 H
   0.4759953539370292    0.2963710029911423    0.6814334656004668 H
   0.6927733112915224    0.2727720553874300    0.7163975942993105 H
   0.7832229389840379    0.2443698014457903   -0.0533662379250661 H
  -0.0923739384115653    0.0736875715145741    0.8258538184130643 H
  -0.2002340811118904    0.0406642957664281    0.7686080417502275 H
  -0.1246278654205374    0.1976381479482160    0.7127430105383288 H
   0.2102266950732417    0.6497233941689919    0.9659429167933044 H
   0.2111268112572399    0.5883806550631983    0.8573622188026391 H
   0.5559366567460402    0.3903020041625270    0.7086492583769216 H
  -0.0752072344016262    0.3817266426206087    0.7931227731967048 H
  -0.0264613361442633    0.5667606929101743    0.8694340797935378 H
  -0.0304105073074432    0.4517263718792041    0.9282236212175506 H
   0.0434053985565242   -0.0237286227496007    0.8141009693482346 H
   0.2552020278984227    0.8764635642611729    0.7208166824117530 H
   0.0587009949083882   -0.1186327763994890    0.7388963671204740 H
   0.0212703367120748    0.6938972543611261    0.9811887356477590 H
   0.3245924806498819    0.9445718917921453    0.8025835145460330 H
   0.3291143241568971    0.8122623713080731    0.8179782993219121 H
   0.5583655529370340    0.8479088013490214    0.7125539924587856 H
   0.4658061096094586    0.9161064555627220    0.8946268872502722 H
   0.5795164405034520    0.8590753629232537    0.8650543411697735 H
   0.4887611276848274    0.7729375701450198    0.7834069628404091 H
   0.3827945601095325    0.7249764038518436    0.6798939168559348 H
  -0.1039088918718585   -0.0971064983283508    0.8772962481653170 H
  -0.0750704450917744   -0.1927688394316403    0.7880684719098866 H
  -0.1943018193323111   -0.1280665455754305    0.7968947027542801 H
   0.2803840184633514    0.2036099634935407    0.0445388032533335 C
   0.1758401305858044    0.1688749561096985    0.0457951762132710 C
   0.3447331118315194    0.1314652318763571    0.1017136103026615 C
   0.4496286828984366    0.1703492094913121    0.1080769847574682 C
   0.7374169477591356    0.2531136490884645    0.0816812072182881 C
   0.8478498634893140    1.0968346692515056    0.3070996717970607 C
   0.2176196965813411    0.6160849989064484    0.2654889928588159 C
   0.6184641134086079    0.3877318648928074    0.2420570750204280 C
   0.6803226490834137    0.4270907990159276    0.1569427256707439 C
   0.6922325328282226    0.3530861841916935    0.0751414627338704 C
   0.8358598906667162    0.5063484763944602    0.1282161935968251 C
   0.7776875788288987    0.4507768946027894    0.1995933553811965 C
   0.2642464236653536    0.7041531195114454    0.2141350994560889 C
   0.2534840108669173    0.8022984519013049    0.2665486183753628 C
   0.1514349332001372    0.8291066239845003    0.2802324030631836 C
   0.3725644207395865    0.6876966753600338    0.2048486201280494 C
   0.4416805861184415    0.6767901052688644    0.2838827708075212 C
   0.8230810758655436    0.9926877457554120    0.3041547841711668 C
   0.7189985861264081    0.9606717554458364    0.1478558044638578 C
   0.7242943878010817    0.8926629218622932    0.0677824056816188 C
   0.8132655569425573    0.9368178999914116    0.2135820986062730 C
   0.8185252122192908    0.8273164591639695    0.2430534602873136 C
   0.2207800257659461    0.1821025674854183    0.3644775503147455 C
   0.2106455680376062    0.2274006366601820    0.4678844932136770 C
   0.0166223351887198    0.2909119080800143    0.4259070208273966 C
   0.5074950261089848    0.2662439452163339    0.5147245294764967 C
   0.1859604132561285    0.3357444617781207    0.4674704101122836 C
   0.0932037948715544    0.3678911740624206    0.4188128701542818 C
   0.2032235076605746    0.3773481827005354    0.5715390568235044 C
   0.5203149131407580    0.4486435845986071    0.5536533088804113 C
   0.6686891789699113    0.3564246781795151    0.5404866889009315 C
   0.3926930031219106    0.7889822400760498    0.6350544718377611 C
   0.4248618797827883    0.9640196904651660    0.6563362211876651 C
  -0.1140383883298928   -0.0818359929809663    0.6362897647144781 C
   0.3248809430805019    0.2169784641086857   -0.0516482111426012 C
   0.3392700444722605    0.1415831127200229   -0.1240273795493837 C
   0.6155532652450796    0.2409761137353073    0.7094580309031453 C
   0.5493998287420904    0.3159030447145410    0.6712201652801691 C
  -0.1197013240071735    0.0468743157990283    0.7575402953900618 C
  -0.1072123891424223    0.1265740513220872    0.6837522747547140 C
   0.1626105489397318    0.6195999675601480    0.9084111536681104 C
   0.0971309946948100    0.5399050251761623    0.9535843666706078 C
   0.1570376248808510    0.4469747733446119    0.9844399871497898 C
   0.0400402397835920    0.4582802633286486    0.7938233346290636 C
   0.0157498603678521    0.5046718944453010    0.8881138442046004 C
   0.0277639307890767   -0.0436971306219402    0.7432311349000349 C
   0.1067445190410721    0.7003708970427538    0.8698479520940989 C
   0.3218368493716258    0.8763589866813933    0.7679152096817161 C
   0.5218351243251830    0.9027996847689747    0.8397301345276318 C
   0.4926841458659684    0.8444315968213533    0.7580813508593862 C
  -0.1148924355753401   -0.1265211213409114    0.8063547414341677 C
   0.5637545556181608    0.3474774852428253    0.5681663840421239 N
   0.4066355901861740    0.8690973809854550    0.7014890567763826 N
  -0.0792527959593130   -0.0539943910642555    0.7376744249631297 N
   0.4573165256132630   -0.0913641724719866    1.0879200076705522 Cl
   0.8012925941895784    0.5853246657874197    0.4669500833914594 Cl
   0.2536697041269232    0.9414403742643038    0.4939169203850809 Cl
   0.6134312590601261    0.7807322310045566    0.4745855706016749 Cl
   0.8109606925092011    0.3397118737110052    0.8424923280989487 Cl
   0.6923834971960900    1.6433984964711226    0.6870203903233211 Cl
   0.1276279232627334    0.1741648386868777    0.1281044691557568 O
   0.2847357612741779    0.2944079946706981    0.0892637131526763 O
   0.2191513115999397    0.2364996123341907    0.2964542297707442 O
   0.5193441272050223    0.1084755939214990    0.1006202566529619 O
   0.4610276266770689    0.2591522780875372    0.1184982752322074 O
   0.6194606199871131    0.2943368238177926    0.2633584991146712 O
   0.7691442713628235    0.2080225563736809    0.0053811433325059 O
   0.7390499144425466    0.2098359606563850    0.1573053031021353 O
   0.9080073922022333    1.1284563149373292    0.2424372191878364 O
   0.2143615594964275    0.4621870347899248    1.0576005239746096 O
   0.1472532910854994    0.5704833642570469    0.2217400908125789 O
   0.0543350770395461    0.5794828459836265    1.0365113060514521 O
   0.6290479204760462    0.5079159054947247    0.1147256430051914 O
   0.5661879169524295    0.4436790544918529    0.2877664248061649 O
   0.7991642092285179    0.5849717164556640    0.0904821419628171 O
   0.9151324851138355    0.4737351374967179    0.1090712620160317 O
   0.2263720861531481    0.7192006712686055    0.1270743557557185 O
   0.0927076678410042    0.8218958546120658    0.2171959275396951 O
   0.6472883851306761    0.8438716710296172    0.0378655515751864 O
   0.5261194930852607    0.6920780402128787    0.2672533958243657 O
   0.8037519667553061    0.8791912961337546    0.0332033398362683 O
   0.8999921056472437    0.9489467205462540    0.1627397485563618 O
   0.8993960444576825    0.7854164350988462    0.2340592914465974 O
   0.7477030786082437    0.7868195176275544    0.2692215729277131 O
   0.2411885655440807    0.0911818028986586    0.3506019368696187 O
   0.0131912623960145    0.2265676471879107    0.4877473421620140 O
   0.6239973473050446    0.1493545341173863    0.6574654109788395 O
   0.8213552625521295    1.1488068214691411    0.3748637073174507 O
  -0.0092882533582170    0.1257410618498158    0.6502075383260457 O
  -0.0552466264567883    0.3017102694254397    0.3660929873588710 O
   0.2360564857894889    0.5959973887904711    0.3475439194637751 O
   0.2769501106590430    0.3681765837072354    0.6128508201816835 O
   0.1269687830650023    0.4271075750026839    0.5942504574174180 O
   0.2702580657698210    0.3772254492909330    0.4130144419297824 O
   0.4147720734871980    0.6567722135394067    0.3741786046127867 O
   0.1250175863291383    0.8643514470697675    0.3629864857616205 O
   0.2676215049788969    0.0821365684809255   -0.1450189264202866 O
   0.1366687752651604    0.1342655870682302   -0.0224515932128668 O
   0.4151505475362177    0.1360804438173201   -0.1691675670881690 O
   0.1163162269661879    0.4832333453438666    0.7562937598022937 O
   0.1453403670062778    0.3683443435747984    0.9465639962887643 O
  -0.0171986444838902    0.3978417571713511    0.7532786052323318 O
   0.1237290735555093    0.7404408134617360    0.7948815548067291 O
   0.0316734117898126    0.7372504710452684    0.9241537598171266 O
   0.5582426551840377    0.9938794944249825    0.8046458493544317 O
