Li1 Co1 H90 C51 N3 Cl6 O45
1.0
  14.8834580377000005    0.0000000000000000    0.0000000000000000
   0.0000000000000000   14.4977030897999999    0.0000000000000000
   0.0000000000000000    0.0000000000000000   14.5454073708999996
Li Co H C N Cl O
1 1 90 51 3 6 45
direct
   0.9879680166835962    0.6172635065754718    0.4607615666171139 Li
   0.2131978005959665    0.1054803672711369    0.2825580324083902 Co
   0.3440437367397785   -0.0618171684127353    1.0436573758443115 H
   0.1577409304311650    0.3218270520233399    0.2140800603171645 H
   0.0484511406605503    0.3267933559650075    0.1572635010468231 H
   0.4742216829598230    0.1099914266848183    0.9776764118515089 H
   0.5308174685538926    0.1483823356827814    0.2321813065240425 H
  -0.0130392735752954    0.1413536360764490    0.2115782397031332 H
  -0.0717023878722821    0.1909159698854188    0.3117782521768863 H
   0.1266950539399914    0.5499885048763264    0.0366969225191919 H
   0.1782522927252449    0.4934722419259239    0.1317358557542715 H
   0.0260752923088815    0.4441836756217385    0.2674322958518357 H
   0.2984387437145896    0.6256303491883090    0.1821868318794314 H
   0.4030750450402097    0.5560611909738877    0.0343415398800957 H
   0.5470713525227410    0.6179905182913771    0.2503815530520034 H
   0.5954832873147006    0.6170076039695886    1.0692998340092299 H
   0.0316102963241669    0.6475531322685897    0.1336512369663328 H
   0.0795023922466647    0.7186526708379245    0.2143901238227781 H
   0.2675527762979047   -0.1811443466067168    0.1966690663489474 H
   0.5701854029758413    0.0058921779519750    1.0487380173221053 H
   0.4321959656557106    0.0071337539373919    1.1014783758723061 H
   0.4386781285882510   -0.1139447361604637    1.0977039886310223 H
   0.5401513881072727   -0.0215521694412291   -0.7194118422310319 H
   0.5372009984942694    0.7708857725444134    0.3192534639208714 H
   0.6438248755516226    0.8202149659738992    0.3349230147411519 H
   0.3597121384922006    0.1907524957140056    0.6136687312833714 H
   0.4239169756731486    0.2664458654293830    0.6888842252260691 H
   0.3641707797455915    0.1195032782619844    0.3959017125103516 H
   0.4806233538456250    0.1452294224442588    0.3783738431630783 H
   0.4778504767430416    0.0433946703559287    0.5780574907871933 H
  -0.0148755403844451   -0.0115761063984043    0.4284175429673390 H
  -0.2449107910182474    0.1546778156932813    0.4823908955164484 H
  -0.0685478790289021    0.1571920070637506    0.6652410235452405 H
  -0.1280736960638866    0.1933529076390176    0.5166198852796409 H
  -0.1506920955747588    0.0750258878777331    0.4775858461824691 H
  -0.0503632609573195    0.0495646132390143    0.6072653355155541 H
  -0.0218376321065119    0.3492376009591632    0.3673201823132859 H
   0.2457708759371940    0.2828160447971047    0.5412214650687299 H
   0.2252675762855253    0.3922533805028042    0.5956561728641300 H
   0.2848753635183570    0.5936708037948054    0.5704674661708413 H
   0.3346480707832660    0.3966333846735806    0.4727493367464569 H
   0.4307104237914479    0.4998650476983919    0.5651180113212184 H
   0.4163837801136221    0.3424703220742048    0.5441333807628023 H
   0.5361106604855288    0.6273726941545108    0.5736265389165059 H
   0.7153593265712143    0.6041503948761603    0.3820272300119275 H
   0.7147116276308484    0.6280100364936914    0.5040226444236315 H
   0.9341639882130897    0.4689500125908421    0.6112397859056927 H
   0.2958405571975821   -0.0112677816953591    0.4184272418162885 H
   1.0971543358766007    0.8446822900598482    0.5755322950973508 H
   0.3514136637904783   -0.1245533131914147    0.3958480873364317 H
   0.6225401714729355    0.7609235047903153    0.6043303884967852 H
   0.5870396850495767    0.8320968481543388    0.4777346904152083 H
  -0.1924028323153405   -0.0377285250023385    0.5699992771523869 H
   0.8567431363464582    0.8343489290389978    0.4404381069530407 H
   0.1854125910732536    0.2192742551567770    0.7591868282350303 H
   1.1206260317093244    1.0102940414612989    0.8417056583642776 H
   0.3544848586622759    0.1802232415932340    0.7398453280056975 H
   0.3030116057354724    0.3251144693269493    0.8188338341852195 H
   0.1513741304737914    0.1776373147213851    1.0037719339858273 H
   0.1895117728524786    0.1769613455737693    0.6520781058545994 H
   0.6284621823239582    0.0574693136795019    0.8909431930539428 H
   0.4776267384161309    0.0583260011094396    0.8652312971638204 H
   0.3665889005820823    0.0599193569573912    0.9295436932450392 H
   0.4585366856017712   -0.1126107317405769    0.8382530221665131 H
  -0.2597796473982261    0.1458012371619869    0.7391880758740642 H
  -0.2751725755349324    0.3098886091591201    0.6991211334269279 H
  -0.1203449814258887    0.3234645527952175    0.7566155698957950 H
  -0.3140076364821879    0.1684868997088626    0.6262410845586639 H
  -0.1820624934229830    0.2978370449273401    0.6186620599779876 H
  -0.0964439498847689    0.0551303224758637    0.7254600313505751 H
   0.1307176406163101    0.2861420889091493    0.6857334025071613 H
   0.2178008975258912    0.3992544895316828    0.7544341253208235 H
   1.0318294632873641    0.5657890077960728    0.7018140796608275 H
   0.3387143301059786    0.4124331288524468    0.7369083184802395 H
   0.5472786968100821    0.5425510508650174    0.8041652866114435 H
   0.6610211480409661    0.5210286760400338    0.8419421591313088 H
   0.8406534615280510    0.5009145242882873    0.7799851456891863 H
   1.1933772698461389    0.6915918324713269    0.7865611045166689 H
   1.0447270035978056    0.7506818824394986    0.8188070215982596 H
   1.2433656527955474    0.7944419178099535    0.7642406571258640 H
   0.1451618644959657    0.7823096511391213   -0.0312929229889170 H
   0.3490990135315977   -0.0932931889363627    0.8984294048336038 H
   1.0005524577137364    0.8361450756312343    0.7428304626872375 H
   0.5911979928731506   -0.0376388556256140    0.7807393356352132 H
   0.4281438159572176   -0.1741308218179840    0.9351186488260173 H
   0.5905758256337532    0.7979769605462099    0.8465071739367961 H
   0.6926508942200837   -0.0272206535790936    0.9339333949819421 H
   0.5673182601457336   -0.1160154089983645    1.0149713453083251 H
   0.7383942959399983    0.6901302216307167    0.9103589435240876 H
   0.7485935385901598    0.7621409390204603    0.8089613021661239 H
  -0.3040233976296582    0.0029172239380289    0.5923410371123139 H
  -0.2327630764520471   -0.0267040200162729    0.6840710221156451 H
   0.1302573981120043    0.2108446439802327    0.1336725495354548 C
   0.0497317570301950    0.2558041797054875    0.2911236226887463 C
   0.0978314659947812    0.2805832773166633    0.1971083802737525 C
   0.0327881140030689    0.0828857536298584    0.3340505744116093 C
  -0.0029562673532286    0.1657492246610184    0.2822926565477099 C
   0.4018844615108233    0.1456563866303549    0.2580114527976806 C
   0.2706280024909080    0.5357476973000384    0.0317070313357242 C
   0.1830341115619511    0.5520015823837927    0.0849197039177578 C
   0.0592812850793878    0.5745236328063680    0.2662099168873543 C
   0.1751878167221232    0.6403347474422630    0.1405819469443623 C
   0.0803879391381609    0.6480387264317750    0.1908576100009380 C
   0.1847050942016712    0.7276782384874689    0.0804956270693678 C
   0.2915740755883248   -0.0728182214079654    0.2825325948258898 C
   0.5601968640473590   -0.0431562813519194    0.9859415636574675 C
   0.4133777582679816   -0.0532164956559780    1.0580577975484884 C
   0.6102789080261108    0.7551391402271453    0.3266413628816793 C
   0.6408484167281565    0.7095650243891092    0.2388500781525403 C
   0.1183515628181398    0.2536790154771155    0.3698770031056965 C
   0.4215129644608773    0.1073730808844613    0.3533886371297933 C
  -0.0933082538736817    0.0859614132515106    0.6575183109985482 C
  -0.1766605230074824    0.1357775803730545    0.5175328882407383 C
   0.2711896999122212    0.3346049382065888    0.5883555866864993 C
   0.3552958261114686    0.3848515183364105    0.5425048254809893 C
   0.5455139187636451    0.6242466817290055    0.4302412113819528 C
   0.7144294351464565    0.6604779382767795    0.4336004160266953 C
   1.0697971182885486    0.6874118599870900    0.6494264097544843 C
   1.2771682811044822    0.6875449845233041    0.6620269506211964 C
   0.4318653973168516   -0.0007999166094220    0.3658338024925836 C
   0.3416068030709948   -0.0528964449575149    0.3744887680628061 C
   0.4806943722875303   -0.0124686615790318    0.4551417171405336 C
   0.6180734675771336    0.7063941772752417    0.4251817449728351 C
   0.7989420529006016    0.7147582608303336    0.4184444981222551 C
   0.1911054885024248    0.2399913300023306    0.6902049170094035 C
   0.3611855863928465    0.2275748803837253    0.6795383199149558 C
   0.4432056382455708    0.0540315277287698    0.9318605757592697 C
  -0.2502657293530161    0.1676488359187062    0.6683368460857688 C
  -0.2161674708223375    0.2651318641781501    0.6810810749184970 C
   0.2830874725636745    0.3679364250639780    0.7556427542407099 C
   0.6010572607683067    0.5696716918082460    0.8492159327219796 C
   0.5627054880449155    0.5736563230041105    0.9498951342498629 C
   0.7964601028116889    0.6238183380140366    0.7892183006346219 C
   1.1081497644648677    0.8828793752511990    0.8325020660147210 C
   1.0662771029891946    0.8080647654277222    0.7711356169879467 C
   1.2082864394381734    0.7355663845814844    0.7301343590105912 C
   1.1220625258322521    0.7689820227001073    0.6909041067770512 C
   0.6066755787551743    0.6787635934842250    0.7095120421272491 C
   0.6255482089791788    0.6713900116597213    0.8147198208424432 C
   0.6268026217609872   -0.0191600663759925    0.9078364978431641 C
   0.4209982991202961   -0.1099937654690926    0.9003248484810027 C
   0.7291571952842393    0.6902716233401670    0.8355779509905868 C
  -0.2323263499881074    0.0048885706970964    0.6136811063235066 C
  -0.1895473131280423    0.0967376030404929    0.6129929165915349 N
   0.2778319734853106    0.2905841718791964    0.6811663251949849 N
   0.4604001638290586   -0.0409269626936597    0.9667492514119890 N
   0.6300169285355837    0.0853606284274561    0.2458399133223275 Cl
  -0.1113275877758347    1.4832917265100827    0.5319210724052256 Cl
   0.9808520628688491    0.8874035401891709    0.4832587020809626 Cl
   1.1969046759010367    1.1103954155210995    0.9168929647155559 Cl
   0.5365408024581660    2.0642044371535575    0.6893909143693889 Cl
   0.9665690918374173    0.4385689931099088   -0.2645466169891059 Cl
   0.1215201812857395    0.2324708283528860    0.0493263384795531 O
   0.1594723828889691    0.1331730298614244    0.1580005034371065 O
   0.1070900670303033    0.0418882248269562    0.3213737207973958 O
   0.3234409978317051    0.1649511672081698    0.2324996200564131 O
   0.4694510174451190    0.1753307424462550    0.2067010988853432 O
  -0.0105257448036054    0.3325970339323951    0.3031968493452462 O
   0.0407224260225523    0.4949359910362868    0.2263554126292085 O
   0.2386697036335341    0.6364355090836177    0.2072476631579881 O
   0.3490741537174966    0.5570932854999874    0.0784647454827098 O
   0.5895908394858523    0.6455859240961402    0.2018968333039058 O
   0.6233014192939259    0.6011719920400325    1.0119559605286765 O
   0.1277962765159871    0.7288266962739796    0.0105374626775074 O
   0.2592314574426839   -0.0144082791740275    0.2253220967779062 O
   0.2430960943172801    0.7888920731551400    0.0928514171422917 O
   0.2914229010431149   -0.1626421053662597    0.2629133436957413 O
   0.4761786206503936   -0.0456973735354060    0.2914714988169957 O
   0.7093432515587277    0.7336833276702687    0.1986449477572260 O
   0.1916604670550621    0.2083601124805262    0.3589161550569193 O
   0.1057886221677630    0.3066280926685281    0.4381338744798373 O
   0.4435716150223523    0.0421427479039667    0.5199073146915983 O
  -0.0284993903987617    0.0509358649384637    0.3859329301790920 O
   1.2346781555974848    0.6294757859209196    0.5957689232298077 O
   0.0606929193882145    0.5888176212206980    0.3486737468382224 O
   0.3730302799817595    0.4759499490201789    0.5899464668461224 O
   0.5252149399084135    0.5830760220525812    0.3596641574828786 O
   0.5090182738252098    0.6010726659611991    0.5105474530852213 O
   0.8681826821542085    0.6730523439513073    0.3920867626375130 O
   1.0540709342655130    0.6779924368443939    0.5655284501523745 O
   1.1440648050855355    0.8383316288944408    0.6272819629344935 O
   1.3585136241647628    0.6986605384149671    0.6644338959275232 O
   0.5547877044423750   -0.0453966362411606    0.4705968360153576 O
   0.6032240959163153    0.7700201181768032    0.4992365976512824 O
   0.7947494788467803    0.8054319345742020    0.4328663698959997 O
  -0.1555948540476328    0.2663272259463320    0.7599245181275435 O
   1.0648963754762775    0.6239190436217427    0.7137931185118528 O
   0.2693097604566776    0.5125365239220462   -0.0473364750221772 O
   0.4854059117578856    0.5489417873441763    0.9724754574835104 O
   0.5631931435334193    0.6172483317578722    0.6672485300560872 O
   0.7808582178591590    0.5310195000417962    0.7979681415125488 O
   0.8600185848260059    0.6553116026485726    0.7434787772898842 O
   1.0861730169125532    0.9640632698798643    0.8050081643451071 O
   1.1559753435874733    0.8647972005524746    0.8992812200962542 O
   0.6140011612726126   -0.0771340774861618    0.8286211159278272 O
   0.5709352287200824    0.7357981454320954    0.8623211002253224 O
   0.6436864668568970    0.7504818507529593    0.6710586674133175 O
