Li1 Co1 H90 C51 N3 Cl6 O45
1.0
  14.1607278186999999    0.0000000000000000    0.0000000000000000
   0.0000000000000000   13.8198818459999995    0.0000000000000000
   0.0000000000000000    0.0000000000000000   14.2833263234000007
Li Co H C N Cl O
1 1 90 51 3 6 45
direct
   0.9735324752090032    0.8242888434170771    0.2891170493622806 Li
   0.6964090073871169    0.7322699669772561    0.6306348365746671 Co
   0.2489468372836525    0.0083752107499747    0.9411703448710412 H
   0.1503784573338048    0.1114607519923076    1.0351232497907799 H
   0.0978303108312394    1.0577966285023765    0.3228486878539868 H
  -0.0029858349402186    0.2819889827153592    0.3260958306378086 H
   0.0267365073990072    0.2759151247088021    0.9396489905654689 H
   0.3480024803239529    0.2323923213518334    0.2655889164616522 H
   0.1547525262936082    0.2491884128515002    0.9439449086598048 H
   0.4882161067293702    0.1326997179451863    0.2145139789098267 H
   0.8096976759173815    1.2117161788794066    0.1076376137385645 H
  -0.2099992058298737    0.1607129820464313    0.3423035398757289 H
   0.3217905507711628    0.3109689699875312    0.1793337982836385 H
   0.5522806104480275    0.4214502329255297    0.1817940095260598 H
   0.3721417762963390    0.4781196030928788    0.2490395501132306 H
   0.5107623136819808    0.6548691605217650    1.0211146081431968 H
   0.8016966747364689    0.4686841968098835   -0.0029507719242507 H
   0.9200401681963867    0.4950888509209908    0.0154672067764823 H
   0.9636459777215561    0.4891367016250249    0.1886796605133145 H
   0.7224175575630224    0.3979689902046359    0.1511190819860926 H
   0.8740390015656873    0.4626570251648446    0.2543569389539219 H
   0.8434035705656565    0.6809055625698872    0.1331456775992292 H
   0.2028249141479278    0.7206273204052399    0.1415911893286906 H
   0.2353917430499705    0.8449713646705226    0.1162679563638709 H
   0.6102608929950706    1.0413550986447413    0.1375158080987151 H
   0.3313776286204187    0.8648333289809808    0.2822306982579962 H
   0.5654989282065834    0.8821004809479179    0.2614113181453381 H
   0.4234865948190037    0.7489213394393589    0.2350491115084202 H
   0.6584483879272798    0.8431464576068417    0.0490266164788784 H
   0.6801421881283066    1.0094626407415959    0.0467113294616083 H
   0.6879278048996712    0.7748108516643536    0.1475729892305822 H
   0.9139253695004007    0.8912090971721901    0.1226635254303245 H
   0.0818332517181580    0.1657332854595232    0.5618159229866161 H
   0.3181113613490486    0.2395399946171146    0.6137221094878231 H
   0.1404389964669606    0.3458013951387874    0.4919767988628632 H
   0.6353492927262516    0.0494949544881948    0.5152364718884470 H
   0.5133917406773100    0.2348959607016889    0.6195568848134744 H
   0.5924002291056054    0.1529697899415746    0.4572652065646637 H
   0.4387781817185165    0.2157843646009996    0.5146813560967557 H
   0.6382912319071590    0.1652260452328617    0.5763971903528036 H
   0.6634700224725110   -0.6945229839123473   -0.6490936794681508 H
   0.4493839218981754    0.0401272911866833    0.4423061560492416 H
  -0.0942622168146821    0.2220948382339737    0.5726995222603597 H
  -0.1219790125207401    0.3361529769044019    0.5411528089949905 H
   0.0726691747256865    0.4460785910976738    0.6654257521323332 H
   0.0440710683864618    0.4212414757138438    0.5183583777379933 H
   0.2613614534143182    0.5134178788260532    0.3690809159112682 H
   0.4648413901019597    0.4762252236552153    0.3324591943208953 H
   0.9821866914024793    0.6322054356440697    0.3917822105998024 H
   0.2487709988640543    0.7020005330803898    0.6279764922128364 H
   0.0586981414191398    0.8360573955517738    0.6494770861954079 H
   0.1736823442685015    0.8468686312529854    0.5544278680188374 H
   0.1264135874242329    0.7682507376915818    0.3713864012901223 H
   0.2546393413012462    0.8308496809850366    0.3904260839132430 H
   0.4908202101675637   -0.0517171988128733    0.5226981441619003 H
   0.3771224524948365    0.0088838981670119    0.5393532281818090 H
   0.7037511441283304    0.8950043539323036    0.3121354970652760 H
  -0.0734998659126512    0.6795784889954262    0.5491214010038096 H
  -0.0193402203196320    0.7378380319475273    0.6748192223200299 H
   0.0958770213990767   -0.0142914085084718    0.8609964432131388 H
   0.2688702482560343    0.0106726254713017    0.8210743699446857 H
   0.1239186591654365    0.0784720473796155    0.7783966360472713 H
   0.0968233004443037    0.2517651353153255    0.8272080952420257 H
  -0.0425530102417659    0.1480551314259044    0.8144624647160499 H
  -0.0623408349628913    0.0390353860482636    0.8784510608809830 H
   0.5042978366316476    0.2930433463996780    0.7653961629224790 H
   0.3281602798666466    0.1166532710601005    0.6507807041047385 H
   0.3143410749143714    0.1517034983628904    0.9363773436856071 H
   0.3231096920073451    0.2059362340947759    0.7919284979976179 H
   0.5467231277389767    0.0950727681785710    0.7223480671163449 H
   0.4622540937094948    0.0117312452310817    0.6913832911260754 H
   0.4363694072235392    0.3285588454082359    0.9322319507526600 H
   0.0413671113236450    0.0337538647723689    1.0253314130131750 H
   0.0334211920573054    0.1624206666896854    1.0514184736574146 H
  -0.0762426627870258    0.1582780842394186    0.9317600718746314 H
   0.1896716354192713    0.5954084495578834    0.8520923548292136 H
   0.3799916553013720    0.4023235860449338    0.7627301172733213 H
   0.5459753554397296    0.3581893447542576    0.9609682542373440 H
   0.4521842723114948    0.4414609684066035    0.9742809795573896 H
   0.6214220424800064    0.3206419904583026    0.8096365580302191 H
   0.5743927507284518    0.3869797500872209    0.7152579819564133 H
   0.4273091384546859    0.5212715639160900    0.7481396783740445 H
   0.3746875493993566    0.4930901362931956    0.8573915406271323 H
   0.5912809363543480    0.5364352246720359    0.7628449364661947 H
   0.6367680051157003    0.4925590897848549    0.8822330930755076 H
   0.4679381235863850    0.6284094552887685    0.8592993595331079 H
   0.1332960020322801    0.7380601756701879    0.8503854695107665 H
   0.1298978716101661    0.7501818422565405    0.0036842371663657 H
   0.2781501385047873    0.7335514540548844    0.7433270739117782 H
   0.5800821475611206    0.6667600002432033    0.8772279564300695 H
   0.5718298174905094   -0.0203102732807546    0.6526416151697232 H
   0.7824490764851932   -0.1239392345091400   -0.2244376950940453 H
   0.0883251496754510    0.2369408407024669    0.9033696262026270 C
   0.4256990517210159    0.2125990985842181    0.1259708782787019 C
   0.3805050469923273    0.2723781914307403    0.2068757021156276 C
   0.7421397076936955    1.0983483500181583    0.1544621408029855 C
   0.4540203361305921    0.3437282949256845    0.2463889070387267 C
   0.8697743902566378    0.3572732732464781    0.0723916221115831 C
   0.8580659525179325    0.4634421259436287    0.0477636053572711 C
   0.8996845760481250    0.5209375523773925    0.2108985745683744 C
   0.9306568541411210    0.6080518282746540    0.2745910212297377 C
   0.7323803223168013    0.5446026606355112    0.1573802285828409 C
   0.8389857185455516    0.5411115309328384    0.1267732123947562 C
   0.1843251588137383    0.8011533344769235    0.1573704269444249 C
   0.0860053536578607    0.8203097934792575    0.1117157954366589 C
   0.1829678839443902    0.8351572431381263    0.2623102684114932 C
   0.1760416862760416    0.9490106043704015    0.2626771297350642 C
   0.2772977811856910    0.8156585236119536    0.3154092442962270 C
   0.3047547032435076    0.7070866836555733    0.3059506632247668 C
   0.6829245309926311    1.0134170884430296    0.1233237357893465 C
   0.5390942119527881    0.8158017954591419    0.1460285310630292 C
   0.6437881245101796    0.8354372744758125    0.1244852299416450 C
   0.6928689351082189    0.9190161366449067    0.1750763866259369 C
   0.7977215965681232    0.8997164057953844    0.1858546882984113 C
   0.0432702620899786    0.1802044656207258    0.4279607581103652 C
   0.0719580530849823    0.3122034233779513    0.6188518669645505 C
   0.0010676290296347    0.2791083502726497    0.4595575297433591 C
   0.5320406197025298    0.2870309939840857    0.3032979197991737 C
   0.5995022651935522    0.1172741157312496    0.5314222324574858 C
   0.4551810109356184    0.1888015000472096    0.5871687709017928 C
  -0.0971441308322730    0.2705265113451101    0.5084867416213414 C
  -0.1755998440006935    0.2393315992030226    0.4376111712479675 C
   0.0680783089995513    0.3458701366816302    0.5197643247523873 C
   0.4072628524421029    0.4272323373523580    0.2994521769549450 C
   0.3393991089746981    0.3914609750853871    0.3772246772009222 C
   0.2514707188565193    0.8517709886504626    0.6651064987667828 C
   0.2282197953012196    0.7511442238563405    0.6853370804574501 C
   0.0524131537306913    0.7583186701435711    0.6480866537743922 C
   0.0560499724492879    0.7363814348344466    0.5424573370564599 C
   0.4522542545901381    0.0167891755939402    0.5169156745795391 C
   0.1274933341855406    0.0552395766842940    0.8525698346434797 C
   0.2322499553841383    0.0537627189059544    0.8771838490571974 C
   0.0746994376025730    0.1054541883382177    1.0193559141645507 C
  -0.0370970759854790    0.1158037703096004    0.8847549146165439 C
   0.5245739837108138    0.0423422160565988    0.6673048662400903 C
   0.3626147236103998    0.1888825427082454    0.6505055581120603 C
   0.1331229883262497    0.6010336785479925    0.7187823710840026 C
   0.5580017853083348    0.3546451755243176    0.7786906851997519 C
   0.4109773507838152    0.4648353361182564    0.7982848605104075 C
   0.4846893106042410    0.3873806218212729    0.9310914601112530 C
   0.5743241101887531    0.5141743975949186    0.8416599109694187 C
   0.5314905773530316    0.6050510790307664    0.8914956413786473 C
   0.1295638492307688    0.7199355634056844    0.7138017385346044 C
   0.5055578707364228    0.0953679950152014    0.5755894653356205 N
   0.0672160651829675    0.1279551042986536    0.9124053365881388 N
   0.5055256690017493    0.4300176723088318    0.8363607251715001 N
   0.5737379115055867    0.6265100179207422    0.6172836048179873 Cl
   0.8315489538998154    0.6384283542593177    0.6281466206510572 Cl
   0.6656817731961313    0.8456001688887378    0.5091759578289045 Cl
   0.2224439622333746    0.6814460881751884   -0.0593276957421138 Cl
   0.6751149041559398    0.8033451043008288    0.7874708528694175 Cl
   0.8674807228395500   -1.0765740071291781    0.7489427126071285 Cl
   0.0439015855723913    0.1614973592300277    0.3408479965709498 O
  -0.0155706400633468    0.3311167543971780    0.3714858179083420 O
   0.4013358971983784    0.2310131489238494    0.0470417846996342 O
   0.4869731621416805    0.1389638814861399    0.1433610851798121 O
   0.5190930931101549    0.2001887175179254    0.3240381866874740 O
   0.7387648811585162    1.1299340035616685    0.2362463116292342 O
   0.7949731502666129    1.1408979178475098    0.0890117002800059 O
   0.9339073932793152    0.3041273774866975    0.0417762045191418 O
   0.7973974606862133    0.3242035259727503    0.1161118302662443 O
  -0.1583726221288169    0.1632383292519214    0.3891728744300517 O
   0.4979509877160633    0.3852351620893880    0.1627991343928410 O
   0.5202665921147792    0.5916110220122066    0.9934284802030865 O
   0.6937622507740488    0.6215939122146965    0.1824563202361709 O
   0.8558181866963223    0.6266634201005601    0.0853024802565717 O
   0.6867901515102228    0.4615131658919394    0.1693242251097920 O
   0.0706883443362373    0.7923413922796574    0.0261313893731130 O
   0.2318375472032333    0.9907786893969079    0.2092462983782452 O
   0.1067161535372785    0.9849472357782705    0.3226239502874481 O
   0.1013936869970722    0.7871503204022401    0.3089625666866041 O
   0.0193018612884470    0.8662450631924166    0.1497972610339893 O
   0.3888972710023860    0.6891031724526946    0.2664185551418654 O
   0.5153964723806135    0.8421565793899046    0.2314197048263736 O
   0.4844814116856478    0.7746907348631756    0.0875267520599788 O
   0.6579547692312995    0.9271167847725462    0.2708278921950153 O
   0.9154987349576887    0.6913412523686203    0.2563487719034633 O
   0.8396862475103763    0.8925238696284582    0.2604724612084892 O
   0.8453801638847540    0.8974247798355599    0.1030042392359055 O
   0.0756443042910162    0.2249646167488659    0.6431081215760834 O
   0.0828783957382596    0.1299587393737259    0.4978524610230498 O
   0.3480660363792294    0.3140449731309519    0.4189719555658444 O
  -0.2523628475635846    0.2842039075852748    0.4333320559623447 O
   0.0733061476352349    0.3776135339760849    0.6846600672897148 O
   0.1065855105347658    0.5543205440079274    0.6458966877054414 O
   0.2634418549570339    0.4464399545344709    0.3927245681217998 O
   0.2559189365474786    0.6417937954778662    0.3412120574264019 O
   0.6054835961734577    0.3370538529132371    0.3218776255337710 O
   0.9688399197944257    0.5765255095365451    0.3513497520166864 O
   0.2214786163715646    0.8915976677880493    0.5826642879443044 O
   0.1282990837307675    0.7524452480040400    0.4942542095488255 O
  -0.0202109382769193    0.7016329467249773    0.5024617514998866 O
   0.2682375124168377    0.1489075265571558    0.8837803517111794 O
   0.3762058329420718    0.2201888885092571    0.7458930028256866 O
   0.1685886795272904    0.5550542695283764    0.7903504342126385 O
   0.1019550988186808    0.7660560734869253    0.7946057455192511 O
   0.3089677635299439    0.8953314189571979    0.7126843517551781 O
