Li1 Co1 H110 Cl3 O55
1.0
  12.8468776460999994    0.0000000000000000    0.0000000000000000
   0.0000000000000000   12.8658313171999996    0.0000000000000000
   0.0000000000000000    0.0000000000000000   12.8648544122999997
Li Co H Cl O
1 1 110 3 55
direct
   0.5497315781818747    0.6006018941247619    0.6330538570582998 Li
   0.7389238525192775    0.5559806033705054    0.4493782456389594 Co
   0.3093260816029000    0.1043643916584646    1.0918853222909239 H
   0.1071423236849971    1.0557508740567028    1.2253497164436000 H
   0.0306293275253115    1.1494564396184295    1.2333016136607338 H
   0.3596908486555716    0.2122818643633818    1.1025733561849211 H
   0.6406813040364447    0.0826669208058191    0.0864912007971235 H
   0.5222034884979693    0.1102882218503085    0.0777134100518172 H
   0.6584599430405562    0.2500610010562591    0.1119690639345891 H
   0.3813474727524361    0.2980423545172454    0.3216682889348114 H
   0.7241739650197633    1.0410452561035852    0.3199496530846567 H
   0.9639326118171085    0.2535096705519241    0.1172998665851369 H
   0.9222181956949400    0.2567966715204091    0.2375826113724019 H
   0.7328967070810624    0.2871592645288969    0.2608949622462103 H
   0.0781894520031440    0.3920844704264191    0.2017998512068556 H
   1.2779388716357833    0.3735400022053074    0.2140215208006968 H
   0.1488551830086539    0.6390852216139142    0.1166780173403953 H
   0.1111923350132980    0.4794538733267390    0.2708694241318663 H
   0.1394451144044200    0.5203466836729033    0.0951199031860031 H
   1.3917719788144718    0.3818294004859628    0.1756915106663776 H
   0.6052368939203234    0.3513906367290920    0.1513297891920676 H
   0.5576338874274850    0.4973905300658562    0.1963392375264680 H
   0.5180966540239899    0.4762865692485702    0.0774252606580351 H
   0.8326711452994510    0.4511766488683682    0.0265852372082036 H
   0.7408535042745837    0.3741695767582685    0.0693735566371202 H
  -0.0177540164375459    0.5725088785170724    1.0445625947660846 H
   0.0987827048765622    0.7579830963245019    1.2064688187501318 H
   0.1319989471227506    0.8403353341144955    1.1339845161599336 H
   1.2507416016356234    0.8771693317253965    0.2298056092553517 H
   1.3198478875719197    0.9256465723034064    0.3144563923189202 H
   0.5239393188385634    0.7963039780339396    0.0228628087636023 H
   0.4158258893920206    0.8729566229882982    0.1805753591722673 H
   0.4962695604900894    0.7866893641819277    0.1964884813452061 H
   0.6832504025415604    0.9087180121015617    0.1676447814394207 H
   0.9123403091379273    0.6735656985502889    0.1698298042231316 H
   0.7845995424545775    0.9536043459700895    0.1216147230320880 H
   0.9424643603401649    0.9415569316850301    1.0506800367112306 H
   0.9134222841035891    0.7946608661759643    0.1557697927995230 H
   0.2411032788220181    0.1946685446786249    0.4346497462772535 H
   0.1473201796760747    0.1347213884487038    0.3729273221788654 H
   0.0785889265012574    1.2203107806652693    0.5506533909491400 H
   0.0743906301147130    1.3249678344383822    0.6111492174122752 H
   0.2628361860459582    1.0204169738374254    0.4547572416059747 H
   0.4272527904682182    0.2142700763466839    0.4030427037901474 H
   0.5577272953381895    0.0765146560940798    0.4408752345286733 H
   0.4977835470427600    0.0951314088009020    0.5549488146071929 H
   0.3752790721536597    1.0059600766953543    0.4701208045088730 H
   0.7641439884095232    0.2127521021467664    0.3459087498063968 H
   0.7234523889095701    1.0788508193826361    0.4377737614205244 H
   0.7992949420061809    0.1256803869671676    0.5901812381911428 H
   0.8498037129211887    0.0240306787006194    0.5220172332287871 H
   0.9024079346330033    0.2762318711460807    0.6218807807534042 H
  -0.0318536291987049    0.0194548375793935    0.3653547530010240 H
   0.1377411984333167    0.4787294739645664    0.6480567473992479 H
   0.2048446630842549    0.4342737380001627    0.5611315507230368 H
   0.0723816594752335    0.4896405450441577    0.4568777475305437 H
   0.1398117404539356    0.6487456933654629    0.4219461435187376 H
   0.0017097791156023    0.5853335453366518    0.4045981042135575 H
   0.3619513200946232    0.3671937352609519    0.4825989869161700 H
   0.3639541413799813    0.3868457883437546    0.6030706184115253 H
   0.4170012722683870    0.5290348125037674    0.4952233038959815 H
   0.5304280550355105    0.5737361602690795    0.4341242836654468 H
   0.7955710799660902    0.3731327218772189    0.5386439274100669 H
   0.7719746849235933    0.3677852244397216    0.4170972740328646 H
   0.2375934765772923    0.7357793231708701    0.4445744602233302 H
   1.0735701470066483    0.7872878486335081    0.5002439592357143 H
   0.3362983942181129   -0.1499069351874372    0.4828827056340835 H
   0.3994717210261546   -0.2518288372915743    0.4578159625785476 H
   0.4374614967089767    0.7399741550996745    0.6144209217511722 H
   0.8866219977239237    0.7250120438101652    0.3345786565672040 H
   0.9931926398453286    0.7992855187563581    0.5933083625806373 H
  -0.0325643077193158   -0.0771226760973844    0.4458111629088101 H
   0.8936431590118871    0.7167646171663739    0.4600958173720817 H
   0.2232880550528808    0.2693438591851648   -0.1291934009148927 H
   0.0948911756367568    0.1180508760883197    0.8268454010664747 H
   0.0645483942436191    0.2155548747862454    0.7603751579844842 H
   0.3111599902497339    0.2415446450355238   -0.0471777040259169 H
   0.6646474387254809    0.2407456294300373   -0.1741414416363749 H
   0.5457967699434428    0.1489552141133679    0.7173097658514573 H
   0.4605324722537602    0.0654898729686883    0.7106108948624779 H
   0.4417567038028771    0.2590864574871049    0.7108021135052360 H
   0.3720689536224446    0.3163816280692439    0.7848565854384069 H
   0.5937492777021678    0.1695656195712338   -0.1009474535956152 H
   0.6546777010562752    0.0389703351644064    0.7759773555350521 H
   0.9829800416082909    0.2333772754027881    0.9296914930311839 H
   0.8792505567708180    0.2954346722639309    0.9899409117310902 H
   0.7963245704457741    0.3177177251760837    0.6807069419944080 H
   0.1626997921735893    0.5394406694359206    0.8308407824639399 H
   0.2630261154643909    0.4335594429209388    0.9260148093716489 H
   0.0874215785374857    0.6160078166114821    0.7671657517370629 H
   0.2217896364853276    0.5326878994160112    0.9791596004503820 H
   0.5413668997782766    0.5252130617915327    0.8146571558695385 H
   0.5034775375994620    0.4370430887806573    0.7337312497819724 H
   0.4241391934447311    0.5274880799600726   -0.0749354996880721 H
   0.5034541856217858    0.6181250525155145   -0.0480521795263348 H
   0.6647213866547887    0.3993805399679580   -0.2003632696640183 H
   0.7545813535511383    0.3738275856430798   -0.1145908260252470 H
  -0.1117108542973998    0.6036362880195278    0.9714719891622633 H
   0.8205748208632035   -0.4074526715107647    0.7910540904738134 H
   0.0890667253647707   -0.0358690651246960    0.8849338936409039 H
   1.0169960890898877    0.8412835822066098    0.7604241286125075 H
   0.1634338226718764   -0.0532361512065169    0.7896759170851546 H
   0.3911521897793970    0.6746134349668218    0.7038863725921530 H
   0.5316049947103886    0.8229948300693550   -0.0991308764894137 H
   0.5447614989331334    0.9330693340080721    0.7662671795784113 H
   0.4678758908336546    0.8460870028699431    0.7589355769829073 H
   0.9525991186516155    0.7304364892485798    0.7668144069137839 H
   0.7091415185903676   -0.0118609002121761    0.6749610549729952 H
   0.6891779128750241   -0.2016237643293264    0.9189024086349163 H
   0.7941481661263566   -0.2967291617057235    0.8538103389415844 H
   0.7347049285524525   -0.1131747576585583    0.8461305007690252 H
   0.8473751072428688    0.8796176772091343    0.9842665373728227 H
   0.6535124373702351    0.5599181647103836    0.3023964035287119 Cl
   0.1121793452697434    0.9989026236819130    0.0591777941514918 Cl
   0.7233146122412809    0.6311362599433787    0.6092455814118098 Cl
   0.0703770478715870    1.0963312288839901    1.2756573203431991 O
   0.3438410830075104    0.1584034959229925    1.0534006271569754 O
   0.5906512486637981    0.1300392191807556    0.0484655081369498 O
   1.3418376665502973    0.3286839811856258    0.1985833359884294 O
   0.9806993317885867    0.2586216604714620    0.1904884134450051 O
   0.7923321606624077    0.2753465805092625    0.3152935568646537 O
   0.6724602320566659    0.3135547606011948    0.1539205686079725 O
   0.1336234663697549    0.5892190307567171    0.0626575847939104 O
   0.1339955412140617    0.4415324994200446    0.2059040562221505 O
   0.5111338726802167    0.4515279670139713    0.1496570147237126 O
   0.7910236715132873    0.3862045550027756    0.0098043632798057 O
  -0.0939664648605468    0.5709559279531016    1.0424327611028446 O
   0.1566127099926720    0.7711466452491320    1.1610971432306694 O
   1.3147493724459596    0.9110653147558120    0.2411022780976396 O
   0.4850473784181860    0.8443537297179636    0.1527382777314075 O
   0.7210891687687434    0.9744813490472958    0.1622587896684021 O
   0.8863651259694860    0.8931418713097817    1.0515428525383097 O
   0.9271532469771671    0.7372390034306987    0.2054594340121602 O
   0.1803344273153644    0.1494930728672557    0.4439805941946020 O
   0.0509798054548158    1.2504137713272274    0.6131515719803433 O
   0.3819592945675513    0.2736972506310111    0.3954530337580756 O
   0.4902322958615478    0.0850443031331553    0.4771166085122165 O
   0.6875736320086724    1.0787342315024582    0.3724430570795229 O
   0.7875387780447495    0.0507672331850647    0.5625151652925869 O
   0.8248248808002634    0.2747069016733525    0.6213902971616142 O
   0.0646483407080730    0.5409469848478203    0.3969073836792152 O
   0.1312485702400902    0.4462162231930619    0.5822254544162293 O
   0.3370355383134235    0.4156670895762893    0.5349625798811964 O
   0.4806206218500432    0.5800661049102100    0.4957503211309000 O
   0.7592533058848808    0.4111986647553341    0.4788500132819338 O
   0.1614022006140511    0.7242309050129726    0.4293997840285221 O
   0.3156318939747172    0.9691338516097983    0.4460738942147134 O
   1.0002138011332922    0.8063149906785567    0.5173339311043266 O
   0.3455862541391749   -0.2227494882175790    0.4996866268501146 O
  -0.0704673697250338   -0.0182877682443614    0.4159398571260892 O
   0.8841778240604864    0.6748815870912311    0.3957903869733480 O
   0.2910547158698218    0.2917994621599810   -0.1041048931357910 O
   0.0841108908224118    0.1939798989330403    0.8324731367313867 O
   0.4078239450416587    0.3286389005386237    0.7158787352769956 O
   0.4814332706731733    0.1352351523740215    0.6837703268363166 O
   0.6204071170180085    0.1784169714343471   -0.1721344231989712 O
   0.9441846226956415    0.2523422372450752    0.9937186458928958 O
   0.2714398330211089    0.5070603288478190    0.9248177495755213 O
   0.1035181745895837    0.5439565066614817    0.7794091860544701 O
   0.5594125297271519    0.4894415683953205    0.7436202073964765 O
   0.4984763223804858    0.5399715329169977   -0.0606415174861295 O
   0.7301863208721169    0.3549108134579329   -0.1896161600917707 O
   0.8455847889543636   -0.3595560385760411    0.8491153771437849 O
   1.0027669506925516    0.7749209835567610    0.7279216232129736 O
   0.0856086088306347   -0.0425623753257146    0.8069221285765084 O
   0.4748542401625450    0.9125809571981259    0.7905908127864808 O
   0.5589112406063705    0.7709391188224152   -0.0447532692829804 O
   0.6611749996450369   -0.0241086124753814    0.7371358743969330 O
   0.4501058142213577    0.7206609841219224    0.6856428703745449 O
   0.7600433811295907   -0.1718161296304859    0.8910202431238127 O
