Li1 Co1 H90 C51 N3 Cl6 O45
1.0
  13.0316223152999999    0.0000000000000000    0.0000000000000000
   0.0000000000000000   13.2756429581000006    0.0000000000000000
   0.0000000000000000    0.0000000000000000   13.2433056836999992
Li Co H C N Cl O
1 1 90 51 3 6 45
direct
   0.3240555209033299    0.3456049543951165    0.7664315907464733 Li
   0.5542903241693368    0.0906237071076055    0.7630547903411906 Co
   0.2611738642551081    1.1878451408244941    0.2098968269924721 H
   0.0370789718968982    1.1611805189212652    0.1072676170005245 H
   0.1880747537259775    1.0605450917546395    0.3218364012503263 H
   0.1763755196389827    0.2928707853451080    0.3181681328315287 H
   0.0524983874645273    1.0214132770742039    0.3135106854031335 H
   0.4200888442855377    0.2134516563938654    0.3229358246380928 H
   0.5714560303713470    0.1444365433110766    0.9859100253171936 H
   0.7028011506170757    0.2216064403347777    1.1732001218565213 H
   0.9601704879759592    0.2826106419810615    0.2859186318232066 H
   0.7085487082263889    0.1725534489237161    1.0108154385031143 H
  -0.0181697133841888    0.9850188062734352    0.1545231901139855 H
   0.3000477655809031    0.4629723018688088    0.0461816601162322 H
   0.2664625380926766    0.4544029993981824    0.1657869941492273 H
   1.0120949516864794    0.6253315191815109    0.2995662817617304 H
   0.0981534859323119    0.5298461250653209    0.0995006740289821 H
   0.2961457187927378    0.6335736811879270    0.0291579648709064 H
   0.9768414744996350    0.4044111457384645    0.1693200999399959 H
   0.3127652919172382    0.5518940967472808    0.2909725059539215 H
   0.4231045854610519    0.4666808981421035    0.1479357109691542 H
   0.5281249710191254    0.5603969617577569    0.1784439548811923 H
   0.4756078719625875    0.5511307438888178    0.0612896705162535 H
   0.4522795408734431    0.3465510479319524    0.3058690887793722 H
   0.8635900339428247    0.4747473247805709    0.1362566027695776 H
   0.8401163640804891    0.6511434516868908    0.1604794069290279 H
   0.8300531503971065    0.4566733225829145    0.9597919239714153 H
   0.3187499650540919    0.6838838621793862    0.2991638142715660 H
   0.2187823655887134    0.6509912933314441    0.1481803628768715 H
   0.0830816863322420    0.9066587597368354    0.1166557564099339 H
   0.3928274648958894    0.7374172392250817    0.0499292138754938 H
   0.3719751110273339    0.7840462425775939    0.1770341860178956 H
   0.4934483982128794    0.7395271182033281    0.1331546582112366 H
   0.3683355027842133   -0.0019013784100452    1.0297374513286908 H
   0.6256142911714148   -0.1005045122945185    1.0005596909394854 H
   0.6220230268708025    0.9400627915716497    0.2832395424140066 H
   0.7959691362004616    0.9824976477799719    0.2804222699828551 H
   0.8341125068394653    0.8572675549515386    0.2888287813674730 H
   0.6711297293608421    0.8160522253643449    0.3181477451725523 H
   0.8959037390066680    0.9537088349739744    0.3741096037674331 H
   0.1463316777805266    0.1076865341748091    0.5550989320550166 H
   0.2835808979255954    0.2778914731846625    0.4623384816553860 H
   0.5947731579436560    0.2344321844842248    0.3414183701479548 H
   0.5109349547203110    0.1275989407403013    0.4437099756092222 H
   0.3916963701140299    0.1791211157610350    0.5144300829879063 H
   0.5100705189864136    0.1774473738511231    0.5733168155474252 H
   0.8722597142993030    1.0663527200739111    0.4971796467708232 H
   0.7882717062433158    1.2076400389570672    0.5696178146204669 H
   0.7665698802421155    1.0412134480210744    0.5931780198631829 H
   0.7226559310687943    1.0718153556862791    0.3635578575994054 H
   0.2993279779924470    0.3906845036033041    0.3870270734752081 H
   0.1031804885890024    0.3692919427385424    0.6611300872316511 H
   0.2443563111755739    0.6151293767747386    0.6129887836004357 H
   1.1091258484855240    0.5354553449151637    0.4511835628210480 H
   0.4320965587675851    0.6120146500431967    0.3218749112728374 H
   0.3833604931701086    0.3586468839307674    0.5501102229231783 H
   0.5164076424850775    0.3692444874098635    0.5758803748890922 H
   0.6525572144318421    0.2573719397157549    0.4571027798105405 H
   0.4717807199171016    0.4355998423090793    0.4701879568908588 H
   0.6139242654544215    0.3596713164228827    0.3851544292432982 H
   0.6085665288418413    0.6502274885174699    0.5743975124928726 H
   0.8809554850374525    0.4087009567991975    0.4085186864302963 H
   0.9431280971955533    0.5193706249001746    0.4355856445268077 H
   0.0991326426091455    0.7790031723314820    0.3645175877682592 H
   0.0888000841032170    0.8780793529843733    0.5942011783044078 H
   0.3405730345936463    0.8291423634878600    0.4678396006161654 H
   0.4363955630392348    0.8266905048394515    0.6371398534042283 H
   0.5808524045937825    0.8638465206766383    0.3919729685231959 H
   0.6408334246915097    1.0276781337190004    0.4667833688614897 H
   0.6993088762939802    0.8691524783784474    0.5501557553615590 H
   0.7760990084654069    0.7839294874038603    0.4798499705191851 H
   0.8366678295149010    0.8962125613540003    0.5260447812870869 H
   0.1005131307452142    0.1109104834882310    0.7152170362991801 H
   0.2111325122099090    0.1328099877847528    0.7889871374607392 H
   0.0018270294383875    0.1653364726686005    0.8949229236992728 H
   0.7351685711725947    0.0291253674357131    0.8130770442876025 H
  -0.1098244568306500    0.2242955756265805    0.7505631961764790 H
   0.1215281658171308    0.4134163592996697    0.9644478612028493 H
   0.1629558550900279    0.6681949798663137    0.6997035380150720 H
   0.6001615891229082    0.4260727707842437    0.8497181980591453 H
   0.3210298039936474    0.6899973137279215    0.8369336256839575 H
   0.7099115469866214    0.4194371599684035    0.7304836173801292 H
   0.8485535330944276    0.5731894118512102    0.6977991796469765 H
   0.0102879867414968    0.3916049863278372    0.7551058686358216 H
   0.9202207420883141    0.4701492800611808    0.8548898675528351 H
   0.9790837125950174    0.7179921913525297    0.9049732844761762 H
   0.0689637203915015    0.9018213292483319   -0.0687269613673759 H
   0.2270729680467937    0.8079147663846963    0.7989491517154114 H
   0.6266318160565882   -0.0953318814685214    0.8608528802542030 H
   0.4520154141272315    0.7056944818920333    0.6823868645592699 H
   0.8390965371028151   -0.1012848888105711    0.8700318573844839 H
   0.7738383536300214    0.6682394221582511    0.7639337249726192 H
   0.1218895943396924    1.0569784095118704    0.1709699901201262 C
   0.2280605657294620    1.0747289622153249    0.1218538543504450 C
   0.0276503683794572    1.0250786362702577    0.0085248988882705 C
   0.1325229595990055    1.0177494243965208    0.2812966740234001 C
   0.0529334829471015    0.9855227366684538    0.1104261939449111 C
   0.6185023600735354    0.1020559217641016    1.1285458630087577 C
   0.6453539669981138    0.1178690918427616    1.0189244410863725 C
   0.8421621569491712    0.3359044826058066    0.2078663671781149 C
   0.2471894196793903    0.5008705190465331    0.0959924864880736 C
   0.2772900464861894    0.6098693678832374    0.1032769215305069 C
   0.3603472418078513    0.6156129691717518    0.2760457191892464 C
   0.4562012321842784    0.5406021389511023    0.1387106728315563 C
   0.9057743442841842    0.4355601455500098    0.1921376658270332 C
   0.9245670927290551    0.5091541705688801    0.2771549588572607 C
   0.8238658931202181    0.5828009990566454    0.2916853189196162 C
   0.1668179989415197    0.9053277507562708    0.3020475353690111 C
   0.4104223578763895    0.7285641840193231    0.1306832208842039 C
   0.8248619318087214    0.9278291091419103    0.3344276684144784 C
   0.3094756017341773    0.3067623912418663    0.3848455939647292 C
   0.2212970179633088    0.1980060767976703    0.6417021584240667 C
   0.4726564359042509    0.1777290927864548    0.4978164741764143 C
  -0.0515761450215515    0.2912249140250550    0.6329709546927870 C
   0.7907380146754029    1.0758799422505838    0.5137714105832711 C
   1.0447647137237166    0.4069157325298495    0.3844997588606104 C
   0.4581955349173685    0.3708805663605066    0.5157272666677442 C
   0.4191841219328834    0.2889184343994247    0.3558498123093506 C
   0.5917627883173094    0.2844523606893130    0.4077454655861528 C
   0.9409702691585188    0.4612962248554222    0.3798498624170213 C
   0.2297879024689232    0.8285156518456248    0.6084325193684422 C
   0.4050224162346354    0.7498490288205756    0.6294710732351650 C
   0.4319722457725639    0.7265047734064971    0.5216021593764250 C
   0.6457975034865229    0.8862981639560428    0.3466262843687139 C
   0.7200683790983533    1.0272487759833344    0.4375387067469025 C
   0.7639362864216663    0.8657002915318558    0.5001925501163308 C
   0.1588443178843268    0.1691118077057197    0.7328523613137992 C
   0.0865095020653265    0.2480480975191345    0.7814723973817203 C
   0.1407414298254068    0.3062268239610619    0.8727690893766907 C
   0.6849138918890257    0.0293475788953999    0.9511770054061492 C
   0.2443678216380759    0.6539448225973150    0.6856677674575152 C
   0.2860755988318541    0.5792998503630041    0.7553059697331829 C
   0.0413854196009658    0.3297254975081431    0.7007508596076764 C
   0.6685636635870712    0.5453588200549332    0.8929551370588062 C
   0.6768550334093183    0.5744044189172264    0.6753787955607394 C
   0.7787118834533524    0.5926807465320755    0.7411123835931790 C
   0.8597347963688341    0.5083448689001089    0.9002780821237506 C
   0.7672988762005730    0.5150826216614866    0.8281223815137332 C
   0.9074188056936313    0.6026546514056781    0.9450841157661166 C
   0.2934100655381047    0.7588813597124545    0.6739071086220328 C
   0.4975015390054872   -0.0116621109341854    0.9407120955633915 C
   0.6063104781914567   -0.0547892123338710    0.9353576922373945 C
   0.7845668720460174   -0.0151421683706361    1.0021846628697557 C
   0.3793671300460943    0.6238837550272125    0.1667127448864537 N
   0.4846877084662189    0.2821534136555365    0.4467418470285627 N
   0.7409759831869180    0.9220169612675265    0.4092888868805173 N
   0.5789208722495365   -0.0270225722424327    0.6521738641531498 Cl
   1.0408235313630445    0.0047175100518795    0.5631334064182386 Cl
   1.0863857787666464    0.6643804753515549    0.4524543180540646 Cl
   0.5281448457510455    0.2542670053536230   -0.1918933398349222 Cl
   0.1441147627026486    0.7762228926782483   -0.0638724332355418 Cl
  -0.1825682777505534   -0.0929561019978362    0.7490877337453693 Cl
   0.0672248731895383    1.1521594869171670    0.1769677373516021 O
   0.2916059923819637    1.1469484398727157    0.1512332260339729 O
   0.2587006495455197    1.0110838338651025    0.0606229185578759 O
   0.2464220555125928    0.2662174623296598    0.3028940007657736 O
   0.6610941407874643    0.1620417169917531    1.1957987091841820 O
   0.8936438515354492    0.2639795292898989    0.2559970994306016 O
   0.7557584864961053    0.3261429968224809    0.1706354814932165 O
   0.1475655993607370    0.4906276253178318    0.0586279483721074 O
   1.0092833293793333    0.5727314302664999    0.2461838395766094 O
   0.7968009589572701    0.6514982367632043    0.2215291190862509 O
   0.7702938985435838    0.5706246396509135    0.3661652126529477 O
   0.2540097523938866    0.8801440364114970    0.3094157863427919 O
   0.0842235242124367    0.8419289381596674    0.3212746079807534 O
   0.5721468115942981    0.0259940690020929    1.1541935380011168 O
   0.4420271719229450   -0.0340339087399398    1.0197648656952900 O
   0.8056348552454430    0.0127736170395072    1.0882341755229752 O
   0.9237897528280893    0.6174494150657056    1.0365529702146661 O
   1.0598879267229617    0.3252134749877233    0.3422618151507949 O
   0.2035709057102864    0.1627008187789596    0.5512347910903490 O
   0.3006984903943474    0.2434825935965527    0.6546468116771438 O
  -0.0618235261049655    0.3165630465028316    0.5451521707896527 O
  -0.1215735695884866    0.2315863712818632    0.6794283887122445 O
   0.7556886563569268    1.1784512455236333    0.5085864513563226 O
   1.1165194022326179    0.4550318201661368    0.4330756216674160 O
   0.5030231846040953    0.6668745165143444    0.5067293017452349 O
   0.6695704453739096    0.6603738897445243    0.6184413497289121 O
   0.2727226949654106    0.8863260345459019    0.5445824489860334 O
   0.3865657732948217    0.7739284651995840    0.4426607662704163 O
   0.0025107509110040    1.1162832584359392    0.0042276334351257 O
   0.2362283899208547    0.3142121245852640    0.8841355868052952 O
   0.4582431114957100    0.0336441692888014    0.8653321244411745 O
   0.7084704370813757    0.0806799326014182    0.8576724054538786 O
  -0.0019215445164184    0.2003283748661936    0.8232308535563492 O
   0.2793266309848700    0.4890917147736604    0.7442135730530394 O
   0.0763096975602540    0.3696783647006419    0.9239625010665268 O
   0.6350505683305238    0.4930503177705824    0.6569642089141322 O
   0.3344924409359429    0.6157304776046709    0.8404833436412995 O
   0.6037735722560241    0.4683755053314504    0.9085630226529906 O
   0.7583414342815457    0.4137711443759832    0.7895949917376294 O
   0.1308516404437205    0.8158194682760627    0.6316261242988227 O
   0.0544743501940309    0.9787810669593122   -0.0731865729938516 O
   0.3004936041618124    0.8070296868418759    0.7735189450854677 O
   0.6592601404288183    0.6264937981045504    0.9358485062497903 O
   0.8393029580636837   -0.0866437900243608    0.9561312065374237 O
   0.9354053442209032    0.6689625509762148    0.8739334512337896 O
