Li1 Co1 H110 Cl3 O55
1.0
  12.3984276225999999    0.0000000000000000    0.0000000000000000
   0.0000000000000000   12.4008541536999992    0.0000000000000000
   0.0000000000000000    0.0000000000000000   12.3800489730999992
Li Co H Cl O
1 1 110 3 55
direct
   0.8061953592550708    0.2343340257761974    0.7177420708033758 Li
   0.4863281857135645    0.5634557096065204    0.4469571969079564 Co
   0.1523479322456129    0.1454885328493032    0.1375642366440131 H
   0.0771362982880764    0.0536986459679727    0.1822005705713439 H
   0.3313432103206090    0.2698138398718034    0.2991282178807652 H
   1.2434709691168868    1.0051978615667185    0.1995906471750628 H
   0.3458531147597877    1.0953529417041965    0.2852825537503205 H
   0.4657626746857612    1.1191738814829184    0.3170223312628165 H
   0.5917891392958221    0.0359072102115759    0.2041673657424217 H
  -0.3529233965623134    0.0013991840146610    0.0474595850046040 H
  -0.0736145918161679    1.0246723265516926    0.3000264372677937 H
  -0.1122630410055268    1.0650243856758375    0.1846609808707042 H
   0.8350159493231738    0.2009847100859868    0.0452785758616944 H
   0.9231642237066003    0.2951129036388258    0.0801954005801800 H
   0.2666341984667530    0.3594246026649809    0.2146850947338762 H
   0.1408198575291492    0.5212207156691285    0.0792744833831016 H
   0.1441194694836061    0.6333952467747102    0.1964242622855380 H
   0.0502791830041166    0.6565710697009275    0.2851864313518884 H
   0.1010599770825814    0.6328847980651661    0.0319296787483562 H
   0.2982253011390016    0.6117233525108933    1.0249476406895555 H
   0.4898060460771964    0.5068579953441856    0.2228878086504894 H
   0.4205069360486118    0.5930181893725306    1.0369104366624795 H
   0.4077270896984846    0.4332590328301653    0.2854416807460440 H
  -0.2049360826987806    0.3554474572692918    1.1838080785015017 H
  -0.3146749981012387    0.4080720581162656    1.2115220237973165 H
   0.1452228352019383   -0.0326072638294317    1.0320558516660396 H
   0.2653501646775827    0.8622238391304499    1.3215700537332475 H
   0.6150332157845766   -0.0154666703376052    0.3167985841673068 H
   1.3385959346286567    0.9260500877250954    0.1718040042669886 H
   0.3572295573453695    0.7749540441157974    0.0225038598155269 H
   0.6260870368150904    0.8429106533586020    0.0729687732708376 H
   0.6173673827354927    0.7165419387057943    0.0899045705730594 H
  -0.4698745168283143   -0.0054629239454274    0.0371756192241262 H
  -0.0478573740688233   -0.2457256480345602    0.0196242104637786 H
   0.7978612379337793    0.7731178802743570    0.1102824382655188 H
   0.8844496370984526    0.7213093522458012    0.2716856770040527 H
   0.8692622273936313    0.8646833471306227    0.1567523675242835 H
   1.3002523628088369    0.0299440725854523    0.6006787212844035 H
   1.0209588825865572    0.1853583671262011    0.6285962198945447 H
   0.6659203136654361    0.1472900216599214    0.3359156329378123 H
   0.4070560368639434    0.0918585980273079    0.4559345442707569 H
   0.4486024341716998    0.1536476482413515    0.5571296205359758 H
   0.6008644836398821    0.2616523052915582    0.6160817298196961 H
   0.7140981970376131    0.2681131505693889    0.3430723089891361 H
   0.6788372741764672    0.2359387539468019    0.5210812978702336 H
   0.8272891630792977    0.1042292781513241    0.4271470975672437 H
   0.9412068341737726    0.1505914071526123    0.5404786363235619 H
   1.1743896286379729    0.4294012340521895    0.3510504680589922 H
   1.1464264053524629    0.5515589484502752    0.3602903345771741 H
   0.3024419648637390    0.4611692070576988    0.4761339797126816 H
   1.0297906476565408    0.4386699504305452    0.4770968191994963 H
   0.3216564981296953    0.5361092062288626    0.5755673505074788 H
   0.4027151638405049    0.3674587266668565    0.5831230556749823 H
   0.6369174424187198    0.5701657312686309    0.5971601568510438 H
   0.6964136964965663    0.5443586379802614    0.4792543227811086 H
   0.8862805144234629    0.6179229254634597    0.3552604675600643 H
   0.9695652688642409    0.3369987280797996    0.5419002785188587 H
  -0.2189797989908863    0.4642448016520132    0.3430432299442323 H
  -0.1403577325747271    0.4633343804939165    0.4535831803897858 H
   0.2354028188284050    0.6835813059192176    0.6339709966942635 H
   0.1982787564867419    0.7654264746003743    1.3530400423291360 H
   0.0338582297834932    0.8244845032589475    0.6421874423820813 H
   0.1995353674437314    0.8795290986988781    0.6384330145845020 H
   0.1965688622448821    0.8333871158235071    0.5318946638182100 H
   0.3648902061704568    0.7468777522987440    0.4323999039286159 H
   0.5666714381260110    0.8946893447327295    0.6045995458389323 H
   0.4842287259439601    0.9543142698254408    0.5308203546592641 H
   0.4710939958832583    0.7881724884236109    0.4928673545523231 H
   0.5780744969898858   -0.1583308616297351    1.3985245150661609 H
   0.8660360118429523   -0.0171778427888729    0.4526768834902841 H
   0.6998931699679736   -0.1352743853212308    1.3995826692001603 H
   0.8565267415073259   -0.1539601949540183    0.5392258141389565 H
   0.8866031359785309   -0.1936856843351684    0.4283288376420841 H
   1.2039175664655624    0.0535908308139979    0.6774207440392699 H
   0.1888904692342661    0.3266518601616961    0.9626780970330603 H
   1.1615250941296407    0.2140571967059211    0.7997078208747106 H
   1.0767562805355502    0.1167509962584328    0.7921723094883902 H
   0.4789191817014302    0.3244044343267841    0.8515153703758170 H
   0.4762059344233091    0.1373745756369301   -0.1366430792863339 H
   0.4238718788679700    0.2966031235681107    0.6900547812987230 H
   0.6452193015845045    0.1123335586109095    0.8119323282517688 H
   0.3554398142686304    0.2934743068334648    0.8754167297842449 H
   0.4903448240741597    0.0134614982831802   -0.1522149078323180 H
   0.7612065899547400    0.0828926833715964    0.8541971045169452 H
   0.9531115695557781    0.0008525281217702    0.8735992894777574 H
   0.0846653175186960    0.4913864804290010    0.8122715837756462 H
   0.1937612481619037    0.5381808377214671    0.7544382099694750 H
   0.3317182578783754    0.6330412389018983    0.7035006085617406 H
   0.2025591379686053    0.3789127763830706    0.8510064870900006 H
   0.6170746036742687    0.5258083028864999    0.7754042013451137 H
   0.6094397645735868    0.4423608252229356   -0.0633120284986831 H
   0.4921587637675290   -0.3715000487869983    0.7592629081697635 H
   0.6666712153348567    0.6539204458332005    0.7738670507214490 H
   0.6935746268119688    0.3702843384808254   -0.1388401626790653 H
   0.8536796062838518    0.4107597762030117    0.8057942265233251 H
  -0.0854209276238776    0.5803174513388519    0.7526328859316975 H
  -0.0493809543626315    0.4853844745125139    0.6760960319936523 H
   0.8416135601243124    0.3345569607930708    0.9169755314592570 H
   0.0734784957521054   -0.1995546349008264   -0.0016766503464649 H
   0.2304989711913729   -0.1069610130608821    0.9762321629632198 H
   1.0675696317549916   -0.0465101771177522    0.8542940346666245 H
   0.4189277035365545   -0.3182779084553923    0.8558287620365471 H
   0.3734469363647451    0.8644253003896210   -0.0621299653233437 H
   0.3588305668123939    0.9373718884865462   -0.2442848182564755 H
   0.4372526078644111    0.8336693544464776   -0.2203850743505424 H
  -0.0278960525582735    0.9047451036711406    0.7175134772003822 H
   0.9634193282401974    0.7053080351154973    0.8739708550515282 H
   0.6855534483990932    0.8658123016225051    0.7567160684869392 H
   0.6954417990619243    0.9846105700111747    0.7094052701797062 H
  -0.2858390835092699    0.7678255028956249   -0.0770625395321927 H
  -0.1966035744852645    0.7409515476124263   -0.1660508789477949 H
   0.9372224579686841    0.7587583855336766    0.7524576039110275 H
   0.1240717660516869    0.3413532668342038    0.1236927244736539 Cl
   0.5729480404798569    0.5311571279898263    0.0857216307387727 Cl
   0.8380485919408122    0.0483098236197910    0.9985907174892515 Cl
   0.1479586659889141    0.0651493894603177    0.1444414307637615 O
   0.6009169096425806    0.0538628282069351    0.2837833674352802 O
   0.3915621366818076    1.1483654190587387    0.3218284511844166 O
  -0.0551448304100858    1.0235353080991536    0.2227819932370894 O
   0.8473239616490142    0.2808235653558552    0.0629348872765325 O
   0.3175454929642427    0.3475480014103764    0.2784820959990683 O
   0.1611450154984268    0.5966389077072111    0.0696676554732586 O
   0.1292764582888198    0.6515907675995942    0.2756565821359158 O
   0.4648230394066260    0.4864755283893119    0.2991362953932384 O
  -0.2539761721768766    0.3723301652993297    1.2415542151729617 O
   1.3030349737212976    0.9661763559508638    0.2326123259170680 O
  -0.4161628672328352   -0.0235171641796131    0.0847705036450443 O
   0.3512537995916244    0.8536437849921424    0.0131103913201531 O
   0.9260436210855814    0.6823346176017530    0.3234722249727285 O
   0.6667010578287005    0.7753894979912379    0.0643560448210809 O
   0.8692864240102613    0.7839639073570859    0.1417257710702456 O
   0.4255890320948189    0.0832618514904420    0.5329407016834994 O
   0.4328673743771506    0.2949709779312748    0.6076746548375090 O
   0.6731615544689352    0.2331462043715238    0.6000769466051443 O
   0.7107493852960084    0.1961971366443392    0.3809283789463979 O
   0.8921764233423287    0.0597813721306293    0.4413998683263416 O
   0.9491594555061963    0.2090841521691785    0.5955632326350769 O
   0.2663583570371699    0.6139433608795738    0.6635807341675564 O
   1.1485718386936643    0.4810275165699129    0.4017998634260992 O
   0.3589039632161719    0.4840571465884863    0.5255627017904079 O
   0.6244271489142661    0.5645935344551249    0.5171063539821338 O
   0.9723882074710850    0.4187624507583277    0.5264068018438653 O
  -0.1950049846799031    0.5093570167515742    0.4089872340248215 O
   1.2535851548682653   -0.0030108347890585    0.6569030546058979 O
   0.2526243574379294    0.8141803743323224    1.3829187609677891 O
   0.1777229241055908    0.8099185711254656    0.6040575447519754 O
   0.5103917209521913    0.8797065058333168    0.5440698983691810 O
   0.4359750265063422    0.7225124951757218    0.4556970654040425 O
   0.6423028027266907   -0.1380556453515901    1.3530642748665558 O
  -0.0415059235142016    0.8508617185657177    0.6626009319045477 O
   0.8300959706083884   -0.1542916237369924    0.4642059170433929 O
   0.2098092508648686    0.3070765956685182    0.8891404234763430 O
   1.1215280868400979    0.1620494888491545    0.7480375890856499 O
   0.4201706030774535    0.2704017026036479    0.8352391827421632 O
   0.5224077607706953    0.0753978770584144   -0.1127207183454756 O
   0.7239058923116772    0.1170896826059976    0.7873363027706390 O
   0.1599553485141139    0.5031469606501546    0.8197707463558370 O
   0.3655419017116939    0.6339839159026203    0.9884776718727083 O
   0.6183352474006966    0.4033756074300341   -0.1325469727111350 O
   0.6215469449813974    0.5944293824873839    0.7325360348981833 O
  -0.0763955896208532    0.5011575815562443    0.7488356473180098 O
   0.8280795858892140    0.3361197563682625    0.8365235072254144 O
   0.0216106283438393   -0.2578877134963978   -0.0170605151771958 O
   1.0074894326624724   -0.0152585395130660    0.8172537934691638 O
   0.1560225917578363   -0.0874341323316422    0.9745278078313582 O
   0.4347329335193308   -0.3161038646624528    0.7749268203579430 O
   0.4071495971149131    0.9009469782020214   -0.1919691932208000 O
   0.6543470719312630    0.9121800753962528    0.6987494157249587 O
   0.9160826805728600    0.7009776882430622    0.8080777392995208 O
  -0.2763515901286107    0.7506847481245851   -0.1536454352913355 O
