Li1 Co1 H90 C51 N3 Cl6 O45
1.0
  13.4601340662000002    0.0000000000000000    0.0000000000000000
   0.0000000000000000   13.1112693533000009    0.0000000000000000
   0.0000000000000000    0.0000000000000000   13.1544116134000006
Li Co H C N Cl O
1 1 90 51 3 6 45
direct
   0.7207014793009907    0.7418950766541720    0.6364210010101826 Li
   0.2092570935212963    0.3669420597090464    0.6711941260607962 Co
   0.0858474757693272    0.1810294730389779    0.2823542333825447 H
   0.1185663177833824    0.3108818888595321    0.1667291454120099 H
   0.2966098638738980    0.2926632104414978    0.1964940647035082 H
   0.3002628735510804    0.0488065773539263    0.3560458608372103 H
  -0.0027541677309954    0.2999050721896971    0.1352955844020449 H
  -0.0235310781707108    0.9860758583718631    0.0816344993801241 H
   0.4089222667493018    0.1884269261296345    0.0910693569509160 H
   0.5470246059130593    0.0549898078112882    1.1436964456376344 H
   0.5826553059968212    0.0715694382149064    1.0177120953903145 H
   0.7068531774131164    0.0274386996564488    1.2144787829526320 H
  -0.0377129577167213    0.1909202011222478    0.2420415219071178 H
   0.7419234075964377    0.0565281790747024    1.0871944885875089 H
   0.0486814269365587    0.4280894572947893    0.1609903862627143 H
   0.0566828331239196    0.6361654205357815    0.0787138062218788 H
   0.3383687347169047    0.5338859261661172    0.0654695802450569 H
   0.6117857736482997    0.5807416487850241    1.0526790717567407 H
   0.5887674293676122    0.6155076190139306    0.2957223721612391 H
   0.5709872201347064    0.3491558336987246    0.3159277608788346 H
  -0.1443731137700784    0.3286932840576044    0.2716764467868358 H
   0.8822437038662071   -0.4420467356687509    1.0758119954437277 H
  -0.0867637321557305    0.4524690189822735    0.3060056143141762 H
   0.2150556984695184    0.8080984301671199    0.2353813988567827 H
   0.6017100939163600   -0.1735433661522106    0.9823513347823549 H
   0.4208485966959781   -0.0897787839133768    1.0713708998085198 H
   0.5889501912916689   -0.0949796533458118    1.2530825620439530 H
   0.5178198447965173   -0.1609252133599823    1.1665663396961072 H
   0.6498084261332526   -0.1972657069583444    1.1960020918513430 H
   0.7034379068241379   -0.0984385099048516    0.9498215635864998 H
   0.7150886080154278   -0.1908483267846374    1.0519553601777063 H
   0.7882320102399456   -0.0556493653237592    1.1434128905756809 H
  -0.0824836856334105    0.8768537867774322    0.3044958546545522 H
  -0.0621636800038368    0.7617787349770317    0.2391694816281352 H
   0.1694982027578046    0.3445224150446635    0.3502599692111289 H
   0.2796100331980214    0.1620297870980205    0.4209995071963999 H
   0.3938488656225269    0.1098128749477347   -0.3678565287078840 H
  -0.0014599755695857    0.2039875857806888    0.4724021103589165 H
   0.5778537193497542    0.1739958291167143    0.3632791756213604 H
   0.4480851010425874    0.2877765745046140    0.4475010346113456 H
   0.5216930603041484    0.2122621469293158    0.5383181714860236 H
   0.5791404821646575    0.0192304936391639    0.6359101457779233 H
   0.9023980350686887    0.0092352752915967    0.6669993356268561 H
  -0.1168458990946748    0.2047274073600203    0.3887276722807616 H
   0.9075606879559655    0.0446178143501233    0.4251982506767801 H
   0.7390088749619886    0.1565604463295806    0.5375621513543538 H
   0.1026697450637017    0.4602784840493785    0.3290359108339684 H
   0.0726247248572892    0.3660870700281900    0.4333127907365776 H
   0.3656158630290181    0.6162993043740812    0.3231504328456458 H
   0.3884878491835300    0.5280322595277545    0.4842745760069360 H
   0.4803743782416442    0.5732434426730998    0.5598623506047085 H
   0.6179952214583240    0.3940111397833317    0.4504665036225375 H
   0.6735570751755162    0.5315146073286947    0.3402732055411995 H
  -0.1037984807601871    0.3568606559610004    0.3899903665378791 H
  -0.0551979247194640    0.5828852246084379    0.4817733238820228 H
   0.1000092960797704    0.9219836658193169    0.6218479432684955 H
   0.3101981386340495    0.8687531218350809    0.6187729292588384 H
   0.1804230567954222    0.7334611106497920    0.3399782474606688 H
   0.2193565471620562    0.7656120785416920    0.6373826555768616 H
   0.0668803541385636   -0.0339192038632069    0.3690050113496018 H
   0.4556327227453392   -0.1275806158065835    0.4520103202976454 H
  -0.0848031276126993    0.7503206529293016    0.5335954212919581 H
   0.6920873512317052    0.8164263805018842    0.4530521000748602 H
   0.4500808463945937    0.3290509916047245   -0.1209826969135459 H
   0.8347575498014396    0.0780119875763639    0.7535467262254797 H
   0.7002685476045203    0.1954392143774432    0.6906187881064713 H
   0.8463294999197620    0.1975328331766856    0.9935126093657379 H
   0.8981328472393815   -0.0246462649338119    0.8814064929281332 H
   0.1442577409370618    0.4454894506785405   -0.0873764807640013 H
   0.2865141249063913    0.6293483841687036    0.7164785536358911 H
   0.3258168537943920    0.6159263427737790   -0.0333071676770160 H
   0.5202386914320614    0.3984477811513438   -0.0341129809898062 H
   0.4159519144136294    0.5680980979942476   -0.2003218593688894 H
   0.5768870870758103    0.5201951388622305    0.8266393151042220 H
   0.9528380973043892    0.4754438349122189    0.7394039423847728 H
   0.7737581573762348    0.5084935258554483    0.9483825026420547 H
   0.8085007533786254    0.4124952387267344    0.8701859226481485 H
   0.8285027829777264    0.4487340640606378    0.6965164293146096 H
   0.0499198989991706    0.9400955658650764    0.7473358821070871 H
   0.2478607209030475    1.0307313363597845    0.6957463454600280 H
   0.1872365104764145    1.0262939322891136    0.8218629707228438 H
   0.1065099742728445    0.8562409847124682    0.8722483486081486 H
   0.1740145024990271    0.7446446197402444    0.8244392927200571 H
   0.2386773056865231    0.8448012075285568    0.8910747322791389 H
   0.3092026062021959    0.9744591341710391    0.8151541947932459 H
   0.0558752631586771    0.8146729270886025    0.6905777372395934 H
   0.4916136422234115   -0.0010055333122023    0.8857023901267912 H
   0.3980553616144338    0.8100379830292231    0.7782563072810771 H
   0.6435306283353696   -0.0535015946357204    0.7256481009744530 H
   0.4009112024114825    0.7555947418170108    0.6485074405007976 H
   0.3977336709107079    0.0419323382874156    1.0304690323732697 H
   0.8459075130382001    0.6976087467532570    0.7918646696511316 H
   0.3393694676913128    0.1760650414308653    0.2628223829622436 C
   0.4035597644410036    0.3151423459132910    0.0264857005344953 C
   0.0138756814888641    0.2148499970516581    0.3011091581371179 C
   0.0491621056555209    0.3469859446335717    0.1817043496088538 C
   0.4733664242691151    0.6103204782293593    0.0347019555200017 C
   0.4712150341078005    0.4631937624232744    0.3253253685889409 C
  -0.0821545655831783    0.3716441216024270    0.3113171403674453 C
   0.1259050262623750    0.6742608929527436    0.1980061049668476 C
   0.0733869758088428    0.8464188998685178    0.2787356754873735 C
   0.1547346053803453    0.7627778754604589    0.2668332046964712 C
   0.0736938078195559    0.9057136926952952    0.1674156071303585 C
   0.5557262280086456    0.0175624629237019    1.0748047288027400 C
   0.5940846126622216   -0.1315390426073369    1.1814830083975880 C
   0.6628588162063429   -0.1337943543703096    1.0156869192910001 C
   0.7228946223896713   -0.0080803631780576    1.1388486423398390 C
  -0.0341201257462405    0.8057493059770773    0.3060535069922005 C
   0.3381451113870630    0.1271567334157759    0.3665252349096756 C
   0.3643751621624542    0.2348701791504976    0.5725344491294494 C
   0.4493639887501940    0.2205023864582830    0.4958645812827854 C
   0.4421245363405264    0.1289467965566946    0.4159550398382094 C
  -0.0360688433348615    0.1783348445443610    0.3999383599446459 C
   0.7433542997335647    0.0389570352142481    0.6289596258544883 C
   0.0937322412165381    0.3814822232022186    0.3572378563791491 C
   0.5320345620540859    0.5152395683336113    0.4124342438223068 C
   0.4559209813897864    0.5753847303885363    0.4805075356058646 C
   0.6138414738266122    0.5847867948781178    0.3682706569532287 C
   0.6589754967874630    0.6727034541228518    0.4348116795184913 C
   0.9009924027096834    0.5846765843438771    0.6259142596931321 C
   0.4373065308376802    0.0239455214777492    0.4744259941161255 C
   0.4264882136289639    0.6785671121660488    0.4434315253415073 C
   0.7424456906558355   -0.0280616474412828    0.5276461624197271 C
  -0.0370034551253629    0.7423526982496348    0.3972404057492757 C
   0.6133355353295284    0.1091912722805644    0.7586940488112368 C
   0.6430818958063848    0.0246800041384670    0.6867866136632869 C
   0.8275443972784046    0.0111626249111543    0.7032077206157223 C
   0.2927614623835982    0.4313309435959842   -0.1233127137094912 C
   0.4433058024350393    0.3772644774973696   -0.0533802813791158 C
   0.3904261656870420    0.4753256922703235   -0.0876220257640307 C
   0.3778059347766706    0.5588076169036932   -0.0057422707696826 C
   0.7100180790248302    0.5797487624634017    0.7879557148828605 C
   0.8358422343913696    0.4841967631686363    0.9003598302059500 C
   0.8244017837062099    0.5576234447551671    0.8098715563870392 C
   0.9387869742568908    0.4891967367206632    0.9457978184312181 C
   0.8789918789003688    0.5111295330236864    0.7146814379081211 C
   0.2391661566866422    0.9840455438933262    0.7677883362271891 C
   0.1773235334329645    0.8254529664723884    0.8409941950904652 C
   0.2712616765288129    0.8245049270671212    0.6772438075166307 C
   0.0971200232234430    0.8870549348429576    0.6981181733240898 C
   0.3553135882286343    0.7661985968865436    0.7216410802464178 C
   0.4540359333007250   -0.0255714232593059    1.0281435767847553 C
   0.8193550286244324   -0.0871405954155336    0.7628462679758219 C
   0.0205138025923060    0.3324526454643315    0.2917343564641660 N
   0.6301117426755635   -0.0628042789688205    1.1006021578306042 N
   0.1985395182512064    0.8804316249512923    0.7451442219365454 N
   0.7873672343066040    0.2661478524977227    0.0354302283064668 Cl
   1.7658604599478753    1.6116979685556834    1.1472853556845048 Cl
   0.6935524183627614    1.2682232157571276    0.4138696558008073 Cl
   0.2102459395412942    0.5393710548796006    0.6234116772160515 Cl
   0.0745756712498620    1.2643471608435572    0.6670343048838263 Cl
   0.9631374003661705    1.0746965684412166   -0.0401550604332559 Cl
   0.2741048874368009    0.2547012109898791    0.2615961783645732 O
   0.3359801998151066    0.3376558030047438    0.0868874899380302 O
   0.3839834363967177    0.1410913109976189    0.1894378768079245 O
   0.4496538075574075    0.2284878832991094    0.0334803121297621 O
   0.1394464961395363    0.5819336767709389    0.2125274690243182 O
   0.4778325016279547    0.7012346351946408    0.0567713576743534 O
   0.3955449854299312    0.5015259014753567    0.2882640378104986 O
   0.5060517079250011    0.3731367307062949    0.2885354296526365 O
   0.9466843695931625    0.5280379035274319    1.0417260923127014 O
   0.0805540663835383    0.6982959418491104    0.1112200111793409 O
   0.1493966199155182    0.9040182046841054    0.1182138625733692 O
  -0.0163357560792911    0.9399529404678240    0.1470604587687822 O
   0.3079648770742345    0.3091581808499554    0.5671354999337549 O
   0.3444288526621510    0.1679323429768318    0.6484496652066729 O
   0.5163332325605926    0.1314293937120804    0.3430327360368868 O
   0.4410422291414784    0.0173039067222654    0.5683791891599104 O
   0.7845240233986162    0.0057115890065329    0.4503607596302647 O
  -0.0313036604856755    0.0694430232013225    0.3981974991085237 O
   0.7594024311219753    0.1495115483541349    0.6087709615641395 O
   0.5736829585145429    0.4536575385359565    0.4832731705174969 O
   0.6918778436602255    0.6507154991635221    0.5198108442748237 O
   0.9286719189884676    0.5341542449615903    0.5476025092115960 O
   0.1172490946478029    0.9150979862129196    0.3484065985917114 O
   0.3624970233656438    0.6842362810311741    0.3643495389651421 O
   0.4397571007828064   -0.0564860501407971    0.4140105971104218 O
   0.4520637389771439    0.7606865447691938    0.4818827776563394 O
   0.7022261804089489   -0.1149258532867182    0.5403250267354903 O
  -0.0067563566939771    0.6534169919820710    0.3990299194646608 O
   0.8861255374157856    0.6784755878469563    0.6307977924491363 O
   0.6708869680411267    0.7627656722179132    0.3928091927301680 O
  -0.0670871079336085    0.7946771514748542    0.4750140097740907 O
   0.5477543906203801    0.0970353172997535    0.8259787002279817 O
   0.6584844169833920    0.1987310390541391    0.7546573802349009 O
   0.2872206557591472    0.3725029247965789   -0.2018886341213994 O
   0.2168528573894094    0.4646172706662274   -0.0686914945233684 O
   0.3334014736427455    0.6664325128596927    0.7603345630838796 O
   1.0128322991472820    0.4619812177358297    0.9015176166921570 O
   0.4568485353011067    0.5106083630426669   -0.1656460400768016 O
   0.5501983484471157    0.5451204600644637    0.0318595630893199 O
   0.6574992856366472    0.5123993414267766    0.8357191586966431 O
   0.4632536720981089   -0.0562030874542692    0.9262804118344482 O
   0.8761412386458745    0.6483114603820240    0.8386398518548885 O
   0.6791885198273450    0.6433996552573896    0.7290994145971582 O
   0.7691586489541409   -0.1634985721318016    0.7414982967967889 O
   0.8792511630934411   -0.0919875708141440    0.8415871520564806 O
