Li1 Co1 H90 C51 N3 Cl6 O45
1.0
  12.0077110903000008    0.0000000000000000    0.0000000000000000
   0.0000000000000000   13.6949037729000000    0.0000000000000000
   0.0000000000000000    0.0000000000000000   13.6826160195999993
Li Co H C N Cl O
1 1 90 51 3 6 45
direct
   0.1866018034786028    0.3988531410720037    0.5793893505776944 Li
   1.1244499841445357    0.6326627430303789    0.7543325044724697 Co
   0.0233383817275869    0.3025567360830448    1.0900563158708025 H
   0.2271032776015823    0.3170183199893085    1.1232568382964316 H
   0.3041212865331159    1.1013275913881175    0.0839818941168820 H
   0.5506152251148820    1.1036576552227495    0.1785822247953015 H
   0.5826814529833257    1.0819955826065808    0.3098261329359392 H
   0.6487422529171941    0.9782460401810539    0.1009355234278053 H
   0.4434675772139151    1.0842314508176882    0.2690298408233495 H
   0.6983013233782350    0.2819987237984224    1.0006304342815471 H
   0.7356248396278920    0.1828947050695198    1.1412270860654097 H
   0.7028867101839250    0.9275614927384094    0.2112448383890626 H
  -0.0212446362992588    0.2853350013479159    0.2427643957151044 H
   0.9180159700881506    1.0189706782835601   -0.0054936855709700 H
   0.1343195662329767    0.4504705172669961    1.0934277471770617 H
   0.3867748407814138    0.5499197008892333    0.2199727015278756 H
   0.4932811508002409    0.3750515864641486    0.1966189803138719 H
   0.6591181687818459    0.5523238798850106    0.1983116390837170 H
   0.6374677478111075    0.4076140642584390    0.3195311483956862 H
   0.4697065496234460    0.5363731288886974    0.9671485329153351 H
  -0.0491383787020527    0.3815802924326365    0.3723222227754170 H
  -0.1793746900389646    0.4576446458062867    1.1086200174053740 H
   1.1487293824251545    0.9479975618514920    0.3133006147113467 H
   1.1506123391210619    0.7118221163255181    0.1789089167081343 H
   1.0350482662045364    0.7174519477780449    0.0155373803880389 H
   1.1203909257916598    0.7985185998999024    0.0542697397000919 H
   0.4909145049185827    0.9725395378721697    0.0306923770424040 H
   0.3478640111914652    0.9486321044626782    0.2266899842367042 H
   0.4206422445640143    0.8517975430819539    0.1631641205601315 H
   0.5564901999097859    0.8204296702495744    0.3021602012274305 H
   0.6048740255723905    0.8512272579503813    0.1328161228230628 H
   0.9197906630200295    0.9601904186082095    0.1064695528774028 H
   0.1736059878042850    0.2316427657401667    0.3379910686067179 H
   0.0769464336834670    0.0863398097648418    0.5023812405429874 H
   0.3703104206672669    0.1885486330769018    0.5764030795355581 H
   0.3811551186301613    0.1026823853470729    0.4797755780324756 H
  -0.2755170764870014    0.2469988429705997    0.4758078426284979 H
   0.7985360801065409    0.9710353286903013    0.3935440417305096 H
  -0.0274431531889703    0.1255390629251524    0.3825534533967739 H
  -0.1672774636060815    0.2090292443065349    0.5432370534371903 H
   0.3167565005934010    0.5031938742159368    0.3767219662099887 H
   0.5654222852334110    0.4047049529086509    0.4321058196276740 H
   0.4922289935735230    0.6293578640220604    0.5175495679814467 H
   0.3812142473012844    0.6142420221415471    0.3873003526671299 H
   0.9198556212784464    0.6319201310216604    0.5268140974996627 H
  -0.2472252565518573    0.6372038483226311    0.6326013970867130 H
  -0.1745394637778246    0.3922492246444224    0.4228067206967578 H
  -0.0058237123107076    0.3334799179485515    0.6533759331544372 H
   0.1070662456343193   -0.0094512977707905    0.5842933835421421 H
   0.2997732472101032   -0.0811458504512498    0.5346943888010882 H
   0.4636154636995780    0.9148027320419114    0.3604714188233274 H
   0.6751628586108370    0.6856685919240716    0.4763245566830231 H
   0.6015620704711284    0.9239141505716946    0.3661823150355771 H
   0.9864778104687106    0.7418325499010561    0.5721478260141118 H
   0.7161073813681477    0.8866579559710693    0.5705971722524622 H
  -0.1100717234917232   -0.2669448923572728    0.3034479666645926 H
   1.0674266268326555    1.0730389661867763   -0.0649976575331827 H
   0.0376899928468127    0.2804061605820851    0.8564167841160077 H
   0.1240086919065603    0.1367257059670084    0.6837356245617638 H
  -0.0257758912229347    0.3898118216108900    0.8691336505215802 H
   0.5797064480276471    0.2378574862969054    1.0449399434522739 H
   0.4350771355017233    0.1709939277655923    0.8589170369880459 H
   0.4384857784722446    0.2801038583484474    0.7854990591275981 H
   0.4741411999576813    0.2849238995181140    0.9215951095709137 H
   0.6171482216195505    0.0955936170278602    0.9145818308336796 H
   0.5791972752174402    0.0834219360314699    0.7517993631528309 H
   0.5734164149454044    0.1927122256764228    0.6718512013076825 H
   0.7022995874636179    0.1557174421860446    0.7165151748581049 H
   0.7397446922482606    0.1481927452835429    0.8856304958380506 H
   0.7270961534170182    0.3039470342783250    0.7566215404254727 H
   0.1438001407691147    0.5135453671764441    0.9832587562589004 H
   0.3044152642923619    0.6202318415196375    0.8130120726814934 H
   0.4735690676047011    0.5194831233920746    0.8316269340234436 H
   0.5924719117240401    0.5648900141823938    0.9049937520765126 H
   0.4318600361137138    0.6892852657482436    0.7167168906700554 H
   0.5719123647676324    0.6788719030576489    0.7530885902987751 H
   0.4818579079383432    0.7879679598664966    0.7834351263270615 H
   0.6048965111233809    0.3640014905664719    0.7567903677898224 H
   0.6790303733812011    0.3523511713933117    0.8764231922186596 H
   1.0219192028206454    0.9225450281367416   -0.1407872578928306 H
   0.0922682546880231    0.7644292767661525    0.8702065447677515 H
   0.2870014542475055    0.8037738394542261    0.9280843657097113 H
   0.2836794222882070    0.7904535560097392    0.7974149091204978 H
   0.3482221144109433    0.9482976734892338    0.0262714388304897 H
   0.3072509421117180    0.6202230791360539    0.9475199765328948 H
   0.4920344519175460    0.6997022794319979    1.0227322019235541 H
   0.5997120093035221    0.7381304428369431    0.9367157560688959 H
   0.3909979603767015    0.0029737621508951    0.7771380848931297 H
   0.4710773354356809    0.8069889040308117    0.9444430795462592 H
   0.8755041211469843    0.6893319984606898   -0.0458631587191428 H
   0.8902080058983944    1.0205968306369682    0.7148524811182958 H
   0.7533018138991557    0.8078235210671590    0.6645126923663979 H
   0.5270172223090932    1.0673258920902045    0.2479191117357080 C
   0.6588749917118747    0.2140230727506114    1.0120149531320990 C
  -0.1632134084640969    0.2342963075687636    0.2897393308502635 C
   0.4922755469920552    0.5065371470683245    0.3307388004835859 C
   0.4966081795486484    0.3168503743039542    0.3256637475916149 C
  -0.0278470603086142    0.5013263108928112    1.0438517012638890 C
   1.0904593262305797    1.0067529947733556    0.0586439032309742 C
   1.0275788992847701    0.7893524164727210    0.0548493072322540 C
   0.9949773487431155    0.7663993526752209    0.1616074007070355 C
   0.4102239392717544    0.9832296458442827    0.0726236860244105 C
   0.5394331606073118    0.8967522218594908    0.3192804653395304 C
   0.4182696025354253    0.9319711622769060    0.1770430454475925 C
   0.6324174097788252    0.9247327032381385    0.1603781036211635 C
   0.8555369518674303    0.8387306385627623   -0.0420700244292047 C
   0.9713716841940263    0.9702722711198875    0.0415967245579869 C
   0.9735877601638667    0.8686549086997273   -0.0121620010355933 C
   0.3010432644419734    0.0206898413598710    0.6449089850332557 C
   0.1439550412314936    0.0376129248545222    0.5251904313843396 C
   0.2337373479419614    0.0910422889547604    0.5810242718506407 C
   0.2523653777403042    0.2204824098490618    0.4593699772613913 C
   0.3210687295944659    0.1497531797600733    0.5239950459422158 C
  -0.1186470464009478    0.2404518820363124    0.3980197940217582 C
  -0.2028496052730350    0.1982456709095289    0.4731987655376212 C
  -0.2471877806335398    0.0972891382513060    0.4555811550123610 C
   0.3963270359614475    0.5164626567509103    0.5104463210686651 C
   0.5838156408312497    0.5937577599187542    0.3259312402987666 C
   0.5519408732654990    0.4114220501241883    0.3544119050665112 C
   0.3907089794065646    0.5373158883424402    0.3983793743821916 C
  -0.0359984889417589    0.3677729665006225    0.5221855235552298 C
  -0.0992220287397199    0.3483372695133455    0.4270789300400781 C
   0.1832939290884464   -0.0270636887740260    0.4511766610242470 C
   0.9136662651687681    0.6963725736701922    0.5759777222799235 C
   0.8139453449205043    0.7567074262330175    0.5358962788472931 C
   0.8488345920758947    0.7825389330377628    0.4299978893927917 C
   0.7831659568072643    0.8437821526987649    0.6002932478726475 C
   0.2156981064602954    0.3250672995095682    0.9736670232297776 C
   0.4772716883344683    0.2420050145265230    0.8519673425828395 C
   0.6116726568340926    0.1603220747592786    0.7351833885706073 C
   0.6595220759014899    0.1668500505291345    0.9111395066514815 C
   0.6579256017811652    0.3180917119783116    0.8027296822527578 C
   0.0903078477609264    0.4621220047579674    1.0262702680309894 C
   0.0565545373296480    0.3602468092008567    0.8714614217573129 C
   0.0928770301611360    0.3618379120199302    0.9763646067874195 C
   0.1217742943766535    0.4118630900979012    0.7958428413251882 C
   0.3321957461420185    0.6587468985617877    0.8801468953414407 C
   0.4992821279605100    0.5633109596407481    0.8962973156765178 C
   0.4886397166767115    0.7067538076209799    0.7761010025121234 C
   0.9006779446781140    0.6638130166704297    0.6792123667350921 C
   0.2668927092765297    0.7543277088914111    0.8701363827462036 C
   0.5117897573388787    0.7318441628142708    0.9481521655812177 C
   0.8783781076828427    0.9097344233373732    0.6308034952845459 C
   0.5325018645947659    0.9571506017032979    0.2260168673424782 N
   0.6021337864250162    0.2236463605214092    0.8261616048866118 N
   0.4604974672955635    0.6656304810654154    0.8742364758804140 N
   0.1414474858969617    0.3357238183446105    0.2466598496197998 Cl
   1.2966843079425716    0.6712683447028939    0.1672349795186969 Cl
   0.6717575468330552    0.4445564925069047    0.0905325420245341 Cl
   0.2207898345623639   -0.3367664855467164   -0.3739597736916968 Cl
  -0.0226528980298113    0.0883084252766462   -0.1917497345859670 Cl
   0.4707858560709894   -0.0219873478845362    0.8588088705381594 Cl
   0.0219059688496743    0.2934380155669418    1.0205922602663404 O
   1.1259706736300406    1.0667891960957028   -0.0108281917717904 O
   0.2622090522850293    0.3016315744163325    1.0610333571448434 O
   0.3826141810499886    1.0810799135220843    0.0707987426097718 O
   0.4780878305556046    0.3100485740471077    0.2300943039905638 O
   0.7150788756098790    0.1482526215713648    1.0805895589425623 O
  -0.0982693076162710    0.2737993233599758    0.2203680937534742 O
  -0.2591534249532192    0.2110730702774327    0.2676565654224259 O
   0.4570546795994642    0.5060867678541087    0.2367575034744491 O
   0.6661711366091960    0.5901191801356231    0.2591801161941598 O
  -0.0914611824552619    0.4615342678790908    1.1141467383110604 O
  -0.0613030617879072    0.5703283145337535    0.9916277698916711 O
   1.1431696217432099    0.9903067309853839    0.1314289611887078 O
   1.0717963189084740    0.7233994156354807    0.2144795999241812 O
   0.7793484099279901    0.8957576913227410   -0.0440689111889312 O
   0.8983019714567857    0.7801475325180449    0.1967271467637584 O
   0.1209073514662425   -0.0236675349367106    0.3739396035429763 O
   0.2055796085145754    0.1804646040223072    0.3829291125538121 O
   0.2389714845336363    0.3063099570513960    0.4812518308171087 O
   0.4813523994401495    0.2501825090060104    0.3834816384735025 O
  -0.3212210408706322    0.0621256929299209    0.5081005708149107 O
  -0.0146055691697707    0.1938564469327276    0.4008598941856694 O
  -0.1953011225257094    0.0470733783303895    0.3806912364081878 O
   0.0449303402657501    0.4213965634369660    0.5167538868058290 O
   0.3400015635284576    0.4591065034675005    0.5563333063571958 O
   0.4736656721941417    0.5714225902036312    0.5539184172780410 O
  -0.0676431543690403    0.3274010143373601    0.6090730016732304 O
   0.2613912444675234   -0.0941660222579949    0.4537679783534193 O
   0.3330318755195908   -0.0625082605687215    0.6124977853500416 O
   0.5815488474519530    0.6621065424675043    0.3837184352962269 O
   0.7180511323315478    0.6903688805180943    0.5366373651998937 O
   0.8889121719227945    0.7118374504967895    0.3723668048932756 O
   0.8291355838118568    0.8625672427049522    0.3933920240171556 O
   0.1804565856727207    0.1643549618036761    0.6399727944755984 O
   0.3284389935302373    0.0523351896724009    0.7286934015774185 O
   0.2668235870271886    0.3101792796022311    0.8948765347401711 O
   0.1380854796247912    0.3790392011933638    0.7124574712785797 O
   0.1624198425856092    0.4934777928029876    0.8201284018878762 O
   0.7955263474665545    0.6359011739631878    0.6989015840319959 O
   0.9676648994733349    0.6719218724785114    0.7477877033999465 O
   1.0447495322596552    0.8720481417425148   -0.0926743824706900 O
   0.1548088999744211    0.7116760765991230    0.8696788678973594 O
   0.8280396214006167    0.7449490376623250   -0.0719115400732239 O
   0.8319379497038196    0.9924126238399996    0.6688159630213411 O
   0.9776601432876997    0.8942104004215861    0.6237843697121828 O
