Li1 Co1 H90 C51 N3 Cl6 O45
1.0
  13.8237626442000003    0.0000000000000000    0.0000000000000000
   0.0000000000000000   13.4910273579000002    0.0000000000000000
   0.0000000000000000    0.0000000000000000   13.9434438251999993
Li Co H C N Cl O
1 1 90 51 3 6 45
direct
   0.8408727869236862    0.7658880902757552    0.4534726852180154 Li
   0.3832513590373933    0.1262896541383345    0.7129330484793210 Co
   0.0072951064768398    0.0267494216286412    0.9881312024005932 H
   0.3488996407518338    0.9866555619432066    0.1071565913938459 H
   0.3713985802956558    1.1304385332870541    0.2043556777164503 H
   0.6227418715129561    1.1065055894545055    0.2186197291583578 H
  -0.1166508873961732    0.0344849333307125    0.9494513750379103 H
   0.7322865764515467    1.1071867829437929    0.1428773219568247 H
   0.0054902433117110    0.1856365058464929    1.0540539408232736 H
  -0.0877426942880061    0.1144966308363074    1.1028238149322078 H
  -0.1638768139982847    0.2590223180411626    1.0630603241511170 H
   0.8790787380524546    1.0071543714603379    0.3226958826676710 H
   0.1977931689638204    0.5050240428880540    0.1571499795939810 H
   0.6047040907424205    0.3441700217353022    0.0338181813984707 H
   0.3980280884458445    0.4889599586451965    0.0930668154057261 H
   0.4543886481612481    0.4159968718552501    0.1889297899159582 H
   0.4181962588040773    0.5856171638680744    0.2588809448980030 H
   0.5542874988247043    0.6651263051323887    0.2905581980599322 H
   0.5998812359440583    0.5470811809360135    0.3130261051227347 H
   1.0070229197866567    0.4964527905340005    0.3226306190203677 H
   0.9347726919936433    0.4303553780580092    0.2389346530430916 H
   0.7642981214548651    0.4937396539411401    0.1924576127850186 H
   0.9704221756171753    0.6262248941369778    0.0915327611026319 H
   0.1702478464781394    0.8496089196860229    0.2681863935107411 H
   0.1558646423449707    0.7775306431987559    0.1624298803791046 H
   0.3078673968831221    0.7504897077442461    0.0523315417444610 H
   0.0279327582756211    0.8773621804323773    0.2159711725705472 H
   0.4337882510530497    0.9216190027010218    0.1713831921695803 H
   0.3301464252436980    0.8456944661311514    0.3375279429959976 H
   0.9538847099586545    0.7267969235314243    0.2962734288880564 H
   0.8700623795393624    0.6919107738324987    0.1261755657107017 H
   0.8387952049556502    0.8879610767363174    0.2414942789466649 H
   0.1778760156469903    0.2859098181830690    0.6028791751867961 H
   0.2102564905958862    0.1851554453736447    0.4085276194325181 H
   0.1657425607897939    0.0672200237196140    0.4270438485102580 H
   0.0275913172279495    0.0945959966683109    0.5910958595253479 H
   0.0561804944419996    0.2838388120796207    0.3695853031147478 H
   0.0629442101109191    0.3186515796725186    0.5798218154677464 H
   0.3132617314011043   -0.0000046565051640    0.4556388645621322 H
   0.6467961039646045    1.2138843651080664    0.3522588805301511 H
   0.7759338825815572    1.0989828117365750    0.4323079712707588 H
   0.1951318096113119    0.4506742161070241    0.5727609342941824 H
   0.0332041161450775    0.5907309330547925    0.6193284830389550 H
   0.1166473891300900    0.6620753884817826    0.5614371177407252 H
   0.6064474655832863    0.5165442181776690    0.6388222324603683 H
   0.4826156953149923    0.3955701102240368    0.5457069292198952 H
   0.4940281453158025    0.5878779257204428    0.6271773331058381 H
   0.6109173050611745    0.6411488872961867    0.5946545212607166 H
   0.4122998902032899    0.4999324365798231    0.5044220782737020 H
   0.6159955172532402    0.6731479329246286    0.4451222374047163 H
   0.4936545133218990    0.6630834658979207    0.4637383700656357 H
   0.4739508329990688    0.4334395760880158    0.4171926236821600 H
   0.6342611665195738    0.4472083570023341    0.4058948408693303 H
   0.6456516977412644    0.4060658268395015    0.5257697455882888 H
   0.7214291851708180    0.5131753865242823    0.4900172438211833 H
   0.3199646821378110    0.6387932475693582    0.6752522569484337 H
   0.0752585129806536    0.8331646568352705    0.6904335853672731 H
   0.2397983751399863    0.7522575493894588    0.6923448778954386 H
   0.6285970067668850    0.9212165129679607    0.4890871292696718 H
   0.5774850180713580    0.0284431399344320    0.6969047270114146 H
   0.5732125199447513   -0.1008650256871035    0.6679556377433470 H
   0.4163197798259835   -0.0912860665336091    0.6671997269273297 H
   0.7607462664886198    0.9688007319432551    0.4164266723050190 H
   0.1104652806694926    0.1366180002533845    0.9408839076677546 H
   0.0566774647804539   -0.0314477770850833    0.8316734415096098 H
   0.1194461929721274    0.1448338311949099    0.8117665947162553 H
   0.0478383373196488    0.2356586414553742    0.8793216415044535 H
   0.0237305738562892    0.0349815597048393    0.7321219951523401 H
   0.3460451357219347    0.3191081794433576   -0.0681881821535120 H
   0.5475956159863649    0.2911762814489963   -0.0549482679462088 H
  -0.0649558447082238    0.2036759029616051    0.7523214525841529 H
  -0.1321293070932717    0.2077148837267054    0.8586832681149532 H
  -0.1528718507393250    0.1077202751463557    0.7813644928170195 H
   1.1347370628489106    0.4109386951730984    0.0537257453747625 H
   0.3767292563132245    0.4411326151165983   -0.0740870118136100 H
   0.5706078745289745   -0.3101285550762733    0.8537662618961530 H
   0.7013102054719956    0.4628758220806128   -0.0263570529639028 H
   0.0424591940347199    0.5707183726442689    0.8145169912811764 H
   0.0120702173998920    0.7043590474550155    0.8180942997729173 H
   0.0071815339249660    0.7347940906216550    0.9471936831509816 H
   0.4208474906678837   -0.2527600552972858    0.9175560982630121 H
   0.5234397469516703   -0.0077453568381367    0.8703460970429184 H
   0.4028567303806079   -0.1251567264824544    0.9471470662600509 H
   0.3780942971118610   -0.1672661956080459    0.8327779032332026 H
   0.5121802364981031   -0.2552520819686507    0.7474654069150315 H
   0.5908692177832670   -0.1084737864787634    0.9986494073604711 H
   0.5587846101828832   -0.2322664344139140    1.0005198204612049 H
  -0.0655772384793042   -0.0299497443953664    0.7879582727434562 H
   0.8614424398697532    0.6381550456169355   -0.0412321442684733 H
   0.6365398514775520   -0.2225948210861422    0.7709208748826309 H
   0.6736679484515942   -0.1869518720917188    0.9452142582437634 H
   0.6395202267241775   -0.0518628272286679    0.8310387346100127 H
   0.4296996391855916    0.2939774024457506    0.1221557553465863 C
   0.3387070467651946    1.0015387872657335    0.2627221767107062 C
   0.7012783762217889    1.1201865342116086    0.2167758518263077 C
  -0.0505075352905414    0.0729052838532751    0.9626511270007194 C
  -0.0669567471189437    0.1564667480837857    1.0392039509215121 C
   0.7275953790063122    1.2270190208536302    0.2407204385572125 C
   0.7515794424290958    1.0412236819588341    0.2822481993643023 C
   1.0633585224763302    0.4763523865539280    0.1846309953891950 C
   0.4518253084315352    0.3715244989155667    0.0348961073533798 C
   0.5370421217059049    0.5961345244986503    0.3282712628230025 C
   0.8446380425447264    0.5461820648288257    0.0615430393924000 C
   0.9236541561828098    0.5926247843770225    0.2329612363575042 C
   0.9783954027939487    0.4954541267819690    0.2513505240553246 C
   0.9016218045113358    0.6130887559246255    0.1259145111214888 C
   0.8252721139701120    0.5895612667587147    0.2916648113323372 C
   0.1301126087516160    0.9328442412230771    0.1418080021971644 C
   0.1898163248267963    0.8479315085149048    0.1901984865322151 C
   0.3013583152158560    0.8453957490732811    0.1635386452003218 C
   0.3496751170295965    0.7641854771692338    0.2255362414066234 C
   0.3586140725933226    0.9425262318183678    0.1763331888035009 C
   0.7044280252081500    0.9408451144802789    0.2534819917452713 C
   0.1046130389837643    0.1838960898368663    0.5183282410861891 C
   0.1309524669218423    0.2916914386579786    0.5455888091901058 C
   0.1859469007505342    0.1342616192931618    0.4624978587388185 C
   0.2699262072447093    0.1097112280432284    0.5370584918961072 C
   0.0061608277422018    0.1785866350340743    0.4587471354128148 C
   0.6219446934736889    1.0498983363713810    0.4168784975555797 C
   0.7354203108128043    1.0421576360355502    0.3875012500738856 C
   0.1583183881790857    0.3669221807708598    0.4721912316023952 C
   0.5669883824060399    0.5702150751695941    0.5974909797781254 C
   0.5534472789584530    0.6221718299373874    0.4349493560291954 C
   0.4764404590788713    0.4583705906858807    0.4893516263369843 C
   0.6517976365993542    0.4720269264942960    0.4776744537502711 C
   0.0021322574149063    0.7434613327002598    0.6124349206446862 C
   0.0703929780513324    0.6623874477407489    0.6291194645003116 C
   0.0729993596080295    0.1601603140871798    0.8725091207821106 C
  -0.0008459476555688    0.0106542797065659    0.8013416235382390 C
  -0.0970628774621622    0.1590721834644661    0.8114374077479897 C
   0.1956584390238224    0.5726218600006238    0.7132428715082769 C
   0.2762609514278888    0.4158760508119924    0.0313496377279470 C
   0.5704479325466860    0.4477895581067414   -0.0867044112312519 C
   0.5471968822883212    0.3582616097928030   -0.0184221409445321 C
   0.3626194943750132    0.3814436841970077   -0.0270075378881227 C
   0.1239182026261660    0.6675367961303894    0.9072616543796022 C
   0.0720126528516224    0.6472314485291493    0.8126200424117588 C
   0.1309322119444380    0.6599902989438440    0.7199456632411980 C
   0.5600298572580146   -0.0630117187111186    0.8259617965961726 C
   0.4279779661062302   -0.1742760398171766    0.8929746530836981 C
   0.5689598427603186   -0.2468212933428018    0.8053643026341040 C
   0.5431983327311070   -0.0431629708807174    0.7150279398394603 C
   0.5951907618908738   -0.1745161994369036    0.9586958631009697 C
   0.5623095549648630    0.5291400713689749    0.4993843701665376 N
  -0.0179259573517034    0.0991212265400190    0.8626887348203207 N
   0.5367937812150879   -0.1630389415608139    0.8682555087804035 N
  -0.0499252046901692    0.8647137737934213    0.3634827935004288 Cl
   0.3750206042907659   -0.2403614443121816    0.6187690803477847 Cl
   0.7072716793572968    0.8200018342207263    0.5333343760570810 Cl
   0.3260961531548979    0.1206043940046734    0.8640463621208150 Cl
   0.4913280844886108    0.2445712317874655    0.6543105151764140 Cl
   0.8717732017379715    0.7732277833453136    0.9247150183441184 Cl
   0.1615758225809194    0.9963427411722571    0.0881462232722389 O
   0.3369918842142846    1.1014533426395074    0.2627573186746388 O
   0.4062089291410115    0.2083397434780321    0.1111269161352809 O
   0.6984513600897956    1.2638583205463234    0.3230917676491146 O
  -0.1307874148402401    0.2320836727950550    1.0084124186872692 O
   0.7774233468128198    1.2799875592045327    0.1877693879232483 O
   0.8533339383796014    1.0432124111555241    0.2682882334878516 O
   0.2837408252264586    0.4802871573161351    0.0959735578509999 O
   1.1449405077163022    0.5158441232368290    0.2100694741786996 O
   1.0520425006358052    0.4249056077736915    0.1098116026280930 O
   0.4514353277772983    0.3390406866473055    0.2049322927981182 O
   0.4642513030338131    0.4661256857742273    0.0839915825158927 O
   0.4521706557962777    0.5444127407168246    0.3056986470513400 O
   0.8515160541575699    0.5641162068019587   -0.0323111057101804 O
   0.9869813430372005    0.6668326244058813    0.2693948467602566 O
   0.7936237117759698    0.4768817161454079    0.0918483215950870 O
   0.7535376647088567    0.5352513183342937    0.2572256866784885 O
   0.0323049398267388    0.9287600452209293    0.1673633818054650 O
   0.3144379668746511    0.8236776106226592    0.0639054399881888 O
   0.3077342927458943    0.9660885589538071    0.3404734133198909 O
   0.3798181403673728    0.6883484061398814    0.1869066168495586 O
   0.3540364476999618    0.7791391196642115    0.3201692471792180 O
   0.6156070557223088    0.9205568152471058    0.2516151645592244 O
   0.7698544957920812    0.8704123761281783    0.2282773145933583 O
   0.0803092362748136    0.1391737729966522    0.6100804090612088 O
   0.0025033575366342    0.2346928143427066    0.3764473094597712 O
   0.2814925227345867    0.1602292487928422    0.6099498817666023 O
   0.3240626981019211    0.0332322488944821    0.5187594975301052 O
   0.5781524195768281    1.1275951619868294    0.3937737320443678 O
  -0.0544847447822761    0.1175431000865482    0.4840624021736745 O
   0.1299180162901252    0.3562476786607094    0.3847874298387718 O
   0.2036280492403450    0.4464843943462002    0.5034008814891411 O
   0.8099318621545925    0.6484114920927462    0.3578184826608599 O
   0.0152046751531998    0.8337450425829440    0.6501300558343215 O
   0.5870010958126951    0.9830702160153685    0.4712571725447282 O
  -0.0711242087198683    0.7288486575666230    0.5676743143106876 O
   0.1647609177777378    0.4903512537261459    0.6856528439065784 O
   0.2892414983758131    0.5888674723017255    0.7186353700145719 O
   0.1939461700411131    0.3814466491305847    0.0053488875155224 O
   0.5149573313447154    0.4910594281109830   -0.1407606407717462 O
   0.6552735354003336    0.4936888794536360   -0.0729732267118310 O
   0.2097544565130808    0.6447920494287741    0.9229421421228706 O
   0.0750183468200032    0.7176982836173839    0.9723029749722207 O
   0.1811168120316705    0.7542144055501975    0.7335757249664457 O
   0.4452417897223085   -0.0301958338822471    0.6953082777927669 O
