Li1 Co1 H90 C51 N3 Cl6 O45
1.0
  13.4906339402000004    0.0000000000000000    0.0000000000000000
   0.0000000000000000   13.1409787202999997    0.0000000000000000
   0.0000000000000000    0.0000000000000000   13.1842187383000002
Li Co H C N Cl O
1 1 90 51 3 6 45
direct
   0.8591062897025119    0.7492616091516827    0.4867151475922354 Li
   0.1596758521244158    0.4210539397079005    0.5500919328675486 Co
   0.2286147918453028    0.0416050336460417    0.0516570137843311 H
   0.2564615188164173    0.1504393929765734    0.2058974765955700 H
   0.0981835602367818    0.2523732008390535    0.2623574015084952 H
  -0.0132900744838787    0.9756374418287854    0.2186202630821684 H
   0.6068675872750444    0.2828557096784602    1.1057975947219347 H
   0.5251926263440636    0.1291434144991338    1.0845729772034847 H
   0.6324668290549960    0.1162623343602159    1.1749757552260893 H
  -0.0374223725984900    0.1994897729915929    0.2190139155315868 H
  -0.0920172866154870    0.2210262206203232    0.3331746428280510 H
  -0.1562196068206974    0.2823192199580172    0.2222473266912606 H
   0.2588958002701703    0.4875486824967429    0.0088490164958416 H
   0.1739553886424116    0.4253154183383691    0.2705163984225490 H
   0.2765747322653012    0.3810767042841446    0.0849908053971262 H
   0.0106413435229473    0.3393956383865281    0.1238425576448326 H
   0.4932438682715715    0.5702727339648959    1.0353914509507118 H
   0.5196751688005601    0.3834813957970519    0.3295771600388573 H
   0.6174616038819379    0.5587073092553023    0.2783211839803824 H
   0.3536563582740923    0.6266246249283944    0.1258032350663097 H
   0.5628176929087616    0.6779351105742161    0.3175385248227318 H
   0.7487778939727309   -0.4205956995929007    1.0236053904275657 H
  -0.0719789399226412    0.4380161466138190    0.1530752340475980 H
   0.0486640192751585    0.7288422777067968    0.1921901797441449 H
   0.2953425678705305    0.8353404335738395    0.2654360822256231 H
   0.5214850170336549   -0.0451229052889345    1.1235074040503945 H
   0.5040783776539995   -0.0621513173092905    0.9858731584406331 H
   0.5508098064952638   -0.1660469272984399    1.0660758629761879 H
   0.6871810851286476   -0.0293721758793921    1.1872684821003172 H
   0.7885736517095271   -0.0719382595711576    1.1081845393429748 H
   0.6913943786070681   -0.1558901495697143    1.1420014843474451 H
  -0.0317732681651612    0.8189139554100370    0.2678776375910911 H
   0.3035415895392157    0.1450722128371636   -0.3378230230632763 H
   0.0460310814786509    0.2667336228454055    0.3897900566660837 H
   0.2541021041187023    0.0989143114425746    0.4439291007890756 H
   0.6559490465255935    0.0340447139685945    0.7017668284145142 H
   0.4971764855403500    0.0574546902380772    0.3797909810578313 H
   0.4695031751788901    0.2329355314358290    0.5808093388844500 H
   0.4280620536957797    0.2528617489249037    0.4640630962323451 H
   0.6750712020257357    0.1019452881184954    0.5017684020883445 H
   0.9243070804065668    0.1237496001182837    0.5403638630785201 H
  -0.0972438756929573    0.3934935876436723    0.4219005676036919 H
   0.8328955125390810   -0.0568328397828005    0.4505253960816713 H
   0.2153908024619429    0.3398293960328437    0.3635768993406492 H
   0.0990204371433857    0.5304123087143144    0.3853590015418016 H
   0.3677439097444261    0.6595810743084534    0.4730167553260823 H
   0.4501292894772575    0.5775947913282004    0.5669738584801314 H
   0.5731301808627515    0.6136362468453879    0.5927910879084630 H
   0.6225970185931442    0.4197420130723777    0.4145501131001969 H
   0.0493734003199945    0.4550341332310969    0.1880640346095857 H
   0.6937271081244129    0.4833569094810157    0.5686174901909015 H
  -0.0082154426835154    0.6308267472493672    0.5142949691362828 H
  -0.1665830931193945    0.4145171358800925    0.3043386528049500 H
  -0.0614412586965288    0.4960976652164589    0.3354864976755026 H
   0.3043065647098225    0.8662993148458663    0.6682396237485367 H
   0.2324426327183785    0.7468934445984653    0.3326163996627872 H
   0.0736917534421857    0.9530097512793245    0.3609540666429827 H
   0.3148864974715208   -0.0212571030016570    0.4331922491932523 H
   0.4577212232925250   -0.1048406794900089    0.5230642411193194 H
   0.6492458774676494    0.7393262761160763    0.4848041871856995 H
   0.2745207146318208    0.1983140614765797   -0.1255252710645935 H
   1.0515627755510568    0.1699699017356760    0.6531534056003049 H
   0.9816891132622091    0.2338365297748423    0.9336167438835400 H
   0.3850966895350346    0.2399844736776200   -0.0653533324956880 H
   0.6128888017235328    0.2999533707265614    0.7472226883251999 H
   0.6274544626754960    0.0704301316895269    0.9330433310670462 H
   0.7721044478911701    0.0382742315093345    0.7598248760845198 H
   0.7325866607832280    0.0825578432848442    1.0112337813669419 H
   0.8860753707414573    0.1736956516240285    0.6524245038587035 H
   0.0590097154536089    0.4473786912627910   -0.0822621842392040 H
   0.2923367788038531    0.4624745227242296   -0.1931151690849674 H
   0.3496113296830051    0.6997302908340819    0.7467425688637704 H
   0.2137867266197012    0.7576064974841324    0.6638912432234582 H
   0.7079621693417921    0.4989822296622899    0.9003239103290659 H
   0.7956770984730214    0.3887374731007386    0.8753895546023200 H
   0.9605952194347274    0.5680091278337902    0.7829426660764733 H
   0.9350293341302385    0.4430159264170161    0.7173005512740310 H
   0.1720118180054627    0.6675340588025653    0.8250968513969501 H
   0.2158036815026677    0.7093513398206914    0.9378498350592707 H
   0.1878205636096621    0.9236474025370696    0.8790537838569259 H
   0.3153920333885304    0.8880412266228513    0.9351754255474222 H
   0.3011302869907813    0.9517442443217408    0.8228570523928411 H
   0.3696000122901623    0.7095141891826415    0.8803644417231976 H
   0.1682543963583634    0.8812312315756973    0.7018381257752954 H
   0.0844458811312992    0.8492998200019313    0.9252855714280257 H
   0.4224181380475228    0.8091072277116714    0.7857202292166858 H
   0.6467782395384338   -0.0871639139351601    0.8824479933196377 H
   0.8047359759536292    0.6663066007613250    0.7432141079876731 H
   0.0510701330385209    0.7186771292164756    0.9355743873747711 H
  -0.0100952653895804    0.8525743097424502    0.8001670465655732 H
   0.7069859364932560   -0.1848316772972105    0.9567049530555952 H
   0.7732637707272448   -0.0581683567464562    0.9386447247837225 H
   0.2623848876035490    0.1811357367258304    0.0123046630460348 C
   0.0696222634357593    0.3102045097678188    0.3194400406044119 C
   0.6091172962312382    0.1302765112278423    1.0941116538969065 C
  -0.0872888209049235    0.2553227528339992    0.2608442287983031 C
   0.1476297169523876    0.3865001968197427    0.3393426230181678 C
   0.4086055921860021    0.4395839141628352    0.0156321260433346 C
   0.3009872247737976    0.4159249457848009    0.0143973164332129 C
  -0.0072221609697428    0.3971630251358364    0.1780998491991623 C
   0.2461365777782547    0.7181779274340493    0.1712022087848827 C
   0.1272088826742384    0.8415302312845949    0.2638159634742595 C
   0.1210231096134683    0.9247165770863210    0.1748838831384030 C
   0.2281989477845368    0.7863714782397949    0.2603519736158897 C
   0.0345127198739407    0.7739119800939626    0.2619774017451839 C
   0.5475014371333909   -0.0850019745085242    1.0517246144300494 C
   0.7103171365094454   -0.0781044669537802    1.1257396182288886 C
   0.3121127212230604    0.2493787511228225    0.5647932211158193 C
   0.3398230572722838    0.0894446971430121    0.3167967288775850 C
   0.3250750475877923    0.0640866163567438    0.4292506428659061 C
   0.4101511088824318    0.2057678441882653    0.5318341198884051 C
   0.4122636856617242    0.0900070601265685    0.5003116604807278 C
   0.4055531040536772    0.0229557377894539    0.5931604689159133 C
   0.8946264885400245    0.1012033342497977    0.6100503585953919 C
   0.7824382839894559    0.0580322727881710    0.6057747923962172 C
  -0.0926421645891514    0.4186484872166664    0.3440156340795683 C
   0.6058705992862206    0.6106197287576776    0.3443963923254412 C
   0.4505063659009859    0.5141396166605890    0.3810068286039155 C
   0.5496040069700445    0.5518768438911555    0.4348132781236898 C
   0.5142112298687987    0.6142442685285564    0.5303936098076046 C
   0.7091830163437199    0.6517117974302973    0.3785736165466241 C
   0.9167173703563302    0.5918403056071951    0.6336672301128125 C
   0.0397363439313700    0.6998406326914780    0.3469638557961181 C
   0.4856107206777325    0.7212751092244077    0.5064524869951429 C
   0.7713668991559434   -0.0681516314166556    0.5929678143452924 C
   0.3016817807184281    0.2487996466160749   -0.0679344486524720 C
   0.6542078385064504    0.0560453583767151    1.0130814448867553 C
   0.7129715707012509    0.1892546144951998    0.7294795057640340 C
   0.9712685503277206    0.0475939330785037    0.6720927151609560 C
   0.7259931974668050    0.0801029272023636    0.7024942131909927 C
   0.1571348299491827    0.3513285395301669   -0.0843806260334730 C
   0.2665766846866712    0.3571370870991608   -0.0736534071661808 C
   0.7882252618546964    0.4718821933879850    0.8834544996787479 C
   0.8025922664639051    0.5240469533035501    0.7793239457755576 C
   0.9074731791231528    0.5257590784411735    0.7309319998693061 C
   0.8604635276263309    0.5068618558456917    0.9633644299455638 C
   0.7235403846377950    0.4868303189561782    0.7110961639209623 C
   0.1839074784104044    0.7354026718627377    0.8673223340782079 C
   0.2660844913598466    0.8990883489940141    0.8707104756804277 C
   0.2305665162873648    0.8288941861669289    0.6994405623983942 C
   0.3617152827458349    0.7570357637389804    0.8060543882079351 C
   0.0819382154315287    0.7772077772276339    0.8903695851919420 C
   0.7037977986940502   -0.1038186855970233    0.9453436427668891 C
  -0.0279817487875891    0.3460450670067128    0.2764173927510178 N
   0.6542819640074782   -0.0526786590964205    1.0300297377234693 N
   0.2590381212321437    0.8036784083277851    0.8113925884757709 N
   0.6403619361694671    1.3175320674596405    0.3225179628389783 Cl
   0.9165565180190999    0.9933362757551135    0.3386402681662189 Cl
   1.6176162341097871    1.6405140987328108    1.0491783884710946 Cl
   0.0190797905599523    1.3170830902467874    0.5950202681567109 Cl
   0.2133227009832672    0.5500081094138624    0.6493822303045277 Cl
   0.9068097558889541    0.1678977577516107   -0.0644628739684872 Cl
   0.2514832501673901    0.0831864113828383   -0.0099985166748680 O
   0.2562939951840945    0.1287941254471008    0.2794801453343542 O
   0.2448112138198776    0.2067624428614835    0.1022053256129266 O
   0.4179550416306388    0.0887057871876219    0.2706870569988865 O
   0.4827623000497372    0.3872451946017478   -0.0007169655697945 O
   0.4248286993409470    0.5446507458948693    0.0383426108997629 O
   0.4542772042637712    0.4276036801672653    0.3301445049948592 O
   0.8223489362528453    0.5713902306379035    1.0301177217006035 O
   0.2059375773158673    0.7176429596702601    0.0909949533539589 O
   0.0412611054875119    0.9823888415447706    0.1693264814102936 O
   0.1954940354760602    0.9394453126028779    0.1267991226695590 O
   0.3264300617465805    0.6588923889226367    0.1899814785250573 O
   0.2602545207040100    0.2032992304959010    0.6332030387851745 O
   0.2809132978404584    0.3282130618731826    0.5285839462641222 O
   0.5049407537329570    0.0661138626195238    0.4556968818824896 O
   0.7450790314714436    0.1190010953586187    0.5226652034437143 O
   0.0813830154288304    0.6166634186296742    0.3251210749900457 O
   0.1258323721201521    0.4568136049506483    0.4171172731778493 O
   0.3736383695861569    0.5601132167141936    0.3957138054713975 O
   0.6082492866142026    0.4719540297420415    0.4753167019973182 O
   0.7816518124235510    0.6276823848027429    0.3302302135243086 O
   0.9916315667150684    0.5680703104912705    0.5670352955676129 O
   0.7525560707601179    0.4972840304280483    0.6143433698934809 O
   0.1305549077906334    0.9066349710615779    0.3581651262643478 O
   0.5427809769769384    0.7940954082575192    0.5023327889623566 O
   0.4306647482878679   -0.0775337332086281    0.5879671388173240 O
   0.3874486916826468    0.7323488658370109    0.4884310626911165 O
   0.7138455103583689    0.7097713998571233    0.4600005877846958 O
   0.8684075575714805    0.6731630154864181    0.6188881974019881 O
   0.8008095481641865   -0.1098501998157900    0.5005641593254512 O
  -0.0000334698802489    0.7127985716414097    0.4313076475726936 O
   0.7329031766726167   -0.1190420570260453    0.6583391508732793 O
   0.1053322235559031    0.2776315934645019   -0.0630240325493220 O
   1.0589612418086418    0.0964335220969805    0.6706053308578548 O
   0.3692345735700952    0.0495610620534611    0.6752290405527578 O
   0.6166351045454780    0.2189517937012772    0.7481002526488550 O
   0.6429400210952142    0.2296876759367504    1.0693138250312308 O
   0.7796971229614478    0.2496945571284733    0.7167673380332966 O
   0.1207673766349224    0.4390752762491557   -0.1176325015296261 O
   0.3153394042828007    0.3944113275058767   -0.1657384995101921 O
   0.6478167378078333    0.4417246983919842    0.7329639746515643 O
   0.9469620572856940    0.4774325410106722    0.9651741693373024 O
   0.7777824612698996    0.6299744515232735    0.8030712762935561 O
   0.0279666968781755    0.7848289751712306    0.7984141933659472 O
   0.9565620509238048   -0.0385305500432650    0.7075866651089026 O
