Li1 Co1 H90 C51 N3 Cl6 O45
1.0
  14.1864763959999998    0.0000000000000000    0.0000000000000000
   0.0000000000000000   13.8450106600999998    0.0000000000000000
   0.0000000000000000    0.0000000000000000   14.3092978226999996
Li Co H C N Cl O
1 1 90 51 3 6 45
direct
   0.9260285870848179    0.7382687583951759    0.3696344137103149 Li
   0.5424545516369251    0.9279681428506177    0.6806769299223498 Co
   0.1048768313687469    0.1453259141069861    1.0411208918767878 H
   0.1303179620572500    0.1948347239467215    0.2950528365271915 H
   0.2560532010418184    0.9817319151057864    0.2759093395230658 H
   0.3784733109776219    0.1966411508693151    0.1553143235144889 H
   0.3557685891701109    0.3322156221414407    0.2772818736783647 H
   0.6580282821555403    0.9893064849327513    0.2730412742616876 H
   0.6389904328361595   -0.8283172509971307   -0.7723321735024663 H
   0.7859529302035714    1.1724136028857892    0.0954141096381473 H
   0.9972365440010845    0.4168720394440140    0.0701885531871955 H
   1.0210550025504728    0.4226270368186006    0.2374734912505177 H
   0.4270132007133253    0.5588965599210388    0.9755334667194774 H
   0.3709407851398366    0.4451836102779485    0.2172991959372953 H
   0.6100198845105808    0.3980350008600280    0.1491015798074588 H
   0.5193368449671794    0.4982388962602776    0.2752573159146677 H
   0.6016569903930922    0.4042046602483136    0.2995030898372441 H
   0.7659655850669066    0.3477555162796260    0.1525105521137460 H
   0.8963453882237723    0.4406302009994941    0.0100353569461806 H
   0.9110164026596531    0.3802574775310411    0.2809207664210538 H
   0.9452038912552533    0.6137025848948412    0.1788647453573697 H
   0.0949328540157958    0.7154677647556578    0.0101576550506497 H
   0.1900086122484957    0.6764638222338757    0.2047171669495145 H
   0.2366748866298258    0.7260643618693606    0.1063398728682609 H
   0.1187654104986254    0.8653946987942197    0.2709964499549643 H
   0.4208672066295102    0.7282449307935149    0.9166381938387160 H
   0.5491428932202341    0.8713549686723655    0.2327856301946394 H
   0.3789068224309475    0.7499834478224231    0.2069248224467595 H
   0.3776803022215383    0.8353419953175008    0.2983954184339098 H
   0.6370033291175822    0.9531974480909994    0.0778765614572786 H
   0.6529424526665248    0.7315190344480998    0.2162942549417149 H
   0.7047467188906039    0.7515182967670498    0.1007861412327413 H
   0.7543002500407502    0.9252046924684333    0.0630211854189951 H
   0.9395160800082863    0.8599876968179960    0.1750700098872714 H
   0.1294953476409393    0.0924751061181742    0.5586467631289859 H
   0.1952706659055298    0.3073821273583087    0.4867885201361803 H
   0.5726558495519454    0.0401407296566131    0.6533681126175559 H
   0.5415539051590158    0.1654364078318056    0.6275604171893311 H
   0.6158500848853068    0.0970680964423536    0.5481642781140994 H
   0.6397467869652952    0.3049191462283431    0.6369186681433066 H
   0.4419612395413314    0.3268245103660554   -0.4633931846873000 H
  -0.1822296978571028    0.1476155475914410    0.2969229492561019 H
   0.6932540835491057    0.2397144293694627    0.5388385933982284 H
  -0.0238774800623155    0.1406975319718483    0.5062019535164902 H
  -0.0440854578573395    0.2556320769184902    0.4483960702195610 H
   0.7800423716082290    0.1087170582206781    0.5664326098826442 H
   0.7612702683342202    0.2836009972397985    0.6387985647205744 H
   0.0839597275216162    0.3420140978039377    0.4885034190993616 H
   0.1370490203788868    0.3743773809389441    0.6444459417618017 H
   0.0531980367522969    0.6284046320797243    0.4892624360780124 H
   0.4348692741235927    0.5250686336378374    0.4028974015869757 H
   0.8812352231611891    0.5359005501803211    0.4451504881808445 H
   0.1592321186490627    0.6637292708255400    0.5223574213014482 H
   0.2188135098561369    0.7587815631139516    0.3702724603924880 H
   0.1112906861879503    0.7987425290953244    0.6270928890071036 H
   0.7532175287524442    0.0153888527232424    0.6547154883056497 H
   0.1331847768225758    0.0966491729657025    0.7778780656617663 H
   0.1039139425146935    0.2806995910230617    0.8344398907092572 H
   0.0493302687126256    0.2570296923104209    0.9433201460023170 H
   0.1637286545202243    0.3210578120253968    0.9365091898528550 H
   0.2688823204735694    0.2031351870392628    0.7968929749446216 H
   0.2874225127424658    0.2550123590857892    0.9129147406923654 H
   0.3227554584301865    0.1323501205586479    0.8896690158411906 H
   0.2117969683823101    0.0641515454054251    1.0177996916239975 H
   0.0129498465702025    0.0517232415041584    0.9518516617700812 H
   0.2221920796053887    0.1905826506587133    1.0521493855146553 H
   0.5897921696087388    0.2025689180639275    0.7755348339801384 H
   0.6544593903048285    0.0991078204045304    0.7964603890779567 H
   0.7460614177375465    0.2081817703691954    0.8885319928927836 H
  -0.0605208286634223    0.1768751855899483    0.9026193368350012 H
   0.8094471362838055    0.2317505496219550    0.7817699407691286 H
   0.8277335657507551    0.1211525849405077    0.6816706893769501 H
   0.1794422111341030    0.5689593907429397    0.7824429297668642 H
   0.5974064634604845    0.6335935049353471    0.9388531203807943 H
   0.3668974978288189    0.5106877851944487    0.8760422116180880 H
   0.4433886553022817    0.3771494987034041    0.9426953774000577 H
   0.5198485294614380    0.5093408739888299    0.7307080361911908 H
   0.5807520812583884    0.3597085587194506    0.8284654535943640 H
   0.5535041594200246    0.4345023617306880    0.9537420410420179 H
   0.6269085038768072    0.5579453147162984    0.8371073870793061 H
   0.4110472910908441    0.5529427905795998    0.7011475360715431 H
   0.7643245856143178    0.3818486644604588    0.8285919447767006 H
  -0.0422576607866511    0.6102464662124699    0.7526965365284234 H
  -0.1569478738164885    0.5096964533466839    0.7085196658089403 H
   0.1738502658345381    0.0261255725170664    0.8685701468581819 H
   0.0003082296532233   -0.0006515827413552    0.8394555106851127 H
   0.1112258356941195    0.6986349860947046    0.7632344400557922 H
   0.3455919959153753    0.6628545874975669    0.8365706731122645 H
   0.5180344496799881    0.6316375656685004    0.6924231387218732 H
   0.6061408381241563    0.6914511707519952    0.8276610814901130 H
   0.4310141942240187    0.7548379041785814    0.7952346126480206 H
  -0.0694123952849666    0.7086161990668441    0.6686728468339743 H
   0.5195514789548592    0.2476486955608625    0.2302341423122583 C
   0.3527791223838441    0.3286865529915838    0.1174592165265913 C
   0.7337905764700784    1.0541630619368973    0.1420621009142175 C
   0.8902945551906870    0.3008613667596782    0.0765606338531911 C
   0.3856547982727141    0.3668345915136563    0.2137266935941751 C
   0.4949201970039355    0.3579981952837442    0.2146855107332128 C
   0.5307130877701847    0.4224738408368804    0.2995562021568993 C
   0.9202843841040851    0.4075242676598451    0.0773545232627734 C
   0.9445652548703539    0.4425270576104958    0.2493524808491790 C
   0.7868009209000767    0.4849872632710202    0.1847322589866414 C
   0.8937443195038183    0.4740998754819731    0.1581453499213707 C
   0.9317544627520770    0.5210222662225020    0.3243994896755962 C
   0.3324738688480740    0.6938513133604635    0.3356299498974157 C
   0.1934104435879259    0.7456851484956121    0.1675706901212263 C
   0.0955010007334876    0.7776100065438476    0.1413891119164818 C
   0.2388713446600091    0.8229498055090487    0.2294157932817822 C
   0.2616416218580229    0.9114495567971528    0.1640499024051388 C
   0.3337102576108921    0.7735486156659014    0.2620099852385750 C
   0.5639204880329327    0.7937436163679072    0.1281410823940779 C
   0.6630189505938259    0.7862441638539972    0.1622964970102076 C
   0.7051146749534267    0.9527662458227911    0.1162746720290191 C
   0.7083304135714295    0.8759631269155270    0.1974323930010238 C
   0.8078357424914437    0.8470747417911555    0.2236705777569797 C
   0.1557055205986754    0.1120951704625694    0.4315109649548772 C
   0.0891978146917998    0.1968520571713533    0.4242178048506514 C
   0.1135498800219482    0.2468570746463632    0.5986512418317701 C
   0.1273432981010967    0.2769386693973341    0.5002260068935647 C
   0.5954313429853326    0.1121601758296359    0.6191204502883410 C
  -0.0170547851733091    0.1800922289778859    0.4408650228309851 C
   0.6969547910774954    0.2516667495274311    0.6157408295271263 C
   0.7634942173346143    0.0959911741946178    0.6397098603104470 C
  -0.0696922392637800    0.1280951581432145    0.3620749931615022 C
   0.1179977780227366    0.5435314579920769    0.6549447098957404 C
   0.0678225280078209    0.6428235447769397    0.6427582279201282 C
   0.4960748177527931    0.4014450379599676    0.3953323902676730 C
  -0.1014245727505456    0.5782017093760895    0.6107538622500321 C
   0.0587603763916346    0.7778151345910354    0.5221834085699465 C
   0.0874066722480592    0.6747505696707442    0.5406409879195784 C
   0.1302693241868768    0.0858265016309794    0.8514609914661107 C
   0.1177313270806925    0.2644135797273239    0.9089473901833879 C
   0.2686419507083921    0.1906902706553013    0.8742028481268728 C
   0.1761439996054676    0.1395837733494415    1.0109027773782517 C
   0.0240900335756637    0.0692588004112865    0.8788655507155461 C
   0.6620116532494318    0.1739643897090798    0.7676155075810309 C
   0.7399880280109551    0.2367581297316476    0.8194573246423258 C
   0.4397450444043301    0.5266312182057459    0.9036361582178728 C
   0.4898104010280694    0.4287686716708620    0.9076300648866779 C
   0.4798282182754918    0.5744357317773677    0.7337102799443295 C
   0.5866744116281545    0.6239510421538098    0.8619157322824403 C
  -0.0396128884730286    0.6330012338131852    0.6759359565468163 C
   0.4159709943452826    0.6943439095864565    0.8471078777933221 C
   0.6811918916965716    0.1576574322395093    0.6660430881647331 N
   0.1723636387531335    0.1697029267569398    0.9104443189820898 N
   0.4822441811293590    0.6055559678376907    0.8352121158831907 N
   0.3940776086073291    0.2910867263984390    0.6169742932664860 Cl
   0.3948959936436072    0.9599088910996917    0.6453684188926543 Cl
   0.6269141430501838    0.8662534919213544    0.5610281518192082 Cl
   0.8682108473512735   -0.5220047385610175    0.8422648728563458 Cl
   0.1646612328173785    0.6421359324497470   -0.0983661886236715 Cl
   0.6291444361206266    0.9241956647151893    0.8080968790066135 Cl
   0.2079108730291649    0.0994075673748928    0.3634866627102312 O
   0.3500497624695728    0.2320690759205810    0.1006666385135172 O
   0.4648115225116257    0.1780452821971461    0.2368599041892384 O
   0.6135577609077214    0.2396645919213784    0.2348758795115941 O
   0.7183032916879356    1.0864577282955559    0.2229486695174563 O
   0.9307542143744036    0.2433020033496796    0.0233260160935710 O
   0.7646079540764916    1.1059030004307280    0.0720991990021585 O
   0.8160851482447283    0.2785934171301058    0.1273667606812107 O
   0.3206971601477298    0.3814369638023707    0.0572207610356036 O
   0.3954451081511531    0.6399734205720000    0.3560544321900663 O
   0.5420815203180633    0.3854535732052268    0.1341518595171562 O
   0.9294184351808230    0.5633111466267134    0.1300496316701071 O
   0.7594163900866649    0.5651450202598461    0.2130690792152870 O
   0.7281288463999783    0.4146118028311103    0.1707853831529855 O
   0.9605093126960009    0.6076527520665149    0.3203608568428710 O
   0.2755619213381448    0.9945690305377161    0.2128146991579913 O
   0.0556066686807745    0.7484832684068987    0.0625571514683238 O
   0.0483871169653903    0.8344868135996475    0.1915208520541432 O
   0.1837582934572135    0.8555276063553748    0.3052685719050731 O
   0.2863123004839489    0.9097760297361175    0.0827209640868774 O
   0.5311215753916516    0.7433095634702581    0.0628877057735460 O
   0.5076499964945912    0.8429909601756640    0.1858923438633197 O
   0.6539370618708215    0.9166861002552910    0.2753544555519317 O
   0.8270180956285997    0.7947266419743246    0.2908688436617258 O
   0.8716310060041776    0.8809129244767161    0.1666852518448700 O
   0.0909762689954431    0.2403630384764156    0.3357459583850835 O
   0.0776325749930779    0.1665075518246910    0.6168275355411231 O
   0.1550760478705131    0.0530038472353693    0.5032321641860462 O
   0.1432831265467112    0.3055901460728411    0.6655161580460491 O
   0.5073890437465893    0.3236840288548851    0.4368326796150611 O
  -0.0459788103185309    0.0566932629573238    0.3188695188146592 O
  -0.1546830408091140    0.1751633775905293    0.3517334654475953 O
   0.0905117420885462    0.4720593714553915    0.6043104992602888 O
   0.4434105070991161    0.4667691985694234    0.4410732790317382 O
  -0.1610101933376523    0.5111726530045795    0.6394317194785687 O
   0.8919665700968471    0.4798812361443146    0.3999252082252211 O
  -0.1056631164397279    0.6126581653306387    0.5284632415228568 O
   0.2560144317248544    0.7030084027345704    0.3971074598982531 O
   0.0971102798358330    0.8440353797398664    0.5768995106247898 O
   0.0056083477305495    0.7965150118505109    0.4539882384021994 O
  -0.0316292287651158    0.1502554877761990    0.8502582769644459 O
   0.7122700810716522    0.3354745578770434    0.8106267026533457 O
   0.1811529953572271    0.5254295578814280    0.7239152500458216 O
   0.5185157883725140    0.3927356188803922    0.8189779160728070 O
   0.1043178483077920    0.7191853494700078    0.6983172085109725 O
