Li1 Co1 H90 C51 N3 Cl6 O45
1.0
  14.1419142060999992    0.0000000000000000    0.0000000000000000
   0.0000000000000000   13.8015210735000000    0.0000000000000000
   0.0000000000000000    0.0000000000000000   14.2643498293000004
Li Co H C N Cl O
1 1 90 51 3 6 45
direct
   0.7987045768618724    0.6005746752519351    0.4788574310389863 Li
   0.5733869180526029    0.7556206291438374    0.5953201524304402 Co
   0.3326481502745114    0.3272207470936917    0.3071079276043649 H
   0.1827709859026791    0.1731877250319513    1.0392639757228588 H
   0.1865335599944558    0.2558083285094511    0.2732620106311066 H
   0.3331120195855818    1.0119112206781067    0.2964575999120403 H
   0.1005791423473965    0.3171196865469902    1.0656514384887290 H
   0.0195017165272463    0.0175693704634910    1.1469583339223861 H
   0.4344766565865386    0.1839321929214167    0.1063928558161613 H
   0.5521018221587131    0.1844806831899665    0.1626540951718833 H
   0.6324505630321284    1.0872790003931447    0.0764566859163689 H
  -0.0132972379311202    0.3082402304821579    1.0062039340354809 H
  -0.0061709042162310    0.1555672034456065    1.0648599548154380 H
   0.6817897111722743    1.2338708136596319    0.0317010533330555 H
   0.3903659378458659    0.3416235074083989    0.0635538896303476 H
   0.3701529740395446    0.4086136598036474    0.2329117663586520 H
   0.9655553981589078    0.5829969025768774    0.2221415593854304 H
   0.7405851463504447    0.4702755813750343    0.1887366018723137 H
   0.8590973912682561    0.4954396693150838    0.0320249377060053 H
   0.8181071836095249    0.5546217692916092    0.1468209164639349 H
   0.8392500073915437    0.6515147126764991    0.2914584235841067 H
   0.8705003737535014    0.3346568839842158    0.2688958810321204 H
   0.9925142662756125    0.4571283848425883    0.2595754422044838 H
   0.1090051586747053    0.8702536461551128    0.0955308114990946 H
   0.1348962788345253    0.7636820594316648    0.1708142988539962 H
   0.2431828924910734    0.9718830239990649    0.1441106632478655 H
   0.4273333520431956    0.7715971290401696    0.0643222387055706 H
   0.3626221689131734    0.9246585190673984    0.1569629840471933 H
   0.6600550297479294    0.9601241751638007    0.2166831963382714 H
  -0.0051993242872513    0.7178436336066506    0.1098020543132502 H
   0.7516819468056695    0.8613821602262831    0.1855587493559032 H
   0.8837171135297460    0.9115425734382190    0.1795101035338010 H
   0.1266046148991423    0.0017645907701262    0.4102812245026941 H
   0.0316528297001631    0.2308603537053463    0.4855290284926972 H
   0.2315076696327152    0.0091318946678997    0.4828985545875405 H
   0.1705010769305858    0.2181407412028468    0.5873078699662764 H
   0.2499500103370239    0.1405174129990434    0.5296317746765989 H
   0.4268228129538773    0.2197978049335911    0.4340243326045669 H
   0.5791446251644787    0.1076210389267860    0.5826116166633462 H
   0.6461608710692375    0.2435140314463687    0.4850016297615929 H
   0.6593330624207908    0.3109790590358149    0.5906413552333249 H
   0.7620263738661093    0.2732593035662838    0.5175518550123982 H
   0.8191028055454809    0.1199653304793398    0.5254947477033270 H
   0.8405595896538948    0.2004818180521253    0.6545839821959981 H
   0.7711595080456596    0.0306563337799333    0.6058057337425847 H
   0.7011442339059745    0.0599212240662308    0.5037468234226995 H
   0.1565234783453294    0.5166137122661257    0.4964533259100192 H
   0.0193793851388086    0.5478891780427785    0.6029496624538453 H
   0.4657133755739480    0.5200827501891943    0.5758525984708759 H
   0.4904376805657844    0.3410547295209331    0.3491743384243978 H
   0.5143077376938635    0.6464891796478841    0.6069778867113556 H
   0.3880098211621975    0.6228620737467730    0.5990237912665745 H
   0.0319278985446850    0.6710698036380461    0.5679857134503262 H
   0.1564471096172874   -0.1692955400246667    0.3947607133928748 H
   0.1679483814839942   -0.0293761797080808    0.6483313312818431 H
   0.0177982696211967   -0.0540872241055598    0.6176078839993177 H
   0.9717235871840100    0.6851783934784715    0.3357429516249477 H
   0.2108152799225742    0.2170683956315737    0.8232828734035821 H
   0.1532643721643487    0.0889419383677181    0.9452716090153328 H
   0.2402731025290999    0.2730180258127474    0.9408991699805100 H
   0.1723112986323239    0.3331541510687967    0.8505424404117674 H
   0.0567618775154040    0.1718661315711391    0.8093306076233923 H
   0.6233683413379395    0.0638070276464589    0.6890131714599367 H
   0.6160150227924809    1.0310489663362394   -0.0326664089759545 H
   0.5867021593456646    0.1841546321716740    0.6848769857447764 H
   0.7740021218116702    0.1276876677081429    0.7315324595633583 H
  -0.0005372962874236    0.2883402499990393    0.8281488505305190 H
  -0.0251117630063700    0.1780400887419621    0.8987283029449586 H
   0.7898316620519469    0.2733245137699423    0.8074770355842593 H
  -0.0017966731822655    0.0547326655284696    0.9941381895704599 H
   0.0731740828659276    0.3854223029745388    0.9610381881227829 H
   0.1063810443250374    0.6340506955789347    0.8910076566261349 H
   0.4541905366127478    0.4192209688980844    0.7264884161361417 H
   0.3357721969457140    0.4738675687897539    0.6873909454014823 H
   0.6180967777494797    0.3375413486593768    0.8033100037383419 H
   0.5763665005465926    0.4004064484827524    0.9167957229875200 H
   0.3713246683207087    0.4652717263917889    0.8058344791214423 H
   0.5784681255152393    0.5136761375028741    0.7007641451815498 H
   0.6347578885839923    0.5446619975195012    0.8746514957921679 H
   0.5135444393282614    0.5501418283002704    0.8976059244144551 H
   0.4421566635797327    0.6552860361214156    0.8443893383741468 H
   0.5857828354259655    0.6300735977135846    0.7454419613895441 H
   0.3335377045326311    0.6388950891529427    0.7865871945774210 H
   0.7509380588251113    0.3504254357866594    0.7143126070681918 H
  -0.2150521035326450    0.5789799540315139    0.8173092397630938 H
   0.2422332332155132    0.8163566882735449   -0.0402650728686023 H
   0.1474766125437526    0.7054681860679043    0.7229053576293308 H
   0.4269260521603045    0.7185029812214199    0.7377773989448242 H
   0.6672987450262906    0.7702233674164306   -0.0037145110666849 H
   0.7963512886496128    0.9437317790796909   -0.0203370703026453 H
  -0.0844290511594946    0.7459332911114581    0.6974453819314534 H
  -0.0873162133501963    0.6740774431423399    0.8091420255967180 H
   0.0427199312055937    0.0982423625250569    1.0419139387742666 C
   0.2726187944441797    0.2991977489081795    0.1770928885599243 C
   0.3566958141935380    0.3248384009867012    0.2361884667031706 C
   0.5209889831478378    0.3069693560686356    0.0772117150714922 C
   0.4885619797509289    0.2270419340022319    0.1454678930011791 C
   0.4503904852748024    0.2617315886750980    0.2420408189659093 C
   0.4313405889118478    0.1628975548946402    0.3059904564128453 C
   0.6639540775851887    1.0388915801629015    0.0288968596278620 C
   0.7985355756951866    1.0141298167181327    0.1957786333144807 C
   0.8572192862527029    0.5105400338973731    0.2921258216859428 C
   0.8691455359486068    0.4143058584809979    0.1401329144770486 C
   0.9614321939624881    0.5303086520480108    0.2810205135649504 C
   0.8162439280688687    0.4871842024434815    0.1949128385080022 C
   0.1069997724457486    0.7401056725778437    0.0350590752950246 C
   0.2516364864146197    0.9004966894962877    0.2708525071899192 C
   0.1492062228103351    0.8055426628335105    0.1079751221143167 C
   0.2556005890942852    0.8181253339083271    0.0998247331101720 C
   0.2867250884785439    0.9034275258718280    0.1670685971122841 C
   0.3098980476143479    0.7233415783328804    0.1175577530533889 C
   0.5991403623665914    0.8760725699949061    0.0612859979712724 C
   0.7221986679564630    0.9363811400117412    0.1753101224118476 C
   0.6872797741770766    0.9371383029319983    0.0656339003111748 C
   0.0140562019471351    0.0782539859880902    0.5651234028305927 C
   0.1511557467289647    0.2093859090827841    0.4374117986004405 C
   0.1746256953627101    0.1626157019032718    0.5321138366299083 C
   0.1232245915654283    0.0704577438618074    0.5534059392237567 C
   0.6160616925707288    0.1286339402190096    0.6434646531064798 C
   0.7504572186855873    0.0869928778361474    0.5556422837036484 C
   0.6920379702048093    0.2535216240344931    0.5458397338732465 C
   0.1652981037737934    0.5958744686837941    0.6083820867092312 C
   0.0573233290900837    0.6150506159063034    0.6154227160545457 C
   1.0182123432617705    0.5605834310216330    0.3641234950667840 C
   0.4570322311255505    0.5907525694653283    0.6160031841515207 C
   0.8382204437986802    0.4379492669330234    0.3711592170731143 C
   0.1283165472194188   -0.1120337356343203    0.5143656179568091 C
   0.1575693056487945   -0.0074923599181070    0.4824666386520981 C
   0.1904156370032612    0.2683156455711512    0.8819900707186592 C
   0.0290152801113025    0.2191000557544452    0.8621889579178620 C
   0.1238171563256066    0.1435598312786216    0.9917370987103880 C
   0.0612690467055909    0.3166581432166518    0.9983248507723137 C
   0.7733473306804945    0.1943180046907603    0.6896553318184260 C
   0.7416274380646485    0.2788304286321749    0.7481893701722073 C
   0.7448271463460411    1.0989704653512951   -0.0066448934886121 C
   0.0555774551128996    0.5558426492156601    0.7811982353244655 C
   0.0296983559565678    0.6435786308912599    0.7208575951761133 C
   0.3985819401710591    0.4736074887608294    0.7337793197696446 C
   0.5482792137612812    0.5594110964714168    0.7498417413129925 C
   0.5632820625205024    0.5213796362283981    0.8475517678251786 C
   0.4096603555621255    0.6518132304976914    0.7748958099720432 C
  -0.1481728970676505    0.6031113521742507    0.6927834098965693 C
  -0.0731215295843019    0.6760714262586529    0.7342945903629740 C
   0.7066647029784233    0.1673340224168735    0.6085391215567221 N
   0.1004278191270168    0.2376994549534859    0.9308180936103396 N
   0.4523453125773238    0.5650213476595030    0.7209073696143804 N
  -0.0732608318011934    0.7658202295538451    0.2308619007601557 Cl
   0.4411256857511647    1.3412357911942583    0.5187277726112183 Cl
   0.6400322806438611    0.6867427138084571    0.4639425556646461 Cl
   0.4424932516773996    0.8467504396409528    0.6143178637346994 Cl
   0.7826148172519708    0.5901077130069275    0.9543452787969126 Cl
   0.6851336714955238   -0.1930487189861841    0.6886135738569467 Cl
   0.0779039941795705    0.0429578764212000    1.1160750475986645 O
   0.1880185074841627    0.2771175739494117    0.2039051866721313 O
   0.2832750604774580    0.3090176810213309    0.0861500825067962 O
   0.5189260658104227    0.3156343430192133    0.2920774493445282 O
   0.6058438396058401    0.3227509499118108    0.0517412236472203 O
   0.4221473497148570    0.0839721962911221    0.2591821540373304 O
   0.7885192513181867    1.0997595088155629    0.2258094447518234 O
   0.2669809438082588    0.6566844327109813    0.1546488231919824 O
   0.4574128019536268    0.3673112557451184    0.0454780570066708 O
   0.8088580821022070    0.5955976875971547    0.3263467995672708 O
   0.8852324670870994    0.4295522939194822    0.0495034770704759 O
   0.9008032021934557    0.3349220721457604    0.1735834401378747 O
   0.2866812471717050    0.9658684695482961    0.3278645694102067 O
   0.0180415181623678    0.6972553231960256    0.0467097990916770 O
   0.1928813569540271    0.8408873177742354    0.3003652438402273 O
   0.2844198842802369    0.8537735785749732    0.0065663641049805 O
   0.5264019773779245    0.9037369120602966    0.0971614501386645 O
   0.6011966610809094    0.7948807945353460    0.0106408575586265 O
   0.4019018584873326    0.7106038518849203    0.0898277825511574 O
   0.8857422990585654    0.9857017907121193    0.1747198396369044 O
   0.7589758674515398    0.8894392126292615    0.0081696618559248 O
   0.0709940385274673    0.2569132791825534    0.4343194739920385 O
   0.2106137513346854    0.2090700018739496    0.3766084664907314 O
   0.1532184095039530    0.0486623201256818    0.6481539660299896 O
   0.4166502155315321    0.1640909016215908    0.3946317204824359 O
  -0.0300523954399808    0.0005763159479046    0.5997802225185503 O
  -0.0268569298657018    0.1552114455567585    0.5559140801785243 O
   0.2023037023351441    0.5352547735397261    0.5471746001817611 O
   1.0622983128776147    0.5043457891076342    0.4165752372740008 O
   1.0164813187594834    0.6528094974980295    0.3814295765183853 O
   0.2188849088523534    0.6394819809858693    0.6620950150353587 O
  -0.1559731140957258    0.5895258930787300    0.6068629147694427 O
   0.8048161964587950    0.4629510763830375    0.4456944053377851 O
   0.8438384951347383    0.3484959383161862    0.3400417805750092 O
   0.1065656020844724   -0.1311396007484421    0.5946394344085044 O
   0.1289706312327421   -0.1842757729206607    0.4562810778330019 O
   0.6460003553167787    0.2755467325990603    0.7808329890943640 O
   0.8189705745071116    1.0618745541634305   -0.0421312637794086 O
   0.7365736667746791    1.1943012620796547   -0.0074482949851500 O
   0.1026729183078833    0.5674247059432279    0.8601720415954017 O
   0.0370417748520950    0.4728012298027957    0.7473978864989165 O
   0.5552480016186909    0.4181450729935011    0.8497937206924808 O
  -0.2192948106460936    0.5696143196705166    0.7488161074653180 O
   0.1416570326198056    0.7259340462072150   -0.0443101222883439 O
   0.0812083559030947    0.7274092459255340    0.7427821836601681 O
