Li1 Co1 H90 C51 N3 Cl6 O45
1.0
  14.2771097295999994    0.0000000000000000    0.0000000000000000
   0.0000000000000000   13.9334624669000000    0.0000000000000000
   0.0000000000000000    0.0000000000000000   14.4007158271000009
Li Co H C N Cl O
1 1 90 51 3 6 45
direct
   0.6690772530518074    0.7475187705958135    0.3376990402413438 Li
   0.7385408923165442    0.6674783640816870    0.5826785289248894 Co
   0.1641697376984206    0.2320654138252689    0.1424684674173699 H
   0.3061529568787912    0.1324907385931848    0.1506784759627444 H
   0.3058419695652460    0.3237059520642961    0.0568123087367911 H
   0.3635322174935341    0.0909016503549527    0.0461170070692062 H
   0.4927639061857309    0.1084227798358659    0.1411476997396822 H
   0.5931207029839960    0.3385802161240973    0.0786320574057208 H
   0.6299250709514559    0.2818879185794981    0.2661838452770811 H
   0.7427027991117836    1.0474872823658750    0.1853656405452145 H
   0.9130404967312118    1.0947490453027158    0.2105643879100582 H
   0.2169843489384454    0.5981445569038265    0.1201876305581223 H
   0.1834019216068154    0.3816111570280057    0.9789442471373964 H
   0.1433475961284315    0.5136518471558578    0.2663282825415180 H
   0.5856965812949789    0.5624872318720725    0.1732717972883219 H
   0.4148724406817282    0.6588803576432591    0.1375589892463645 H
   0.7988759332537224    0.4021522824431644    0.2351916359064809 H
   0.7514811865006653    0.5203008046723459    0.2602223360694316 H
   0.7157834850994252    0.5717613085997324    0.1024364296408080 H
   0.7002348198440368    0.3884292756561414    0.0483356467801485 H
   0.2028323249065014    0.7585181901847405    0.0828735132287055 H
   0.3026599529764253    0.9030099132422846    0.1780785027904010 H
   0.6041061197084210    0.9723186010357256    0.0694464029154719 H
   0.4481165642465961    0.7781759027347023    0.1089409674099464 H
   0.9022427930699177    0.9579409830907318    0.1073965997363514 H
   0.6879143990213743    0.9365701285233639    0.2175855666635287 H
   0.9770905753058772    0.8148702994946307    0.1902848404551724 H
   0.2191255386175175    0.1728819910429582    0.4188894486931056 H
   0.2751228668682404    0.2759920402079050    0.3786414494298135 H
   0.3263510225560577    0.0919853723684774    0.4835114446531081 H
  -0.0061210316552248   -0.0646131762825426    0.6071127309621126 H
   0.1141203920301906    0.3473368335327165    0.6382118794611902 H
   0.5933049139377401    0.1023115924549633    0.4670827474382945 H
   0.5266005866588406    0.2498743396819592    0.5221541764923672 H
   0.6469726390243825    0.2781063746793247    0.4972930512331448 H
   0.5720411563740792    0.0868107791780713    0.5860929425269875 H
   0.0602719580991908    0.2673983399496632    0.3698606359259431 H
   0.7420226894688726    0.1135801483055273    0.4893219891430239 H
  -0.1306203199330771    0.0944040102397213    0.6357501962764357 H
   0.2510087424746860    0.3727554974751040    0.5409899762718163 H
   0.5896305007691394    0.3932801876358855    0.5374257784488574 H
   0.4955096299871476    0.3708457065625284    0.6097681545159916 H
   0.5907925006636703    0.4353291759180028    0.6635585361400967 H
   0.3814693213507009    0.7015589094685976    0.3423911681057687 H
   0.0429204069314923    0.3844762022452181    0.4323665565209519 H
   0.7247593914577207    0.3357998591172133    0.7145803053925189 H
   0.7416584700926483    0.2185899406292820    0.6607052057575421 H
   0.7552956840447369    0.3206866020570786    0.5957612119152348 H
   0.3068337669435797    0.8516185235068866    0.2875904200405301 H
   0.1897484442375228    0.9545713970950374    0.3278814727191832 H
  -0.0447710112695133   -0.1871957722494448    0.6020970080725551 H
   0.0945632123707034   -0.1420490614807212    0.6885163232609038 H
   0.1933486126871240    0.8828462245204457    0.5332038355447702 H
  -0.1758108390381002   -0.0833881218943351    0.6203113804099627 H
   0.7747688130789416    0.9712140658179677    0.3635713652336098 H
   0.8956308105476929    0.9545757032752237    0.3682273837819254 H
   0.1947144353479649    0.0579701373810574   -0.0975404350217546 H
   0.2102217757125895    0.2285020497211958   -0.1203386072752594 H
   0.2729522594703194    1.0031235786943402    0.6259722101200103 H
   0.0000251703218422   -0.0445341757710319    0.8137663470552575 H
   0.4874643741772927    0.2387364046303763    0.6853532860517201 H
   0.3267488621823950    0.2593206636170667   -0.1139444806842243 H
   0.5922066524340486    0.1735013632930720    0.7359278553123278 H
  -0.0184981866499529    0.0888454493160465    0.6940695194325490 H
   0.7523279965503867    0.2298843335609631    0.0144137219352241 H
  -0.1137016294855836    0.1497829228275322    0.7470036936189102 H
   0.1148971598921765    0.6000170275881219    0.7965428976810782 H
   0.0074356337809680    0.6539906900418393    0.8113470228759389 H
   0.5635329217032931    0.2997320115743757    0.7615238051543732 H
  -0.1273171303594741    0.3600328881150028    0.7954755896260802 H
  -0.0307625737224270    0.5678240245161584    1.0394766547250507 H
  -0.0970974284610222    0.5088559107431574    0.8664915038541402 H
  -0.0319245736169578    0.4177990752283683    0.9361241535112466 H
   0.0564581609769965    0.6907927413064224    0.9979967722544933 H
   0.2514682192262304    0.8691626192821261    0.7512076513059351 H
  -0.1084582713117092   -0.0816878984174873    0.8614736977348071 H
   0.3659255590484539    0.7504713748101451    0.6028851633376315 H
   0.3470267759536798    0.9156686475962906    0.5720698896159665 H
   0.2939151858376567    0.6991295061468882    0.6904224785055163 H
   0.4703023571696063    0.8594773023466850    0.6183267568438052 H
   0.4111510992473447    0.6707022576477486    0.6848859481720755 H
   0.3327094523586802    0.7838521659167996    0.8655297461077693 H
   0.3466527506711725    0.9597854636038170    0.7553275853920136 H
   0.4297634097942809    0.7073105308039532    0.8330119181315540 H
   0.5039032756387984    0.9079232648347285    0.7242659350288957 H
   0.4510471293814465    0.8350059980452595    0.8607320679347175 H
   0.5273507384894870    0.7818282612292898    0.6951166895997167 H
  -0.0789095735717627    0.0410999588049567    0.8734418527952427 H
  -0.1569281656465052   -0.1532336468176545    0.7295594218885243 H
  -0.2375025971517137    0.0834526763295400    0.8198459059501872 H
  -0.2669133117818214    0.0350059961447988    0.7120568197244236 H
  -0.2550551693982128   -0.0444451813805173    0.8089263098767698 H
   0.1597458731210507    0.1529070565526138    0.0361938892384187 C
   0.2585908092970465    0.2016838772182963    0.0135019617034659 C
   0.3326828363273407    0.1558467422263868    0.0812972026985524 C
   0.4178688454730500    0.2260647517358118    0.1045411861240213 C
   0.7053212835173839    0.2623299658705165    0.1396193034943664 C
   0.1278703739045332    0.3866895788609203    0.3095129413783861 C
   0.2625026654820703    0.6606875179280640    0.2297030198578773 C
   0.5995568796150047    0.4194916193505507    0.2682969346793965 C
   0.6633337936575020    0.3541104549655949    0.1030843141009987 C
   0.6613004689475424    0.4314370349567141    0.1810929362755969 C
   0.8229207158814187    0.5034354346641197    0.1337633445953439 C
   0.7628357255544561    0.4629033701222580    0.2086901755220040 C
   0.2739377530517569    0.8448061464523325    0.2183438623018226 C
   0.3033561723225155    0.7437566045064781    0.1728426519545621 C
   0.1687694081670064    0.8590143879766695    0.2250969988241745 C
   0.4774465202342448    0.7402707516457565    0.2516220691461074 C
   0.4090939601935551    0.7320940331688776    0.1642000260258021 C
   0.7458764106380760    0.9689045178447740    0.1777500468957920 C
   0.7408039554022761    0.9509829136065450    0.0746037854297657 C
   0.8410665454580369    0.9355474107291435    0.2259427901130408 C
   0.8403128915180037    0.8252754662178634    0.2332535378053102 C
   0.2470352491644550    0.2437050188685430    0.4414293004544445 C
   0.1587827930396885    0.3033097296124026    0.4727447576452148 C
   0.3232754700925949    0.2317905359900503    0.5150893332428016 C
   0.0987419292909992    0.2441033405357657    0.5386164137065669 C
   0.0882356011306845    0.3329010821552091    0.3953447857700348 C
   0.6200589283870430    0.1258039584607280    0.5391778441310729 C
   0.5977392848432703    0.2332740150641931    0.5433518033093303 C
   0.8475986798862434    1.0916091222502851    0.3286154640100959 C
   0.5718476998515538    0.3810642721443595    0.6111104489013599 C
   0.7162604723979035    0.2916076849564287    0.6558123934247408 C
  -0.0337155523573528   -0.1229461284780805    0.6473100383008668 C
   0.8398443092820537    0.9799125497940734    0.3239379187540998 C
   0.2777984784397339    0.2015912943442932   -0.0927399792090020 C
   0.3025478854760486    0.1042536797189354   -0.1438818813784798 C
  -0.0951733695639299    0.0867433156884876    0.7017670534531423 C
   0.1239340029538019    0.5016679630066977    0.9602889244975009 C
   0.0695084213958621    0.6300016779212672    0.8496860892549178 C
   0.0356927535790731    0.5474758877430109    0.9167397004499146 C
   0.1218089229779089    0.7189738198382515    0.8903819829199495 C
   0.5605496148010778    0.2424232125664535    0.7099131762854004 C
  -0.0057988375916418    0.4247842736477282    0.7801916271729218 C
  -0.0323455271652478    0.4703805137430552    0.8769298738494096 C
   0.2905832789670821    0.9234922592979019    0.6211231456124953 C
   0.3166830993829360    0.8960776808392150    0.7202265524941378 C
   0.3603396945765532    0.7275086689672819    0.6754982203936000 C
   0.4788808441546910    0.8410927837384405    0.6909675902967808 C
   0.4021261633576343    0.7819997907400398    0.8324820833586435 C
  -0.0728060973324972   -0.0202659796350551    0.8299391542126432 C
  -0.1308430540900758   -0.0942253420295823    0.6877614996722359 C
  -0.2287613321223318    0.0217802813996110    0.7728281043263389 C
   0.6142755449457283    0.2831245099896326    0.6321844013106489 N
   0.3855842998801575    0.8143801126501027    0.7300614802644277 N
  -0.1286157125200890   -0.0036570426569166    0.7452419756387346 N
   0.5151495953100068   -0.0190882393541319    1.1576742513193006 Cl
   0.8711258507465749    0.6090923023305194    0.5310584560809342 Cl
   0.2939137849939020    0.9877426207659640    0.4036027086002465 Cl
   0.6203818228725033    0.6806775240490600    0.4820538782201603 Cl
   0.7645608646383798    0.2786762258572973    0.8794783582748112 Cl
   0.7087498486070332    1.6592691722048134    0.7301045336797887 Cl
   0.1207246699117644    0.1875545823307061    0.1120609512037692 O
   0.2435667600277964    0.3026745680349395    0.0346779923717560 O
   0.1737858296526180    0.3536755307667896    0.2460633176950609 O
   0.4937894638985531    0.1847627421766590    0.1416337866873065 O
   0.4174163729402790    0.3113586980770912    0.0847970287214473 O
   0.7022226171319683    0.2359861908847957    0.2224971280643097 O
   0.7563386122201174    0.2117029231181672    0.0818742573463749 O
   0.5959693187591960    0.3350857509030033    0.3090483811384423 O
   0.8945248444033503    1.1379931421258407    0.2629603944044068 O
   0.2251148460907743    0.5815090651478734    0.1886474218516037 O
   0.1054988991418363    0.4765874059785959    0.3125836220675213 O
   0.2675800236710117    0.6591315514874536    0.3190603834396526 O
   0.1823344786657274    0.5403348773705806    1.0131772676288002 O
   0.6203573081067958    0.5162441676279447    0.1316245620257969 O
   0.5546471596406130    0.4898201541514212    0.2913680100334962 O
   0.9029355103066210    0.4761150251891378    0.1153566207086620 O
   0.7860757234450723    0.5767385351982715    0.0869740038368790 O
   0.2681949940793288    0.7402614215886864    0.0800667083111377 O
   0.1107408564719560    0.8172379809003381    0.1742620258416251 O
   0.1398230732415846    0.9243233520738368    0.2892000622470918 O
   0.5598148722517331    0.7518428931994470    0.2449675388331307 O
   0.9166651799465203    0.9720997035429276    0.1749543525370272 O
   0.8136877546941341    0.9261096991544083    0.0307858247411357 O
   0.7710965011759728    0.7867724737797347    0.2647235012044327 O
   0.9157497285528182    0.7797225391182425    0.2036570923843169 O
   0.6622894646383667    0.9575039058018334    0.0273269689038262 O
   0.0524944735730484    0.1725245780875043    0.5133999470836623 O
   0.3543251719157117    0.2991944567477995    0.5619241439631670 O
   0.0876871708007160    0.2805085055265216    0.6229133343996031 O
   0.3614638716897069    0.1418796467924765    0.5256680295957508 O
   0.7173125060576897    0.0963460975036934    0.5525677340723170 O
   0.8124445058618301    1.1315410488135311    0.3975453708229225 O
   0.1866791955709562    0.3858678161420555    0.5176046734824745 O
   0.2058826621823795    0.8703403595630494    0.5970944789715757 O
   0.4429873748387305    0.7285658362029918    0.3389455060570375 O
   0.1262706103366559    0.0826495737248154   -0.0054248752171740 O
   0.2418185070219200    0.0315933483472425   -0.1409563323637067 O
   0.3784238870279643    0.0978575667490464   -0.1782648944137222 O
   0.0682224468290396    0.4407454175865240    0.7371597385195928 O
   0.1310474875402123    0.4087706660803306    0.9411391819908789 O
   0.1796595675161113    0.7648662174758837    0.8459355812490338 O
  -0.0783660461949357    0.3716201012993450    0.7455766812226703 O
  -0.0180275031483708    0.6059487907946001    0.9850460271499317 O
   0.0316338087998049   -0.1544408126631834    0.7154059587935551 O
   0.0972073049577159    0.7449544402949368    0.9747965366543108 O
