Li1 Co1 H110 Cl3 O55
1.0
  12.7599022141000003    0.0000000000000000    0.0000000000000000
   0.0000000000000000   11.8074046489000004    0.0000000000000000
   0.0000000000000000    0.0000000000000000   13.0203809128000003
Li Co H Cl O
1 1 110 3 55
direct
   0.2422464573187971    0.7811661917895972    0.5429990108392000 Li
   0.5627348067891491    0.5099033617909329    0.6025617844011928 Co
   0.2900164158790158    0.3886336973237803    0.2067477114862000 H
   1.1382204082293899    0.3441082477747147    0.1423678745510196 H
   1.0553357605060456    0.2663943023916804    0.0665428271417353 H
   0.3318482411582229    0.4163451216146792    0.0626076888118244 H
   0.2548829177943190    0.2991390089124329    0.2870041960697437 H
   0.4247071032497122    0.3671971490283359    0.1473193425942180 H
   0.5983416627333854    0.3015417384574599    0.1137957457867776 H
   0.5141686038824202    0.1193427655273318    0.0974459936999763 H
   0.5437166359655636    0.2712895356557817    0.2214446701452112 H
   0.4385669273324215    0.0254288163595690    0.1445536784987383 H
   0.6896268450534253    0.4605639838901108    0.0206307294847209 H
   0.9581249841860415    0.1100507150503270    0.0782907937353720 H
   0.9557346837363800    0.4001366485682482    0.1402949705261099 H
   0.8356005342515894    0.3904342623617525    0.1150860306188814 H
   0.8408827063928086    0.3588125799427644    0.3155448357398689 H
  -0.0905797609971356    0.0251527184280644    0.2572470021293493 H
  -0.1776635004612296    0.0719586860757884    0.1883895696160942 H
   0.1784552161053226    0.9084829091124044    1.1420705781181482 H
   0.0969166602024171    0.8060886882018308    1.1385222948298628 H
   0.2763564365879994   -0.2417105841939517    0.2028883773901752 H
   0.5937420977041843    0.9159104516255823    0.0799725417692159 H
   0.4534659443319346    0.5260830393475751    0.1573528432171968 H
   0.3709747165514526   -0.1782775078938372    0.2569797288426992 H
   0.4324383537205026    0.6534370214218737    0.1856661469883322 H
   0.5873282554484368    0.6105241193009826    0.0834120724787956 H
   0.5780217577960662    0.6219787957537456    0.2784829399910581 H
   0.3538985668800839   -0.0112553672421467    0.3109720048527581 H
   0.6640858969699930    0.8148763941444459    0.0515739102332908 H
   0.7059286941201167    0.6455165678776045    0.0954163295774758 H
   0.9480857222974632    0.7973179207826208    0.0609681822456981 H
   0.9152563171052270    0.8754959817069574    0.1588190061603433 H
   0.6983667239434663    0.6116996528253030    0.2979600967423396 H
   0.8577637135028771    0.5682506464386375    0.1883987859363235 H
   0.8647935479400783    0.7079621282631960    0.1978255454775392 H
   0.9241905548515029    0.6244348816474988    0.3234171092690738 H
   0.1756683608925369    0.4576361601195229    0.3340903761213040 H
   0.1177249701365327    0.4367890724385792    0.5126926778184756 H
   0.2250323755559069    0.3029027488130673    0.5693914798692095 H
   0.2765343376378595    0.1105888519389100    0.3831434725151369 H
   0.3027649461788989    0.2177595670645145    0.4544409258091025 H
   0.1052504231275353    0.4419485466678016    0.6279389221526063 H
   0.0331272920440491    0.2670582925091641    0.6407764882053535 H
   0.3030439451822037    0.2166865116067954    0.6332582749782915 H
   0.4412354430803223    0.2077116349805529    0.3622086011142523 H
   0.5514776672288416    0.2162156206561310    0.4154167218781338 H
   0.4008001802277698    0.3491974271318055    0.5464835479125660 H
   0.4798869932038815    0.3496191963645949    0.4501745375696163 H
   0.6400480952021184    0.1115450315851333    0.6139370276442224 H
  -0.4337908551355157    0.0231154375255046    0.4821567048187042 H
   0.6483820148682498    0.3090759936680906    0.6101867533375778 H
   0.9118707112224279    1.1363653337441941    0.4653069673594626 H
   0.8526461194254050    0.3163451609874300    0.4301198247506312 H
   0.8973721675113663    1.2134610230229388    0.5609308978987000 H
   0.7259633304136074    0.1211220727184305    0.5288189341397161 H
  -0.2812152344658931    0.4570195978675738    0.4594423155868764 H
   0.0321803490505011    0.9984518761790971    0.3747143796387444 H
   0.0866405626430560    0.5303075070848307    0.3750638317807724 H
   0.2391320133886480    0.6126278839079077    0.4249924785963901 H
   0.0314094967481119    0.7779216176313322    0.5691879527974788 H
   0.2900430618512415    0.7024901382771478    0.3524961356459280 H
   0.4597199107543276   -0.0381484067747236    0.3522511351331654 H
   0.4133927532196259    0.8980911250033172    0.5566215001648104 H
   0.4737106135829693    0.7258051688182283    0.5632257616357990 H
   0.4379619070218843    0.6310569973727598    0.4827020037656052 H
  -0.4199231940021517   -0.1110646000958535    0.4801383306884847 H
  -0.3733954079706915    0.5394991968106597    0.4222798083422289 H
   0.6878783990523778   -0.2443953401536750    0.5457155212267900 H
   0.8971057077891089    0.5183438280037415    0.3937606734193055 H
   0.6751808095817496   -0.2569577960371379    0.4243673048741683 H
  -0.0674314644785613    0.9318072558413577    0.4074231001325763 H
   0.9132657062389516    0.7055001138862510    0.4584062475877645 H
   0.8383356649300546    0.8017642831764844    0.5003581692449116 H
   0.1861629554241491    0.3831269833647514   -0.0124825874671779 H
   1.0171301385647347    0.1167377900128469    0.8873775685810824 H
   0.2763768129197014    0.3276821147025269   -0.0647681545761052 H
   1.1359084782862747    0.1238413832659005    0.8381700988234086 H
   0.5697591552908920    0.0641443523806528   -0.2186115800039131 H
   0.4063104105430387    1.0976523385016210    0.8651201552272915 H
   0.4652152506733527    1.0572878372270418    0.9647255361055922 H
   0.7751196632346298    0.2598704301021696    0.8613645047338464 H
   0.8871761646096954    0.3446494335975107   -0.2756966994775922 H
   0.7618358623750355    0.1350072578946050    0.9106641376938134 H
   0.8399579344155625    0.4467811073953037   -0.2132131204295930 H
   0.9004521284186350    0.1868264356219475   -0.0083415411828104 H
   0.7102578809017331    0.3853145936625323    0.6969008062951269 H
  -0.0036967284003067    0.1835886368730445    0.7266910253830097 H
   0.7324821891481269    0.3469047979889124   -0.0209898654601825 H
   0.6861338715766576    0.0117900866989402   -0.2172813577841489 H
   0.2536838490441610    0.6444138700039262    0.8723703271410177 H
   0.1771965857701893    0.8147053150580534    0.8685071529115640 H
   0.1231319081241735    0.5762210686269521    0.7604995600908731 H
   0.0778964517456615    0.9629487311218087    0.7939640188435086 H
   0.0387001403940485    0.8330810721741791    0.8263194470618835 H
   0.2559401359276283    0.5118614550965734    0.8640602784009205 H
   0.2122689548597800    0.7827575660635153    0.9843178968597400 H
   0.0813968704205510    0.6442741271858334    0.6691205130439200 H
   0.0963263735471106    0.8231644136466076    0.6690559988023148 H
   0.3933212827880585    0.5378883432348257    0.7254099568711352 H
   0.3666533668204908    0.8180464387997282    0.8535536733395037 H
   0.4872130681558276    0.5702053520395970    0.7982565199903112 H
   0.4475912911612255    0.9239562502430499    0.8545213869635815 H
   0.5262682263881002    0.7371277247884309    0.8388613228406071 H
   0.6101285869179457    0.6501272339484985    0.9026997009623154 H
   0.6603358682317537    0.6748041217713567    0.7311586366141691 H
   0.4128331878028855    0.8638532876443966    0.6713462543792992 H
   0.7270362226482260    0.9396159151311525    0.9482974452968417 H
   0.8331318632953816    0.9673273394220515    0.8862024877518451 H
   0.9469650240538514    0.5821360010000460    0.7485774818475709 H
   0.8826228381793566    0.6357489683559988    0.8406047434173187 H
   0.7567668580116222    0.6298814638484393    0.6726879969993499 H
   0.1933134804414316    0.9416824149865863    0.3958312733641579 Cl
   0.2779175770784013    0.1912075847007012    0.7983202662052307 Cl
   0.9347705732352505    0.7817116122432445    0.9101111584800546 Cl
   0.2268654617040244    0.3661452667248733    0.2494407788951211 O
   1.0896933905759343    0.3440040758557728    0.0800867473373909 O
   0.3718657892108837    0.4217247966481691    0.1351330631710088 O
   0.5351687648165609    0.2790473793753610    0.1487409599895895 O
   0.4844677493115115    0.0424510499474324    0.0863714329044280 O
   0.9741831009773740    0.1672150132234128    0.0191343830928233 O
   0.7209147023818961    0.3875767334632962    0.0402748091558890 O
   0.8867137786210724    0.4120054719182683    0.1686789327523367 O
  -0.1090916583484321    0.0366909864938321    0.1806125313959255 O
   0.1740304173057197    0.8303150113021108    1.1213492181359095 O
   0.3433969190028826   -0.2515467847353484    0.2414410129360774 O
   0.6557974321976586    0.6159351306027721    0.0460865899714264 O
   0.4891198225800986    0.6012223291730198    0.1657996007073622 O
   0.4167524968352648   -0.0415554213724445    0.2867169540892635 O
   0.6308442629133235    0.6297654349631137    0.3273954875013939 O
   0.6622677012181194    0.8969647131968719    0.0544980182340461 O
   0.9567378262201724    0.8100328233767303    0.1369632707632132 O
   0.8408591952408447    0.6365501605130646    0.2260105887921501 O
   0.1174311591074907    0.3838553398711749    0.5724021444774516 O
   0.2917766174560452    0.2507710553288989    0.5661219902678606 O
   0.3075494656035492    0.1901921202225598    0.3794746090371845 O
   0.5114083946418603    0.2470149377637969    0.3595711974752972 O
   0.4607308902887746    0.3919511071326877    0.5167524668794879 O
   0.6514894054528098    0.1278820680242097    0.5420159366814066 O
   0.6362737716068497    0.3649096014424643    0.6629586349439385 O
   0.8257023392747944    0.3812476541929452    0.3883099880303526 O
   0.8647386885854959    1.1939901903686674    0.4938583594031886 O
  -0.0445033890833820    1.0101902728988972    0.3791481976957297 O
   0.1590013052653398    0.5057703620800653    0.3943282451400941 O
   0.1017308036785420    0.7702281403006926    0.6041193425199467 O
   0.2908275506217697    0.6760355524229144    0.4265792217292035 O
  -0.3337720635659585    0.5073515732399403    0.4837280874178020 O
   0.3888635683757061    0.8334079856758994    0.6024965021329018 O
   0.4933565321639904    0.6526705532377886    0.5291000319067102 O
  -0.4738154565337657   -0.0474011598774284    0.4667017038208320 O
   0.6808885335735153    0.6399048350734633    0.6646421494391596 O
   0.6917640087669423   -0.2016552109715170    0.4823702162373499 O
   0.9387126097145283    0.5921365052184732    0.3905971715005938 O
   0.9156168214353400    0.7778775774704787    0.4917977438052514 O
   0.2569401435911589    0.4031457772511811   -0.0373088964795528 O
   1.0617778161441496    0.0938783210587490    0.8279169425682980 O
   0.4662230953875378    1.0536799317417351    0.8893667576972425 O
   0.6360739268151567    0.0542170225833362   -0.2594882643009737 O
   0.7818031000328964    0.2150494033196833    0.9273456773088700 O
   0.8214985453036521    0.3710133983515263   -0.2407353567143790 O
  -0.0314969414464551    0.2376741890320022    0.6767293534199038 O
   0.2352550244298035    0.7815049622577011    0.9112708787755766 O
   0.2432668413140296    0.5766123485176121    0.8220031370878220 O
   0.0945386639222834    0.8769044199280995    0.7834927430096374 O
   0.0633730645840248    0.5732542862525321    0.7043114957861802 O
   0.4691855005349872    0.5323485991551566    0.7301801706164905 O
   0.4266068043283939    0.8523833665205690    0.8142998294294879 O
   0.5720922452707747    0.6651804996986952    0.8387922004388872 O
   0.7617065510392341    0.9944374461320660    0.8999348048935215 O
   0.8716431302122229    0.5812018414342496    0.7831793881218407 O
