Li1 Co1 H90 C51 N3 Cl6 O45
1.0
  13.1283300973999992    0.0000000000000000    0.0000000000000000
   0.0000000000000000   12.8123337376999995    0.0000000000000000
   0.0000000000000000    0.0000000000000000   13.2419904726999995
Li Co H C N Cl O
1 1 90 51 3 6 45
direct
   0.7618371471007404    0.5411242409647523    0.3652279652647933 Li
   0.3682280618886475    0.7055857702332103    0.5162780512865034 Co
   0.1309336019773320    0.1590959469625805    0.2915645683599994 H
   1.1394891381168633    0.2513242657210119    0.0972697600904837 H
   0.3274018489564979    0.0338346141830848    0.2618265919725487 H
   0.3182628343895377    0.0720836958908153    0.1404679485485792 H
   0.6066231949162538    0.1582093013106199    0.1278822273653787 H
   0.5580003315921194    0.0285857655832299    0.1141259872913849 H
   0.4065688101990275    0.2498943935076388    0.1446085647280757 H
   1.0057935357837373    0.3204646751214794    0.1820795175295414 H
   0.8502756607110845    1.0895127035073533    0.0909172407941269 H
   0.1359410933728309    0.6583765722539059    0.2446886850643792 H
   1.0424585187959583    0.4479540173006994    0.2019081075395796 H
   0.9970422323698510    0.5400608125309527    0.0369819958268063 H
   0.3021274997027636    0.4834589463255705    0.2530703554959370 H
   0.5279840997426444    0.4945776076808259    1.0029583742550459 H
   0.5324964786636871    0.4896264409926416    0.2330869549229229 H
   0.6976012546648080    0.4117968261531668    0.2172675809072212 H
   0.8670912037666114    0.6708294167759408    0.0631381844084296 H
   0.0826372843728889   -0.0500056932887086    1.0323029052604946 H
   0.1954475191104590   -0.1262915612663763    1.0173617979996268 H
   0.2412362824596568    0.7209451890579752    0.1918476864665808 H
   0.1823316088063677    0.9472084178614738    0.3473371503991264 H
   0.5825001725935046    0.6369558064809666    0.1335452732763844 H
   0.3742981408254791    0.7713567700566408    0.3109536474058816 H
   0.4816245097959735   -0.0788084085125665    0.2816151577882565 H
   0.6684048529018823    0.9048874784369487    0.1553335384616539 H
   0.9368350320529929    0.8443762541844360    0.1846720280792790 H
   0.8825219553166597    0.7386265892336054    0.2557950214043126 H
   0.2553492731161527    0.3002240222233327    0.4811287434117110 H
   0.0547662606185072    0.2391227415334236    0.6540002618378413 H
   0.3154125099596690    0.1779754114654637    0.5227196961567256 H
   0.1754594476609173    0.3965304426820230    0.6108874079827520 H
  -0.0041307959197903    0.1679647449759858    0.5533385068888352 H
   0.4980934741193812    1.0236628733926834    0.5904410860677661 H
   0.5553853760154921    0.2473406042706536    0.3457875344224118 H
   0.5935781237815847    1.0727343394402782    0.5172675475429018 H
   0.8806550004322106    1.0180237758262964    0.3639101875458035 H
   0.7735157078059107    1.0264828124248433    0.5540611323898675 H
  -0.0839116966306454    0.2678747243916323    0.4385224599256179 H
   0.1268470197843214    0.4734102461718144    0.4442467504056838 H
   0.0151085131260740    0.6724708039291741    0.6140810366209228 H
   0.4010974365005381    0.5278473467249886    0.3347695533793963 H
  -0.1395242531845511    0.5046604702291122    0.6378123631649092 H
  -0.2435504309137711    0.6593256577405117    0.5840008911306215 H
   0.1770788463081382    0.0276515095573524    0.5818027321710595 H
   0.0281353031847631    0.7213424625059047    0.4135575575054310 H
   0.5411595758859701    0.8650212050119097    0.5324857506080268 H
   0.7926666583178720    0.9139748158716121    0.6258911946422880 H
   0.6626615481981917    0.9144282851707221    0.4642025871467534 H
   0.6585947705041594    0.8100515160841509    0.5586628574949889 H
  -0.0574635499567005    0.7857819328555282    0.5996745921824302 H
   0.0672232904758223    0.0601342725356067    0.7822966840035642 H
   0.0181142267017720    0.0733004921684620    0.9079718990273882 H
   0.2901808165498878    0.0465372180437001    0.9567727195182548 H
   0.1788414467172019    0.1090106140999356    0.9742134509910747 H
   0.2286071058035309    0.1048638285815670    0.8476546829980713 H
   0.5148498398085382    0.1048724140588307   -0.1247014009717307 H
   0.5771870825445413    1.2150316006047601    0.6281657771578167 H
   0.4346439726351849    1.1590355568950221    0.7271206890120027 H
   0.6563667643691070    1.1436371131736041    0.7074831578918811 H
   0.7882891023321810    0.2271951721203407   -0.1055290567140146 H
   0.7654933622967237    1.0386773121310340    0.6930653858512196 H
   0.2002402078631939    0.5528485687160652    0.7890713452740845 H
   0.3324260980049785    0.4699456236519230    0.9099610259682587 H
   0.3545157314807114    0.4507335265399266    0.7735457337412981 H
   0.4414382868654209    0.6431154961687071    0.8898794528431136 H
   0.6921664431182785    0.5519252396612506    0.8553604731668808 H
   0.6172406915030896    0.4132873430559389    0.9342526912328700 H
   0.4447336793242507    0.6168158378161851    0.7516275787178244 H
   0.4829892682890243    0.3865018247400847    0.9277642407104855 H
   0.6289580994947173    0.6284764769361600    0.7685185438987103 H
   0.5005429097872404    0.3701675639969230    0.7659162160937597 H
   0.6298416848337466    0.4104703699159246    0.7587760508599206 H
   0.5364390212122060    0.4794344648333130    0.6833357307615546 H
   0.5983030202108941    0.6458089945357106    0.9081946752033778 H
   0.9256241622083088    0.3920727067871217   -0.0472568504629355 H
  -0.0947470427062420    0.3557135227745122    0.7357931012325641 H
  -0.1856816848993439    0.5154011364353848    0.7639331305407124 H
   0.8023807650667004    0.4179394229361731   -0.0120453767074398 H
   0.2222643341499989   -0.0448075770545029    0.7526599008621563 H
   0.1436808439158283   -0.1532483988785381    0.7838024999185589 H
   0.0037018834261050   -0.0516962518117251    0.8409192907484034 H
   0.0803437710489085   -0.1652040662172112    0.9450713064777116 H
   0.3077161769721241   -0.2319085415685862    0.8631108185708881 H
   0.5366764466864951    0.8644584660021707    0.7116743706943990 H
   0.3277575682266071   -0.0983278813205622    0.9162342520494328 H
   0.3751870581450025   -0.1014069456664993    0.7178886932442945 H
   0.5859470694695179    0.9792806389269365    0.7708520299455177 H
   0.6646937944779591    0.8650032535594494    0.7512333781623443 H
  -0.1746307744694841    0.7527879437311170    0.9160265793430017 H
   0.6602347353618577    0.8367734238184603    0.0444098821557371 H
   0.4896859311050675    0.1391245658513409    0.0166904844747963 C
   0.5338449365306558    0.1115160124650708    0.1184055553908207 C
   0.4572150077783891    0.1232500183907538    0.2091494660194614 C
   0.3721280247643631    0.0406155802255441    0.1939364963065384 C
   0.8460496853137269    0.2616510338733806    0.0282250041767167 C
   1.0994040704733994    0.3922799289883503    0.0571640070245162 C
   1.0195843224760872    0.3952220939968280    0.1412797600373552 C
   0.3507818217118134    0.5493901823746591    0.2699983241772416 C
   0.2866906544607220    0.6382209936304631    0.3184079648065400 C
   0.4109737877986883    0.5747875851165591    0.1782455017820850 C
   0.8749033169020293    0.3763896935193086    0.0154731448283713 C
   0.8403848368944502    0.4362077575574673    0.1876489219292836 C
   0.9169962560572872    0.4355528417418333    0.1048260259106628 C
   0.2053627176950664    0.7017917697805865    0.2624496100918419 C
   0.1683884798141852    0.8009922765750779    0.3207686370985527 C
   0.3903435935553520   -0.0709698677708056    0.1636993502501752 C
   0.7784317938215100    0.9567820055084358    0.0419185648520422 C
   0.7204366036982218    0.6974436157954874    0.1762744990046847 C
   0.7129025152599985    0.8718958308063368    0.0943887732721764 C
   0.7848172213189951    0.7857171515270839    0.1369737608661918 C
   0.8645752706848753    0.8153237796219976    0.2168016388713377 C
   0.8369822716276881    0.8991859410359168    0.2900474248428357 C
   0.2787787571189138    0.2921208926822630    0.6395953277463046 C
   0.1604613482423937    0.1724143636923833    0.5373548071243357 C
   0.1589112653415966    0.1193100648246471    0.4355157367232351 C
   0.0553786766638344    0.2259120335183836    0.5687343041007654 C
   0.2535859109955899    0.2366953929615948    0.5392265801067359 C
   0.0357348988119145    0.3231589539864160    0.5109901604558643 C
   0.5757818009997352    1.0498696524911706    0.5923826370795271 C
   0.5135982411758032    0.1041777708984038    0.3131270366753675 C
   0.2297496730522757    0.5856458723613444    0.4111077747430223 C
  -0.0883060102693179    0.6526602053921458    0.4990040017037324 C
  -0.1390428515170800    0.6610552411601812    0.6901609886550965 C
   0.6212153021057234    0.8820407429403017    0.5347918993749330 C
  -0.0642641102212296    0.6977698639315081    0.6019212332792754 C
   0.2170999301856723    0.0611075534581374    0.9181387995607752 C
   0.0550206722592277    0.0180896293793863    0.8541114162343827 C
   0.5817713670311052    1.1388097334576037    0.6684444649502304 C
   0.3421249705238235    0.5125652752453903    0.8328427104019297 C
   0.4399134927863960    0.5797320395225191    0.8290804361348769 C
   0.5417884448996793    0.4432167850959679    0.9342179532528853 C
   0.6185736866266253    0.5923831305195522    0.8433955045825396 C
   0.5522158182963240    0.4380201518078350    0.7552569424527615 C
  -0.0228262429552520    0.4986763145265178    0.7424454243996595 C
  -0.1269080256239109    0.5439310676316368    0.7111857734541775 C
   0.2066256353606790   -0.0994361883855129    0.8111805591874748 C
   0.3149889983661343   -0.1430223149595345    0.8503906765086160 C
   0.1264455978242624   -0.1014280191106920    0.9806497945434818 C
   0.6011419189682753    0.9147763872488686    0.7206042970709348 C
   0.7506955930024801    0.9850438356646805    0.6254516836781322 C
  -0.1167262280145963    0.7297507667388023    0.7829234779902470 C
   0.6409184934545780    0.9594333569870540    0.6220541582009199 N
   0.5363738948790275    0.5122573688107965    0.8407659905323833 N
   0.1521967784764729   -0.0282321424500244    0.8966828107057954 N
   0.1242701497826523    0.1212979930601609    0.1699401038717982 Cl
   0.6079394323868078    1.4112651714336244    0.3290672384475382 Cl
   0.8399925554723812    1.1385982185177432    0.4344124282719776 Cl
   0.5152250284245661    0.6339602554138672    0.5093835137780962 Cl
   0.2896887509214284    0.8482998172939484    0.5797592327397778 Cl
   0.8084790273290010    0.2474069465949641    0.7521682829280231 Cl
   0.4203999676008330    0.2026446096358151   -0.0019396452257651 O
   0.4146300029946717    0.2198616135412721    0.2112412965533307 O
   0.8952326351031961    0.2040518474091293    0.0860652511984192 O
   0.8170383794450979    1.0217467509670113    0.1122456053313363 O
   1.1678697468641850    0.3117699281471473    0.0564322439244010 O
   1.1054413958157672    0.4547079781146747   -0.0138917758609814 O
   0.5101364833084411    0.5456705633750564    0.1841872067064472 O
   0.3849971405427255    0.6200837826619238    0.1025265226703624 O
   0.9322198220795631    0.5468832230136578    0.0747436904172755 O
   0.8630899332615071    0.4425956648408356    0.2774775623026717 O
   0.7430761928763505    0.4214955276187990    0.1589530849413779 O
   0.7447984225759586    0.6459073372752767    0.2503230343832235 O
   0.2085824722020293    0.8950906683811304    0.2945686484552095 O
   0.3608958269977025   -0.1153973711166701    0.0875952326647078 O
   0.6425653137157689    0.6764404164167372    0.1127749819393661 O
   0.4488604798844171   -0.1290685729122178    0.2310797038185819 O
   0.9124077059863281    0.9560030685712381    0.3195784836973333 O
   0.8323099332918211    0.7381637539592983    0.0462812020340505 O
   0.7448365081509168    0.9110284361742957    0.3177902329015923 O
   0.1269262377802344    0.1855602903789789    0.3653238722964905 O
   0.1761206132421909    0.0948773575280141    0.6144956268603070 O
   0.1764481491868311    0.0244772244635814    0.4322964321868146 O
   0.2269305787938726    0.3786586010107253    0.6634482372202379 O
   0.5346934831407235    0.0130718081677183    0.3388761867523859 O
   0.5371919730291288    0.1825733247891433    0.3782562181060615 O
  -0.0421881875524816    0.3316538934898837    0.4476393672552895 O
   0.0980154778294949    0.4013259780823544    0.5225309027872429 O
   0.1649889613934198    0.5163933054078955    0.3806924077458674 O
   0.2491100942265069    0.6071642003759167    0.4998888384678244 O
  -0.1631159817366339    0.5912186276034208    0.4927847705262305 O
  -0.0271588579624924    0.6636862996925398    0.4270668558521413 O
   0.1056668698385893    0.7947498541064326    0.3925274864920044 O
   0.3635458213032913    0.7078507752349618    0.3567677567915307 O
  -0.2468966295295950    0.6664773603011763    0.6595054764919593 O
   0.3497116170554890    0.2702216816763555    0.6998936644386731 O
   0.5009468453952466    1.1199006100332640    0.7443273167066640 O
   0.5415449257333967    0.0921237608201646   -0.0567863845809486 O
   0.7701276150576327    0.2261227679603109   -0.0292202871160279 O
   0.0531445768367887    0.5571616002941765    0.7464523748735622 O
   0.2627873859054814    0.5854039180020945    0.8152426373252664 O
  -0.0201945297256432    0.3937214306209260    0.7384641498240064 O
   0.3975303415499569   -0.1115620042735940    0.7882889855509480 O
  -0.1929956387143091    0.7256133471956304    0.8503506523142855 O
  -0.0432964777837641    0.7857928598265912    0.7924009051382830 O
   0.8031714216028317    0.9511889573200998   -0.0455599756580242 O
