Li1 Co1 H90 C51 N3 Cl6 O45
1.0
  14.6791598312999998    0.0000000000000000    0.0000000000000000
   0.0000000000000000   14.3258353005999997    0.0000000000000000
   0.0000000000000000    0.0000000000000000   14.8062467345000002
Li Co H C N Cl O
1 1 90 51 3 6 45
direct
   0.7336996489155464    0.7293411470298278    0.4614851075849468 Li
   0.3474295854266437    0.4208731305215743    0.6782497649320123 Co
   0.2328235712314149    0.0939464346797029    1.0117623754232190 H
   0.0806418370127635    0.0061539971980767    1.0723604470404755 H
   0.0662895169603057    0.1338079846708635    1.0533826463163214 H
   0.5695501997854863    0.1648756320827641    0.1850268617242865 H
   0.3939881083839807    0.3093886713966597    0.1905961326866473 H
   0.5178693060069208    0.0737242281611157    0.2808303442297334 H
   0.6194635468993799    0.2559690987195992    0.2938856447029851 H
  -0.0246720922424840    0.0548094497684972    1.0536818443561378 H
   0.7078977634975266    1.0170332720277597    0.1498018645084332 H
   1.0616400797933043    0.4855100595780754    0.2185633824174741 H
   0.2302587105423365    0.5959737056269533    0.3341423019563824 H
   0.5172246301461252    0.3304827293457514    0.1756321783521742 H
   0.3633419402674121    0.6013199907400311    0.3340072238345692 H
   0.9116492066572761    0.3263594095699386    0.1185204730589180 H
   0.9166835547295974    0.3756549644316103    0.2297789188716292 H
   0.9359877930686185    0.6060429265116831    0.1843757851771466 H
   0.6906760694152154    0.6304819901092756    0.1142553813626643 H
   0.2576887545385494   -0.0629714659404340    1.0142937394259997 H
   0.1508311402045630    0.6922515121952191    0.2197338343429860 H
   0.0599308424126676    0.8248727492912806    0.1663124633376681 H
   0.1909553712074922    0.7797577534506589    0.2973524246993225 H
   0.3751225872518033    0.8014786509390566    0.1896337010687278 H
   0.6577205048216280    0.8647657110633641   -0.0255133282305630 H
   0.6000966346736668    0.9317949613549532    0.0601694259980252 H
   0.4393033721759609    0.6821878756270979    0.1478938860378208 H
   0.7189787791598238    0.7741099152407215    0.2413463338331079 H
   0.8221079784735377    0.7698051051751319    0.1138845919182869 H
   0.7700832026160241    0.8853257687367665    0.2093645623219909 H
   0.1076576883664905    0.1352550207120451    0.6139573066831633 H
   0.2569754984584790    0.2433122451263985    0.5147509293790906 H
   0.1741676256667329    0.2476687101206168    0.4365477276654524 H
   0.2852673083967063    0.1147843121043790    0.3950395716134552 H
   0.1697068799052228    0.3414314800963223    0.6809324164312238 H
   0.5046247537141223    0.2688046504442724    0.4295459532212620 H
   0.7254593952913518    0.3782537657732983    0.7245491419647260 H
  -0.1872808537405601    1.0064181841945474    0.6599257423174343 H
   0.7974158295927050    0.2713936792318954    0.7274756094738103 H
  -0.0601775302913756    0.1813186523365384    0.5735442289647061 H
   0.0641776794739464    0.3898091129154693    0.6348336304094028 H
   0.1017036691307547    0.4027040678080655    0.4536542911681275 H
   0.4207192022959985    0.3395572438345893    0.3750588158348375 H
   0.5830092807050039    0.5254795264876955    0.3838659093770622 H
   0.2411585169235461    0.7127040717739076    0.6418739021183101 H
   0.0541859632118713    0.6911158018049621    0.6051225221259668 H
   0.1357519393140583    0.9444476267106975    0.5254733023644116 H
   0.2847570612104859    0.9058278891253556    0.6556768599957982 H
   0.3565602169846033    0.6721744979084532    0.6193212589003678 H
   0.3575670865990675    0.8398198707335488    0.5837768019264261 H
   0.3834915948388758    0.7759115553865439    0.3485591898975118 H
   0.5980624583077735    0.7909920023878403    0.3224661491068441 H
  -0.1190998398744985    0.8505403625427467    0.4989653015835335 H
  -0.0735979168982400    0.9256940954601499    0.5821997648542564 H
   0.0072077977088577    0.7422430125142270    0.5089872674916284 H
   0.1421290072849648    0.0654015022956992    0.8220356978679660 H
   0.2882661176273366    0.0791849917646679    0.9049459736463370 H
   0.1255490393033473    0.1554863017451212    0.8970776730507146 H
   0.5090725968298286    0.1647004241491720    0.9663801788376175 H
   0.4967220534687959    0.2632678005269291    0.8517765233382010 H
   0.5023917921293517    0.1527576650422852    0.7974568828228249 H
   0.6581912402097164    0.1761315202468034    0.7622345871694078 H
   0.5978969174983589    0.3604872624833058    0.9127156672130359 H
   0.6031567553151913    0.2796130952400543    0.7244897075911281 H
   0.6326339191973752    0.4245675747818530    0.8156755445023885 H
   0.6922313355382341    0.2096820944307653    0.9408294767060301 H
  -0.0288998546425957    0.1000633554847557    0.8293893508194801 H
   0.7787117618425491    0.1701200034177364    0.8623673234789697 H
  -0.0433080362027572    0.1616953637742145    0.9326059206500387 H
   0.8007525328211528    0.2699291922013122    0.9279025004485009 H
  -0.0918067246959495    0.0408954268988045    0.9074975993673896 H
   0.8202393429170591    0.3699003261665350    0.7996748655829987 H
   0.9591866684752254    0.5588868629506489   -0.1416953715833676 H
   0.2729443960448500    0.7402703526722689    0.8311757589804604 H
   1.0407485571500195    0.4880198608738150    0.0205895101349123 H
   0.3114724866508307    0.6343393568066078    0.7206629444001584 H
   0.7003353415826636    0.4099052534866192    0.9129013996305291 H
   0.9681013476192573    0.5778840100132430    0.0110692041095136 H
   0.7884377953240823    0.4053054518961849    0.0436784134964531 H
   0.0274569130135499   -0.0865323957513375    0.8475067039076837 H
   0.0977007152372555   -0.1090937328893167    0.9371222576528651 H
   0.2055072939643059    0.8044069269606470    0.7619900957689260 H
   0.3019821614822912    0.8645737501799463    0.8225111728567487 H
   0.4039082946666791    0.9054418732397920    0.6694062002968981 H
   0.4435263659107808    0.6977848719146821    0.7932674348747866 H
   0.4455251179059352    0.8240637214226219    0.8125147164519583 H
   0.5886048325583777    0.7725539850256739    0.7354350878016567 H
   0.5230285999222656    0.7242824542220887    0.6406656283186904 H
   0.5911567497273784    0.8695277370512758    0.6182541417380432 H
  -0.0962681516953584    0.6549810851104098    0.7372829565080621 H
  -0.0299094492086553    0.7719404082383131    0.7500917394090046 H
  -0.0217359568985457   -0.0846616496874848    0.9479616015377702 H
   0.4654559588642961    0.2802385387002081    0.1960087130277047 C
   0.4744054492649579    0.2086510899769181    0.1137447860622102 C
   0.4892613403722276    0.2399086041535083    0.2887911733387979 C
   0.4212996169857979    0.1601457159153514    0.3112823560113151 C
   0.0477836894387082    0.0610352647474161    1.0369402619386019 C
   1.0400441571626340    0.3610184706006909    0.1591600767876560 C
   0.2979185774157966    0.6394629672949209    0.3319749734918886 C
   0.9361424340716518    0.3851350399141417    0.1561228452186847 C
   0.9237255108897576    0.4837539316126124    0.1196916003750390 C
   0.8186677270844684    0.5137373839549697    0.1181429297084499 C
   0.3133472533483988    0.6253723404124838    0.1655357641372419 C
   0.2030030634482230    0.8230327169687747    0.1592377467076986 C
   0.2054630135008822    0.7478091800937651    0.2278885005568526 C
   0.2986767951971894    0.6978958602072763    0.2368624155795166 C
   0.6114126774110589    0.7450707708368641    0.1023867421895420 C
   0.6408380672129320    0.9007999100589633    0.2485365422572278 C
   0.6657155128022453    0.8957391231324959    0.0410903166825110 C
   0.7462119454032762    0.9703323302703196    0.0320535903332038 C
   0.6887999402418497    0.8158254583459092    0.1062513272546194 C
   0.7109101974861334    0.8401374787406581    0.2036237421449273 C
   0.1898762903757524    0.2171783414381215    0.5019512034662156 C
   0.1957655920110998    0.1100027410083375    0.4975566393902039 C
   0.1143583443393391    0.2606138540587321    0.5670735816954855 C
   0.1308531575836034    0.3589767048407024    0.6171897261381546 C
   0.0293221423805344    0.2698182039087180    0.5047125379713833 C
   0.4914594225765783    0.3068582779334260    0.3696691987744884 C
   0.1922640292111362    0.4147592810906562    0.5554150565408437 C
   0.5656537914993633    0.3846422239734402    0.3584138142743984 C
   0.0953954061876296    0.8337713578069502    0.5893528267948777 C
   0.3032703823489705    0.7051114953050546    0.4139849535883743 C
  -0.2170850118141802    0.8899391122949765    0.5942399532420815 C
   0.0225240693881537    0.7580703618619125    0.5793831833972671 C
  -0.1169341845941319    0.8645074364202202    0.5722000665745424 C
  -0.0721870732097722    0.7841958890752767    0.6232601369324425 C
  -0.1273796052968248    0.6951057960217467    0.6116663817372103 C
   0.1383699365592451    0.0793951016770633    0.8918028723939067 C
   0.2301899055145551    0.0548925164780489    0.9447237789579063 C
   0.5382467733441307    0.2044426093728255    0.8382639834226113 C
   0.6211618729811520    0.2360016766462755    0.7845933932825480 C
   0.7666797380734913    0.3287697402260892    0.7699144537851008 C
   0.6520750863540603    0.3768269728798226    0.8696169662766875 C
   0.7440749021146602    0.2306093209211776    0.8934332653241928 C
  -0.0348783984426892    0.0919263081465724    0.8995225870555346 C
   0.9091115954841508    0.4605626835611926   -0.0584595575314266 C
   0.9636262958618719    0.5031035188571614    0.0216768890155091 C
   0.0391966857240115   -0.0660477263521500    0.9187435283989527 C
   0.2806716775312287    0.8014695764245677    0.7911142896130833 C
   0.3470841978119391    0.8626904394037245    0.6526632670981443 C
   0.4431244355504738    0.7690777479368728    0.7597201079318540 C
   0.5261674035411046    0.7783435252695523    0.6928861548210884 C
   0.3085254515005111    0.6943135211029136    0.6703206791815739 C
   0.0521626866523592    0.0431905810249044    0.9347475842713878 N
   0.6966471195984217    0.2906470068189052    0.8305030699338304 N
   0.3450997518126601    0.7798359338831782    0.7177506600938646 N
  -0.0629937677651207    0.7819230722156109    0.2117378849222500 Cl
   0.8939935640334129    0.1109025140218845    0.6651039621171457 Cl
   0.4406099864659084    0.3082341139378491    0.6411546111196544 Cl
   0.6369441113832447    0.6643494742607707    0.3716068944318996 Cl
   0.3290579617711148    0.4778964372160039    0.8063220599574293 Cl
   1.0011454731396920    0.6743202715652755    0.8366592553354698 Cl
   1.0786478651753844    0.2978828850643893    0.1183793164216232 O
   0.4305010972852353    0.2148287402250885    0.0435784556863113 O
   0.5759304695745172    0.1975096803033534    0.2894314436361928 O
   0.5368436276439197    0.1455755358441581    0.1300568200523796 O
   0.4491890878209788    0.0716929329947682    0.3005787656388322 O
   0.7557254326603756    1.0294555843234028    0.1003936645021874 O
   1.0870189164761535    0.4195877604462093    0.2044342108758069 O
   0.2573692539640002    0.5671732907581101    0.1462371528737812 O
   0.6295261119029328    0.6527592251397967    0.0987734024310373 O
   0.7591118662554378    0.4476860871094469    0.0898210999078634 O
   0.9674357781921047    0.5452778833756964    0.1808232305734578 O
   0.7930163952420891    0.5858961082673109    0.1527573738137073 O
   0.2702964243321148    0.8629626748383895    0.1239715506646922 O
   0.1191855960904173    0.8563976126255034    0.1385741710233148 O
   0.3740605373675341    0.7624701053098467    0.2455141692816561 O
   0.4018243879341716    0.6247950616830785    0.1354059136761848 O
   0.6284504372606872    0.9834170821236478    0.2291251407620530 O
   0.5327468672917521    0.7678122021854680    0.0993535629642252 O
   0.7692956916049817    0.7667700290984037    0.0711850468318967 O
   0.0992811871625308    0.2016029843773953    0.6419137501642449 O
   0.2465048719535295    0.0711456699671336    0.4340737718644426 O
   0.1520117254832278    0.0594458286327173    0.5503060642785617 O
   0.0256775196218174    0.3345704491031848    0.4457075101837315 O
   0.3460841405764631    0.1784874038160210    0.3395434006570857 O
  -0.0444395723527065    0.2184864676036662    0.5131976660563600 O
   0.1562524314034172    0.4391745415387049    0.4770094335077623 O
   0.2705266827419179    0.4433094487714804    0.5784810641607372 O
   0.6356034351983560    0.3653135081122155    0.3128506130055670 O
   0.5458389653551725    0.4681888915768205    0.3974858363994934 O
   0.2508157453772979    0.6916051275477835    0.4779240474705599 O
   0.1461850977345724    0.8422029778462328    0.6503439757466106 O
   0.0869473750042933    0.8933978983943759    0.5209819548141207 O
   0.3650123355953325    0.7721623848235016    0.4127928891633722 O
   0.5829459937042031    0.8623037254785847    0.3077703248441702 O
  -0.2811826857146811    0.8391057762472348    0.5675395336766803 O
  -0.1671162119353223    0.6757121624799480    0.5383360489750185 O
   0.2445074824341728   -0.0455944687338855    0.9518066002751847 O
   0.5616940280886497    0.1643856083003669    0.9232713470421332 O
   0.9197034823350911    0.4971800946225937   -0.1371486420031332 O
   0.8596598551705014    0.3883467200036142   -0.0506398850596569 O
  -0.1355081359056119    0.6351749101791569    0.6798875871589981 O
   0.5320601113659460    0.8669666298466954    0.6491829792896257 O
  -0.2397089224341785    0.9636283581817966    0.6412383595551786 O
  -0.0627716842101035    0.8179007300055487    0.7100836258997437 O
   0.7948264443392689    0.9774188280465258   -0.0351673615965568 O
