Li1 Co1 H90 C51 N3 Cl6 O45
1.0
  13.3657890774000006    0.0000000000000000    0.0000000000000000
   0.0000000000000000   13.0193696326000001    0.0000000000000000
   0.0000000000000000    0.0000000000000000   13.0622094992999997
Li Co H C N Cl O
1 1 90 51 3 6 45
direct
   0.7032428825764796    0.7727813715348650    0.6275487121944633 Li
   0.1743238670913728    0.3398902132803403    0.6910272530986216 Co
   0.2616093983266856    0.2433302387595966    0.2003399769265864 H
   0.0882511336868600    0.0106384813634283    0.3385669744415750 H
   0.4311462649402351    0.2121851056661580    0.1710799960619033 H
   0.6029899164223361    0.0946133611657821    1.1760730640955692 H
   0.4844022302916249    0.0043493903927737    1.0727789008782125 H
  -0.0297411517567751    0.1784822450529002    0.2287708484433770 H
   0.7008225241664624    0.0877320756252234    1.0764559204515531 H
  -0.1249162284120664    0.2027468606921223    0.3203058984717872 H
   0.0432579053396577    0.2914032267507218    0.1755264107364737 H
   0.0322716478766928    0.4362550938701428    0.1606943105461971 H
   0.3146006580195085    0.4795627973850786    0.1011967194195467 H
   0.5927099397442419    0.5062296798684409    1.0833881320352710 H
   0.5773363618125474    0.6165211179734394    0.2958973173648094 H
  -0.0733278039646165    0.3594671979725784    0.1613557606630753 H
   0.8348834456446995   -0.4719386462010265    1.0693376760224629 H
  -0.1431343821319788    0.3851473967406375    0.3463673393036957 H
   0.2628461378790066    0.8541516705505200    0.2638315324742481 H
   0.2677227672813223    0.7898144542614450    0.0195076299850845 H
  -0.0129632422221124    0.7761432854550598    0.1977492973021467 H
   0.1855263482268245    0.7471441856019742    0.3048957949965071 H
   0.5024329809345103   -0.1263282113660634    1.0414626063399937 H
   0.5236733123774201   -0.0441875217490935    1.2572117106665646 H
   0.5487381999093105   -0.1657510109703405    1.2148360314195226 H
   0.6429868067596175   -0.0843492204146517    1.2895875502994123 H
   0.7253553069375477    0.0404033632997753    1.2055527627652802 H
   0.6897898796180505   -0.1986481490105381    1.0814757450075374 H
   0.7630029158505774   -0.0940455423996962    1.0406304347230415 H
   0.7600274087727914   -0.1209999964096111    1.1773423746207823 H
  -0.0509550133820070    0.8956337096384713    0.2559216914932458 H
   0.1019869482307562    0.2554974945077818    0.3365374556223109 H
   0.2534123514209213    0.0777154616354448    0.4356055344239368 H
   0.2765782115289151    0.2079168498620632    0.4407003845718820 H
   0.3734538985909974    0.2554829008672784    0.5940268183660520 H
   0.4322042645778255    0.1492834427508195    0.6562475322539708 H
   0.4884272077687097    0.1712430312768352    0.3936464768824565 H
   0.6173482157257792    0.0816703382118860    0.5574700627861029 H
   0.0140220706472840    0.2809772227405037    0.4379657783016401 H
   0.7844561946910198    0.2166891639773352    0.6482680246518622 H
   0.9205214871678460    0.0613629034081319    0.3888678060149171 H
   0.7711109294794355    0.1844487397597938    0.4977850607930037 H
   0.1711493444534431    0.3968514964244230    0.2903729839812523 H
   0.0918177020146966    0.5116593052646655    0.3030852284150059 H
   0.1071254402122083    0.4352151049626848    0.4098120421347452 H
   0.5940970632348668    0.3381136295706280    0.3441548499081192 H
   0.3759453339867801    0.5931290484190564    0.2949013143531675 H
   0.5976344525895998    0.5212534794470491    0.6926471934311613 H
   0.3708031011113403    0.5269760760168126    0.4820074926862417 H
   0.4765393200368386    0.5970386079013028    0.5279430520594207 H
   0.6243638883102401    0.4110296022167183    0.4740623513986546 H
   0.8784528897401976    0.4738816467543450    0.6809393732489636 H
  -0.0919537151291841    0.5047189308417945    0.3149974550569334 H
   0.6671080911920600    0.5302163250603891    0.3245050349197932 H
  -0.0537532020847780    0.4385364639240068    0.4309853359802329 H
   0.2690418065013718    0.7021158918716788    0.6157918957073116 H
  -0.0528209713030527    0.8720173588721403    0.4547594914947836 H
   0.6373066333287519   -0.0030541938605409    0.6600187166008946 H
   0.4336478007497844   -0.1124819188736365    0.4082680460748841 H
  -0.0218366427608459    0.6195097419312823    0.4869124055957638 H
   0.7323762167735912    0.7781533674128277    0.4185755671728434 H
   0.9206501739210216    0.0041957731243161    0.6459690261553513 H
   0.3635382849873013    0.2697485685025945   -0.1027327919041501 H
   0.4980851336309597    0.0464274644823406    0.8367208281482322 H
   0.6112281131619648    0.0694462440743715    0.9339585887329224 H
   0.4664942715011694    0.3449933789385022   -0.0408160082203988 H
   0.3381039467651895    0.0079532515107893   -0.3236770356903688 H
   0.9351753170963144    0.1676499233676116    0.9775515199311637 H
   0.8627965002230360    0.0951748322819947    0.7212564421206750 H
   0.9106941586622587    0.0069693329063183    0.8649472932052930 H
   0.0930641678913855    0.4859157163307775   -0.0411697002967851 H
   0.2468792541608689    0.6224730190398297    0.7216001818226174 H
   0.3460092039399161    0.4544502144239705   -0.2105767213768393 H
   0.1514019132713746    0.7235324433536968    0.8881401534956012 H
   0.0619743461387267    0.7522980449587270    0.7954337855518857 H
   0.1457666305683610    0.6621362296692429    0.6517995864448706 H
   0.3010833116844918    0.5739155221839891    0.0104394857322804 H
   0.9671936287367108    0.5364329854889659    0.7383002661392630 H
   0.7589455422315597    0.5350564211463174    0.9236900350087467 H
   0.7920763957438867    0.4184715907871473    0.8589475425502296 H
   0.1642047488547479    0.9319857000462807    0.6925063290544188 H
   0.1242101030538592    0.8550372741031782    0.8577501953479176 H
   0.2822269614502843    0.8977229044894949    0.8036743515913271 H
   0.0826113619110612    0.8294338839693478    0.6453412609981289 H
   0.3498862664687287    0.8583093219213251    0.6996551961741051 H
   0.0330864145872055    0.9874269403189754    0.0382043137286033 H
   0.1971463131312993    0.8613862758085312    0.5806615450553342 H
   0.4100944588425486    0.6953920640312891    0.7798621473837105 H
   0.4415770744639119    0.8069711988891335    0.8474180995407549 H
   0.3907936904026069    0.6963944167079750    0.9595698760130665 H
   0.6170728859282875   -0.0643820478605312    0.9082860560715859 H
   0.8182589127635309    0.7336642702948185    0.8199977768136393 H
   0.3272822886376817    0.1564957735049044    0.3058780177973807 C
   0.1034047470520800    0.9578202841691397    0.1673179985221584 C
   0.3628694131423074    0.2845972136717073    0.0590522414865063 C
   0.6666464648739827    0.0503884857495201    1.1452620439521877 C
  -0.0440493230807835    0.1926841615218064    0.3144508400297910 C
   0.0038094300609676    0.3618528741517252    0.1933067104639009 C
   0.4586951808978125    0.5459669340212507    0.0385840350919964 C
  -0.0770918914950017    0.4317525717316502    0.3517569328486295 C
   0.2032596820859360    0.7646381201339271    0.1457657488805425 C
   0.1077995493087849    0.8848950944869419    0.2595397623871886 C
   0.1974665336566431    0.8092854430384474    0.2497496882035788 C
   0.0032004125197763    0.8324954761297081    0.2590490337703843 C
   0.5424740729269710   -0.0517838956743224    1.0490715793858880 C
   0.5818134637369808   -0.0913518635972919    1.2288635204143836 C
   0.7177635366789872   -0.1230239039215402    1.1055283373363343 C
   0.0207257526731738    0.2705504506439432    0.3552716521618100 C
   0.3084274347610692    0.1381408141832466    0.4196418492594036 C
   0.3714315713012675    0.1716455085201941    0.5975476622173519 C
   0.3942405501228383    0.1268560896423504    0.4931984707522291 C
   0.4178381093970083    0.0135326307011698    0.5057964159933324 C
   0.6666569393771481    0.0670836104854934    0.6250690398234349 C
   0.7765913391713598    0.0528471301311842    0.5865273214390391 C
   0.8481254621822244    0.0238941154586357    0.6788049717144075 C
   0.1050320359367128    0.4332480358400850    0.3301725293818876 C
   0.4808580325098345    0.4409594690993887    0.3166771096361358 C
   0.6059414817786013    0.5772964846454727    0.3603496598299273 C
   0.5214642396598261    0.5060135403717211    0.4078867935769612 C
   0.4390617721644879    0.5767617429339718    0.4567853355911762 C
   0.8955143590391250    0.6164950030378017    0.6146933066821724 C
   0.6492602859769261    0.6591913866329103    0.4254966780312204 C
  -0.0071446557137034    0.7702881632677979    0.3619772558351161 C
   0.4183431300853427    0.6745638666874637    0.4021771929152969 C
   0.7809427470578079   -0.0344343613747197    0.5042109261877133 C
   0.2814615745404087    0.1397799104376893    0.6640678018649790 C
   0.3821260390331948    0.3326348696910872   -0.0415088465951381 C
   0.6592020858385358    0.1580150482899502    0.6949860014254472 C
   0.2179741144970045    0.4291687292761932   -0.0730617014182128 C
   0.3343278883740438    0.4401620418588252   -0.0604352005181286 C
   0.3484550004290493    0.5086599972258015    0.0304506484696418 C
   0.8128989598580092    0.4979700633866463    0.8766237251296297 C
   0.8163600349753938    0.5796790884792503    0.7900411297378923 C
   0.9107839401179626    0.4970989766658574    0.9402492549486497 C
   0.7100101598001595    0.6033000477636351    0.7482457504776487 C
   0.8920196158758515    0.5513975348871301    0.7091153108665408 C
   0.1317517453329852    0.7796795549749541    0.8293086058894183 C
   0.3060272771785855    0.8295974863602552    0.7640210295382887 C
   0.1599191807024827    0.8558276349493925    0.6579049853824910 C
   0.2188554691204976    0.6861688832330940    0.6790308140575546 C
   0.5734676040683874   -0.0085490835532697    0.9446642813653591 C
   0.3754433060136359    0.7613338126894038    0.8253031579594334 C
   0.8103551519463993   -0.0533592407623552    0.7651900507517992 C
   0.0117760378970919    0.3753919321072368    0.3064093214792250 N
   0.6264872197376369   -0.0567503419635570    1.1275276782606549 N
   0.2068965792207407    0.7860646567383948    0.7379151858050157 N
   0.8499644856665587    0.2077017856862226    0.0115641040444264 Cl
   1.7120834322750975    1.5655179088059774    1.1206957559886395 Cl
   0.7068528452745730    1.2991686078907463    0.4161765090348095 Cl
   0.2902077846835617    0.4465012120589971    0.6307954829649270 Cl
   1.0334388758278190    1.0824046569746055   -0.0862631433342410 Cl
   0.0176095879814516    1.3253833947530378    0.6673658656421914 Cl
   0.2524928396787540    0.2158135455471268    0.2748220161292296 O
   0.1463591881760066    1.0402044571566149    0.1643682678504780 O
   0.2730617711805131    0.2800624319068386    0.0935157830507512 O
   0.4411947550983729    0.2541902115532075    0.1048400540332314 O
   0.3996581127957700    0.1382936633653619    0.2486258354586977 O
  -0.0139126811161809    0.0934051613493630    0.3585873239861151 O
   0.5269331273982686    0.4754725071864920    0.0480740069077633 O
   0.4106174358220237    0.4732326906037458    0.2620952259174428 O
   0.9024492283134524    0.5044308984634365    1.0446358826530262 O
   0.1695849025878030    0.6822109343112837    0.1146278315150465 O
   0.2635165060815955    0.8223751704837206    0.0863018427135479 O
   0.0349867887329377    0.9351371583086886    0.0965795832449025 O
   0.1190297130597453    0.9381488248568001    0.3488301691948963 O
   0.4792747365384966    0.1819486187156462    0.4663272128675038 O
   0.8174591096289687    0.1509993476394910    0.5511850617681358 O
   0.8433947276454273   -0.0269716344730489    0.4346969591939471 O
   0.5368548760681044    0.3574071904025619    0.2945215929897744 O
   0.5601506948332295    0.4430470509690935    0.4903689494524842 O
   0.9839453520134599    0.5927104413625095    0.5593703538510510 O
   0.6363489644679107    0.6706665965866940    0.5182047302229186 O
  -0.0115551697251565    0.8093814538312335    0.4539781535442212 O
   0.3648475978829829    0.6636132597054627    0.3153266489808427 O
   0.4403846270964049   -0.0358906530796979    0.5868611087665379 O
   0.4304301830131169   -0.0286091945548070    0.4081861303775391 O
   0.4334719787323643    0.7644046218858714    0.4346041724414406 O
   0.8366042568790238    0.6889708622097608    0.5970576991678124 O
  -0.0000893296529734    0.6743395854755156    0.3600074512625147 O
   0.7279462501134022   -0.1077236239831620    0.5297161824016681 O
   0.7134697385599491    0.7201037059217229    0.3753708551346356 O
   0.2850273946894478    0.0490581602046772    0.7082831392495886 O
   0.2083899441006153    0.1944745707856799    0.6736006454475808 O
   0.5877973977596446    0.1602931923811766    0.7548166143123315 O
   0.7234751336193490    0.2377723659868002    0.6929878708640442 O
   0.1831179606775679    0.3791540190117638   -0.1459972947457471 O
   0.1624629886140926    0.4826230837986570   -0.0128046675647763 O
   0.3786200731879582    0.4864482305918858   -0.1483728499687485 O
   0.6634135842898454    0.6839529541355930    0.7568400085934763 O
   0.4793534449479970    0.6388662858432838    0.0345035615700508 O
   0.9964504124354154    0.4811390641767223    0.9024378877349737 O
   0.6706020861765362    0.5132574471553375    0.7137370404447744 O
   0.8539335741874678    0.6715283894627413    0.8393658630484802 O
   0.4783500623626263    0.0036089551588080    0.8976890739907657 O
   0.3336590165290498    0.7273306303163113    0.9191999830000767 O
   0.8486746254196130   -0.0411758552009820    0.8602046039992043 O
   0.7584173280005018   -0.1270640380819754    0.7515828581853713 O
