Li1 Co1 H90 C51 N3 Cl6 O45
1.0
  13.0605616078000004    0.0000000000000000    0.0000000000000000
   0.0000000000000000   13.3051241467000008    0.0000000000000000
   0.0000000000000000    0.0000000000000000   13.2727150609999995
Li Co H C N Cl O
1 1 90 51 3 6 45
direct
   0.3099804530214193    0.3729246355458209    0.7915473572826368 Li
   0.5073886409250862    0.3039880371430552    0.9424418796765429 Co
   0.1277003894613488    1.0644018362513759    0.3145198635934162 H
   0.2597069640461928    0.2366117398521846    0.3072003363110547 H
   0.5750084896360761    0.1592107333944265    1.0550247229857264 H
   0.3794169770571387    0.0795466890523155    0.2966877923922909 H
   0.5435099207112674    0.0352862978295806    0.2729548938442324 H
   0.4013892328159276    0.0025733373790798    0.4063435782138803 H
   0.5300062134974312    0.2424726396934943    0.3045279365920082 H
   0.9227688031962119    0.3187470125449273    0.1158498862842423 H
   0.8322550844527551    0.3414923846784943    0.2825550396632598 H
   0.7033471515048704    0.1629453847552200    1.0240883246593191 H
   0.1982593767142124    0.3560273862213371    1.0187744156606062 H
   0.0791259085890164    0.6155446941343495    0.3914589069848187 H
   1.0309800763742316    0.4425884725593140    0.1712582934277760 H
   0.4416610079351445    0.4671236814307748    0.0748966979198530 H
   0.2398770357645998    0.5441679832123741    0.0197843869391569 H
   0.3691455963900254    0.2524868265985482    0.2205594346782760 H
   0.3864074880888753    0.5951405252587563    0.1973019475265295 H
   0.5660182177376705    0.5678050418773248    0.2132911403197643 H
   0.6248176034808812    0.5657780784531099    0.0887212996804347 H
   0.6527827102632627    0.6656223929707979    0.1738274738737722 H
   0.4111330710842604    0.5563821495897925   -0.0258754495912553 H
   0.3230419127903560    0.3580942590815067    0.2863244266929720 H
   0.9695187070927910    0.5656949525846245    0.1744671319965437 H
   0.9163088972186916    0.6528077812377471    0.3020047150924067 H
   0.1882222891879217    0.8025403187198658    0.1147461181454199 H
   0.2159867920392721    0.8192030719234867    0.3177189076326243 H
   0.0624344364650454    0.7775694882084944    0.1247591410566484 H
   0.3427447408713719    0.6685100022539874    0.1077731665243951 H
   0.4766343125844031    0.7438922376199582    0.2596742651868793 H
   0.4149009029338963    0.8082772061895653    0.1528001257601924 H
   0.5567516943189745    0.8106229189883249    0.1764659694520357 H
   0.5729127145215012    0.7846163972764758    0.0194054139877387 H
  -0.0055473262387684    0.9848452692979937    0.1730190484724368 H
   0.6863693210976715    0.9744477714261447    0.3239067900381863 H
   0.8129994040653354    0.9262948949151123    0.2984289583778326 H
   1.0564276803885573    0.2620425435237100    0.3987498041038523 H
   0.1788712364792035    0.0871437620961676    0.6092915046645105 H
   0.2746879431093862    0.2987862818466068    0.4766274647971968 H
   0.3236506155581798    0.1485381535346422    0.4739633527570083 H
   0.5530886052852358    0.2797191918140104    0.4252545545172539 H
   0.4523471487146228    0.1683418018955898    0.4996592784536385 H
   0.9314774639273149    1.1261630036737640    0.5149878151595769 H
   0.7245797759759639    1.1172265970165223    0.4224427711083220 H
   0.8340191739836554    1.0875004557464991    0.6002639621120396 H
   0.8302038709747680    1.2745855195576008    0.5724946625899695 H
   0.8484817986143752    1.0897792770236023    0.3748112204350441 H
   0.9121253098936742    0.3402642864044881    0.3950979514288542 H
   1.0420064016062180    0.4562547110697678    0.4105424176935098 H
   0.1459247206308331    0.4415105419934758    0.5616033717473927 H
   0.3966099590086878    0.3315413313444419    0.5375743016939615 H
   0.4443461910882990    0.5837186100383942    0.6138632896927524 H
   0.5107134596659637    0.3797716216389643    0.3499677729200067 H
   0.3555167797016454    0.4105928297298117    0.4333607332083146 H
   0.9245168137860755    0.4826355246668403    0.6735903309466820 H
   0.7248125377890688    0.5041023217332051    0.4735638112935152 H
   0.1266162094371496    0.8796384343548427    0.3855302028999085 H
   0.2169729670895324    0.6712518030517687    0.5516395475115670 H
   0.2090016406545479    0.9034638415066146    0.6107433553153712 H
   0.6297951842275754    0.9935742370790875    0.4925265479184840 H
   0.5000854480866530    0.7002579209763218    0.5972389593288505 H
   0.4323251153708325    0.7917196756042802    0.4636433843578917 H
   0.7247352057393202    0.9904769341493572    0.5956560126669626 H
   0.6842553231832549    0.8741488200382325    0.5354871627873636 H
   0.8816381063600836    0.7295782035756208    0.6771713616387113 H
   0.7132226839569336    0.8451171480492263    0.3603657961854592 H
   0.9392895322796487    0.9179544992317302    0.4311443065115312 H
   0.8468333243261683    0.8394088210045036    0.5098689679841686 H
   0.9151542761194738    0.9548861350873696    0.5475472423765310 H
   0.2761809876342368    0.0809484046465759    0.9664000524044702 H
   0.0620753401152223    0.0979463670486098    0.7293453137515525 H
   0.1511128589387243    0.0655393037814141    0.8266645128802559 H
   0.4945154732123295    0.0445075571464604    0.8074589472647461 H
   0.5861186550606120    0.2219429552660289    0.8099768947868926 H
   0.6309911511751737    0.1026152449422000    0.7046337156728931 H
  -0.1152707855381110    0.1483885870985790    0.8365208233185321 H
   0.0205564517026327    0.0781592536705436    0.9667594362967693 H
   0.0633118872473422    0.3356683127536021    0.7970820199091141 H
   0.5535170707806750    0.6669542106828780   -0.0464017698465982 H
  -0.0165859020924973    0.3322132529215298    0.8966298512252828 H
   0.6855071835925526    0.6507108447723386    0.7384233358025224 H
   0.6984499654633604    0.5184170021450553    0.7380865546707452 H
   0.7712936936711748    0.5225876509408248    0.9706689604417178 H
   0.1547857484698568    0.8094850115300352   -0.0535947216700368 H
   0.1999936053546158    0.6966277406437331    0.6852782184125877 H
   0.3183346113858526    0.7120947139489797    0.7891800948306368 H
   0.4479909041894240    0.7425934898736407   -0.0273634646589510 H
   0.5130033382254079   -0.0293684915970450    0.9186675427341943 H
   0.9483090525374642    0.6909637574167378    0.7837780350658883 H
   0.7742568128051092    0.9070654614142263    0.8135014185776169 H
   0.7584435571272938   -0.0395623085434010    1.0078158439342091 H
   0.6329596729563999    0.1146046107114450    1.0185182510413573 C
   0.4203202717271746    0.0718473997506514    0.3669356652438424 C
   0.9854506406687354    0.2790480218270536    0.2661529697778238 C
   0.9091262045583718    0.3507113892249812    0.3127267112586740 C
   0.3910137218640041    0.5298692064476954    0.0460525617924286 C
   0.4051065308508762    0.6138964569771307    0.1196170130379024 C
   0.5916421541387004    0.6097702271581014    0.1473498467729971 C
   0.5218816777242812    0.7208800509898965    0.0052914968924759 C
   0.3352458290373274    0.2754456503293110    0.2941638174673387 C
   0.8774047508842377    0.4579684868864072    0.1082124135038719 C
   0.9402688163551789    0.4644952955837571    0.2959042300275296 C
   0.9562030469227002    0.4851857451402370    0.1836724829317874 C
   0.2027844501202981    0.9779449203055514    0.2235686155290997 C
   0.1118955560859814    0.9052188044624312    0.2226547105786618 C
   0.1132385304944880    0.8462392721147656    0.1222125633711742 C
   0.1333272531603884    0.8336366087986484    0.3185295933100120 C
   0.0770088480191641    0.7413864361233018    0.3214348014624346 C
   0.0932493441302444    0.9111946975937795    0.0374635127940836 C
   0.6427946252239414    0.0201545337227470    1.0873677664419501 C
   0.4877014477000689    0.7677800267526006    0.1786463824170542 C
   0.4008815976774784    0.1616736942536176    0.4376519426359439 C
   0.5061465963264594    0.2946660647486253    0.3610807968433039 C
   0.8478064830908274    1.1287868048209828    0.5266900177071465 C
   0.7960590911872226    1.0801138279393188    0.4382518199001967 C
   0.2245997447880129    0.5468341740429797    0.6430072891097681 C
   0.2428148879911905    0.6557652884031169    0.6290304954283386 C
   0.3531455187306390    0.3347085321563525    0.4640048778411729 C
   0.8439957740650932    0.5218819829668564    0.3276935058509654 C
   0.7232145973155493    0.5912931353783172    0.5900128567899798 C
   0.3287958766899727    0.8145777862574928    0.6125116446135391 C
   0.4229357794691693    0.6447184166581091    0.4602921483978357 C
   0.3471388857575861    0.7041909921316916    0.6414070136648133 C
   0.4321582006495927    0.6525830557885868    0.5777470920800626 C
   0.8788809508041926    0.9152254754661755    0.4866813987049700 C
   0.7469831004873122    0.9279927370209752    0.3531638032578119 C
   0.6953490268348245    0.9542998947852125    0.5248285296930929 C
   0.1973007655628724    0.1847678042079550    0.7242318158961343 C
   0.1193891082730137    0.1289126320347346    0.7856058449667641 C
   0.0722372308505133    0.1943550879186176    0.8725767469031633 C
   0.1462409398045579    0.2278947975131861    0.9550926447406841 C
   0.5083470989436544    0.0531433277513140    0.8882615558547025 C
   0.4112195911003159    0.1024228378686715    0.9329713230178416 C
   0.6084928843453221    0.1099808282257131    0.9099097264572854 C
   0.0098547679468188    0.2867916549464450    0.8355308224076703 C
   0.6860079277562718    0.0534033779366299    0.8515735084008070 C
  -0.0776139056298017    0.2752983386636407    0.7660416488843059 C
   0.7304715593701822    0.5861221952772385    0.7036256325536137 C
   0.8427324286979120    0.5425564236535467    0.8518123442369891 C
   0.8369539635548106    0.5936598927007439    0.7432731347851844 C
   0.8702611070807218    0.6992936308382863    0.7524837596978834 C
   0.8261412585394564    0.7771944447331400    0.8250212921903094 C
   0.5030337056850861    0.6749496264961445    0.1093726885439992 N
   0.3986404995624847    0.2631932280142262    0.3844844485130924 N
   0.7813116396009930    0.9689897238950352    0.4520928463334244 N
   0.5336364555516231    0.3291760772022771    0.0987674733070954 Cl
   1.0523428637013377    0.3405784510792339    0.5136073138894306 Cl
  -0.4520465025465702    0.1865227671637716    0.6442097559695363 Cl
   1.1220397134490825   -0.0216729602460358    0.5250923039083842 Cl
   0.4795249999172856    0.4070355536399273    0.8060018226364304 Cl
   0.2271884542949462    0.6836387600002971   -0.0731928218932779 Cl
   0.1943835862604720    1.0647453129412294    0.2797696261416035 O
   1.0511905395936965    0.2361374864795421    0.3284401503735409 O
   0.5300187703847171    0.0678609656959827    0.3385194747156338 O
   0.9908991046886518    0.2591549342405205    0.1734040488266608 O
   0.8687458583039631    0.3621438267071769    0.0855004063060553 O
   1.0302680089854566    0.5027076335066692    0.3526454466165082 O
   0.2819058563072153    0.4916002963356250    0.0531008559485266 O
   0.8118455486299765    0.5226060648990336    0.0859366395841292 O
   0.0441603371447327    0.9895291789942031    0.0483655776191759 O
   0.1043797996470410    0.6880573583802740    0.4056670022489230 O
   0.0164769946624255    0.9557361835254975    0.2356799280421168 O
   0.2805981024362180    0.9580698708821617    0.1736903504599390 O
   0.5769923246944801    0.0120230800957747    1.1546192666736403 O
   0.0043021736420923    0.7122104588291492    0.2659653668654916 O
   0.7170609568815880   -0.0511052297748494    1.0740615213226721 O
   0.2187163836962426    0.1481736323211214    0.6343270756439846 O
   0.7986286590976834    1.2248437815096962    0.5250327079631414 O
   0.1802494314252194    0.5123907524749319    0.5590572461171289 O
   0.4216280255981719    0.5670962172248064    0.4125796798418891 O
   0.7584711210262142    0.4801377651845852    0.3475221542315305 O
   0.8507550546114426    0.6205938766342108    0.3289728220965084 O
   0.7094403044939787    0.4960317439004810    0.5468353307626244 O
   0.3805662385093443    0.8598716139103126    0.5509518208514189 O
   0.4262809648686935    0.7349776270765144    0.4108249522000343 O
   0.7278407383510095    0.6700665454152278    0.5413426339281827 O
   0.1961691143794215    0.1698667782713294    1.0111422168576909 O
   0.2479915413411982    0.2601056957561985    0.7503357440229463 O
   0.3364946267911896    0.0353682211538564    0.9414428376614723 O
   0.6745826916537996    0.0481926035586098    0.7559608176915116 O
   0.4011013432049820    0.1922363553394111    0.9651772430602322 O
   0.5878230228105183    0.2088577710858286    0.8802970964721143 O
  -0.0932495272923527    0.3293827644882940    0.6915647995390957 O
  -0.0048842613369629    0.1338776364399273    0.9220963815053757 O
  -0.1507439921208439    0.2054079723846730    0.7962675671049728 O
   0.1518938360748000    0.3287935178256130    0.9619299797985772 O
   0.2358603631608222    0.4983963246178885    0.7211307171525213 O
   0.9070612091309245    0.5544587552856253    0.6684504632039882 O
   0.9232718443515077    0.5143260219031685    0.8903191604875516 O
   0.7498053374712094    0.5331871762398788    0.8961747823134407 O
   0.1139345189422261    0.8716685726060290   -0.0534726667632182 O
   0.2430836360056636    0.8530787423065991    0.6588766872722365 O
   0.3737617837953199    0.7117948294867223    0.7423102571869490 O
   0.8165474903874677    0.8628328790263372    0.7722890518925758 O
   0.7610376262812394    0.0068115541276237    0.8877786102048831 O
   0.8003782010152648    0.7634456064672925    0.9125610302665113 O
