Li1 Co1 H90 C51 N3 Cl6 O45
1.0
  14.6265698931999992    0.0000000000000000    0.0000000000000000
   0.0000000000000000   14.2474730667999996    0.0000000000000000
   0.0000000000000000    0.0000000000000000   14.2943539729999998
Li Co H C N Cl O
1 1 90 51 3 6 45
direct
   0.9853182633954503    0.6020462712218025    0.4647406241616793 Li
   0.1942141231568350    0.1390631184147942    0.2158590023185513 Co
   0.5511445612650292    0.0306228362148428    1.0510586918288567 H
   0.5265604651559906    0.2086873946179566    0.1252092253193568 H
   0.5070070016926967    0.2101129105606628    0.2925564174008160 H
   0.5448666710508179    0.0090660311196511   -0.7012744354543347 H
   0.3927575972047111    0.2193440211852179    0.3332207245180132 H
   0.3706307416013025    0.0564646116843432    1.0519107765066957 H
  -0.0478152812659887    0.1196659945385622    0.1349851130764355 H
  -0.0099273824594723    0.2846503387081595    0.0517669416048957 H
  -0.1211667237322630    0.1561278988751659    0.2234752961507623 H
   0.0983085205280083    0.3222605168420392    0.1005281518922968 H
   0.1705100009647148    0.5677141480651828    0.0197256194951232 H
   0.1942838592608873    0.4950476481780887    0.1217945904158001 H
   0.0428204596958292    0.4482860928569220    0.2770097197032663 H
   0.0547132001859199    0.6478670281335140    0.1144686210017363 H
   0.3023919127242721    0.5984273838753756    0.2253473639651277 H
   0.4295939849520864    0.5381484139855318    0.0782060518097959 H
   0.6495006358952693    0.5872310124730870    1.1419589173622602 H
   0.4460681823722227    0.6418140249380941    0.3772276101169137 H
  -0.0762744485922613    0.3330785755446142    0.2679508982801653 H
   0.0728521077997511    0.7229055977793329    0.2097852755755316 H
   0.3006115910090553   -0.1403997716943416    0.2451376952060036 H
   0.5015037496939201   -0.1415052308818168    1.0251428651535324 H
   0.2993091667127850   -0.0041847396742187    0.9771295025842019 H
   0.4339702673250136   -0.0774384314065458    1.1016555919312410 H
   0.3782572733729013   -0.1583931378721924    1.0132745428550611 H
   0.1991441922384127    0.1784076391850239    0.5576345039766143 H
   0.2007590616283290    0.2850363720752143    0.3887979126512149 H
   0.3024568630172619    0.0896866432530830    0.4025096201106926 H
   0.1094355312481132    0.2866015619089095    0.6303555238956303 H
   0.3136563445905977    0.1525104152864374    0.5973431890331152 H
   0.5088997694572613    0.1518660905028804    0.5452638154982116 H
  -0.2831466012633213    0.0378563996346013    0.6441665712764982 H
  -0.1920931273644844    0.0841460116175722    0.5678364340726124 H
  -0.0535787651597204    0.0672510858387047    0.6232429254394819 H
  -0.2244110257816493   -0.0884909176447505    0.6908108618306146 H
  -0.0489358447418874   -0.0296776813556713    0.3559912534005918 H
   0.1694694289022877    0.3710663644993584    0.5184640034378978 H
   1.0484239680643979    0.5395392571130879    0.6273487423313020 H
   0.2645621273377993    0.4266762257207316    0.4702260067223816 H
   0.3081417228721112    0.4070425686723222    0.6307815662345498 H
   1.3151502086311446    0.6841738172444468    0.6025914150209215 H
   0.3683848288384426    0.3095838829468073    0.5644805636295964 H
   0.6113160168028835    0.5923540261933292    0.6303310387037384 H
   0.6895107000643175    0.5575814740588424    0.4181575465872927 H
   0.7102729158276443    0.5772192721924621    0.5361986978829100 H
   1.1277405821763198    0.8120020988955909    0.5762628379679905 H
   0.3627068058565396   -0.0218398002467596    0.4301042914575095 H
   0.5325911340444638    0.7673338270542502    0.3821932070325960 H
   0.6508010091296557    0.7397001548827663    0.3343414467297521 H
  -0.1064722327087782   -0.0898223818216651    0.7313646357958425 H
  -0.1378835617732636   -0.0658981393681535    0.6091191671793085 H
   0.6870555789893008    0.7956497254671476    0.5152616901268897 H
   0.8512533381041391    0.7962526393986024    0.4278093993580160 H
   0.2920497750184026    0.2060160437179371    0.7808813891473373 H
   0.2157871920515932    0.1243082212471089    0.6690938957762999 H
   0.1412700627479746    0.2551707251633041    0.7485483434655952 H
   0.1014664721419047    0.1238737582394599    0.9331296127544133 H
   0.5639662960510632    0.1118203927623093    0.7673795547612189 H
   0.4905735588721933    0.1456137537142903    0.9043238338589309 H
   0.5938942971611192    0.1564928758767450    0.9515928465947470 H
   0.3871773415059402    0.2463200328750103    0.7093041774781297 H
   0.3613018284660748    0.0920414467921176    0.9248620128178773 H
  -0.2761729908580943    0.1772249733241377    0.8290045852917260 H
  -0.1532931897069315    0.1945255850778374    0.8420530938393882 H
  -0.2578570082349538   -0.0004156502540650    0.8245867570975116 H
  -0.2459608493083901    0.1648206684223918    0.6518066507236899 H
  -0.0684981893031385    0.1610221000905721    0.7048646623996682 H
  -0.2619181107650566    0.1749080712429594    0.9826820445283793 H
   0.3450239176682267    0.5815761149609279    0.8566413711685968 H
   0.3207742130149916    0.3308873097774411    0.7781397472323529 H
   0.1629764506651857    0.3755850605304476    0.7043322843702465 H
   0.5560550768899806    0.6282761856949055    0.8892472518457061 H
   0.6245282737716101    0.5331092747877677    0.8727253439339466 H
   0.7989991181755604    0.5674543827030974    0.8505207727725269 H
   0.7923762393524786    0.6055872500159692    0.9700525825505245 H
   0.9212027525923340    0.4089488716267239    0.6836499925675935 H
   1.1477541603520269    0.6711708096843412    0.7974725551733055 H
   0.2299361006139632    0.7718391873872050   -0.0313805725986131 H
   1.0567232481339126    0.7352607711616356    0.7451532967155521 H
   1.3220417765610162    0.7535489264561465    0.7047156525175831 H
   1.1219641082239902    0.9638191958543721    0.8320414486632358 H
   0.5866690898314683   -0.0327673520498085    0.9515165927114264 H
   0.4917642002957917   -0.1112444261778122    0.8558494501051209 H
   0.4348736233474084   -0.0090663070703395    0.8115354502422045 H
   0.3694240335262804   -0.0894180996045313    0.8556829508002558 H
   0.6470714949374485    0.7509968949604894    0.6675751143020894 H
  -0.1435971364944874    0.0126793034352845    0.8511133144163116 H
  -0.0204582178586598    0.0542719421594717    0.7457563320130047 H
   1.0033224846122393    0.6459895022119292    0.8748982298201271 H
   0.7033410103473897    0.7972970351261981    0.8941191054552878 H
   0.0922250709803896    0.1855506602332369    0.0524854070926959 C
   0.0662087183578304    0.2721646158599075    0.2832905212120005 C
   0.0459654212511277    0.2694251827115165    0.1006044057756174 C
   0.3989531714686491    0.1844508160765552    0.1911534436995994 C
   0.4381495110196285    0.1749663271874423    0.2902841915932454 C
   0.4415598116139730    0.0744628910141384    0.3386053680035030 C
  -0.0002463703675101    0.2495823657660483    0.2006446036538206 C
  -0.0491689821093563    0.1539478631695798    0.2031595826495768 C
  -0.0071064886818285    0.0782102221899671    0.2667448276852603 C
   0.2076253331282991    0.5588781250448372    0.0853928054185314 C
   0.0647182800555368    0.5763229027141606    0.2591824012752115 C
   0.3037339908836310    0.5509652130869470    0.0490050119594866 C
   0.1993759622312923    0.6439175558491185    0.1594486180841130 C
   0.6088062007442964    0.5749099504028550    1.0166709887589267 C
   0.0923563389409586    0.6527050790409851    0.1846480780023706 C
   0.2332321570613749    0.7346396083801018    0.1150198876077602 C
   0.3064160961404648   -0.0168697961156408    0.2976864148906297 C
   0.3645021686922383    0.0370857366581900    0.9775744334997237 C
   0.4361131484125728   -0.1070556132058425    1.0311634240513012 C
   0.5562693444881176    0.6346099404300016    0.3108433578595277 C
   0.2451536124178400    0.1728340192436011    0.6175658588051114 C
   0.5044095505966840    0.0872167315827812    0.4261003329639597 C
   0.3497242678188086    0.0358911388568676    0.3765084450522023 C
  -0.2272620018002568    0.0882126976697827    0.6403965513020531 C
   0.2403889956615628    0.3616022300968720    0.5005826077146075 C
   0.2990568861010665    0.3367115004680249    0.5904761420727972 C
   1.1203690657656180    0.6564671496726469    0.6100055311257961 C
   0.5357349333313615    0.6306850339053276    0.5136071907319067 C
   0.6172210239666037    0.6835140511262076    0.4710908237000044 C
   0.7015347085149770    0.6140891085162153    0.4682848906668809 C
   0.5900868426173241    0.7140233209428256    0.3740921064009249 C
  -0.1584092217326485   -0.0607547711612846    0.6839843903311460 C
   0.7878645868952145    0.6661320214260017    0.4407036511967591 C
   0.1575691678519562    0.3001674763060658    0.6869233129350882 C
   0.5538305635394425    0.1055329620312597    0.9112825253946158 C
   0.5352408325235323    0.0221504566262627    0.9747670313550868 C
   0.3204316856803819    0.2647352282412248    0.7433504870153953 C
  -0.2139300995549698    0.1453919599979461    0.8533771453009477 C
  -0.1979318168606254    0.0490120620636371    0.8139958622388873 C
  -0.0674658214882470    0.0842807723566168    0.6986545181589650 C
   1.3000612300386583    0.6137304484242789    0.7351115697322183 C
   1.2816700418131086    0.6964335351032593    0.6731409482075794 C
   0.6215815815317545    0.5978181530342782    0.9126963703321468 C
   0.6701561964406340    0.6714150635238596    0.7739653718032353 C
   0.7880567030250056    0.6301087913701421    0.8999081043954501 C
   0.6888837588151415    0.6692378353336702    0.8779204020765017 C
   1.1576423296942620    0.8240800301324631    0.8179911459787382 C
   1.1289876278017252    0.7350698601146557    0.7629239494137998 C
   1.1801117126322802    0.7243170761450554    0.6680431312556807 C
   0.4345266520453836   -0.0657928575407749    0.8647970387993413 C
   0.8731832917666942    0.6803240117566363    0.8756103991157265 C
   0.2562272955289638    0.2697150586762322    0.6576243323172112 N
  -0.1644981407786242    0.0413770239421415    0.7125579096921109 N
   0.4409992564011057   -0.0267522503122448    0.9620613154939115 N
   0.6353777074500951    0.2427011455285835    0.0988834465740707 Cl
   0.5426189123322624    2.2002223051923071    0.6620568516265607 Cl
   0.9654626169848028    0.4403109242451086   -0.4346027126748277 Cl
   0.9472061151562953    0.8621731009145859    0.4449123058945254 Cl
   1.1643021276312537    1.0817186993048655    0.8327207378440089 Cl
  -0.0982009838183433    1.3967745677353072    0.7755373211226969 Cl
   0.1614983187341954    0.1399888966168767    0.0824986557369059 O
   0.1485287707550624    0.2374251222192175    0.2884771844316213 O
   0.3135845574246615    0.1867978989482486    0.1727000039360226 O
   0.0771101122707074    0.0663568921848358    0.2787208848280562 O
   0.2512076634117896    0.0210772838658503    0.2401581067520973 O
   0.4525727832933335    0.1818321060902249    0.1180581501330924 O
   0.4866186329789465    0.0209242742767267    0.2687099392288150 O
  -0.0676442638721455    0.0272369726463472    0.3102760009845462 O
   0.0318288190600611    0.3248434310070606    0.3475417634671443 O
   0.0625749203868714    0.4873615834642569    0.2273397590082192 O
   0.2454257199611028    0.6310380789664705    0.2444192297182034 O
   0.3695860674151077    0.5482839656951539    0.1148428946492271 O
   0.5369553151522762    0.5303200784289691    1.0414444063382648 O
   0.4626143036957542    0.6255606164273869    0.3085550417829995 O
  -0.0672224288113587    0.3213298254880124    0.1978008235098013 O
   0.6755279275145426    0.5993222794080938    1.0781826878298197 O
   0.2046581302696045    0.7284799195996049    0.0229674589016140 O
   0.2777258425086073    0.8027337886920286    0.1445238442606181 O
   0.3274702463785988   -0.1044530464330437    0.2979403613093946 O
   0.6070867271983017    0.5871713527709057    0.2592250754667946 O
   0.2498443909462971    0.2869251280583863    0.4362394410533323 O
   0.4747349171611451    0.1513312588197972    0.4820674862547704 O
   0.5736038256310870    0.0396475944577358    0.4307089357818577 O
   1.1019648874814705    0.5780305037663565    0.6514323770761991 O
   0.0498138970326005    0.6002663064602553    0.3384808433133098 O
   0.4579387030252379    0.6345229074527020    0.4784416980521068 O
   0.5526040285328762    0.5839356210882520    0.5925615808450779 O
   1.0874727678971960    0.6833399851716082    0.5344300974937107 O
   1.1785911920890229    0.8128689192743412    0.6204348237179338 O
   0.6335160269468174    0.7644575275302671    0.5445151982455388 O
   0.8593693899786929    0.6237097619020712    0.4260944565179056 O
   0.7829919475463858    0.7620746488372651    0.4387965345791427 O
   0.0567895584997115    0.1613021497513992   -0.0295616726294987 O
   0.5851547224738626    0.0714469175991662    0.8220920658321801 O
  -0.2156051334268136    0.1341787435032767    0.9518684798977589 O
   1.2713942217748182    0.5334249798941336    0.7260989203852564 O
   0.3237414158736862    0.5399086559514169   -0.0361090129413993 O
   1.3528897472947263    0.6337978666014881    0.8083789592188798 O
   0.6794645989570226    0.6018946653903774    0.7243828582220881 O
   1.1040651748505741    0.8947248381823487    0.8021429306324622 O
   1.2290329569995373    0.8221709196626645    0.8678241080940945 O
   0.6448782260962751    0.7541195539605384    0.7346407544709820 O
   0.6671978815167694    0.7523606455644667    0.9267452738628218 O
   0.9439866316858820    0.6172854647954293    0.8712247514594272 O
   0.8898427000749459    0.7647066945217298    0.8693344946453706 O
