Li1 Co1 H90 C51 N3 Cl6 O45
1.0
  13.3412181219000008    0.0000000000000000    0.0000000000000000
   0.0000000000000000   12.9954355163000006    0.0000000000000000
   0.0000000000000000    0.0000000000000000   13.0381966283999997
Li Co H C N Cl O
1 1 90 51 3 6 45
direct
   0.7370331907593184    0.7652317038953195    0.6099230239309466 Li
   0.1493409779223557    0.3622748354293259    0.6922334868413144 Co
   0.2730980430504432    0.2272982124604473    0.1751658131328754 H
   0.0732909508011812    0.0271394723599395    0.3401594898898418 H
   0.0835636259608076    0.2106700663910862    0.2635706771528965 H
  -0.0007907403134863    0.2551518384159596    0.1682185333378539 H
   0.0224919912303529    0.9869357011477567    0.0483238849786635 H
   0.4085781756354120    0.1445845551419398    0.1063441788552126 H
   0.4721299437163353   -0.0250827097399815    1.0548864007957377 H
   0.5478918412255900   -0.0606413487267546    1.2115836848012418 H
   0.6073546273633690    0.0574316468319868    1.1774815759995154 H
  -0.0675335213597187    0.1076138819084511    0.2076472990369555 H
   0.2805006654420135    0.5443257560800859    0.0406103949258339 H
   0.0292424992557156    0.4269844789764955    0.1790114369893820 H
   0.3245656072358200    0.4282110634938059    0.0995019749413921 H
   0.1389498727973721    0.3794885717230743    0.2607389972011169 H
   0.0645743554395398    0.4945275789287093    0.2990249668200041 H
   0.5720645214901169    0.5099023695426437    1.0746552390289765 H
   0.5321705631471135    0.6504506334087575    0.3110994894312895 H
   0.8271538970557215   -0.4612704768132850    1.0664048649116169 H
  -0.1454192129439304    0.3838208620822073    0.2461932739385224 H
  -0.1470502484161922    0.3405995326165274    0.3718019026987848 H
  -0.0999683407327471    0.4725479384894388    0.3409257001476501 H
   0.2943809572045791    0.9199637248020346    0.2374888492980169 H
   0.5013193173133949   -0.1403139382833983    0.9891671894338249 H
   0.4042427394352457    0.7167639169396630    0.1233311906569498 H
   0.5858453470729172   -0.2196233233907505    1.1047798038897689 H
   0.7006699444974464   -0.2165714826155603    1.1738507057688208 H
   0.7158634596733404   -0.2163560223490315    1.0407218652189596 H
   0.0765410288378204    0.7604084719288816    0.2234102151715637 H
   0.7808080540936739    0.0393914665159101    1.0806844470736514 H
   0.6710632027148792   -0.0273542765499567    1.2611679960695505 H
   0.8164524754392322   -0.0902463588487653    1.0438503653607010 H
   0.8101239678600475   -0.0535804079922246    1.1811139801846799 H
  -0.0154040985704784    0.8508248337757942    0.2702387772343622 H
   0.2475583961541316    0.1601846479395777    0.4327167686603870 H
   0.2832552864716835    0.0353408135051684   -0.3498830256834233 H
   0.3155469405068433    0.2704664463604469    0.4353867698110194 H
   0.4421657383231423    0.1407108873501325    0.6435749170957027 H
   0.4095900772381479    0.2578820277932604    0.5940274207346758 H
   0.6337337778115799    0.0901346677863012    0.5751728193656086 H
   0.5160366540817436    0.1458396111944701    0.3911964560413225 H
  -0.1378569349661507    0.1754346178041064    0.2960467942163313 H
   0.9237058002050683    0.0564166750764457    0.3930517739728920 H
   0.7685318137606304    0.2237554300779521    0.6444492711436519 H
   0.7823558887674886    0.1780155239967408    0.5008027950719197 H
   0.1330268754160245    0.3312170075101495    0.4131445066924896 H
   0.0256851029545418    0.4070859538616077    0.4576021120285991 H
   0.6330569280728611    0.5657201910454452    0.3146398563482489 H
   0.5836491458166090    0.3457990505484388    0.3316843914426144 H
   0.3242410491662017    0.5808808987995548    0.3546799029036800 H
   0.3886714476609969    0.5230107336129617    0.5125661550189481 H
   0.6176857679489312    0.4154065676543793    0.4846918377066620 H
   0.4729035612305454    0.6105335410304875    0.5644734869367557 H
   0.0147235851483122    0.2668844194294053    0.4546227889590738 H
  -0.0045894938858312    0.6176675843554469    0.4946688946346616 H
   0.6429908035847566    0.5168187749133805    0.6152558166462020 H
   0.2630817162968432    0.8175516126161303    0.3218034237235526 H
   0.0962341331405468    0.8985323537909847    0.4324569167731543 H
   0.6488073639086313   -0.0061260537902054    0.6695248248661548 H
   0.4140102133502469   -0.1124903228650096    0.4370891524819213 H
   0.7025813141915030    0.8114048390124441    0.4278148637557788 H
   0.9367683255612748    0.0146558584174505    0.6367564894761685 H
   0.3469466220181101    0.2699962812788429   -0.1308243566510255 H
   0.5328302480364231    0.0358609961486451    0.8703539789760454 H
   0.8566159743869346    0.0798264330348013    0.7203286299381824 H
   0.8736946247708886    0.1668546821905483    0.9785967091804593 H
   0.0759114011738958    0.4487531992048533   -0.0562649656780045 H
   0.2393492507073436    0.6393097986273142    0.8145218711510746 H
   0.3405026827005392    0.4832171461374696   -0.2247391851275971 H
   0.4624417729047188    0.3220699496950495   -0.0757346827895765 H
   0.3702990623390266    0.6511762728063886    0.7507822280328083 H
   0.9597145061276114    0.5364315227647558    0.7523138815711895 H
   0.7404481712793665    0.5412556011822408    0.9322459739350927 H
   0.7703135101381885    0.4273446054219793    0.8647489093423496 H
   0.8701012497460618    0.4603154127075509    0.6903820037959200 H
   0.1117139789921779    0.6711163509726783    0.8257243406461158 H
   0.1587036911962626    0.9561256525350884    0.7975225877135766 H
   0.1921646537501395    0.7097853128069852    0.9254566914504900 H
   0.1837059059080100    0.9044521246138638    0.9231143429746682 H
   0.0683910983737111    0.8657108296900796    0.8497437667159641 H
   0.2105280443911966    0.7396304072259852    0.6466896116472131 H
   0.0947747461623788    0.7909007166484200    0.6761837212207999 H
   0.1969858027196190    0.8726717353008639    0.6392146515144819 H
   0.3307756848496474    0.8160626282742259    0.8753784468428135 H
   0.3329239144744186    0.8934959700608738    0.7717061339820221 H
   0.5265673266722305    0.7243688948471783    0.7638545880268848 H
   0.3790141585871825    0.7505226931999686    0.6506748253604977 H
   0.6656971259934077   -0.0606652032562631    0.9421185049045689 H
   0.9231143999350249   -0.0063299715424559    0.8426568970641648 H
   0.8127076899523664    0.7407300240862340    0.8032879555893966 H
   0.6323433500537465    0.0516511556813995    1.0010714430989307 H
   0.0074191546900444    0.2375187241034319    0.2538193285865570 C
   0.3329374064957885    0.1796830325594834    0.2999859892955133 C
   0.3589395299023875    0.2506902718969094    0.0197670215862995 C
  -0.0667697230388388    0.1525465814911313    0.2781194683244312 C
   0.0629230819352233    0.4171625688265891    0.2544467159648224 C
   0.3373433010297749    0.4824838117303197    0.0339292562313725 C
   0.4347569695662813    0.5382740158439580    0.0407837317809537 C
  -0.1053194263193632    0.3885140483877759    0.3218724516747065 C
   0.1200303110531816    0.9572468154219900    0.1537886236377509 C
   0.2847116752228804    0.7762286419987597    0.1700569777702525 C
   0.1411505713941369    0.8953897119034716    0.2544888997127497 C
   0.2458996270823875    0.8510495280537457    0.2485609326631008 C
   0.0632348975402145    0.8182272344518886    0.2800330765258641 C
   0.6664047075585801   -0.1878190795482421    1.1015723050928183 C
   0.6198557347192426   -0.0230012096651228    1.1923264203837769 C
   0.7800974743015304   -0.0427566076029593    1.1056058383719107 C
   0.2736796990828307    0.1762872248587990    0.6329530493675891 C
   0.3223873953413381    0.1874803857049708    0.4143928388402460 C
   0.3868755097053264    0.1766411952966677    0.5950405976621680 C
   0.3995962371868310    0.1350335093270983    0.4844769521607654 C
   0.8614048924164751    0.0132153526355150    0.6648930493437288 C
   0.6811904638664087    0.0670227066963266    0.6373624014918526 C
   0.7814601684598815    0.0486077794166800    0.5845314755876059 C
   0.0501993562267477    0.3344104364604872    0.4176610822342121 C
   0.4645343854191767    0.4481317502361081    0.3508856665219212 C
   0.5799845629012194    0.6030624562886009    0.3617238218303169 C
   0.5174582634000762    0.5232085723076922    0.4277589511153441 C
   0.4361704836717920    0.5860162403520787    0.4895981703708481 C
   0.9065881728704905    0.6030239812410064    0.6123236626766317 C
   0.3843480043687149    0.6750115647911386    0.4479437978008704 C
   0.6268820796259437    0.6805581276523517    0.4352914345407035 C
   0.3919432628431764    0.0162171758488325    0.4908736841918144 C
   0.0630782401809762    0.7714508105884832    0.3857670241944516 C
   0.7757050717889140   -0.0319774382689035    0.4986080130161200 C
   0.5132596213054649   -0.0596017529407530    0.9884400950150040 C
   0.6730667678882963    0.1519963883105309    0.7210733648334092 C
   0.3767782308235075    0.3180970162804485   -0.0717717114161082 C
   0.2131514929908823    0.4054569203464595   -0.0879687366657508 C
   0.3269469490075918    0.4283965132232111   -0.0664711317447246 C
   0.7992021765611845    0.5038958682674772    0.8805049226818424 C
   0.8043156526603433    0.5821671196406366    0.7879522457747075 C
   0.9035764538780514    0.4952634526890003    0.9376685029868482 C
   0.7027994352036483    0.5922078758612600    0.7356919509333329 C
   0.8871259320445366    0.5367504809093137    0.7114715768279032 C
   0.1847485393371994    0.6945792044967142    0.8427826813307120 C
   0.1505110359978155    0.8843319832248322    0.8488709466224850 C
   0.1728335853541697    0.8055243127381112    0.6858622069498103 C
   0.3144113620415508    0.8157425158782402    0.7942936135540448 C
   0.3819471741216310    0.7377374348843392    0.7377811969215906 C
   0.6201802927888610   -0.0301090899577180    1.0019051473534226 C
   0.8427746595749929   -0.0721669339841423    0.7374015431902443 C
   0.0035521914541077    0.3416545184215666    0.3117100033103838 N
   0.6709597638843773   -0.0733750504786074    1.1028401184623446 N
   0.2021300106452313    0.7982025111808910    0.7950943377874300 N
   1.7018581327089843    1.5387394472404212    1.1415655660369117 Cl
  -0.0130902169055556    1.3227405300452861    0.6857279859336778 Cl
   0.6941862786725088    1.3063347697510210    0.3830841378262704 Cl
   0.9874271180212056    1.0926966814762802   -0.0696088356132863 Cl
   0.8028825001681722    0.2367953932086566    0.0202195381549750 Cl
   0.2520602339511923    0.5064549206330781    0.6477672146624489 Cl
   0.2528412720771558    0.2267988063426716    0.2567300071935461 O
   0.2772355962705190    0.2537767402149346    0.0684915513741248 O
   0.1909878496639947    0.9957803450887645    0.1093752728881034 O
   0.4081156991251245    0.1630548864901223    0.2476520646395745 O
   0.4271476943807301    0.1812582010079994    0.0417884719588603 O
  -0.0208181469234869    0.0910888489666431    0.3638337762039208 O
   0.5039558306871069    0.3658214653165806    0.3155318508726042 O
   0.5084262020921062    0.4709866210580567    0.0603270787070898 O
   0.4501647080592583    0.6310515144116456    0.0300498853765239 O
   0.8966273133158553    0.5182986868390622    1.0358730351390164 O
   0.0260876149254078    0.9430418278501261    0.1142317727403971 O
   0.2283689939825448    0.7260117793794605    0.1124316771697506 O
   0.3827252140206236    0.7783609291364431    0.1615688407100292 O
   0.1333446874749579    0.9725791218883708    0.3311574780821396 O
   0.2407104457522091    0.0959859530244622    0.6799419096725117 O
   0.4997987515138821    0.1624846862847728    0.4618056074629769 O
   0.8220404209565627   -0.0169860207242095    0.4153452711707226 O
   0.8264815446574593    0.1462766877351429    0.5542173906520343 O
   0.3046843641906590    0.6548521788535605    0.3837191949768862 O
   0.3823144569255871    0.4820703588688700    0.3168909345331008 O
   0.5737657154735016    0.4705536228724290    0.5094646524758802 O
   0.6879409718917714    0.5082703503638023    0.6750393911861154 O
   0.9747446179335821    0.5683655044677527    0.5498398680830252 O
   0.0941271291366278    0.8308093445162194    0.4628203183449391 O
   0.3512992980233600   -0.0247625973439959    0.5678106048864288 O
   0.6309581691931125    0.6824811105311213    0.5300710298497863 O
   0.4065588697703967    0.7636773119725044    0.4771655537582934 O
   0.4377344338155760   -0.0388167627292896    0.4233389380075135 O
   0.7312346197972702   -0.1137453789175400    0.5199562874694834 O
   0.8585483316697888    0.6827619783785607    0.5964909516136347 O
   0.6748694518546516    0.7541862872319103    0.3787208043361096 O
   0.0357673907015053    0.6805919856942347    0.3957546017491843 O
   0.2172155896501668    0.2520569055874636    0.6119110289241786 O
   0.6170089182102123    0.1470608092051174    0.7945620555863100 O
   0.4825451096127618   -0.0156632485879130    0.8898605109948995 O
   0.7216747731000156    0.2377126383433079    0.7018789925492178 O
   0.1826647715923062    0.3516064742323422   -0.1623463540340666 O
   0.1493724593055519    0.4439454342075485   -0.0234690191075566 O
   0.3660453278238219    0.4918674141380303   -0.1472798532288777 O
   0.6524307212031685    0.6697173982421447    0.7415815691212297 O
   0.9789811126437032    0.4599113477577143    0.8976691062248744 O
   0.8309998727028607    0.6759565119600577    0.8374598593195121 O
   0.4753065651921833    0.7717332174378265    0.7745577553419127 O
   0.7810973829963822   -0.1451094682155681    0.7325366065883652 O
   0.9024708576824696   -0.0746562695635020    0.8193929435708341 O
